<?xml version="1.0"?> 
<VTKFile type="UnstructuredGrid"> 
   <UnstructuredGrid> 
      <Piece NumberOfPoints="6000"  NumberOfCells="1500">  
          <Points>  
             <DataArray type="Float64" NumberOfComponents="3" format="ascii">   
-500.0   0.0   0.0
-450.0   0.0   0.0
-500.0   30.0   0.0
-500.0   0.0   16.666666666666668
-450.0   0.0   0.0
-450.0   30.0   0.0
-500.0   30.0   0.0
-450.0   30.0   16.666666666666668
-500.0   0.0   16.666666666666668
-500.0   30.0   16.666666666666668
-450.0   30.0   16.666666666666668
-500.0   30.0   0.0
-500.0   0.0   16.666666666666668
-450.0   30.0   16.666666666666668
-450.0   0.0   16.666666666666668
-450.0   0.0   0.0
-500.0   0.0   16.666666666666668
-450.0   30.0   16.666666666666668
-450.0   0.0   0.0
-500.0   30.0   0.0
-500.0   0.0   16.666666666666668
-450.0   0.0   16.666666666666668
-500.0   30.0   16.666666666666668
-500.0   0.0   33.333333333333336
-450.0   0.0   16.666666666666668
-450.0   30.0   16.666666666666668
-500.0   30.0   16.666666666666668
-450.0   30.0   33.333333333333336
-500.0   0.0   33.333333333333336
-500.0   30.0   33.333333333333336
-450.0   30.0   33.333333333333336
-500.0   30.0   16.666666666666668
-500.0   0.0   33.333333333333336
-450.0   30.0   33.333333333333336
-450.0   0.0   33.333333333333336
-450.0   0.0   16.666666666666668
-500.0   0.0   33.333333333333336
-450.0   30.0   33.333333333333336
-450.0   0.0   16.666666666666668
-500.0   30.0   16.666666666666668
-500.0   0.0   33.333333333333336
-450.0   0.0   33.333333333333336
-500.0   30.0   33.333333333333336
-500.0   0.0   50.0
-450.0   0.0   33.333333333333336
-450.0   30.0   33.333333333333336
-500.0   30.0   33.333333333333336
-450.0   30.0   50.0
-500.0   0.0   50.0
-500.0   30.0   50.0
-450.0   30.0   50.0
-500.0   30.0   33.333333333333336
-500.0   0.0   50.0
-450.0   30.0   50.0
-450.0   0.0   50.0
-450.0   0.0   33.333333333333336
-500.0   0.0   50.0
-450.0   30.0   50.0
-450.0   0.0   33.333333333333336
-500.0   30.0   33.333333333333336
-500.0   30.0   0.0
-450.0   30.0   0.0
-500.0   60.0   0.0
-500.0   30.0   16.666666666666668
-450.0   30.0   0.0
-450.0   60.0   0.0
-500.0   60.0   0.0
-450.0   60.0   16.666666666666668
-500.0   30.0   16.666666666666668
-500.0   60.0   16.666666666666668
-450.0   60.0   16.666666666666668
-500.0   60.0   0.0
-500.0   30.0   16.666666666666668
-450.0   60.0   16.666666666666668
-450.0   30.0   16.666666666666668
-450.0   30.0   0.0
-500.0   30.0   16.666666666666668
-450.0   60.0   16.666666666666668
-450.0   30.0   0.0
-500.0   60.0   0.0
-500.0   30.0   16.666666666666668
-450.0   30.0   16.666666666666668
-500.0   60.0   16.666666666666668
-500.0   30.0   33.333333333333336
-450.0   30.0   16.666666666666668
-450.0   60.0   16.666666666666668
-500.0   60.0   16.666666666666668
-450.0   60.0   33.333333333333336
-500.0   30.0   33.333333333333336
-500.0   60.0   33.333333333333336
-450.0   60.0   33.333333333333336
-500.0   60.0   16.666666666666668
-500.0   30.0   33.333333333333336
-450.0   60.0   33.333333333333336
-450.0   30.0   33.333333333333336
-450.0   30.0   16.666666666666668
-500.0   30.0   33.333333333333336
-450.0   60.0   33.333333333333336
-450.0   30.0   16.666666666666668
-500.0   60.0   16.666666666666668
-500.0   30.0   33.333333333333336
-450.0   30.0   33.333333333333336
-500.0   60.0   33.333333333333336
-500.0   30.0   50.0
-450.0   30.0   33.333333333333336
-450.0   60.0   33.333333333333336
-500.0   60.0   33.333333333333336
-450.0   60.0   50.0
-500.0   30.0   50.0
-500.0   60.0   50.0
-450.0   60.0   50.0
-500.0   60.0   33.333333333333336
-500.0   30.0   50.0
-450.0   60.0   50.0
-450.0   30.0   50.0
-450.0   30.0   33.333333333333336
-500.0   30.0   50.0
-450.0   60.0   50.0
-450.0   30.0   33.333333333333336
-500.0   60.0   33.333333333333336
-500.0   60.0   0.0
-450.0   60.0   0.0
-500.0   90.0   0.0
-500.0   60.0   16.666666666666668
-450.0   60.0   0.0
-450.0   90.0   0.0
-500.0   90.0   0.0
-450.0   90.0   16.666666666666668
-500.0   60.0   16.666666666666668
-500.0   90.0   16.666666666666668
-450.0   90.0   16.666666666666668
-500.0   90.0   0.0
-500.0   60.0   16.666666666666668
-450.0   90.0   16.666666666666668
-450.0   60.0   16.666666666666668
-450.0   60.0   0.0
-500.0   60.0   16.666666666666668
-450.0   90.0   16.666666666666668
-450.0   60.0   0.0
-500.0   90.0   0.0
-500.0   60.0   16.666666666666668
-450.0   60.0   16.666666666666668
-500.0   90.0   16.666666666666668
-500.0   60.0   33.333333333333336
-450.0   60.0   16.666666666666668
-450.0   90.0   16.666666666666668
-500.0   90.0   16.666666666666668
-450.0   90.0   33.333333333333336
-500.0   60.0   33.333333333333336
-500.0   90.0   33.333333333333336
-450.0   90.0   33.333333333333336
-500.0   90.0   16.666666666666668
-500.0   60.0   33.333333333333336
-450.0   90.0   33.333333333333336
-450.0   60.0   33.333333333333336
-450.0   60.0   16.666666666666668
-500.0   60.0   33.333333333333336
-450.0   90.0   33.333333333333336
-450.0   60.0   16.666666666666668
-500.0   90.0   16.666666666666668
-500.0   60.0   33.333333333333336
-450.0   60.0   33.333333333333336
-500.0   90.0   33.333333333333336
-500.0   60.0   50.0
-450.0   60.0   33.333333333333336
-450.0   90.0   33.333333333333336
-500.0   90.0   33.333333333333336
-450.0   90.0   50.0
-500.0   60.0   50.0
-500.0   90.0   50.0
-450.0   90.0   50.0
-500.0   90.0   33.333333333333336
-500.0   60.0   50.0
-450.0   90.0   50.0
-450.0   60.0   50.0
-450.0   60.0   33.333333333333336
-500.0   60.0   50.0
-450.0   90.0   50.0
-450.0   60.0   33.333333333333336
-500.0   90.0   33.333333333333336
-500.0   90.0   0.0
-450.0   90.0   0.0
-500.0   120.0   0.0
-500.0   90.0   16.666666666666668
-450.0   90.0   0.0
-450.0   120.0   0.0
-500.0   120.0   0.0
-450.0   120.0   16.666666666666668
-500.0   90.0   16.666666666666668
-500.0   120.0   16.666666666666668
-450.0   120.0   16.666666666666668
-500.0   120.0   0.0
-500.0   90.0   16.666666666666668
-450.0   120.0   16.666666666666668
-450.0   90.0   16.666666666666668
-450.0   90.0   0.0
-500.0   90.0   16.666666666666668
-450.0   120.0   16.666666666666668
-450.0   90.0   0.0
-500.0   120.0   0.0
-500.0   90.0   16.666666666666668
-450.0   90.0   16.666666666666668
-500.0   120.0   16.666666666666668
-500.0   90.0   33.333333333333336
-450.0   90.0   16.666666666666668
-450.0   120.0   16.666666666666668
-500.0   120.0   16.666666666666668
-450.0   120.0   33.333333333333336
-500.0   90.0   33.333333333333336
-500.0   120.0   33.333333333333336
-450.0   120.0   33.333333333333336
-500.0   120.0   16.666666666666668
-500.0   90.0   33.333333333333336
-450.0   120.0   33.333333333333336
-450.0   90.0   33.333333333333336
-450.0   90.0   16.666666666666668
-500.0   90.0   33.333333333333336
-450.0   120.0   33.333333333333336
-450.0   90.0   16.666666666666668
-500.0   120.0   16.666666666666668
-500.0   90.0   33.333333333333336
-450.0   90.0   33.333333333333336
-500.0   120.0   33.333333333333336
-500.0   90.0   50.0
-450.0   90.0   33.333333333333336
-450.0   120.0   33.333333333333336
-500.0   120.0   33.333333333333336
-450.0   120.0   50.0
-500.0   90.0   50.0
-500.0   120.0   50.0
-450.0   120.0   50.0
-500.0   120.0   33.333333333333336
-500.0   90.0   50.0
-450.0   120.0   50.0
-450.0   90.0   50.0
-450.0   90.0   33.333333333333336
-500.0   90.0   50.0
-450.0   120.0   50.0
-450.0   90.0   33.333333333333336
-500.0   120.0   33.333333333333336
-500.0   120.0   0.0
-450.0   120.0   0.0
-500.0   150.0   0.0
-500.0   120.0   16.666666666666668
-450.0   120.0   0.0
-450.0   150.0   0.0
-500.0   150.0   0.0
-450.0   150.0   16.666666666666668
-500.0   120.0   16.666666666666668
-500.0   150.0   16.666666666666668
-450.0   150.0   16.666666666666668
-500.0   150.0   0.0
-500.0   120.0   16.666666666666668
-450.0   150.0   16.666666666666668
-450.0   120.0   16.666666666666668
-450.0   120.0   0.0
-500.0   120.0   16.666666666666668
-450.0   150.0   16.666666666666668
-450.0   120.0   0.0
-500.0   150.0   0.0
-500.0   120.0   16.666666666666668
-450.0   120.0   16.666666666666668
-500.0   150.0   16.666666666666668
-500.0   120.0   33.333333333333336
-450.0   120.0   16.666666666666668
-450.0   150.0   16.666666666666668
-500.0   150.0   16.666666666666668
-450.0   150.0   33.333333333333336
-500.0   120.0   33.333333333333336
-500.0   150.0   33.333333333333336
-450.0   150.0   33.333333333333336
-500.0   150.0   16.666666666666668
-500.0   120.0   33.333333333333336
-450.0   150.0   33.333333333333336
-450.0   120.0   33.333333333333336
-450.0   120.0   16.666666666666668
-500.0   120.0   33.333333333333336
-450.0   150.0   33.333333333333336
-450.0   120.0   16.666666666666668
-500.0   150.0   16.666666666666668
-500.0   120.0   33.333333333333336
-450.0   120.0   33.333333333333336
-500.0   150.0   33.333333333333336
-500.0   120.0   50.0
-450.0   120.0   33.333333333333336
-450.0   150.0   33.333333333333336
-500.0   150.0   33.333333333333336
-450.0   150.0   50.0
-500.0   120.0   50.0
-500.0   150.0   50.0
-450.0   150.0   50.0
-500.0   150.0   33.333333333333336
-500.0   120.0   50.0
-450.0   150.0   50.0
-450.0   120.0   50.0
-450.0   120.0   33.333333333333336
-500.0   120.0   50.0
-450.0   150.0   50.0
-450.0   120.0   33.333333333333336
-500.0   150.0   33.333333333333336
-450.0   0.0   0.0
-400.0   0.0   0.0
-450.0   30.0   0.0
-450.0   0.0   16.666666666666668
-400.0   0.0   0.0
-400.0   30.0   0.0
-450.0   30.0   0.0
-400.0   30.0   16.666666666666668
-450.0   0.0   16.666666666666668
-450.0   30.0   16.666666666666668
-400.0   30.0   16.666666666666668
-450.0   30.0   0.0
-450.0   0.0   16.666666666666668
-400.0   30.0   16.666666666666668
-400.0   0.0   16.666666666666668
-400.0   0.0   0.0
-450.0   0.0   16.666666666666668
-400.0   30.0   16.666666666666668
-400.0   0.0   0.0
-450.0   30.0   0.0
-450.0   0.0   16.666666666666668
-400.0   0.0   16.666666666666668
-450.0   30.0   16.666666666666668
-450.0   0.0   33.333333333333336
-400.0   0.0   16.666666666666668
-400.0   30.0   16.666666666666668
-450.0   30.0   16.666666666666668
-400.0   30.0   33.333333333333336
-450.0   0.0   33.333333333333336
-450.0   30.0   33.333333333333336
-400.0   30.0   33.333333333333336
-450.0   30.0   16.666666666666668
-450.0   0.0   33.333333333333336
-400.0   30.0   33.333333333333336
-400.0   0.0   33.333333333333336
-400.0   0.0   16.666666666666668
-450.0   0.0   33.333333333333336
-400.0   30.0   33.333333333333336
-400.0   0.0   16.666666666666668
-450.0   30.0   16.666666666666668
-450.0   0.0   33.333333333333336
-400.0   0.0   33.333333333333336
-450.0   30.0   33.333333333333336
-450.0   0.0   50.0
-400.0   0.0   33.333333333333336
-400.0   30.0   33.333333333333336
-450.0   30.0   33.333333333333336
-400.0   30.0   50.0
-450.0   0.0   50.0
-450.0   30.0   50.0
-400.0   30.0   50.0
-450.0   30.0   33.333333333333336
-450.0   0.0   50.0
-400.0   30.0   50.0
-400.0   0.0   50.0
-400.0   0.0   33.333333333333336
-450.0   0.0   50.0
-400.0   30.0   50.0
-400.0   0.0   33.333333333333336
-450.0   30.0   33.333333333333336
-450.0   30.0   0.0
-400.0   30.0   0.0
-450.0   60.0   0.0
-450.0   30.0   16.666666666666668
-400.0   30.0   0.0
-400.0   60.0   0.0
-450.0   60.0   0.0
-400.0   60.0   16.666666666666668
-450.0   30.0   16.666666666666668
-450.0   60.0   16.666666666666668
-400.0   60.0   16.666666666666668
-450.0   60.0   0.0
-450.0   30.0   16.666666666666668
-400.0   60.0   16.666666666666668
-400.0   30.0   16.666666666666668
-400.0   30.0   0.0
-450.0   30.0   16.666666666666668
-400.0   60.0   16.666666666666668
-400.0   30.0   0.0
-450.0   60.0   0.0
-450.0   30.0   16.666666666666668
-400.0   30.0   16.666666666666668
-450.0   60.0   16.666666666666668
-450.0   30.0   33.333333333333336
-400.0   30.0   16.666666666666668
-400.0   60.0   16.666666666666668
-450.0   60.0   16.666666666666668
-400.0   60.0   33.333333333333336
-450.0   30.0   33.333333333333336
-450.0   60.0   33.333333333333336
-400.0   60.0   33.333333333333336
-450.0   60.0   16.666666666666668
-450.0   30.0   33.333333333333336
-400.0   60.0   33.333333333333336
-400.0   30.0   33.333333333333336
-400.0   30.0   16.666666666666668
-450.0   30.0   33.333333333333336
-400.0   60.0   33.333333333333336
-400.0   30.0   16.666666666666668
-450.0   60.0   16.666666666666668
-450.0   30.0   33.333333333333336
-400.0   30.0   33.333333333333336
-450.0   60.0   33.333333333333336
-450.0   30.0   50.0
-400.0   30.0   33.333333333333336
-400.0   60.0   33.333333333333336
-450.0   60.0   33.333333333333336
-400.0   60.0   50.0
-450.0   30.0   50.0
-450.0   60.0   50.0
-400.0   60.0   50.0
-450.0   60.0   33.333333333333336
-450.0   30.0   50.0
-400.0   60.0   50.0
-400.0   30.0   50.0
-400.0   30.0   33.333333333333336
-450.0   30.0   50.0
-400.0   60.0   50.0
-400.0   30.0   33.333333333333336
-450.0   60.0   33.333333333333336
-450.0   60.0   0.0
-400.0   60.0   0.0
-450.0   90.0   0.0
-450.0   60.0   16.666666666666668
-400.0   60.0   0.0
-400.0   90.0   0.0
-450.0   90.0   0.0
-400.0   90.0   16.666666666666668
-450.0   60.0   16.666666666666668
-450.0   90.0   16.666666666666668
-400.0   90.0   16.666666666666668
-450.0   90.0   0.0
-450.0   60.0   16.666666666666668
-400.0   90.0   16.666666666666668
-400.0   60.0   16.666666666666668
-400.0   60.0   0.0
-450.0   60.0   16.666666666666668
-400.0   90.0   16.666666666666668
-400.0   60.0   0.0
-450.0   90.0   0.0
-450.0   60.0   16.666666666666668
-400.0   60.0   16.666666666666668
-450.0   90.0   16.666666666666668
-450.0   60.0   33.333333333333336
-400.0   60.0   16.666666666666668
-400.0   90.0   16.666666666666668
-450.0   90.0   16.666666666666668
-400.0   90.0   33.333333333333336
-450.0   60.0   33.333333333333336
-450.0   90.0   33.333333333333336
-400.0   90.0   33.333333333333336
-450.0   90.0   16.666666666666668
-450.0   60.0   33.333333333333336
-400.0   90.0   33.333333333333336
-400.0   60.0   33.333333333333336
-400.0   60.0   16.666666666666668
-450.0   60.0   33.333333333333336
-400.0   90.0   33.333333333333336
-400.0   60.0   16.666666666666668
-450.0   90.0   16.666666666666668
-450.0   60.0   33.333333333333336
-400.0   60.0   33.333333333333336
-450.0   90.0   33.333333333333336
-450.0   60.0   50.0
-400.0   60.0   33.333333333333336
-400.0   90.0   33.333333333333336
-450.0   90.0   33.333333333333336
-400.0   90.0   50.0
-450.0   60.0   50.0
-450.0   90.0   50.0
-400.0   90.0   50.0
-450.0   90.0   33.333333333333336
-450.0   60.0   50.0
-400.0   90.0   50.0
-400.0   60.0   50.0
-400.0   60.0   33.333333333333336
-450.0   60.0   50.0
-400.0   90.0   50.0
-400.0   60.0   33.333333333333336
-450.0   90.0   33.333333333333336
-450.0   90.0   0.0
-400.0   90.0   0.0
-450.0   120.0   0.0
-450.0   90.0   16.666666666666668
-400.0   90.0   0.0
-400.0   120.0   0.0
-450.0   120.0   0.0
-400.0   120.0   16.666666666666668
-450.0   90.0   16.666666666666668
-450.0   120.0   16.666666666666668
-400.0   120.0   16.666666666666668
-450.0   120.0   0.0
-450.0   90.0   16.666666666666668
-400.0   120.0   16.666666666666668
-400.0   90.0   16.666666666666668
-400.0   90.0   0.0
-450.0   90.0   16.666666666666668
-400.0   120.0   16.666666666666668
-400.0   90.0   0.0
-450.0   120.0   0.0
-450.0   90.0   16.666666666666668
-400.0   90.0   16.666666666666668
-450.0   120.0   16.666666666666668
-450.0   90.0   33.333333333333336
-400.0   90.0   16.666666666666668
-400.0   120.0   16.666666666666668
-450.0   120.0   16.666666666666668
-400.0   120.0   33.333333333333336
-450.0   90.0   33.333333333333336
-450.0   120.0   33.333333333333336
-400.0   120.0   33.333333333333336
-450.0   120.0   16.666666666666668
-450.0   90.0   33.333333333333336
-400.0   120.0   33.333333333333336
-400.0   90.0   33.333333333333336
-400.0   90.0   16.666666666666668
-450.0   90.0   33.333333333333336
-400.0   120.0   33.333333333333336
-400.0   90.0   16.666666666666668
-450.0   120.0   16.666666666666668
-450.0   90.0   33.333333333333336
-400.0   90.0   33.333333333333336
-450.0   120.0   33.333333333333336
-450.0   90.0   50.0
-400.0   90.0   33.333333333333336
-400.0   120.0   33.333333333333336
-450.0   120.0   33.333333333333336
-400.0   120.0   50.0
-450.0   90.0   50.0
-450.0   120.0   50.0
-400.0   120.0   50.0
-450.0   120.0   33.333333333333336
-450.0   90.0   50.0
-400.0   120.0   50.0
-400.0   90.0   50.0
-400.0   90.0   33.333333333333336
-450.0   90.0   50.0
-400.0   120.0   50.0
-400.0   90.0   33.333333333333336
-450.0   120.0   33.333333333333336
-450.0   120.0   0.0
-400.0   120.0   0.0
-450.0   150.0   0.0
-450.0   120.0   16.666666666666668
-400.0   120.0   0.0
-400.0   150.0   0.0
-450.0   150.0   0.0
-400.0   150.0   16.666666666666668
-450.0   120.0   16.666666666666668
-450.0   150.0   16.666666666666668
-400.0   150.0   16.666666666666668
-450.0   150.0   0.0
-450.0   120.0   16.666666666666668
-400.0   150.0   16.666666666666668
-400.0   120.0   16.666666666666668
-400.0   120.0   0.0
-450.0   120.0   16.666666666666668
-400.0   150.0   16.666666666666668
-400.0   120.0   0.0
-450.0   150.0   0.0
-450.0   120.0   16.666666666666668
-400.0   120.0   16.666666666666668
-450.0   150.0   16.666666666666668
-450.0   120.0   33.333333333333336
-400.0   120.0   16.666666666666668
-400.0   150.0   16.666666666666668
-450.0   150.0   16.666666666666668
-400.0   150.0   33.333333333333336
-450.0   120.0   33.333333333333336
-450.0   150.0   33.333333333333336
-400.0   150.0   33.333333333333336
-450.0   150.0   16.666666666666668
-450.0   120.0   33.333333333333336
-400.0   150.0   33.333333333333336
-400.0   120.0   33.333333333333336
-400.0   120.0   16.666666666666668
-450.0   120.0   33.333333333333336
-400.0   150.0   33.333333333333336
-400.0   120.0   16.666666666666668
-450.0   150.0   16.666666666666668
-450.0   120.0   33.333333333333336
-400.0   120.0   33.333333333333336
-450.0   150.0   33.333333333333336
-450.0   120.0   50.0
-400.0   120.0   33.333333333333336
-400.0   150.0   33.333333333333336
-450.0   150.0   33.333333333333336
-400.0   150.0   50.0
-450.0   120.0   50.0
-450.0   150.0   50.0
-400.0   150.0   50.0
-450.0   150.0   33.333333333333336
-450.0   120.0   50.0
-400.0   150.0   50.0
-400.0   120.0   50.0
-400.0   120.0   33.333333333333336
-450.0   120.0   50.0
-400.0   150.0   50.0
-400.0   120.0   33.333333333333336
-450.0   150.0   33.333333333333336
-400.0   0.0   0.0
-350.0   0.0   0.0
-400.0   30.0   0.0
-400.0   0.0   16.666666666666668
-350.0   0.0   0.0
-350.0   30.0   0.0
-400.0   30.0   0.0
-350.0   30.0   16.666666666666668
-400.0   0.0   16.666666666666668
-400.0   30.0   16.666666666666668
-350.0   30.0   16.666666666666668
-400.0   30.0   0.0
-400.0   0.0   16.666666666666668
-350.0   30.0   16.666666666666668
-350.0   0.0   16.666666666666668
-350.0   0.0   0.0
-400.0   0.0   16.666666666666668
-350.0   30.0   16.666666666666668
-350.0   0.0   0.0
-400.0   30.0   0.0
-400.0   0.0   16.666666666666668
-350.0   0.0   16.666666666666668
-400.0   30.0   16.666666666666668
-400.0   0.0   33.333333333333336
-350.0   0.0   16.666666666666668
-350.0   30.0   16.666666666666668
-400.0   30.0   16.666666666666668
-350.0   30.0   33.333333333333336
-400.0   0.0   33.333333333333336
-400.0   30.0   33.333333333333336
-350.0   30.0   33.333333333333336
-400.0   30.0   16.666666666666668
-400.0   0.0   33.333333333333336
-350.0   30.0   33.333333333333336
-350.0   0.0   33.333333333333336
-350.0   0.0   16.666666666666668
-400.0   0.0   33.333333333333336
-350.0   30.0   33.333333333333336
-350.0   0.0   16.666666666666668
-400.0   30.0   16.666666666666668
-400.0   0.0   33.333333333333336
-350.0   0.0   33.333333333333336
-400.0   30.0   33.333333333333336
-400.0   0.0   50.0
-350.0   0.0   33.333333333333336
-350.0   30.0   33.333333333333336
-400.0   30.0   33.333333333333336
-350.0   30.0   50.0
-400.0   0.0   50.0
-400.0   30.0   50.0
-350.0   30.0   50.0
-400.0   30.0   33.333333333333336
-400.0   0.0   50.0
-350.0   30.0   50.0
-350.0   0.0   50.0
-350.0   0.0   33.333333333333336
-400.0   0.0   50.0
-350.0   30.0   50.0
-350.0   0.0   33.333333333333336
-400.0   30.0   33.333333333333336
-400.0   30.0   0.0
-350.0   30.0   0.0
-400.0   60.0   0.0
-400.0   30.0   16.666666666666668
-350.0   30.0   0.0
-350.0   60.0   0.0
-400.0   60.0   0.0
-350.0   60.0   16.666666666666668
-400.0   30.0   16.666666666666668
-400.0   60.0   16.666666666666668
-350.0   60.0   16.666666666666668
-400.0   60.0   0.0
-400.0   30.0   16.666666666666668
-350.0   60.0   16.666666666666668
-350.0   30.0   16.666666666666668
-350.0   30.0   0.0
-400.0   30.0   16.666666666666668
-350.0   60.0   16.666666666666668
-350.0   30.0   0.0
-400.0   60.0   0.0
-400.0   30.0   16.666666666666668
-350.0   30.0   16.666666666666668
-400.0   60.0   16.666666666666668
-400.0   30.0   33.333333333333336
-350.0   30.0   16.666666666666668
-350.0   60.0   16.666666666666668
-400.0   60.0   16.666666666666668
-350.0   60.0   33.333333333333336
-400.0   30.0   33.333333333333336
-400.0   60.0   33.333333333333336
-350.0   60.0   33.333333333333336
-400.0   60.0   16.666666666666668
-400.0   30.0   33.333333333333336
-350.0   60.0   33.333333333333336
-350.0   30.0   33.333333333333336
-350.0   30.0   16.666666666666668
-400.0   30.0   33.333333333333336
-350.0   60.0   33.333333333333336
-350.0   30.0   16.666666666666668
-400.0   60.0   16.666666666666668
-400.0   30.0   33.333333333333336
-350.0   30.0   33.333333333333336
-400.0   60.0   33.333333333333336
-400.0   30.0   50.0
-350.0   30.0   33.333333333333336
-350.0   60.0   33.333333333333336
-400.0   60.0   33.333333333333336
-350.0   60.0   50.0
-400.0   30.0   50.0
-400.0   60.0   50.0
-350.0   60.0   50.0
-400.0   60.0   33.333333333333336
-400.0   30.0   50.0
-350.0   60.0   50.0
-350.0   30.0   50.0
-350.0   30.0   33.333333333333336
-400.0   30.0   50.0
-350.0   60.0   50.0
-350.0   30.0   33.333333333333336
-400.0   60.0   33.333333333333336
-400.0   60.0   0.0
-350.0   60.0   0.0
-400.0   90.0   0.0
-400.0   60.0   16.666666666666668
-350.0   60.0   0.0
-350.0   90.0   0.0
-400.0   90.0   0.0
-350.0   90.0   16.666666666666668
-400.0   60.0   16.666666666666668
-400.0   90.0   16.666666666666668
-350.0   90.0   16.666666666666668
-400.0   90.0   0.0
-400.0   60.0   16.666666666666668
-350.0   90.0   16.666666666666668
-350.0   60.0   16.666666666666668
-350.0   60.0   0.0
-400.0   60.0   16.666666666666668
-350.0   90.0   16.666666666666668
-350.0   60.0   0.0
-400.0   90.0   0.0
-400.0   60.0   16.666666666666668
-350.0   60.0   16.666666666666668
-400.0   90.0   16.666666666666668
-400.0   60.0   33.333333333333336
-350.0   60.0   16.666666666666668
-350.0   90.0   16.666666666666668
-400.0   90.0   16.666666666666668
-350.0   90.0   33.333333333333336
-400.0   60.0   33.333333333333336
-400.0   90.0   33.333333333333336
-350.0   90.0   33.333333333333336
-400.0   90.0   16.666666666666668
-400.0   60.0   33.333333333333336
-350.0   90.0   33.333333333333336
-350.0   60.0   33.333333333333336
-350.0   60.0   16.666666666666668
-400.0   60.0   33.333333333333336
-350.0   90.0   33.333333333333336
-350.0   60.0   16.666666666666668
-400.0   90.0   16.666666666666668
-400.0   60.0   33.333333333333336
-350.0   60.0   33.333333333333336
-400.0   90.0   33.333333333333336
-400.0   60.0   50.0
-350.0   60.0   33.333333333333336
-350.0   90.0   33.333333333333336
-400.0   90.0   33.333333333333336
-350.0   90.0   50.0
-400.0   60.0   50.0
-400.0   90.0   50.0
-350.0   90.0   50.0
-400.0   90.0   33.333333333333336
-400.0   60.0   50.0
-350.0   90.0   50.0
-350.0   60.0   50.0
-350.0   60.0   33.333333333333336
-400.0   60.0   50.0
-350.0   90.0   50.0
-350.0   60.0   33.333333333333336
-400.0   90.0   33.333333333333336
-400.0   90.0   0.0
-350.0   90.0   0.0
-400.0   120.0   0.0
-400.0   90.0   16.666666666666668
-350.0   90.0   0.0
-350.0   120.0   0.0
-400.0   120.0   0.0
-350.0   120.0   16.666666666666668
-400.0   90.0   16.666666666666668
-400.0   120.0   16.666666666666668
-350.0   120.0   16.666666666666668
-400.0   120.0   0.0
-400.0   90.0   16.666666666666668
-350.0   120.0   16.666666666666668
-350.0   90.0   16.666666666666668
-350.0   90.0   0.0
-400.0   90.0   16.666666666666668
-350.0   120.0   16.666666666666668
-350.0   90.0   0.0
-400.0   120.0   0.0
-400.0   90.0   16.666666666666668
-350.0   90.0   16.666666666666668
-400.0   120.0   16.666666666666668
-400.0   90.0   33.333333333333336
-350.0   90.0   16.666666666666668
-350.0   120.0   16.666666666666668
-400.0   120.0   16.666666666666668
-350.0   120.0   33.333333333333336
-400.0   90.0   33.333333333333336
-400.0   120.0   33.333333333333336
-350.0   120.0   33.333333333333336
-400.0   120.0   16.666666666666668
-400.0   90.0   33.333333333333336
-350.0   120.0   33.333333333333336
-350.0   90.0   33.333333333333336
-350.0   90.0   16.666666666666668
-400.0   90.0   33.333333333333336
-350.0   120.0   33.333333333333336
-350.0   90.0   16.666666666666668
-400.0   120.0   16.666666666666668
-400.0   90.0   33.333333333333336
-350.0   90.0   33.333333333333336
-400.0   120.0   33.333333333333336
-400.0   90.0   50.0
-350.0   90.0   33.333333333333336
-350.0   120.0   33.333333333333336
-400.0   120.0   33.333333333333336
-350.0   120.0   50.0
-400.0   90.0   50.0
-400.0   120.0   50.0
-350.0   120.0   50.0
-400.0   120.0   33.333333333333336
-400.0   90.0   50.0
-350.0   120.0   50.0
-350.0   90.0   50.0
-350.0   90.0   33.333333333333336
-400.0   90.0   50.0
-350.0   120.0   50.0
-350.0   90.0   33.333333333333336
-400.0   120.0   33.333333333333336
-400.0   120.0   0.0
-350.0   120.0   0.0
-400.0   150.0   0.0
-400.0   120.0   16.666666666666668
-350.0   120.0   0.0
-350.0   150.0   0.0
-400.0   150.0   0.0
-350.0   150.0   16.666666666666668
-400.0   120.0   16.666666666666668
-400.0   150.0   16.666666666666668
-350.0   150.0   16.666666666666668
-400.0   150.0   0.0
-400.0   120.0   16.666666666666668
-350.0   150.0   16.666666666666668
-350.0   120.0   16.666666666666668
-350.0   120.0   0.0
-400.0   120.0   16.666666666666668
-350.0   150.0   16.666666666666668
-350.0   120.0   0.0
-400.0   150.0   0.0
-400.0   120.0   16.666666666666668
-350.0   120.0   16.666666666666668
-400.0   150.0   16.666666666666668
-400.0   120.0   33.333333333333336
-350.0   120.0   16.666666666666668
-350.0   150.0   16.666666666666668
-400.0   150.0   16.666666666666668
-350.0   150.0   33.333333333333336
-400.0   120.0   33.333333333333336
-400.0   150.0   33.333333333333336
-350.0   150.0   33.333333333333336
-400.0   150.0   16.666666666666668
-400.0   120.0   33.333333333333336
-350.0   150.0   33.333333333333336
-350.0   120.0   33.333333333333336
-350.0   120.0   16.666666666666668
-400.0   120.0   33.333333333333336
-350.0   150.0   33.333333333333336
-350.0   120.0   16.666666666666668
-400.0   150.0   16.666666666666668
-400.0   120.0   33.333333333333336
-350.0   120.0   33.333333333333336
-400.0   150.0   33.333333333333336
-400.0   120.0   50.0
-350.0   120.0   33.333333333333336
-350.0   150.0   33.333333333333336
-400.0   150.0   33.333333333333336
-350.0   150.0   50.0
-400.0   120.0   50.0
-400.0   150.0   50.0
-350.0   150.0   50.0
-400.0   150.0   33.333333333333336
-400.0   120.0   50.0
-350.0   150.0   50.0
-350.0   120.0   50.0
-350.0   120.0   33.333333333333336
-400.0   120.0   50.0
-350.0   150.0   50.0
-350.0   120.0   33.333333333333336
-400.0   150.0   33.333333333333336
-350.0   0.0   0.0
-300.0   0.0   0.0
-350.0   30.0   0.0
-350.0   0.0   16.666666666666668
-300.0   0.0   0.0
-300.0   30.0   0.0
-350.0   30.0   0.0
-300.0   30.0   16.666666666666668
-350.0   0.0   16.666666666666668
-350.0   30.0   16.666666666666668
-300.0   30.0   16.666666666666668
-350.0   30.0   0.0
-350.0   0.0   16.666666666666668
-300.0   30.0   16.666666666666668
-300.0   0.0   16.666666666666668
-300.0   0.0   0.0
-350.0   0.0   16.666666666666668
-300.0   30.0   16.666666666666668
-300.0   0.0   0.0
-350.0   30.0   0.0
-350.0   0.0   16.666666666666668
-300.0   0.0   16.666666666666668
-350.0   30.0   16.666666666666668
-350.0   0.0   33.333333333333336
-300.0   0.0   16.666666666666668
-300.0   30.0   16.666666666666668
-350.0   30.0   16.666666666666668
-300.0   30.0   33.333333333333336
-350.0   0.0   33.333333333333336
-350.0   30.0   33.333333333333336
-300.0   30.0   33.333333333333336
-350.0   30.0   16.666666666666668
-350.0   0.0   33.333333333333336
-300.0   30.0   33.333333333333336
-300.0   0.0   33.333333333333336
-300.0   0.0   16.666666666666668
-350.0   0.0   33.333333333333336
-300.0   30.0   33.333333333333336
-300.0   0.0   16.666666666666668
-350.0   30.0   16.666666666666668
-350.0   0.0   33.333333333333336
-300.0   0.0   33.333333333333336
-350.0   30.0   33.333333333333336
-350.0   0.0   50.0
-300.0   0.0   33.333333333333336
-300.0   30.0   33.333333333333336
-350.0   30.0   33.333333333333336
-300.0   30.0   50.0
-350.0   0.0   50.0
-350.0   30.0   50.0
-300.0   30.0   50.0
-350.0   30.0   33.333333333333336
-350.0   0.0   50.0
-300.0   30.0   50.0
-300.0   0.0   50.0
-300.0   0.0   33.333333333333336
-350.0   0.0   50.0
-300.0   30.0   50.0
-300.0   0.0   33.333333333333336
-350.0   30.0   33.333333333333336
-350.0   30.0   0.0
-300.0   30.0   0.0
-350.0   60.0   0.0
-350.0   30.0   16.666666666666668
-300.0   30.0   0.0
-300.0   60.0   0.0
-350.0   60.0   0.0
-300.0   60.0   16.666666666666668
-350.0   30.0   16.666666666666668
-350.0   60.0   16.666666666666668
-300.0   60.0   16.666666666666668
-350.0   60.0   0.0
-350.0   30.0   16.666666666666668
-300.0   60.0   16.666666666666668
-300.0   30.0   16.666666666666668
-300.0   30.0   0.0
-350.0   30.0   16.666666666666668
-300.0   60.0   16.666666666666668
-300.0   30.0   0.0
-350.0   60.0   0.0
-350.0   30.0   16.666666666666668
-300.0   30.0   16.666666666666668
-350.0   60.0   16.666666666666668
-350.0   30.0   33.333333333333336
-300.0   30.0   16.666666666666668
-300.0   60.0   16.666666666666668
-350.0   60.0   16.666666666666668
-300.0   60.0   33.333333333333336
-350.0   30.0   33.333333333333336
-350.0   60.0   33.333333333333336
-300.0   60.0   33.333333333333336
-350.0   60.0   16.666666666666668
-350.0   30.0   33.333333333333336
-300.0   60.0   33.333333333333336
-300.0   30.0   33.333333333333336
-300.0   30.0   16.666666666666668
-350.0   30.0   33.333333333333336
-300.0   60.0   33.333333333333336
-300.0   30.0   16.666666666666668
-350.0   60.0   16.666666666666668
-350.0   30.0   33.333333333333336
-300.0   30.0   33.333333333333336
-350.0   60.0   33.333333333333336
-350.0   30.0   50.0
-300.0   30.0   33.333333333333336
-300.0   60.0   33.333333333333336
-350.0   60.0   33.333333333333336
-300.0   60.0   50.0
-350.0   30.0   50.0
-350.0   60.0   50.0
-300.0   60.0   50.0
-350.0   60.0   33.333333333333336
-350.0   30.0   50.0
-300.0   60.0   50.0
-300.0   30.0   50.0
-300.0   30.0   33.333333333333336
-350.0   30.0   50.0
-300.0   60.0   50.0
-300.0   30.0   33.333333333333336
-350.0   60.0   33.333333333333336
-350.0   60.0   0.0
-300.0   60.0   0.0
-350.0   90.0   0.0
-350.0   60.0   16.666666666666668
-300.0   60.0   0.0
-300.0   90.0   0.0
-350.0   90.0   0.0
-300.0   90.0   16.666666666666668
-350.0   60.0   16.666666666666668
-350.0   90.0   16.666666666666668
-300.0   90.0   16.666666666666668
-350.0   90.0   0.0
-350.0   60.0   16.666666666666668
-300.0   90.0   16.666666666666668
-300.0   60.0   16.666666666666668
-300.0   60.0   0.0
-350.0   60.0   16.666666666666668
-300.0   90.0   16.666666666666668
-300.0   60.0   0.0
-350.0   90.0   0.0
-350.0   60.0   16.666666666666668
-300.0   60.0   16.666666666666668
-350.0   90.0   16.666666666666668
-350.0   60.0   33.333333333333336
-300.0   60.0   16.666666666666668
-300.0   90.0   16.666666666666668
-350.0   90.0   16.666666666666668
-300.0   90.0   33.333333333333336
-350.0   60.0   33.333333333333336
-350.0   90.0   33.333333333333336
-300.0   90.0   33.333333333333336
-350.0   90.0   16.666666666666668
-350.0   60.0   33.333333333333336
-300.0   90.0   33.333333333333336
-300.0   60.0   33.333333333333336
-300.0   60.0   16.666666666666668
-350.0   60.0   33.333333333333336
-300.0   90.0   33.333333333333336
-300.0   60.0   16.666666666666668
-350.0   90.0   16.666666666666668
-350.0   60.0   33.333333333333336
-300.0   60.0   33.333333333333336
-350.0   90.0   33.333333333333336
-350.0   60.0   50.0
-300.0   60.0   33.333333333333336
-300.0   90.0   33.333333333333336
-350.0   90.0   33.333333333333336
-300.0   90.0   50.0
-350.0   60.0   50.0
-350.0   90.0   50.0
-300.0   90.0   50.0
-350.0   90.0   33.333333333333336
-350.0   60.0   50.0
-300.0   90.0   50.0
-300.0   60.0   50.0
-300.0   60.0   33.333333333333336
-350.0   60.0   50.0
-300.0   90.0   50.0
-300.0   60.0   33.333333333333336
-350.0   90.0   33.333333333333336
-350.0   90.0   0.0
-300.0   90.0   0.0
-350.0   120.0   0.0
-350.0   90.0   16.666666666666668
-300.0   90.0   0.0
-300.0   120.0   0.0
-350.0   120.0   0.0
-300.0   120.0   16.666666666666668
-350.0   90.0   16.666666666666668
-350.0   120.0   16.666666666666668
-300.0   120.0   16.666666666666668
-350.0   120.0   0.0
-350.0   90.0   16.666666666666668
-300.0   120.0   16.666666666666668
-300.0   90.0   16.666666666666668
-300.0   90.0   0.0
-350.0   90.0   16.666666666666668
-300.0   120.0   16.666666666666668
-300.0   90.0   0.0
-350.0   120.0   0.0
-350.0   90.0   16.666666666666668
-300.0   90.0   16.666666666666668
-350.0   120.0   16.666666666666668
-350.0   90.0   33.333333333333336
-300.0   90.0   16.666666666666668
-300.0   120.0   16.666666666666668
-350.0   120.0   16.666666666666668
-300.0   120.0   33.333333333333336
-350.0   90.0   33.333333333333336
-350.0   120.0   33.333333333333336
-300.0   120.0   33.333333333333336
-350.0   120.0   16.666666666666668
-350.0   90.0   33.333333333333336
-300.0   120.0   33.333333333333336
-300.0   90.0   33.333333333333336
-300.0   90.0   16.666666666666668
-350.0   90.0   33.333333333333336
-300.0   120.0   33.333333333333336
-300.0   90.0   16.666666666666668
-350.0   120.0   16.666666666666668
-350.0   90.0   33.333333333333336
-300.0   90.0   33.333333333333336
-350.0   120.0   33.333333333333336
-350.0   90.0   50.0
-300.0   90.0   33.333333333333336
-300.0   120.0   33.333333333333336
-350.0   120.0   33.333333333333336
-300.0   120.0   50.0
-350.0   90.0   50.0
-350.0   120.0   50.0
-300.0   120.0   50.0
-350.0   120.0   33.333333333333336
-350.0   90.0   50.0
-300.0   120.0   50.0
-300.0   90.0   50.0
-300.0   90.0   33.333333333333336
-350.0   90.0   50.0
-300.0   120.0   50.0
-300.0   90.0   33.333333333333336
-350.0   120.0   33.333333333333336
-350.0   120.0   0.0
-300.0   120.0   0.0
-350.0   150.0   0.0
-350.0   120.0   16.666666666666668
-300.0   120.0   0.0
-300.0   150.0   0.0
-350.0   150.0   0.0
-300.0   150.0   16.666666666666668
-350.0   120.0   16.666666666666668
-350.0   150.0   16.666666666666668
-300.0   150.0   16.666666666666668
-350.0   150.0   0.0
-350.0   120.0   16.666666666666668
-300.0   150.0   16.666666666666668
-300.0   120.0   16.666666666666668
-300.0   120.0   0.0
-350.0   120.0   16.666666666666668
-300.0   150.0   16.666666666666668
-300.0   120.0   0.0
-350.0   150.0   0.0
-350.0   120.0   16.666666666666668
-300.0   120.0   16.666666666666668
-350.0   150.0   16.666666666666668
-350.0   120.0   33.333333333333336
-300.0   120.0   16.666666666666668
-300.0   150.0   16.666666666666668
-350.0   150.0   16.666666666666668
-300.0   150.0   33.333333333333336
-350.0   120.0   33.333333333333336
-350.0   150.0   33.333333333333336
-300.0   150.0   33.333333333333336
-350.0   150.0   16.666666666666668
-350.0   120.0   33.333333333333336
-300.0   150.0   33.333333333333336
-300.0   120.0   33.333333333333336
-300.0   120.0   16.666666666666668
-350.0   120.0   33.333333333333336
-300.0   150.0   33.333333333333336
-300.0   120.0   16.666666666666668
-350.0   150.0   16.666666666666668
-350.0   120.0   33.333333333333336
-300.0   120.0   33.333333333333336
-350.0   150.0   33.333333333333336
-350.0   120.0   50.0
-300.0   120.0   33.333333333333336
-300.0   150.0   33.333333333333336
-350.0   150.0   33.333333333333336
-300.0   150.0   50.0
-350.0   120.0   50.0
-350.0   150.0   50.0
-300.0   150.0   50.0
-350.0   150.0   33.333333333333336
-350.0   120.0   50.0
-300.0   150.0   50.0
-300.0   120.0   50.0
-300.0   120.0   33.333333333333336
-350.0   120.0   50.0
-300.0   150.0   50.0
-300.0   120.0   33.333333333333336
-350.0   150.0   33.333333333333336
-300.0   0.0   0.0
-250.0   0.0   0.0
-300.0   30.0   0.0
-300.0   0.0   16.666666666666668
-250.0   0.0   0.0
-250.0   30.0   0.0
-300.0   30.0   0.0
-250.0   30.0   16.666666666666668
-300.0   0.0   16.666666666666668
-300.0   30.0   16.666666666666668
-250.0   30.0   16.666666666666668
-300.0   30.0   0.0
-300.0   0.0   16.666666666666668
-250.0   30.0   16.666666666666668
-250.0   0.0   16.666666666666668
-250.0   0.0   0.0
-300.0   0.0   16.666666666666668
-250.0   30.0   16.666666666666668
-250.0   0.0   0.0
-300.0   30.0   0.0
-300.0   0.0   16.666666666666668
-250.0   0.0   16.666666666666668
-300.0   30.0   16.666666666666668
-300.0   0.0   33.333333333333336
-250.0   0.0   16.666666666666668
-250.0   30.0   16.666666666666668
-300.0   30.0   16.666666666666668
-250.0   30.0   33.333333333333336
-300.0   0.0   33.333333333333336
-300.0   30.0   33.333333333333336
-250.0   30.0   33.333333333333336
-300.0   30.0   16.666666666666668
-300.0   0.0   33.333333333333336
-250.0   30.0   33.333333333333336
-250.0   0.0   33.333333333333336
-250.0   0.0   16.666666666666668
-300.0   0.0   33.333333333333336
-250.0   30.0   33.333333333333336
-250.0   0.0   16.666666666666668
-300.0   30.0   16.666666666666668
-300.0   0.0   33.333333333333336
-250.0   0.0   33.333333333333336
-300.0   30.0   33.333333333333336
-300.0   0.0   50.0
-250.0   0.0   33.333333333333336
-250.0   30.0   33.333333333333336
-300.0   30.0   33.333333333333336
-250.0   30.0   50.0
-300.0   0.0   50.0
-300.0   30.0   50.0
-250.0   30.0   50.0
-300.0   30.0   33.333333333333336
-300.0   0.0   50.0
-250.0   30.0   50.0
-250.0   0.0   50.0
-250.0   0.0   33.333333333333336
-300.0   0.0   50.0
-250.0   30.0   50.0
-250.0   0.0   33.333333333333336
-300.0   30.0   33.333333333333336
-300.0   30.0   0.0
-250.0   30.0   0.0
-300.0   60.0   0.0
-300.0   30.0   16.666666666666668
-250.0   30.0   0.0
-250.0   60.0   0.0
-300.0   60.0   0.0
-250.0   60.0   16.666666666666668
-300.0   30.0   16.666666666666668
-300.0   60.0   16.666666666666668
-250.0   60.0   16.666666666666668
-300.0   60.0   0.0
-300.0   30.0   16.666666666666668
-250.0   60.0   16.666666666666668
-250.0   30.0   16.666666666666668
-250.0   30.0   0.0
-300.0   30.0   16.666666666666668
-250.0   60.0   16.666666666666668
-250.0   30.0   0.0
-300.0   60.0   0.0
-300.0   30.0   16.666666666666668
-250.0   30.0   16.666666666666668
-300.0   60.0   16.666666666666668
-300.0   30.0   33.333333333333336
-250.0   30.0   16.666666666666668
-250.0   60.0   16.666666666666668
-300.0   60.0   16.666666666666668
-250.0   60.0   33.333333333333336
-300.0   30.0   33.333333333333336
-300.0   60.0   33.333333333333336
-250.0   60.0   33.333333333333336
-300.0   60.0   16.666666666666668
-300.0   30.0   33.333333333333336
-250.0   60.0   33.333333333333336
-250.0   30.0   33.333333333333336
-250.0   30.0   16.666666666666668
-300.0   30.0   33.333333333333336
-250.0   60.0   33.333333333333336
-250.0   30.0   16.666666666666668
-300.0   60.0   16.666666666666668
-300.0   30.0   33.333333333333336
-250.0   30.0   33.333333333333336
-300.0   60.0   33.333333333333336
-300.0   30.0   50.0
-250.0   30.0   33.333333333333336
-250.0   60.0   33.333333333333336
-300.0   60.0   33.333333333333336
-250.0   60.0   50.0
-300.0   30.0   50.0
-300.0   60.0   50.0
-250.0   60.0   50.0
-300.0   60.0   33.333333333333336
-300.0   30.0   50.0
-250.0   60.0   50.0
-250.0   30.0   50.0
-250.0   30.0   33.333333333333336
-300.0   30.0   50.0
-250.0   60.0   50.0
-250.0   30.0   33.333333333333336
-300.0   60.0   33.333333333333336
-300.0   60.0   0.0
-250.0   60.0   0.0
-300.0   90.0   0.0
-300.0   60.0   16.666666666666668
-250.0   60.0   0.0
-250.0   90.0   0.0
-300.0   90.0   0.0
-250.0   90.0   16.666666666666668
-300.0   60.0   16.666666666666668
-300.0   90.0   16.666666666666668
-250.0   90.0   16.666666666666668
-300.0   90.0   0.0
-300.0   60.0   16.666666666666668
-250.0   90.0   16.666666666666668
-250.0   60.0   16.666666666666668
-250.0   60.0   0.0
-300.0   60.0   16.666666666666668
-250.0   90.0   16.666666666666668
-250.0   60.0   0.0
-300.0   90.0   0.0
-300.0   60.0   16.666666666666668
-250.0   60.0   16.666666666666668
-300.0   90.0   16.666666666666668
-300.0   60.0   33.333333333333336
-250.0   60.0   16.666666666666668
-250.0   90.0   16.666666666666668
-300.0   90.0   16.666666666666668
-250.0   90.0   33.333333333333336
-300.0   60.0   33.333333333333336
-300.0   90.0   33.333333333333336
-250.0   90.0   33.333333333333336
-300.0   90.0   16.666666666666668
-300.0   60.0   33.333333333333336
-250.0   90.0   33.333333333333336
-250.0   60.0   33.333333333333336
-250.0   60.0   16.666666666666668
-300.0   60.0   33.333333333333336
-250.0   90.0   33.333333333333336
-250.0   60.0   16.666666666666668
-300.0   90.0   16.666666666666668
-300.0   60.0   33.333333333333336
-250.0   60.0   33.333333333333336
-300.0   90.0   33.333333333333336
-300.0   60.0   50.0
-250.0   60.0   33.333333333333336
-250.0   90.0   33.333333333333336
-300.0   90.0   33.333333333333336
-250.0   90.0   50.0
-300.0   60.0   50.0
-300.0   90.0   50.0
-250.0   90.0   50.0
-300.0   90.0   33.333333333333336
-300.0   60.0   50.0
-250.0   90.0   50.0
-250.0   60.0   50.0
-250.0   60.0   33.333333333333336
-300.0   60.0   50.0
-250.0   90.0   50.0
-250.0   60.0   33.333333333333336
-300.0   90.0   33.333333333333336
-300.0   90.0   0.0
-250.0   90.0   0.0
-300.0   120.0   0.0
-300.0   90.0   16.666666666666668
-250.0   90.0   0.0
-250.0   120.0   0.0
-300.0   120.0   0.0
-250.0   120.0   16.666666666666668
-300.0   90.0   16.666666666666668
-300.0   120.0   16.666666666666668
-250.0   120.0   16.666666666666668
-300.0   120.0   0.0
-300.0   90.0   16.666666666666668
-250.0   120.0   16.666666666666668
-250.0   90.0   16.666666666666668
-250.0   90.0   0.0
-300.0   90.0   16.666666666666668
-250.0   120.0   16.666666666666668
-250.0   90.0   0.0
-300.0   120.0   0.0
-300.0   90.0   16.666666666666668
-250.0   90.0   16.666666666666668
-300.0   120.0   16.666666666666668
-300.0   90.0   33.333333333333336
-250.0   90.0   16.666666666666668
-250.0   120.0   16.666666666666668
-300.0   120.0   16.666666666666668
-250.0   120.0   33.333333333333336
-300.0   90.0   33.333333333333336
-300.0   120.0   33.333333333333336
-250.0   120.0   33.333333333333336
-300.0   120.0   16.666666666666668
-300.0   90.0   33.333333333333336
-250.0   120.0   33.333333333333336
-250.0   90.0   33.333333333333336
-250.0   90.0   16.666666666666668
-300.0   90.0   33.333333333333336
-250.0   120.0   33.333333333333336
-250.0   90.0   16.666666666666668
-300.0   120.0   16.666666666666668
-300.0   90.0   33.333333333333336
-250.0   90.0   33.333333333333336
-300.0   120.0   33.333333333333336
-300.0   90.0   50.0
-250.0   90.0   33.333333333333336
-250.0   120.0   33.333333333333336
-300.0   120.0   33.333333333333336
-250.0   120.0   50.0
-300.0   90.0   50.0
-300.0   120.0   50.0
-250.0   120.0   50.0
-300.0   120.0   33.333333333333336
-300.0   90.0   50.0
-250.0   120.0   50.0
-250.0   90.0   50.0
-250.0   90.0   33.333333333333336
-300.0   90.0   50.0
-250.0   120.0   50.0
-250.0   90.0   33.333333333333336
-300.0   120.0   33.333333333333336
-300.0   120.0   0.0
-250.0   120.0   0.0
-300.0   150.0   0.0
-300.0   120.0   16.666666666666668
-250.0   120.0   0.0
-250.0   150.0   0.0
-300.0   150.0   0.0
-250.0   150.0   16.666666666666668
-300.0   120.0   16.666666666666668
-300.0   150.0   16.666666666666668
-250.0   150.0   16.666666666666668
-300.0   150.0   0.0
-300.0   120.0   16.666666666666668
-250.0   150.0   16.666666666666668
-250.0   120.0   16.666666666666668
-250.0   120.0   0.0
-300.0   120.0   16.666666666666668
-250.0   150.0   16.666666666666668
-250.0   120.0   0.0
-300.0   150.0   0.0
-300.0   120.0   16.666666666666668
-250.0   120.0   16.666666666666668
-300.0   150.0   16.666666666666668
-300.0   120.0   33.333333333333336
-250.0   120.0   16.666666666666668
-250.0   150.0   16.666666666666668
-300.0   150.0   16.666666666666668
-250.0   150.0   33.333333333333336
-300.0   120.0   33.333333333333336
-300.0   150.0   33.333333333333336
-250.0   150.0   33.333333333333336
-300.0   150.0   16.666666666666668
-300.0   120.0   33.333333333333336
-250.0   150.0   33.333333333333336
-250.0   120.0   33.333333333333336
-250.0   120.0   16.666666666666668
-300.0   120.0   33.333333333333336
-250.0   150.0   33.333333333333336
-250.0   120.0   16.666666666666668
-300.0   150.0   16.666666666666668
-300.0   120.0   33.333333333333336
-250.0   120.0   33.333333333333336
-300.0   150.0   33.333333333333336
-300.0   120.0   50.0
-250.0   120.0   33.333333333333336
-250.0   150.0   33.333333333333336
-300.0   150.0   33.333333333333336
-250.0   150.0   50.0
-300.0   120.0   50.0
-300.0   150.0   50.0
-250.0   150.0   50.0
-300.0   150.0   33.333333333333336
-300.0   120.0   50.0
-250.0   150.0   50.0
-250.0   120.0   50.0
-250.0   120.0   33.333333333333336
-300.0   120.0   50.0
-250.0   150.0   50.0
-250.0   120.0   33.333333333333336
-300.0   150.0   33.333333333333336
-250.0   0.0   0.0
-200.0   0.0   0.0
-250.0   30.0   0.0
-250.0   0.0   16.666666666666668
-200.0   0.0   0.0
-200.0   30.0   0.0
-250.0   30.0   0.0
-200.0   30.0   16.666666666666668
-250.0   0.0   16.666666666666668
-250.0   30.0   16.666666666666668
-200.0   30.0   16.666666666666668
-250.0   30.0   0.0
-250.0   0.0   16.666666666666668
-200.0   30.0   16.666666666666668
-200.0   0.0   16.666666666666668
-200.0   0.0   0.0
-250.0   0.0   16.666666666666668
-200.0   30.0   16.666666666666668
-200.0   0.0   0.0
-250.0   30.0   0.0
-250.0   0.0   16.666666666666668
-200.0   0.0   16.666666666666668
-250.0   30.0   16.666666666666668
-250.0   0.0   33.333333333333336
-200.0   0.0   16.666666666666668
-200.0   30.0   16.666666666666668
-250.0   30.0   16.666666666666668
-200.0   30.0   33.333333333333336
-250.0   0.0   33.333333333333336
-250.0   30.0   33.333333333333336
-200.0   30.0   33.333333333333336
-250.0   30.0   16.666666666666668
-250.0   0.0   33.333333333333336
-200.0   30.0   33.333333333333336
-200.0   0.0   33.333333333333336
-200.0   0.0   16.666666666666668
-250.0   0.0   33.333333333333336
-200.0   30.0   33.333333333333336
-200.0   0.0   16.666666666666668
-250.0   30.0   16.666666666666668
-250.0   0.0   33.333333333333336
-200.0   0.0   33.333333333333336
-250.0   30.0   33.333333333333336
-250.0   0.0   50.0
-200.0   0.0   33.333333333333336
-200.0   30.0   33.333333333333336
-250.0   30.0   33.333333333333336
-200.0   30.0   50.0
-250.0   0.0   50.0
-250.0   30.0   50.0
-200.0   30.0   50.0
-250.0   30.0   33.333333333333336
-250.0   0.0   50.0
-200.0   30.0   50.0
-200.0   0.0   50.0
-200.0   0.0   33.333333333333336
-250.0   0.0   50.0
-200.0   30.0   50.0
-200.0   0.0   33.333333333333336
-250.0   30.0   33.333333333333336
-250.0   30.0   0.0
-200.0   30.0   0.0
-250.0   60.0   0.0
-250.0   30.0   16.666666666666668
-200.0   30.0   0.0
-200.0   60.0   0.0
-250.0   60.0   0.0
-200.0   60.0   16.666666666666668
-250.0   30.0   16.666666666666668
-250.0   60.0   16.666666666666668
-200.0   60.0   16.666666666666668
-250.0   60.0   0.0
-250.0   30.0   16.666666666666668
-200.0   60.0   16.666666666666668
-200.0   30.0   16.666666666666668
-200.0   30.0   0.0
-250.0   30.0   16.666666666666668
-200.0   60.0   16.666666666666668
-200.0   30.0   0.0
-250.0   60.0   0.0
-250.0   30.0   16.666666666666668
-200.0   30.0   16.666666666666668
-250.0   60.0   16.666666666666668
-250.0   30.0   33.333333333333336
-200.0   30.0   16.666666666666668
-200.0   60.0   16.666666666666668
-250.0   60.0   16.666666666666668
-200.0   60.0   33.333333333333336
-250.0   30.0   33.333333333333336
-250.0   60.0   33.333333333333336
-200.0   60.0   33.333333333333336
-250.0   60.0   16.666666666666668
-250.0   30.0   33.333333333333336
-200.0   60.0   33.333333333333336
-200.0   30.0   33.333333333333336
-200.0   30.0   16.666666666666668
-250.0   30.0   33.333333333333336
-200.0   60.0   33.333333333333336
-200.0   30.0   16.666666666666668
-250.0   60.0   16.666666666666668
-250.0   30.0   33.333333333333336
-200.0   30.0   33.333333333333336
-250.0   60.0   33.333333333333336
-250.0   30.0   50.0
-200.0   30.0   33.333333333333336
-200.0   60.0   33.333333333333336
-250.0   60.0   33.333333333333336
-200.0   60.0   50.0
-250.0   30.0   50.0
-250.0   60.0   50.0
-200.0   60.0   50.0
-250.0   60.0   33.333333333333336
-250.0   30.0   50.0
-200.0   60.0   50.0
-200.0   30.0   50.0
-200.0   30.0   33.333333333333336
-250.0   30.0   50.0
-200.0   60.0   50.0
-200.0   30.0   33.333333333333336
-250.0   60.0   33.333333333333336
-250.0   60.0   0.0
-200.0   60.0   0.0
-250.0   90.0   0.0
-250.0   60.0   16.666666666666668
-200.0   60.0   0.0
-200.0   90.0   0.0
-250.0   90.0   0.0
-200.0   90.0   16.666666666666668
-250.0   60.0   16.666666666666668
-250.0   90.0   16.666666666666668
-200.0   90.0   16.666666666666668
-250.0   90.0   0.0
-250.0   60.0   16.666666666666668
-200.0   90.0   16.666666666666668
-200.0   60.0   16.666666666666668
-200.0   60.0   0.0
-250.0   60.0   16.666666666666668
-200.0   90.0   16.666666666666668
-200.0   60.0   0.0
-250.0   90.0   0.0
-250.0   60.0   16.666666666666668
-200.0   60.0   16.666666666666668
-250.0   90.0   16.666666666666668
-250.0   60.0   33.333333333333336
-200.0   60.0   16.666666666666668
-200.0   90.0   16.666666666666668
-250.0   90.0   16.666666666666668
-200.0   90.0   33.333333333333336
-250.0   60.0   33.333333333333336
-250.0   90.0   33.333333333333336
-200.0   90.0   33.333333333333336
-250.0   90.0   16.666666666666668
-250.0   60.0   33.333333333333336
-200.0   90.0   33.333333333333336
-200.0   60.0   33.333333333333336
-200.0   60.0   16.666666666666668
-250.0   60.0   33.333333333333336
-200.0   90.0   33.333333333333336
-200.0   60.0   16.666666666666668
-250.0   90.0   16.666666666666668
-250.0   60.0   33.333333333333336
-200.0   60.0   33.333333333333336
-250.0   90.0   33.333333333333336
-250.0   60.0   50.0
-200.0   60.0   33.333333333333336
-200.0   90.0   33.333333333333336
-250.0   90.0   33.333333333333336
-200.0   90.0   50.0
-250.0   60.0   50.0
-250.0   90.0   50.0
-200.0   90.0   50.0
-250.0   90.0   33.333333333333336
-250.0   60.0   50.0
-200.0   90.0   50.0
-200.0   60.0   50.0
-200.0   60.0   33.333333333333336
-250.0   60.0   50.0
-200.0   90.0   50.0
-200.0   60.0   33.333333333333336
-250.0   90.0   33.333333333333336
-250.0   90.0   0.0
-200.0   90.0   0.0
-250.0   120.0   0.0
-250.0   90.0   16.666666666666668
-200.0   90.0   0.0
-200.0   120.0   0.0
-250.0   120.0   0.0
-200.0   120.0   16.666666666666668
-250.0   90.0   16.666666666666668
-250.0   120.0   16.666666666666668
-200.0   120.0   16.666666666666668
-250.0   120.0   0.0
-250.0   90.0   16.666666666666668
-200.0   120.0   16.666666666666668
-200.0   90.0   16.666666666666668
-200.0   90.0   0.0
-250.0   90.0   16.666666666666668
-200.0   120.0   16.666666666666668
-200.0   90.0   0.0
-250.0   120.0   0.0
-250.0   90.0   16.666666666666668
-200.0   90.0   16.666666666666668
-250.0   120.0   16.666666666666668
-250.0   90.0   33.333333333333336
-200.0   90.0   16.666666666666668
-200.0   120.0   16.666666666666668
-250.0   120.0   16.666666666666668
-200.0   120.0   33.333333333333336
-250.0   90.0   33.333333333333336
-250.0   120.0   33.333333333333336
-200.0   120.0   33.333333333333336
-250.0   120.0   16.666666666666668
-250.0   90.0   33.333333333333336
-200.0   120.0   33.333333333333336
-200.0   90.0   33.333333333333336
-200.0   90.0   16.666666666666668
-250.0   90.0   33.333333333333336
-200.0   120.0   33.333333333333336
-200.0   90.0   16.666666666666668
-250.0   120.0   16.666666666666668
-250.0   90.0   33.333333333333336
-200.0   90.0   33.333333333333336
-250.0   120.0   33.333333333333336
-250.0   90.0   50.0
-200.0   90.0   33.333333333333336
-200.0   120.0   33.333333333333336
-250.0   120.0   33.333333333333336
-200.0   120.0   50.0
-250.0   90.0   50.0
-250.0   120.0   50.0
-200.0   120.0   50.0
-250.0   120.0   33.333333333333336
-250.0   90.0   50.0
-200.0   120.0   50.0
-200.0   90.0   50.0
-200.0   90.0   33.333333333333336
-250.0   90.0   50.0
-200.0   120.0   50.0
-200.0   90.0   33.333333333333336
-250.0   120.0   33.333333333333336
-250.0   120.0   0.0
-200.0   120.0   0.0
-250.0   150.0   0.0
-250.0   120.0   16.666666666666668
-200.0   120.0   0.0
-200.0   150.0   0.0
-250.0   150.0   0.0
-200.0   150.0   16.666666666666668
-250.0   120.0   16.666666666666668
-250.0   150.0   16.666666666666668
-200.0   150.0   16.666666666666668
-250.0   150.0   0.0
-250.0   120.0   16.666666666666668
-200.0   150.0   16.666666666666668
-200.0   120.0   16.666666666666668
-200.0   120.0   0.0
-250.0   120.0   16.666666666666668
-200.0   150.0   16.666666666666668
-200.0   120.0   0.0
-250.0   150.0   0.0
-250.0   120.0   16.666666666666668
-200.0   120.0   16.666666666666668
-250.0   150.0   16.666666666666668
-250.0   120.0   33.333333333333336
-200.0   120.0   16.666666666666668
-200.0   150.0   16.666666666666668
-250.0   150.0   16.666666666666668
-200.0   150.0   33.333333333333336
-250.0   120.0   33.333333333333336
-250.0   150.0   33.333333333333336
-200.0   150.0   33.333333333333336
-250.0   150.0   16.666666666666668
-250.0   120.0   33.333333333333336
-200.0   150.0   33.333333333333336
-200.0   120.0   33.333333333333336
-200.0   120.0   16.666666666666668
-250.0   120.0   33.333333333333336
-200.0   150.0   33.333333333333336
-200.0   120.0   16.666666666666668
-250.0   150.0   16.666666666666668
-250.0   120.0   33.333333333333336
-200.0   120.0   33.333333333333336
-250.0   150.0   33.333333333333336
-250.0   120.0   50.0
-200.0   120.0   33.333333333333336
-200.0   150.0   33.333333333333336
-250.0   150.0   33.333333333333336
-200.0   150.0   50.0
-250.0   120.0   50.0
-250.0   150.0   50.0
-200.0   150.0   50.0
-250.0   150.0   33.333333333333336
-250.0   120.0   50.0
-200.0   150.0   50.0
-200.0   120.0   50.0
-200.0   120.0   33.333333333333336
-250.0   120.0   50.0
-200.0   150.0   50.0
-200.0   120.0   33.333333333333336
-250.0   150.0   33.333333333333336
-200.0   0.0   0.0
-150.0   0.0   0.0
-200.0   30.0   0.0
-200.0   0.0   16.666666666666668
-150.0   0.0   0.0
-150.0   30.0   0.0
-200.0   30.0   0.0
-150.0   30.0   16.666666666666668
-200.0   0.0   16.666666666666668
-200.0   30.0   16.666666666666668
-150.0   30.0   16.666666666666668
-200.0   30.0   0.0
-200.0   0.0   16.666666666666668
-150.0   30.0   16.666666666666668
-150.0   0.0   16.666666666666668
-150.0   0.0   0.0
-200.0   0.0   16.666666666666668
-150.0   30.0   16.666666666666668
-150.0   0.0   0.0
-200.0   30.0   0.0
-200.0   0.0   16.666666666666668
-150.0   0.0   16.666666666666668
-200.0   30.0   16.666666666666668
-200.0   0.0   33.333333333333336
-150.0   0.0   16.666666666666668
-150.0   30.0   16.666666666666668
-200.0   30.0   16.666666666666668
-150.0   30.0   33.333333333333336
-200.0   0.0   33.333333333333336
-200.0   30.0   33.333333333333336
-150.0   30.0   33.333333333333336
-200.0   30.0   16.666666666666668
-200.0   0.0   33.333333333333336
-150.0   30.0   33.333333333333336
-150.0   0.0   33.333333333333336
-150.0   0.0   16.666666666666668
-200.0   0.0   33.333333333333336
-150.0   30.0   33.333333333333336
-150.0   0.0   16.666666666666668
-200.0   30.0   16.666666666666668
-200.0   0.0   33.333333333333336
-150.0   0.0   33.333333333333336
-200.0   30.0   33.333333333333336
-200.0   0.0   50.0
-150.0   0.0   33.333333333333336
-150.0   30.0   33.333333333333336
-200.0   30.0   33.333333333333336
-150.0   30.0   50.0
-200.0   0.0   50.0
-200.0   30.0   50.0
-150.0   30.0   50.0
-200.0   30.0   33.333333333333336
-200.0   0.0   50.0
-150.0   30.0   50.0
-150.0   0.0   50.0
-150.0   0.0   33.333333333333336
-200.0   0.0   50.0
-150.0   30.0   50.0
-150.0   0.0   33.333333333333336
-200.0   30.0   33.333333333333336
-200.0   30.0   0.0
-150.0   30.0   0.0
-200.0   60.0   0.0
-200.0   30.0   16.666666666666668
-150.0   30.0   0.0
-150.0   60.0   0.0
-200.0   60.0   0.0
-150.0   60.0   16.666666666666668
-200.0   30.0   16.666666666666668
-200.0   60.0   16.666666666666668
-150.0   60.0   16.666666666666668
-200.0   60.0   0.0
-200.0   30.0   16.666666666666668
-150.0   60.0   16.666666666666668
-150.0   30.0   16.666666666666668
-150.0   30.0   0.0
-200.0   30.0   16.666666666666668
-150.0   60.0   16.666666666666668
-150.0   30.0   0.0
-200.0   60.0   0.0
-200.0   30.0   16.666666666666668
-150.0   30.0   16.666666666666668
-200.0   60.0   16.666666666666668
-200.0   30.0   33.333333333333336
-150.0   30.0   16.666666666666668
-150.0   60.0   16.666666666666668
-200.0   60.0   16.666666666666668
-150.0   60.0   33.333333333333336
-200.0   30.0   33.333333333333336
-200.0   60.0   33.333333333333336
-150.0   60.0   33.333333333333336
-200.0   60.0   16.666666666666668
-200.0   30.0   33.333333333333336
-150.0   60.0   33.333333333333336
-150.0   30.0   33.333333333333336
-150.0   30.0   16.666666666666668
-200.0   30.0   33.333333333333336
-150.0   60.0   33.333333333333336
-150.0   30.0   16.666666666666668
-200.0   60.0   16.666666666666668
-200.0   30.0   33.333333333333336
-150.0   30.0   33.333333333333336
-200.0   60.0   33.333333333333336
-200.0   30.0   50.0
-150.0   30.0   33.333333333333336
-150.0   60.0   33.333333333333336
-200.0   60.0   33.333333333333336
-150.0   60.0   50.0
-200.0   30.0   50.0
-200.0   60.0   50.0
-150.0   60.0   50.0
-200.0   60.0   33.333333333333336
-200.0   30.0   50.0
-150.0   60.0   50.0
-150.0   30.0   50.0
-150.0   30.0   33.333333333333336
-200.0   30.0   50.0
-150.0   60.0   50.0
-150.0   30.0   33.333333333333336
-200.0   60.0   33.333333333333336
-200.0   60.0   0.0
-150.0   60.0   0.0
-200.0   90.0   0.0
-200.0   60.0   16.666666666666668
-150.0   60.0   0.0
-150.0   90.0   0.0
-200.0   90.0   0.0
-150.0   90.0   16.666666666666668
-200.0   60.0   16.666666666666668
-200.0   90.0   16.666666666666668
-150.0   90.0   16.666666666666668
-200.0   90.0   0.0
-200.0   60.0   16.666666666666668
-150.0   90.0   16.666666666666668
-150.0   60.0   16.666666666666668
-150.0   60.0   0.0
-200.0   60.0   16.666666666666668
-150.0   90.0   16.666666666666668
-150.0   60.0   0.0
-200.0   90.0   0.0
-200.0   60.0   16.666666666666668
-150.0   60.0   16.666666666666668
-200.0   90.0   16.666666666666668
-200.0   60.0   33.333333333333336
-150.0   60.0   16.666666666666668
-150.0   90.0   16.666666666666668
-200.0   90.0   16.666666666666668
-150.0   90.0   33.333333333333336
-200.0   60.0   33.333333333333336
-200.0   90.0   33.333333333333336
-150.0   90.0   33.333333333333336
-200.0   90.0   16.666666666666668
-200.0   60.0   33.333333333333336
-150.0   90.0   33.333333333333336
-150.0   60.0   33.333333333333336
-150.0   60.0   16.666666666666668
-200.0   60.0   33.333333333333336
-150.0   90.0   33.333333333333336
-150.0   60.0   16.666666666666668
-200.0   90.0   16.666666666666668
-200.0   60.0   33.333333333333336
-150.0   60.0   33.333333333333336
-200.0   90.0   33.333333333333336
-200.0   60.0   50.0
-150.0   60.0   33.333333333333336
-150.0   90.0   33.333333333333336
-200.0   90.0   33.333333333333336
-150.0   90.0   50.0
-200.0   60.0   50.0
-200.0   90.0   50.0
-150.0   90.0   50.0
-200.0   90.0   33.333333333333336
-200.0   60.0   50.0
-150.0   90.0   50.0
-150.0   60.0   50.0
-150.0   60.0   33.333333333333336
-200.0   60.0   50.0
-150.0   90.0   50.0
-150.0   60.0   33.333333333333336
-200.0   90.0   33.333333333333336
-200.0   90.0   0.0
-150.0   90.0   0.0
-200.0   120.0   0.0
-200.0   90.0   16.666666666666668
-150.0   90.0   0.0
-150.0   120.0   0.0
-200.0   120.0   0.0
-150.0   120.0   16.666666666666668
-200.0   90.0   16.666666666666668
-200.0   120.0   16.666666666666668
-150.0   120.0   16.666666666666668
-200.0   120.0   0.0
-200.0   90.0   16.666666666666668
-150.0   120.0   16.666666666666668
-150.0   90.0   16.666666666666668
-150.0   90.0   0.0
-200.0   90.0   16.666666666666668
-150.0   120.0   16.666666666666668
-150.0   90.0   0.0
-200.0   120.0   0.0
-200.0   90.0   16.666666666666668
-150.0   90.0   16.666666666666668
-200.0   120.0   16.666666666666668
-200.0   90.0   33.333333333333336
-150.0   90.0   16.666666666666668
-150.0   120.0   16.666666666666668
-200.0   120.0   16.666666666666668
-150.0   120.0   33.333333333333336
-200.0   90.0   33.333333333333336
-200.0   120.0   33.333333333333336
-150.0   120.0   33.333333333333336
-200.0   120.0   16.666666666666668
-200.0   90.0   33.333333333333336
-150.0   120.0   33.333333333333336
-150.0   90.0   33.333333333333336
-150.0   90.0   16.666666666666668
-200.0   90.0   33.333333333333336
-150.0   120.0   33.333333333333336
-150.0   90.0   16.666666666666668
-200.0   120.0   16.666666666666668
-200.0   90.0   33.333333333333336
-150.0   90.0   33.333333333333336
-200.0   120.0   33.333333333333336
-200.0   90.0   50.0
-150.0   90.0   33.333333333333336
-150.0   120.0   33.333333333333336
-200.0   120.0   33.333333333333336
-150.0   120.0   50.0
-200.0   90.0   50.0
-200.0   120.0   50.0
-150.0   120.0   50.0
-200.0   120.0   33.333333333333336
-200.0   90.0   50.0
-150.0   120.0   50.0
-150.0   90.0   50.0
-150.0   90.0   33.333333333333336
-200.0   90.0   50.0
-150.0   120.0   50.0
-150.0   90.0   33.333333333333336
-200.0   120.0   33.333333333333336
-200.0   120.0   0.0
-150.0   120.0   0.0
-200.0   150.0   0.0
-200.0   120.0   16.666666666666668
-150.0   120.0   0.0
-150.0   150.0   0.0
-200.0   150.0   0.0
-150.0   150.0   16.666666666666668
-200.0   120.0   16.666666666666668
-200.0   150.0   16.666666666666668
-150.0   150.0   16.666666666666668
-200.0   150.0   0.0
-200.0   120.0   16.666666666666668
-150.0   150.0   16.666666666666668
-150.0   120.0   16.666666666666668
-150.0   120.0   0.0
-200.0   120.0   16.666666666666668
-150.0   150.0   16.666666666666668
-150.0   120.0   0.0
-200.0   150.0   0.0
-200.0   120.0   16.666666666666668
-150.0   120.0   16.666666666666668
-200.0   150.0   16.666666666666668
-200.0   120.0   33.333333333333336
-150.0   120.0   16.666666666666668
-150.0   150.0   16.666666666666668
-200.0   150.0   16.666666666666668
-150.0   150.0   33.333333333333336
-200.0   120.0   33.333333333333336
-200.0   150.0   33.333333333333336
-150.0   150.0   33.333333333333336
-200.0   150.0   16.666666666666668
-200.0   120.0   33.333333333333336
-150.0   150.0   33.333333333333336
-150.0   120.0   33.333333333333336
-150.0   120.0   16.666666666666668
-200.0   120.0   33.333333333333336
-150.0   150.0   33.333333333333336
-150.0   120.0   16.666666666666668
-200.0   150.0   16.666666666666668
-200.0   120.0   33.333333333333336
-150.0   120.0   33.333333333333336
-200.0   150.0   33.333333333333336
-200.0   120.0   50.0
-150.0   120.0   33.333333333333336
-150.0   150.0   33.333333333333336
-200.0   150.0   33.333333333333336
-150.0   150.0   50.0
-200.0   120.0   50.0
-200.0   150.0   50.0
-150.0   150.0   50.0
-200.0   150.0   33.333333333333336
-200.0   120.0   50.0
-150.0   150.0   50.0
-150.0   120.0   50.0
-150.0   120.0   33.333333333333336
-200.0   120.0   50.0
-150.0   150.0   50.0
-150.0   120.0   33.333333333333336
-200.0   150.0   33.333333333333336
-150.0   0.0   0.0
-100.0   0.0   0.0
-150.0   30.0   0.0
-150.0   0.0   16.666666666666668
-100.0   0.0   0.0
-100.0   30.0   0.0
-150.0   30.0   0.0
-100.0   30.0   16.666666666666668
-150.0   0.0   16.666666666666668
-150.0   30.0   16.666666666666668
-100.0   30.0   16.666666666666668
-150.0   30.0   0.0
-150.0   0.0   16.666666666666668
-100.0   30.0   16.666666666666668
-100.0   0.0   16.666666666666668
-100.0   0.0   0.0
-150.0   0.0   16.666666666666668
-100.0   30.0   16.666666666666668
-100.0   0.0   0.0
-150.0   30.0   0.0
-150.0   0.0   16.666666666666668
-100.0   0.0   16.666666666666668
-150.0   30.0   16.666666666666668
-150.0   0.0   33.333333333333336
-100.0   0.0   16.666666666666668
-100.0   30.0   16.666666666666668
-150.0   30.0   16.666666666666668
-100.0   30.0   33.333333333333336
-150.0   0.0   33.333333333333336
-150.0   30.0   33.333333333333336
-100.0   30.0   33.333333333333336
-150.0   30.0   16.666666666666668
-150.0   0.0   33.333333333333336
-100.0   30.0   33.333333333333336
-100.0   0.0   33.333333333333336
-100.0   0.0   16.666666666666668
-150.0   0.0   33.333333333333336
-100.0   30.0   33.333333333333336
-100.0   0.0   16.666666666666668
-150.0   30.0   16.666666666666668
-150.0   0.0   33.333333333333336
-100.0   0.0   33.333333333333336
-150.0   30.0   33.333333333333336
-150.0   0.0   50.0
-100.0   0.0   33.333333333333336
-100.0   30.0   33.333333333333336
-150.0   30.0   33.333333333333336
-100.0   30.0   50.0
-150.0   0.0   50.0
-150.0   30.0   50.0
-100.0   30.0   50.0
-150.0   30.0   33.333333333333336
-150.0   0.0   50.0
-100.0   30.0   50.0
-100.0   0.0   50.0
-100.0   0.0   33.333333333333336
-150.0   0.0   50.0
-100.0   30.0   50.0
-100.0   0.0   33.333333333333336
-150.0   30.0   33.333333333333336
-150.0   30.0   0.0
-100.0   30.0   0.0
-150.0   60.0   0.0
-150.0   30.0   16.666666666666668
-100.0   30.0   0.0
-100.0   60.0   0.0
-150.0   60.0   0.0
-100.0   60.0   16.666666666666668
-150.0   30.0   16.666666666666668
-150.0   60.0   16.666666666666668
-100.0   60.0   16.666666666666668
-150.0   60.0   0.0
-150.0   30.0   16.666666666666668
-100.0   60.0   16.666666666666668
-100.0   30.0   16.666666666666668
-100.0   30.0   0.0
-150.0   30.0   16.666666666666668
-100.0   60.0   16.666666666666668
-100.0   30.0   0.0
-150.0   60.0   0.0
-150.0   30.0   16.666666666666668
-100.0   30.0   16.666666666666668
-150.0   60.0   16.666666666666668
-150.0   30.0   33.333333333333336
-100.0   30.0   16.666666666666668
-100.0   60.0   16.666666666666668
-150.0   60.0   16.666666666666668
-100.0   60.0   33.333333333333336
-150.0   30.0   33.333333333333336
-150.0   60.0   33.333333333333336
-100.0   60.0   33.333333333333336
-150.0   60.0   16.666666666666668
-150.0   30.0   33.333333333333336
-100.0   60.0   33.333333333333336
-100.0   30.0   33.333333333333336
-100.0   30.0   16.666666666666668
-150.0   30.0   33.333333333333336
-100.0   60.0   33.333333333333336
-100.0   30.0   16.666666666666668
-150.0   60.0   16.666666666666668
-150.0   30.0   33.333333333333336
-100.0   30.0   33.333333333333336
-150.0   60.0   33.333333333333336
-150.0   30.0   50.0
-100.0   30.0   33.333333333333336
-100.0   60.0   33.333333333333336
-150.0   60.0   33.333333333333336
-100.0   60.0   50.0
-150.0   30.0   50.0
-150.0   60.0   50.0
-100.0   60.0   50.0
-150.0   60.0   33.333333333333336
-150.0   30.0   50.0
-100.0   60.0   50.0
-100.0   30.0   50.0
-100.0   30.0   33.333333333333336
-150.0   30.0   50.0
-100.0   60.0   50.0
-100.0   30.0   33.333333333333336
-150.0   60.0   33.333333333333336
-150.0   60.0   0.0
-100.0   60.0   0.0
-150.0   90.0   0.0
-150.0   60.0   16.666666666666668
-100.0   60.0   0.0
-100.0   90.0   0.0
-150.0   90.0   0.0
-100.0   90.0   16.666666666666668
-150.0   60.0   16.666666666666668
-150.0   90.0   16.666666666666668
-100.0   90.0   16.666666666666668
-150.0   90.0   0.0
-150.0   60.0   16.666666666666668
-100.0   90.0   16.666666666666668
-100.0   60.0   16.666666666666668
-100.0   60.0   0.0
-150.0   60.0   16.666666666666668
-100.0   90.0   16.666666666666668
-100.0   60.0   0.0
-150.0   90.0   0.0
-150.0   60.0   16.666666666666668
-100.0   60.0   16.666666666666668
-150.0   90.0   16.666666666666668
-150.0   60.0   33.333333333333336
-100.0   60.0   16.666666666666668
-100.0   90.0   16.666666666666668
-150.0   90.0   16.666666666666668
-100.0   90.0   33.333333333333336
-150.0   60.0   33.333333333333336
-150.0   90.0   33.333333333333336
-100.0   90.0   33.333333333333336
-150.0   90.0   16.666666666666668
-150.0   60.0   33.333333333333336
-100.0   90.0   33.333333333333336
-100.0   60.0   33.333333333333336
-100.0   60.0   16.666666666666668
-150.0   60.0   33.333333333333336
-100.0   90.0   33.333333333333336
-100.0   60.0   16.666666666666668
-150.0   90.0   16.666666666666668
-150.0   60.0   33.333333333333336
-100.0   60.0   33.333333333333336
-150.0   90.0   33.333333333333336
-150.0   60.0   50.0
-100.0   60.0   33.333333333333336
-100.0   90.0   33.333333333333336
-150.0   90.0   33.333333333333336
-100.0   90.0   50.0
-150.0   60.0   50.0
-150.0   90.0   50.0
-100.0   90.0   50.0
-150.0   90.0   33.333333333333336
-150.0   60.0   50.0
-100.0   90.0   50.0
-100.0   60.0   50.0
-100.0   60.0   33.333333333333336
-150.0   60.0   50.0
-100.0   90.0   50.0
-100.0   60.0   33.333333333333336
-150.0   90.0   33.333333333333336
-150.0   90.0   0.0
-100.0   90.0   0.0
-150.0   120.0   0.0
-150.0   90.0   16.666666666666668
-100.0   90.0   0.0
-100.0   120.0   0.0
-150.0   120.0   0.0
-100.0   120.0   16.666666666666668
-150.0   90.0   16.666666666666668
-150.0   120.0   16.666666666666668
-100.0   120.0   16.666666666666668
-150.0   120.0   0.0
-150.0   90.0   16.666666666666668
-100.0   120.0   16.666666666666668
-100.0   90.0   16.666666666666668
-100.0   90.0   0.0
-150.0   90.0   16.666666666666668
-100.0   120.0   16.666666666666668
-100.0   90.0   0.0
-150.0   120.0   0.0
-150.0   90.0   16.666666666666668
-100.0   90.0   16.666666666666668
-150.0   120.0   16.666666666666668
-150.0   90.0   33.333333333333336
-100.0   90.0   16.666666666666668
-100.0   120.0   16.666666666666668
-150.0   120.0   16.666666666666668
-100.0   120.0   33.333333333333336
-150.0   90.0   33.333333333333336
-150.0   120.0   33.333333333333336
-100.0   120.0   33.333333333333336
-150.0   120.0   16.666666666666668
-150.0   90.0   33.333333333333336
-100.0   120.0   33.333333333333336
-100.0   90.0   33.333333333333336
-100.0   90.0   16.666666666666668
-150.0   90.0   33.333333333333336
-100.0   120.0   33.333333333333336
-100.0   90.0   16.666666666666668
-150.0   120.0   16.666666666666668
-150.0   90.0   33.333333333333336
-100.0   90.0   33.333333333333336
-150.0   120.0   33.333333333333336
-150.0   90.0   50.0
-100.0   90.0   33.333333333333336
-100.0   120.0   33.333333333333336
-150.0   120.0   33.333333333333336
-100.0   120.0   50.0
-150.0   90.0   50.0
-150.0   120.0   50.0
-100.0   120.0   50.0
-150.0   120.0   33.333333333333336
-150.0   90.0   50.0
-100.0   120.0   50.0
-100.0   90.0   50.0
-100.0   90.0   33.333333333333336
-150.0   90.0   50.0
-100.0   120.0   50.0
-100.0   90.0   33.333333333333336
-150.0   120.0   33.333333333333336
-150.0   120.0   0.0
-100.0   120.0   0.0
-150.0   150.0   0.0
-150.0   120.0   16.666666666666668
-100.0   120.0   0.0
-100.0   150.0   0.0
-150.0   150.0   0.0
-100.0   150.0   16.666666666666668
-150.0   120.0   16.666666666666668
-150.0   150.0   16.666666666666668
-100.0   150.0   16.666666666666668
-150.0   150.0   0.0
-150.0   120.0   16.666666666666668
-100.0   150.0   16.666666666666668
-100.0   120.0   16.666666666666668
-100.0   120.0   0.0
-150.0   120.0   16.666666666666668
-100.0   150.0   16.666666666666668
-100.0   120.0   0.0
-150.0   150.0   0.0
-150.0   120.0   16.666666666666668
-100.0   120.0   16.666666666666668
-150.0   150.0   16.666666666666668
-150.0   120.0   33.333333333333336
-100.0   120.0   16.666666666666668
-100.0   150.0   16.666666666666668
-150.0   150.0   16.666666666666668
-100.0   150.0   33.333333333333336
-150.0   120.0   33.333333333333336
-150.0   150.0   33.333333333333336
-100.0   150.0   33.333333333333336
-150.0   150.0   16.666666666666668
-150.0   120.0   33.333333333333336
-100.0   150.0   33.333333333333336
-100.0   120.0   33.333333333333336
-100.0   120.0   16.666666666666668
-150.0   120.0   33.333333333333336
-100.0   150.0   33.333333333333336
-100.0   120.0   16.666666666666668
-150.0   150.0   16.666666666666668
-150.0   120.0   33.333333333333336
-100.0   120.0   33.333333333333336
-150.0   150.0   33.333333333333336
-150.0   120.0   50.0
-100.0   120.0   33.333333333333336
-100.0   150.0   33.333333333333336
-150.0   150.0   33.333333333333336
-100.0   150.0   50.0
-150.0   120.0   50.0
-150.0   150.0   50.0
-100.0   150.0   50.0
-150.0   150.0   33.333333333333336
-150.0   120.0   50.0
-100.0   150.0   50.0
-100.0   120.0   50.0
-100.0   120.0   33.333333333333336
-150.0   120.0   50.0
-100.0   150.0   50.0
-100.0   120.0   33.333333333333336
-150.0   150.0   33.333333333333336
-100.0   0.0   0.0
-50.0   0.0   0.0
-100.0   30.0   0.0
-100.0   0.0   16.666666666666668
-50.0   0.0   0.0
-50.0   30.0   0.0
-100.0   30.0   0.0
-50.0   30.0   16.666666666666668
-100.0   0.0   16.666666666666668
-100.0   30.0   16.666666666666668
-50.0   30.0   16.666666666666668
-100.0   30.0   0.0
-100.0   0.0   16.666666666666668
-50.0   30.0   16.666666666666668
-50.0   0.0   16.666666666666668
-50.0   0.0   0.0
-100.0   0.0   16.666666666666668
-50.0   30.0   16.666666666666668
-50.0   0.0   0.0
-100.0   30.0   0.0
-100.0   0.0   16.666666666666668
-50.0   0.0   16.666666666666668
-100.0   30.0   16.666666666666668
-100.0   0.0   33.333333333333336
-50.0   0.0   16.666666666666668
-50.0   30.0   16.666666666666668
-100.0   30.0   16.666666666666668
-50.0   30.0   33.333333333333336
-100.0   0.0   33.333333333333336
-100.0   30.0   33.333333333333336
-50.0   30.0   33.333333333333336
-100.0   30.0   16.666666666666668
-100.0   0.0   33.333333333333336
-50.0   30.0   33.333333333333336
-50.0   0.0   33.333333333333336
-50.0   0.0   16.666666666666668
-100.0   0.0   33.333333333333336
-50.0   30.0   33.333333333333336
-50.0   0.0   16.666666666666668
-100.0   30.0   16.666666666666668
-100.0   0.0   33.333333333333336
-50.0   0.0   33.333333333333336
-100.0   30.0   33.333333333333336
-100.0   0.0   50.0
-50.0   0.0   33.333333333333336
-50.0   30.0   33.333333333333336
-100.0   30.0   33.333333333333336
-50.0   30.0   50.0
-100.0   0.0   50.0
-100.0   30.0   50.0
-50.0   30.0   50.0
-100.0   30.0   33.333333333333336
-100.0   0.0   50.0
-50.0   30.0   50.0
-50.0   0.0   50.0
-50.0   0.0   33.333333333333336
-100.0   0.0   50.0
-50.0   30.0   50.0
-50.0   0.0   33.333333333333336
-100.0   30.0   33.333333333333336
-100.0   30.0   0.0
-50.0   30.0   0.0
-100.0   60.0   0.0
-100.0   30.0   16.666666666666668
-50.0   30.0   0.0
-50.0   60.0   0.0
-100.0   60.0   0.0
-50.0   60.0   16.666666666666668
-100.0   30.0   16.666666666666668
-100.0   60.0   16.666666666666668
-50.0   60.0   16.666666666666668
-100.0   60.0   0.0
-100.0   30.0   16.666666666666668
-50.0   60.0   16.666666666666668
-50.0   30.0   16.666666666666668
-50.0   30.0   0.0
-100.0   30.0   16.666666666666668
-50.0   60.0   16.666666666666668
-50.0   30.0   0.0
-100.0   60.0   0.0
-100.0   30.0   16.666666666666668
-50.0   30.0   16.666666666666668
-100.0   60.0   16.666666666666668
-100.0   30.0   33.333333333333336
-50.0   30.0   16.666666666666668
-50.0   60.0   16.666666666666668
-100.0   60.0   16.666666666666668
-50.0   60.0   33.333333333333336
-100.0   30.0   33.333333333333336
-100.0   60.0   33.333333333333336
-50.0   60.0   33.333333333333336
-100.0   60.0   16.666666666666668
-100.0   30.0   33.333333333333336
-50.0   60.0   33.333333333333336
-50.0   30.0   33.333333333333336
-50.0   30.0   16.666666666666668
-100.0   30.0   33.333333333333336
-50.0   60.0   33.333333333333336
-50.0   30.0   16.666666666666668
-100.0   60.0   16.666666666666668
-100.0   30.0   33.333333333333336
-50.0   30.0   33.333333333333336
-100.0   60.0   33.333333333333336
-100.0   30.0   50.0
-50.0   30.0   33.333333333333336
-50.0   60.0   33.333333333333336
-100.0   60.0   33.333333333333336
-50.0   60.0   50.0
-100.0   30.0   50.0
-100.0   60.0   50.0
-50.0   60.0   50.0
-100.0   60.0   33.333333333333336
-100.0   30.0   50.0
-50.0   60.0   50.0
-50.0   30.0   50.0
-50.0   30.0   33.333333333333336
-100.0   30.0   50.0
-50.0   60.0   50.0
-50.0   30.0   33.333333333333336
-100.0   60.0   33.333333333333336
-100.0   60.0   0.0
-50.0   60.0   0.0
-100.0   90.0   0.0
-100.0   60.0   16.666666666666668
-50.0   60.0   0.0
-50.0   90.0   0.0
-100.0   90.0   0.0
-50.0   90.0   16.666666666666668
-100.0   60.0   16.666666666666668
-100.0   90.0   16.666666666666668
-50.0   90.0   16.666666666666668
-100.0   90.0   0.0
-100.0   60.0   16.666666666666668
-50.0   90.0   16.666666666666668
-50.0   60.0   16.666666666666668
-50.0   60.0   0.0
-100.0   60.0   16.666666666666668
-50.0   90.0   16.666666666666668
-50.0   60.0   0.0
-100.0   90.0   0.0
-100.0   60.0   16.666666666666668
-50.0   60.0   16.666666666666668
-100.0   90.0   16.666666666666668
-100.0   60.0   33.333333333333336
-50.0   60.0   16.666666666666668
-50.0   90.0   16.666666666666668
-100.0   90.0   16.666666666666668
-50.0   90.0   33.333333333333336
-100.0   60.0   33.333333333333336
-100.0   90.0   33.333333333333336
-50.0   90.0   33.333333333333336
-100.0   90.0   16.666666666666668
-100.0   60.0   33.333333333333336
-50.0   90.0   33.333333333333336
-50.0   60.0   33.333333333333336
-50.0   60.0   16.666666666666668
-100.0   60.0   33.333333333333336
-50.0   90.0   33.333333333333336
-50.0   60.0   16.666666666666668
-100.0   90.0   16.666666666666668
-100.0   60.0   33.333333333333336
-50.0   60.0   33.333333333333336
-100.0   90.0   33.333333333333336
-100.0   60.0   50.0
-50.0   60.0   33.333333333333336
-50.0   90.0   33.333333333333336
-100.0   90.0   33.333333333333336
-50.0   90.0   50.0
-100.0   60.0   50.0
-100.0   90.0   50.0
-50.0   90.0   50.0
-100.0   90.0   33.333333333333336
-100.0   60.0   50.0
-50.0   90.0   50.0
-50.0   60.0   50.0
-50.0   60.0   33.333333333333336
-100.0   60.0   50.0
-50.0   90.0   50.0
-50.0   60.0   33.333333333333336
-100.0   90.0   33.333333333333336
-100.0   90.0   0.0
-50.0   90.0   0.0
-100.0   120.0   0.0
-100.0   90.0   16.666666666666668
-50.0   90.0   0.0
-50.0   120.0   0.0
-100.0   120.0   0.0
-50.0   120.0   16.666666666666668
-100.0   90.0   16.666666666666668
-100.0   120.0   16.666666666666668
-50.0   120.0   16.666666666666668
-100.0   120.0   0.0
-100.0   90.0   16.666666666666668
-50.0   120.0   16.666666666666668
-50.0   90.0   16.666666666666668
-50.0   90.0   0.0
-100.0   90.0   16.666666666666668
-50.0   120.0   16.666666666666668
-50.0   90.0   0.0
-100.0   120.0   0.0
-100.0   90.0   16.666666666666668
-50.0   90.0   16.666666666666668
-100.0   120.0   16.666666666666668
-100.0   90.0   33.333333333333336
-50.0   90.0   16.666666666666668
-50.0   120.0   16.666666666666668
-100.0   120.0   16.666666666666668
-50.0   120.0   33.333333333333336
-100.0   90.0   33.333333333333336
-100.0   120.0   33.333333333333336
-50.0   120.0   33.333333333333336
-100.0   120.0   16.666666666666668
-100.0   90.0   33.333333333333336
-50.0   120.0   33.333333333333336
-50.0   90.0   33.333333333333336
-50.0   90.0   16.666666666666668
-100.0   90.0   33.333333333333336
-50.0   120.0   33.333333333333336
-50.0   90.0   16.666666666666668
-100.0   120.0   16.666666666666668
-100.0   90.0   33.333333333333336
-50.0   90.0   33.333333333333336
-100.0   120.0   33.333333333333336
-100.0   90.0   50.0
-50.0   90.0   33.333333333333336
-50.0   120.0   33.333333333333336
-100.0   120.0   33.333333333333336
-50.0   120.0   50.0
-100.0   90.0   50.0
-100.0   120.0   50.0
-50.0   120.0   50.0
-100.0   120.0   33.333333333333336
-100.0   90.0   50.0
-50.0   120.0   50.0
-50.0   90.0   50.0
-50.0   90.0   33.333333333333336
-100.0   90.0   50.0
-50.0   120.0   50.0
-50.0   90.0   33.333333333333336
-100.0   120.0   33.333333333333336
-100.0   120.0   0.0
-50.0   120.0   0.0
-100.0   150.0   0.0
-100.0   120.0   16.666666666666668
-50.0   120.0   0.0
-50.0   150.0   0.0
-100.0   150.0   0.0
-50.0   150.0   16.666666666666668
-100.0   120.0   16.666666666666668
-100.0   150.0   16.666666666666668
-50.0   150.0   16.666666666666668
-100.0   150.0   0.0
-100.0   120.0   16.666666666666668
-50.0   150.0   16.666666666666668
-50.0   120.0   16.666666666666668
-50.0   120.0   0.0
-100.0   120.0   16.666666666666668
-50.0   150.0   16.666666666666668
-50.0   120.0   0.0
-100.0   150.0   0.0
-100.0   120.0   16.666666666666668
-50.0   120.0   16.666666666666668
-100.0   150.0   16.666666666666668
-100.0   120.0   33.333333333333336
-50.0   120.0   16.666666666666668
-50.0   150.0   16.666666666666668
-100.0   150.0   16.666666666666668
-50.0   150.0   33.333333333333336
-100.0   120.0   33.333333333333336
-100.0   150.0   33.333333333333336
-50.0   150.0   33.333333333333336
-100.0   150.0   16.666666666666668
-100.0   120.0   33.333333333333336
-50.0   150.0   33.333333333333336
-50.0   120.0   33.333333333333336
-50.0   120.0   16.666666666666668
-100.0   120.0   33.333333333333336
-50.0   150.0   33.333333333333336
-50.0   120.0   16.666666666666668
-100.0   150.0   16.666666666666668
-100.0   120.0   33.333333333333336
-50.0   120.0   33.333333333333336
-100.0   150.0   33.333333333333336
-100.0   120.0   50.0
-50.0   120.0   33.333333333333336
-50.0   150.0   33.333333333333336
-100.0   150.0   33.333333333333336
-50.0   150.0   50.0
-100.0   120.0   50.0
-100.0   150.0   50.0
-50.0   150.0   50.0
-100.0   150.0   33.333333333333336
-100.0   120.0   50.0
-50.0   150.0   50.0
-50.0   120.0   50.0
-50.0   120.0   33.333333333333336
-100.0   120.0   50.0
-50.0   150.0   50.0
-50.0   120.0   33.333333333333336
-100.0   150.0   33.333333333333336
-50.0   0.0   0.0
0.0   0.0   0.0
-50.0   30.0   0.0
-50.0   0.0   16.666666666666668
0.0   0.0   0.0
0.0   30.0   0.0
-50.0   30.0   0.0
0.0   30.0   16.666666666666668
-50.0   0.0   16.666666666666668
-50.0   30.0   16.666666666666668
0.0   30.0   16.666666666666668
-50.0   30.0   0.0
-50.0   0.0   16.666666666666668
0.0   30.0   16.666666666666668
0.0   0.0   16.666666666666668
0.0   0.0   0.0
-50.0   0.0   16.666666666666668
0.0   30.0   16.666666666666668
0.0   0.0   0.0
-50.0   30.0   0.0
-50.0   0.0   16.666666666666668
0.0   0.0   16.666666666666668
-50.0   30.0   16.666666666666668
-50.0   0.0   33.333333333333336
0.0   0.0   16.666666666666668
0.0   30.0   16.666666666666668
-50.0   30.0   16.666666666666668
0.0   30.0   33.333333333333336
-50.0   0.0   33.333333333333336
-50.0   30.0   33.333333333333336
0.0   30.0   33.333333333333336
-50.0   30.0   16.666666666666668
-50.0   0.0   33.333333333333336
0.0   30.0   33.333333333333336
0.0   0.0   33.333333333333336
0.0   0.0   16.666666666666668
-50.0   0.0   33.333333333333336
0.0   30.0   33.333333333333336
0.0   0.0   16.666666666666668
-50.0   30.0   16.666666666666668
-50.0   0.0   33.333333333333336
0.0   0.0   33.333333333333336
-50.0   30.0   33.333333333333336
-50.0   0.0   50.0
0.0   0.0   33.333333333333336
0.0   30.0   33.333333333333336
-50.0   30.0   33.333333333333336
0.0   30.0   50.0
-50.0   0.0   50.0
-50.0   30.0   50.0
0.0   30.0   50.0
-50.0   30.0   33.333333333333336
-50.0   0.0   50.0
0.0   30.0   50.0
0.0   0.0   50.0
0.0   0.0   33.333333333333336
-50.0   0.0   50.0
0.0   30.0   50.0
0.0   0.0   33.333333333333336
-50.0   30.0   33.333333333333336
-50.0   30.0   0.0
0.0   30.0   0.0
-50.0   60.0   0.0
-50.0   30.0   16.666666666666668
0.0   30.0   0.0
0.0   60.0   0.0
-50.0   60.0   0.0
0.0   60.0   16.666666666666668
-50.0   30.0   16.666666666666668
-50.0   60.0   16.666666666666668
0.0   60.0   16.666666666666668
-50.0   60.0   0.0
-50.0   30.0   16.666666666666668
0.0   60.0   16.666666666666668
0.0   30.0   16.666666666666668
0.0   30.0   0.0
-50.0   30.0   16.666666666666668
0.0   60.0   16.666666666666668
0.0   30.0   0.0
-50.0   60.0   0.0
-50.0   30.0   16.666666666666668
0.0   30.0   16.666666666666668
-50.0   60.0   16.666666666666668
-50.0   30.0   33.333333333333336
0.0   30.0   16.666666666666668
0.0   60.0   16.666666666666668
-50.0   60.0   16.666666666666668
0.0   60.0   33.333333333333336
-50.0   30.0   33.333333333333336
-50.0   60.0   33.333333333333336
0.0   60.0   33.333333333333336
-50.0   60.0   16.666666666666668
-50.0   30.0   33.333333333333336
0.0   60.0   33.333333333333336
0.0   30.0   33.333333333333336
0.0   30.0   16.666666666666668
-50.0   30.0   33.333333333333336
0.0   60.0   33.333333333333336
0.0   30.0   16.666666666666668
-50.0   60.0   16.666666666666668
-50.0   30.0   33.333333333333336
0.0   30.0   33.333333333333336
-50.0   60.0   33.333333333333336
-50.0   30.0   50.0
0.0   30.0   33.333333333333336
0.0   60.0   33.333333333333336
-50.0   60.0   33.333333333333336
0.0   60.0   50.0
-50.0   30.0   50.0
-50.0   60.0   50.0
0.0   60.0   50.0
-50.0   60.0   33.333333333333336
-50.0   30.0   50.0
0.0   60.0   50.0
0.0   30.0   50.0
0.0   30.0   33.333333333333336
-50.0   30.0   50.0
0.0   60.0   50.0
0.0   30.0   33.333333333333336
-50.0   60.0   33.333333333333336
-50.0   60.0   0.0
0.0   60.0   0.0
-50.0   90.0   0.0
-50.0   60.0   16.666666666666668
0.0   60.0   0.0
0.0   90.0   0.0
-50.0   90.0   0.0
0.0   90.0   16.666666666666668
-50.0   60.0   16.666666666666668
-50.0   90.0   16.666666666666668
0.0   90.0   16.666666666666668
-50.0   90.0   0.0
-50.0   60.0   16.666666666666668
0.0   90.0   16.666666666666668
0.0   60.0   16.666666666666668
0.0   60.0   0.0
-50.0   60.0   16.666666666666668
0.0   90.0   16.666666666666668
0.0   60.0   0.0
-50.0   90.0   0.0
-50.0   60.0   16.666666666666668
0.0   60.0   16.666666666666668
-50.0   90.0   16.666666666666668
-50.0   60.0   33.333333333333336
0.0   60.0   16.666666666666668
0.0   90.0   16.666666666666668
-50.0   90.0   16.666666666666668
0.0   90.0   33.333333333333336
-50.0   60.0   33.333333333333336
-50.0   90.0   33.333333333333336
0.0   90.0   33.333333333333336
-50.0   90.0   16.666666666666668
-50.0   60.0   33.333333333333336
0.0   90.0   33.333333333333336
0.0   60.0   33.333333333333336
0.0   60.0   16.666666666666668
-50.0   60.0   33.333333333333336
0.0   90.0   33.333333333333336
0.0   60.0   16.666666666666668
-50.0   90.0   16.666666666666668
-50.0   60.0   33.333333333333336
0.0   60.0   33.333333333333336
-50.0   90.0   33.333333333333336
-50.0   60.0   50.0
0.0   60.0   33.333333333333336
0.0   90.0   33.333333333333336
-50.0   90.0   33.333333333333336
0.0   90.0   50.0
-50.0   60.0   50.0
-50.0   90.0   50.0
0.0   90.0   50.0
-50.0   90.0   33.333333333333336
-50.0   60.0   50.0
0.0   90.0   50.0
0.0   60.0   50.0
0.0   60.0   33.333333333333336
-50.0   60.0   50.0
0.0   90.0   50.0
0.0   60.0   33.333333333333336
-50.0   90.0   33.333333333333336
-50.0   90.0   0.0
0.0   90.0   0.0
-50.0   120.0   0.0
-50.0   90.0   16.666666666666668
0.0   90.0   0.0
0.0   120.0   0.0
-50.0   120.0   0.0
0.0   120.0   16.666666666666668
-50.0   90.0   16.666666666666668
-50.0   120.0   16.666666666666668
0.0   120.0   16.666666666666668
-50.0   120.0   0.0
-50.0   90.0   16.666666666666668
0.0   120.0   16.666666666666668
0.0   90.0   16.666666666666668
0.0   90.0   0.0
-50.0   90.0   16.666666666666668
0.0   120.0   16.666666666666668
0.0   90.0   0.0
-50.0   120.0   0.0
-50.0   90.0   16.666666666666668
0.0   90.0   16.666666666666668
-50.0   120.0   16.666666666666668
-50.0   90.0   33.333333333333336
0.0   90.0   16.666666666666668
0.0   120.0   16.666666666666668
-50.0   120.0   16.666666666666668
0.0   120.0   33.333333333333336
-50.0   90.0   33.333333333333336
-50.0   120.0   33.333333333333336
0.0   120.0   33.333333333333336
-50.0   120.0   16.666666666666668
-50.0   90.0   33.333333333333336
0.0   120.0   33.333333333333336
0.0   90.0   33.333333333333336
0.0   90.0   16.666666666666668
-50.0   90.0   33.333333333333336
0.0   120.0   33.333333333333336
0.0   90.0   16.666666666666668
-50.0   120.0   16.666666666666668
-50.0   90.0   33.333333333333336
0.0   90.0   33.333333333333336
-50.0   120.0   33.333333333333336
-50.0   90.0   50.0
0.0   90.0   33.333333333333336
0.0   120.0   33.333333333333336
-50.0   120.0   33.333333333333336
0.0   120.0   50.0
-50.0   90.0   50.0
-50.0   120.0   50.0
0.0   120.0   50.0
-50.0   120.0   33.333333333333336
-50.0   90.0   50.0
0.0   120.0   50.0
0.0   90.0   50.0
0.0   90.0   33.333333333333336
-50.0   90.0   50.0
0.0   120.0   50.0
0.0   90.0   33.333333333333336
-50.0   120.0   33.333333333333336
-50.0   120.0   0.0
0.0   120.0   0.0
-50.0   150.0   0.0
-50.0   120.0   16.666666666666668
0.0   120.0   0.0
0.0   150.0   0.0
-50.0   150.0   0.0
0.0   150.0   16.666666666666668
-50.0   120.0   16.666666666666668
-50.0   150.0   16.666666666666668
0.0   150.0   16.666666666666668
-50.0   150.0   0.0
-50.0   120.0   16.666666666666668
0.0   150.0   16.666666666666668
0.0   120.0   16.666666666666668
0.0   120.0   0.0
-50.0   120.0   16.666666666666668
0.0   150.0   16.666666666666668
0.0   120.0   0.0
-50.0   150.0   0.0
-50.0   120.0   16.666666666666668
0.0   120.0   16.666666666666668
-50.0   150.0   16.666666666666668
-50.0   120.0   33.333333333333336
0.0   120.0   16.666666666666668
0.0   150.0   16.666666666666668
-50.0   150.0   16.666666666666668
0.0   150.0   33.333333333333336
-50.0   120.0   33.333333333333336
-50.0   150.0   33.333333333333336
0.0   150.0   33.333333333333336
-50.0   150.0   16.666666666666668
-50.0   120.0   33.333333333333336
0.0   150.0   33.333333333333336
0.0   120.0   33.333333333333336
0.0   120.0   16.666666666666668
-50.0   120.0   33.333333333333336
0.0   150.0   33.333333333333336
0.0   120.0   16.666666666666668
-50.0   150.0   16.666666666666668
-50.0   120.0   33.333333333333336
0.0   120.0   33.333333333333336
-50.0   150.0   33.333333333333336
-50.0   120.0   50.0
0.0   120.0   33.333333333333336
0.0   150.0   33.333333333333336
-50.0   150.0   33.333333333333336
0.0   150.0   50.0
-50.0   120.0   50.0
-50.0   150.0   50.0
0.0   150.0   50.0
-50.0   150.0   33.333333333333336
-50.0   120.0   50.0
0.0   150.0   50.0
0.0   120.0   50.0
0.0   120.0   33.333333333333336
-50.0   120.0   50.0
0.0   150.0   50.0
0.0   120.0   33.333333333333336
-50.0   150.0   33.333333333333336
0.0   0.0   0.0
50.0   0.0   0.0
0.0   30.0   0.0
0.0   0.0   16.666666666666668
50.0   0.0   0.0
50.0   30.0   0.0
0.0   30.0   0.0
50.0   30.0   16.666666666666668
0.0   0.0   16.666666666666668
0.0   30.0   16.666666666666668
50.0   30.0   16.666666666666668
0.0   30.0   0.0
0.0   0.0   16.666666666666668
50.0   30.0   16.666666666666668
50.0   0.0   16.666666666666668
50.0   0.0   0.0
0.0   0.0   16.666666666666668
50.0   30.0   16.666666666666668
50.0   0.0   0.0
0.0   30.0   0.0
0.0   0.0   16.666666666666668
50.0   0.0   16.666666666666668
0.0   30.0   16.666666666666668
0.0   0.0   33.333333333333336
50.0   0.0   16.666666666666668
50.0   30.0   16.666666666666668
0.0   30.0   16.666666666666668
50.0   30.0   33.333333333333336
0.0   0.0   33.333333333333336
0.0   30.0   33.333333333333336
50.0   30.0   33.333333333333336
0.0   30.0   16.666666666666668
0.0   0.0   33.333333333333336
50.0   30.0   33.333333333333336
50.0   0.0   33.333333333333336
50.0   0.0   16.666666666666668
0.0   0.0   33.333333333333336
50.0   30.0   33.333333333333336
50.0   0.0   16.666666666666668
0.0   30.0   16.666666666666668
0.0   0.0   33.333333333333336
50.0   0.0   33.333333333333336
0.0   30.0   33.333333333333336
0.0   0.0   50.0
50.0   0.0   33.333333333333336
50.0   30.0   33.333333333333336
0.0   30.0   33.333333333333336
50.0   30.0   50.0
0.0   0.0   50.0
0.0   30.0   50.0
50.0   30.0   50.0
0.0   30.0   33.333333333333336
0.0   0.0   50.0
50.0   30.0   50.0
50.0   0.0   50.0
50.0   0.0   33.333333333333336
0.0   0.0   50.0
50.0   30.0   50.0
50.0   0.0   33.333333333333336
0.0   30.0   33.333333333333336
0.0   30.0   0.0
50.0   30.0   0.0
0.0   60.0   0.0
0.0   30.0   16.666666666666668
50.0   30.0   0.0
50.0   60.0   0.0
0.0   60.0   0.0
50.0   60.0   16.666666666666668
0.0   30.0   16.666666666666668
0.0   60.0   16.666666666666668
50.0   60.0   16.666666666666668
0.0   60.0   0.0
0.0   30.0   16.666666666666668
50.0   60.0   16.666666666666668
50.0   30.0   16.666666666666668
50.0   30.0   0.0
0.0   30.0   16.666666666666668
50.0   60.0   16.666666666666668
50.0   30.0   0.0
0.0   60.0   0.0
0.0   30.0   16.666666666666668
50.0   30.0   16.666666666666668
0.0   60.0   16.666666666666668
0.0   30.0   33.333333333333336
50.0   30.0   16.666666666666668
50.0   60.0   16.666666666666668
0.0   60.0   16.666666666666668
50.0   60.0   33.333333333333336
0.0   30.0   33.333333333333336
0.0   60.0   33.333333333333336
50.0   60.0   33.333333333333336
0.0   60.0   16.666666666666668
0.0   30.0   33.333333333333336
50.0   60.0   33.333333333333336
50.0   30.0   33.333333333333336
50.0   30.0   16.666666666666668
0.0   30.0   33.333333333333336
50.0   60.0   33.333333333333336
50.0   30.0   16.666666666666668
0.0   60.0   16.666666666666668
0.0   30.0   33.333333333333336
50.0   30.0   33.333333333333336
0.0   60.0   33.333333333333336
0.0   30.0   50.0
50.0   30.0   33.333333333333336
50.0   60.0   33.333333333333336
0.0   60.0   33.333333333333336
50.0   60.0   50.0
0.0   30.0   50.0
0.0   60.0   50.0
50.0   60.0   50.0
0.0   60.0   33.333333333333336
0.0   30.0   50.0
50.0   60.0   50.0
50.0   30.0   50.0
50.0   30.0   33.333333333333336
0.0   30.0   50.0
50.0   60.0   50.0
50.0   30.0   33.333333333333336
0.0   60.0   33.333333333333336
0.0   60.0   0.0
50.0   60.0   0.0
0.0   90.0   0.0
0.0   60.0   16.666666666666668
50.0   60.0   0.0
50.0   90.0   0.0
0.0   90.0   0.0
50.0   90.0   16.666666666666668
0.0   60.0   16.666666666666668
0.0   90.0   16.666666666666668
50.0   90.0   16.666666666666668
0.0   90.0   0.0
0.0   60.0   16.666666666666668
50.0   90.0   16.666666666666668
50.0   60.0   16.666666666666668
50.0   60.0   0.0
0.0   60.0   16.666666666666668
50.0   90.0   16.666666666666668
50.0   60.0   0.0
0.0   90.0   0.0
0.0   60.0   16.666666666666668
50.0   60.0   16.666666666666668
0.0   90.0   16.666666666666668
0.0   60.0   33.333333333333336
50.0   60.0   16.666666666666668
50.0   90.0   16.666666666666668
0.0   90.0   16.666666666666668
50.0   90.0   33.333333333333336
0.0   60.0   33.333333333333336
0.0   90.0   33.333333333333336
50.0   90.0   33.333333333333336
0.0   90.0   16.666666666666668
0.0   60.0   33.333333333333336
50.0   90.0   33.333333333333336
50.0   60.0   33.333333333333336
50.0   60.0   16.666666666666668
0.0   60.0   33.333333333333336
50.0   90.0   33.333333333333336
50.0   60.0   16.666666666666668
0.0   90.0   16.666666666666668
0.0   60.0   33.333333333333336
50.0   60.0   33.333333333333336
0.0   90.0   33.333333333333336
0.0   60.0   50.0
50.0   60.0   33.333333333333336
50.0   90.0   33.333333333333336
0.0   90.0   33.333333333333336
50.0   90.0   50.0
0.0   60.0   50.0
0.0   90.0   50.0
50.0   90.0   50.0
0.0   90.0   33.333333333333336
0.0   60.0   50.0
50.0   90.0   50.0
50.0   60.0   50.0
50.0   60.0   33.333333333333336
0.0   60.0   50.0
50.0   90.0   50.0
50.0   60.0   33.333333333333336
0.0   90.0   33.333333333333336
0.0   90.0   0.0
50.0   90.0   0.0
0.0   120.0   0.0
0.0   90.0   16.666666666666668
50.0   90.0   0.0
50.0   120.0   0.0
0.0   120.0   0.0
50.0   120.0   16.666666666666668
0.0   90.0   16.666666666666668
0.0   120.0   16.666666666666668
50.0   120.0   16.666666666666668
0.0   120.0   0.0
0.0   90.0   16.666666666666668
50.0   120.0   16.666666666666668
50.0   90.0   16.666666666666668
50.0   90.0   0.0
0.0   90.0   16.666666666666668
50.0   120.0   16.666666666666668
50.0   90.0   0.0
0.0   120.0   0.0
0.0   90.0   16.666666666666668
50.0   90.0   16.666666666666668
0.0   120.0   16.666666666666668
0.0   90.0   33.333333333333336
50.0   90.0   16.666666666666668
50.0   120.0   16.666666666666668
0.0   120.0   16.666666666666668
50.0   120.0   33.333333333333336
0.0   90.0   33.333333333333336
0.0   120.0   33.333333333333336
50.0   120.0   33.333333333333336
0.0   120.0   16.666666666666668
0.0   90.0   33.333333333333336
50.0   120.0   33.333333333333336
50.0   90.0   33.333333333333336
50.0   90.0   16.666666666666668
0.0   90.0   33.333333333333336
50.0   120.0   33.333333333333336
50.0   90.0   16.666666666666668
0.0   120.0   16.666666666666668
0.0   90.0   33.333333333333336
50.0   90.0   33.333333333333336
0.0   120.0   33.333333333333336
0.0   90.0   50.0
50.0   90.0   33.333333333333336
50.0   120.0   33.333333333333336
0.0   120.0   33.333333333333336
50.0   120.0   50.0
0.0   90.0   50.0
0.0   120.0   50.0
50.0   120.0   50.0
0.0   120.0   33.333333333333336
0.0   90.0   50.0
50.0   120.0   50.0
50.0   90.0   50.0
50.0   90.0   33.333333333333336
0.0   90.0   50.0
50.0   120.0   50.0
50.0   90.0   33.333333333333336
0.0   120.0   33.333333333333336
0.0   120.0   0.0
50.0   120.0   0.0
0.0   150.0   0.0
0.0   120.0   16.666666666666668
50.0   120.0   0.0
50.0   150.0   0.0
0.0   150.0   0.0
50.0   150.0   16.666666666666668
0.0   120.0   16.666666666666668
0.0   150.0   16.666666666666668
50.0   150.0   16.666666666666668
0.0   150.0   0.0
0.0   120.0   16.666666666666668
50.0   150.0   16.666666666666668
50.0   120.0   16.666666666666668
50.0   120.0   0.0
0.0   120.0   16.666666666666668
50.0   150.0   16.666666666666668
50.0   120.0   0.0
0.0   150.0   0.0
0.0   120.0   16.666666666666668
50.0   120.0   16.666666666666668
0.0   150.0   16.666666666666668
0.0   120.0   33.333333333333336
50.0   120.0   16.666666666666668
50.0   150.0   16.666666666666668
0.0   150.0   16.666666666666668
50.0   150.0   33.333333333333336
0.0   120.0   33.333333333333336
0.0   150.0   33.333333333333336
50.0   150.0   33.333333333333336
0.0   150.0   16.666666666666668
0.0   120.0   33.333333333333336
50.0   150.0   33.333333333333336
50.0   120.0   33.333333333333336
50.0   120.0   16.666666666666668
0.0   120.0   33.333333333333336
50.0   150.0   33.333333333333336
50.0   120.0   16.666666666666668
0.0   150.0   16.666666666666668
0.0   120.0   33.333333333333336
50.0   120.0   33.333333333333336
0.0   150.0   33.333333333333336
0.0   120.0   50.0
50.0   120.0   33.333333333333336
50.0   150.0   33.333333333333336
0.0   150.0   33.333333333333336
50.0   150.0   50.0
0.0   120.0   50.0
0.0   150.0   50.0
50.0   150.0   50.0
0.0   150.0   33.333333333333336
0.0   120.0   50.0
50.0   150.0   50.0
50.0   120.0   50.0
50.0   120.0   33.333333333333336
0.0   120.0   50.0
50.0   150.0   50.0
50.0   120.0   33.333333333333336
0.0   150.0   33.333333333333336
50.0   0.0   0.0
100.0   0.0   0.0
50.0   30.0   0.0
50.0   0.0   16.666666666666668
100.0   0.0   0.0
100.0   30.0   0.0
50.0   30.0   0.0
100.0   30.0   16.666666666666668
50.0   0.0   16.666666666666668
50.0   30.0   16.666666666666668
100.0   30.0   16.666666666666668
50.0   30.0   0.0
50.0   0.0   16.666666666666668
100.0   30.0   16.666666666666668
100.0   0.0   16.666666666666668
100.0   0.0   0.0
50.0   0.0   16.666666666666668
100.0   30.0   16.666666666666668
100.0   0.0   0.0
50.0   30.0   0.0
50.0   0.0   16.666666666666668
100.0   0.0   16.666666666666668
50.0   30.0   16.666666666666668
50.0   0.0   33.333333333333336
100.0   0.0   16.666666666666668
100.0   30.0   16.666666666666668
50.0   30.0   16.666666666666668
100.0   30.0   33.333333333333336
50.0   0.0   33.333333333333336
50.0   30.0   33.333333333333336
100.0   30.0   33.333333333333336
50.0   30.0   16.666666666666668
50.0   0.0   33.333333333333336
100.0   30.0   33.333333333333336
100.0   0.0   33.333333333333336
100.0   0.0   16.666666666666668
50.0   0.0   33.333333333333336
100.0   30.0   33.333333333333336
100.0   0.0   16.666666666666668
50.0   30.0   16.666666666666668
50.0   0.0   33.333333333333336
100.0   0.0   33.333333333333336
50.0   30.0   33.333333333333336
50.0   0.0   50.0
100.0   0.0   33.333333333333336
100.0   30.0   33.333333333333336
50.0   30.0   33.333333333333336
100.0   30.0   50.0
50.0   0.0   50.0
50.0   30.0   50.0
100.0   30.0   50.0
50.0   30.0   33.333333333333336
50.0   0.0   50.0
100.0   30.0   50.0
100.0   0.0   50.0
100.0   0.0   33.333333333333336
50.0   0.0   50.0
100.0   30.0   50.0
100.0   0.0   33.333333333333336
50.0   30.0   33.333333333333336
50.0   30.0   0.0
100.0   30.0   0.0
50.0   60.0   0.0
50.0   30.0   16.666666666666668
100.0   30.0   0.0
100.0   60.0   0.0
50.0   60.0   0.0
100.0   60.0   16.666666666666668
50.0   30.0   16.666666666666668
50.0   60.0   16.666666666666668
100.0   60.0   16.666666666666668
50.0   60.0   0.0
50.0   30.0   16.666666666666668
100.0   60.0   16.666666666666668
100.0   30.0   16.666666666666668
100.0   30.0   0.0
50.0   30.0   16.666666666666668
100.0   60.0   16.666666666666668
100.0   30.0   0.0
50.0   60.0   0.0
50.0   30.0   16.666666666666668
100.0   30.0   16.666666666666668
50.0   60.0   16.666666666666668
50.0   30.0   33.333333333333336
100.0   30.0   16.666666666666668
100.0   60.0   16.666666666666668
50.0   60.0   16.666666666666668
100.0   60.0   33.333333333333336
50.0   30.0   33.333333333333336
50.0   60.0   33.333333333333336
100.0   60.0   33.333333333333336
50.0   60.0   16.666666666666668
50.0   30.0   33.333333333333336
100.0   60.0   33.333333333333336
100.0   30.0   33.333333333333336
100.0   30.0   16.666666666666668
50.0   30.0   33.333333333333336
100.0   60.0   33.333333333333336
100.0   30.0   16.666666666666668
50.0   60.0   16.666666666666668
50.0   30.0   33.333333333333336
100.0   30.0   33.333333333333336
50.0   60.0   33.333333333333336
50.0   30.0   50.0
100.0   30.0   33.333333333333336
100.0   60.0   33.333333333333336
50.0   60.0   33.333333333333336
100.0   60.0   50.0
50.0   30.0   50.0
50.0   60.0   50.0
100.0   60.0   50.0
50.0   60.0   33.333333333333336
50.0   30.0   50.0
100.0   60.0   50.0
100.0   30.0   50.0
100.0   30.0   33.333333333333336
50.0   30.0   50.0
100.0   60.0   50.0
100.0   30.0   33.333333333333336
50.0   60.0   33.333333333333336
50.0   60.0   0.0
100.0   60.0   0.0
50.0   90.0   0.0
50.0   60.0   16.666666666666668
100.0   60.0   0.0
100.0   90.0   0.0
50.0   90.0   0.0
100.0   90.0   16.666666666666668
50.0   60.0   16.666666666666668
50.0   90.0   16.666666666666668
100.0   90.0   16.666666666666668
50.0   90.0   0.0
50.0   60.0   16.666666666666668
100.0   90.0   16.666666666666668
100.0   60.0   16.666666666666668
100.0   60.0   0.0
50.0   60.0   16.666666666666668
100.0   90.0   16.666666666666668
100.0   60.0   0.0
50.0   90.0   0.0
50.0   60.0   16.666666666666668
100.0   60.0   16.666666666666668
50.0   90.0   16.666666666666668
50.0   60.0   33.333333333333336
100.0   60.0   16.666666666666668
100.0   90.0   16.666666666666668
50.0   90.0   16.666666666666668
100.0   90.0   33.333333333333336
50.0   60.0   33.333333333333336
50.0   90.0   33.333333333333336
100.0   90.0   33.333333333333336
50.0   90.0   16.666666666666668
50.0   60.0   33.333333333333336
100.0   90.0   33.333333333333336
100.0   60.0   33.333333333333336
100.0   60.0   16.666666666666668
50.0   60.0   33.333333333333336
100.0   90.0   33.333333333333336
100.0   60.0   16.666666666666668
50.0   90.0   16.666666666666668
50.0   60.0   33.333333333333336
100.0   60.0   33.333333333333336
50.0   90.0   33.333333333333336
50.0   60.0   50.0
100.0   60.0   33.333333333333336
100.0   90.0   33.333333333333336
50.0   90.0   33.333333333333336
100.0   90.0   50.0
50.0   60.0   50.0
50.0   90.0   50.0
100.0   90.0   50.0
50.0   90.0   33.333333333333336
50.0   60.0   50.0
100.0   90.0   50.0
100.0   60.0   50.0
100.0   60.0   33.333333333333336
50.0   60.0   50.0
100.0   90.0   50.0
100.0   60.0   33.333333333333336
50.0   90.0   33.333333333333336
50.0   90.0   0.0
100.0   90.0   0.0
50.0   120.0   0.0
50.0   90.0   16.666666666666668
100.0   90.0   0.0
100.0   120.0   0.0
50.0   120.0   0.0
100.0   120.0   16.666666666666668
50.0   90.0   16.666666666666668
50.0   120.0   16.666666666666668
100.0   120.0   16.666666666666668
50.0   120.0   0.0
50.0   90.0   16.666666666666668
100.0   120.0   16.666666666666668
100.0   90.0   16.666666666666668
100.0   90.0   0.0
50.0   90.0   16.666666666666668
100.0   120.0   16.666666666666668
100.0   90.0   0.0
50.0   120.0   0.0
50.0   90.0   16.666666666666668
100.0   90.0   16.666666666666668
50.0   120.0   16.666666666666668
50.0   90.0   33.333333333333336
100.0   90.0   16.666666666666668
100.0   120.0   16.666666666666668
50.0   120.0   16.666666666666668
100.0   120.0   33.333333333333336
50.0   90.0   33.333333333333336
50.0   120.0   33.333333333333336
100.0   120.0   33.333333333333336
50.0   120.0   16.666666666666668
50.0   90.0   33.333333333333336
100.0   120.0   33.333333333333336
100.0   90.0   33.333333333333336
100.0   90.0   16.666666666666668
50.0   90.0   33.333333333333336
100.0   120.0   33.333333333333336
100.0   90.0   16.666666666666668
50.0   120.0   16.666666666666668
50.0   90.0   33.333333333333336
100.0   90.0   33.333333333333336
50.0   120.0   33.333333333333336
50.0   90.0   50.0
100.0   90.0   33.333333333333336
100.0   120.0   33.333333333333336
50.0   120.0   33.333333333333336
100.0   120.0   50.0
50.0   90.0   50.0
50.0   120.0   50.0
100.0   120.0   50.0
50.0   120.0   33.333333333333336
50.0   90.0   50.0
100.0   120.0   50.0
100.0   90.0   50.0
100.0   90.0   33.333333333333336
50.0   90.0   50.0
100.0   120.0   50.0
100.0   90.0   33.333333333333336
50.0   120.0   33.333333333333336
50.0   120.0   0.0
100.0   120.0   0.0
50.0   150.0   0.0
50.0   120.0   16.666666666666668
100.0   120.0   0.0
100.0   150.0   0.0
50.0   150.0   0.0
100.0   150.0   16.666666666666668
50.0   120.0   16.666666666666668
50.0   150.0   16.666666666666668
100.0   150.0   16.666666666666668
50.0   150.0   0.0
50.0   120.0   16.666666666666668
100.0   150.0   16.666666666666668
100.0   120.0   16.666666666666668
100.0   120.0   0.0
50.0   120.0   16.666666666666668
100.0   150.0   16.666666666666668
100.0   120.0   0.0
50.0   150.0   0.0
50.0   120.0   16.666666666666668
100.0   120.0   16.666666666666668
50.0   150.0   16.666666666666668
50.0   120.0   33.333333333333336
100.0   120.0   16.666666666666668
100.0   150.0   16.666666666666668
50.0   150.0   16.666666666666668
100.0   150.0   33.333333333333336
50.0   120.0   33.333333333333336
50.0   150.0   33.333333333333336
100.0   150.0   33.333333333333336
50.0   150.0   16.666666666666668
50.0   120.0   33.333333333333336
100.0   150.0   33.333333333333336
100.0   120.0   33.333333333333336
100.0   120.0   16.666666666666668
50.0   120.0   33.333333333333336
100.0   150.0   33.333333333333336
100.0   120.0   16.666666666666668
50.0   150.0   16.666666666666668
50.0   120.0   33.333333333333336
100.0   120.0   33.333333333333336
50.0   150.0   33.333333333333336
50.0   120.0   50.0
100.0   120.0   33.333333333333336
100.0   150.0   33.333333333333336
50.0   150.0   33.333333333333336
100.0   150.0   50.0
50.0   120.0   50.0
50.0   150.0   50.0
100.0   150.0   50.0
50.0   150.0   33.333333333333336
50.0   120.0   50.0
100.0   150.0   50.0
100.0   120.0   50.0
100.0   120.0   33.333333333333336
50.0   120.0   50.0
100.0   150.0   50.0
100.0   120.0   33.333333333333336
50.0   150.0   33.333333333333336
100.0   0.0   0.0
150.0   0.0   0.0
100.0   30.0   0.0
100.0   0.0   16.666666666666668
150.0   0.0   0.0
150.0   30.0   0.0
100.0   30.0   0.0
150.0   30.0   16.666666666666668
100.0   0.0   16.666666666666668
100.0   30.0   16.666666666666668
150.0   30.0   16.666666666666668
100.0   30.0   0.0
100.0   0.0   16.666666666666668
150.0   30.0   16.666666666666668
150.0   0.0   16.666666666666668
150.0   0.0   0.0
100.0   0.0   16.666666666666668
150.0   30.0   16.666666666666668
150.0   0.0   0.0
100.0   30.0   0.0
100.0   0.0   16.666666666666668
150.0   0.0   16.666666666666668
100.0   30.0   16.666666666666668
100.0   0.0   33.333333333333336
150.0   0.0   16.666666666666668
150.0   30.0   16.666666666666668
100.0   30.0   16.666666666666668
150.0   30.0   33.333333333333336
100.0   0.0   33.333333333333336
100.0   30.0   33.333333333333336
150.0   30.0   33.333333333333336
100.0   30.0   16.666666666666668
100.0   0.0   33.333333333333336
150.0   30.0   33.333333333333336
150.0   0.0   33.333333333333336
150.0   0.0   16.666666666666668
100.0   0.0   33.333333333333336
150.0   30.0   33.333333333333336
150.0   0.0   16.666666666666668
100.0   30.0   16.666666666666668
100.0   0.0   33.333333333333336
150.0   0.0   33.333333333333336
100.0   30.0   33.333333333333336
100.0   0.0   50.0
150.0   0.0   33.333333333333336
150.0   30.0   33.333333333333336
100.0   30.0   33.333333333333336
150.0   30.0   50.0
100.0   0.0   50.0
100.0   30.0   50.0
150.0   30.0   50.0
100.0   30.0   33.333333333333336
100.0   0.0   50.0
150.0   30.0   50.0
150.0   0.0   50.0
150.0   0.0   33.333333333333336
100.0   0.0   50.0
150.0   30.0   50.0
150.0   0.0   33.333333333333336
100.0   30.0   33.333333333333336
100.0   30.0   0.0
150.0   30.0   0.0
100.0   60.0   0.0
100.0   30.0   16.666666666666668
150.0   30.0   0.0
150.0   60.0   0.0
100.0   60.0   0.0
150.0   60.0   16.666666666666668
100.0   30.0   16.666666666666668
100.0   60.0   16.666666666666668
150.0   60.0   16.666666666666668
100.0   60.0   0.0
100.0   30.0   16.666666666666668
150.0   60.0   16.666666666666668
150.0   30.0   16.666666666666668
150.0   30.0   0.0
100.0   30.0   16.666666666666668
150.0   60.0   16.666666666666668
150.0   30.0   0.0
100.0   60.0   0.0
100.0   30.0   16.666666666666668
150.0   30.0   16.666666666666668
100.0   60.0   16.666666666666668
100.0   30.0   33.333333333333336
150.0   30.0   16.666666666666668
150.0   60.0   16.666666666666668
100.0   60.0   16.666666666666668
150.0   60.0   33.333333333333336
100.0   30.0   33.333333333333336
100.0   60.0   33.333333333333336
150.0   60.0   33.333333333333336
100.0   60.0   16.666666666666668
100.0   30.0   33.333333333333336
150.0   60.0   33.333333333333336
150.0   30.0   33.333333333333336
150.0   30.0   16.666666666666668
100.0   30.0   33.333333333333336
150.0   60.0   33.333333333333336
150.0   30.0   16.666666666666668
100.0   60.0   16.666666666666668
100.0   30.0   33.333333333333336
150.0   30.0   33.333333333333336
100.0   60.0   33.333333333333336
100.0   30.0   50.0
150.0   30.0   33.333333333333336
150.0   60.0   33.333333333333336
100.0   60.0   33.333333333333336
150.0   60.0   50.0
100.0   30.0   50.0
100.0   60.0   50.0
150.0   60.0   50.0
100.0   60.0   33.333333333333336
100.0   30.0   50.0
150.0   60.0   50.0
150.0   30.0   50.0
150.0   30.0   33.333333333333336
100.0   30.0   50.0
150.0   60.0   50.0
150.0   30.0   33.333333333333336
100.0   60.0   33.333333333333336
100.0   60.0   0.0
150.0   60.0   0.0
100.0   90.0   0.0
100.0   60.0   16.666666666666668
150.0   60.0   0.0
150.0   90.0   0.0
100.0   90.0   0.0
150.0   90.0   16.666666666666668
100.0   60.0   16.666666666666668
100.0   90.0   16.666666666666668
150.0   90.0   16.666666666666668
100.0   90.0   0.0
100.0   60.0   16.666666666666668
150.0   90.0   16.666666666666668
150.0   60.0   16.666666666666668
150.0   60.0   0.0
100.0   60.0   16.666666666666668
150.0   90.0   16.666666666666668
150.0   60.0   0.0
100.0   90.0   0.0
100.0   60.0   16.666666666666668
150.0   60.0   16.666666666666668
100.0   90.0   16.666666666666668
100.0   60.0   33.333333333333336
150.0   60.0   16.666666666666668
150.0   90.0   16.666666666666668
100.0   90.0   16.666666666666668
150.0   90.0   33.333333333333336
100.0   60.0   33.333333333333336
100.0   90.0   33.333333333333336
150.0   90.0   33.333333333333336
100.0   90.0   16.666666666666668
100.0   60.0   33.333333333333336
150.0   90.0   33.333333333333336
150.0   60.0   33.333333333333336
150.0   60.0   16.666666666666668
100.0   60.0   33.333333333333336
150.0   90.0   33.333333333333336
150.0   60.0   16.666666666666668
100.0   90.0   16.666666666666668
100.0   60.0   33.333333333333336
150.0   60.0   33.333333333333336
100.0   90.0   33.333333333333336
100.0   60.0   50.0
150.0   60.0   33.333333333333336
150.0   90.0   33.333333333333336
100.0   90.0   33.333333333333336
150.0   90.0   50.0
100.0   60.0   50.0
100.0   90.0   50.0
150.0   90.0   50.0
100.0   90.0   33.333333333333336
100.0   60.0   50.0
150.0   90.0   50.0
150.0   60.0   50.0
150.0   60.0   33.333333333333336
100.0   60.0   50.0
150.0   90.0   50.0
150.0   60.0   33.333333333333336
100.0   90.0   33.333333333333336
100.0   90.0   0.0
150.0   90.0   0.0
100.0   120.0   0.0
100.0   90.0   16.666666666666668
150.0   90.0   0.0
150.0   120.0   0.0
100.0   120.0   0.0
150.0   120.0   16.666666666666668
100.0   90.0   16.666666666666668
100.0   120.0   16.666666666666668
150.0   120.0   16.666666666666668
100.0   120.0   0.0
100.0   90.0   16.666666666666668
150.0   120.0   16.666666666666668
150.0   90.0   16.666666666666668
150.0   90.0   0.0
100.0   90.0   16.666666666666668
150.0   120.0   16.666666666666668
150.0   90.0   0.0
100.0   120.0   0.0
100.0   90.0   16.666666666666668
150.0   90.0   16.666666666666668
100.0   120.0   16.666666666666668
100.0   90.0   33.333333333333336
150.0   90.0   16.666666666666668
150.0   120.0   16.666666666666668
100.0   120.0   16.666666666666668
150.0   120.0   33.333333333333336
100.0   90.0   33.333333333333336
100.0   120.0   33.333333333333336
150.0   120.0   33.333333333333336
100.0   120.0   16.666666666666668
100.0   90.0   33.333333333333336
150.0   120.0   33.333333333333336
150.0   90.0   33.333333333333336
150.0   90.0   16.666666666666668
100.0   90.0   33.333333333333336
150.0   120.0   33.333333333333336
150.0   90.0   16.666666666666668
100.0   120.0   16.666666666666668
100.0   90.0   33.333333333333336
150.0   90.0   33.333333333333336
100.0   120.0   33.333333333333336
100.0   90.0   50.0
150.0   90.0   33.333333333333336
150.0   120.0   33.333333333333336
100.0   120.0   33.333333333333336
150.0   120.0   50.0
100.0   90.0   50.0
100.0   120.0   50.0
150.0   120.0   50.0
100.0   120.0   33.333333333333336
100.0   90.0   50.0
150.0   120.0   50.0
150.0   90.0   50.0
150.0   90.0   33.333333333333336
100.0   90.0   50.0
150.0   120.0   50.0
150.0   90.0   33.333333333333336
100.0   120.0   33.333333333333336
100.0   120.0   0.0
150.0   120.0   0.0
100.0   150.0   0.0
100.0   120.0   16.666666666666668
150.0   120.0   0.0
150.0   150.0   0.0
100.0   150.0   0.0
150.0   150.0   16.666666666666668
100.0   120.0   16.666666666666668
100.0   150.0   16.666666666666668
150.0   150.0   16.666666666666668
100.0   150.0   0.0
100.0   120.0   16.666666666666668
150.0   150.0   16.666666666666668
150.0   120.0   16.666666666666668
150.0   120.0   0.0
100.0   120.0   16.666666666666668
150.0   150.0   16.666666666666668
150.0   120.0   0.0
100.0   150.0   0.0
100.0   120.0   16.666666666666668
150.0   120.0   16.666666666666668
100.0   150.0   16.666666666666668
100.0   120.0   33.333333333333336
150.0   120.0   16.666666666666668
150.0   150.0   16.666666666666668
100.0   150.0   16.666666666666668
150.0   150.0   33.333333333333336
100.0   120.0   33.333333333333336
100.0   150.0   33.333333333333336
150.0   150.0   33.333333333333336
100.0   150.0   16.666666666666668
100.0   120.0   33.333333333333336
150.0   150.0   33.333333333333336
150.0   120.0   33.333333333333336
150.0   120.0   16.666666666666668
100.0   120.0   33.333333333333336
150.0   150.0   33.333333333333336
150.0   120.0   16.666666666666668
100.0   150.0   16.666666666666668
100.0   120.0   33.333333333333336
150.0   120.0   33.333333333333336
100.0   150.0   33.333333333333336
100.0   120.0   50.0
150.0   120.0   33.333333333333336
150.0   150.0   33.333333333333336
100.0   150.0   33.333333333333336
150.0   150.0   50.0
100.0   120.0   50.0
100.0   150.0   50.0
150.0   150.0   50.0
100.0   150.0   33.333333333333336
100.0   120.0   50.0
150.0   150.0   50.0
150.0   120.0   50.0
150.0   120.0   33.333333333333336
100.0   120.0   50.0
150.0   150.0   50.0
150.0   120.0   33.333333333333336
100.0   150.0   33.333333333333336
150.0   0.0   0.0
200.0   0.0   0.0
150.0   30.0   0.0
150.0   0.0   16.666666666666668
200.0   0.0   0.0
200.0   30.0   0.0
150.0   30.0   0.0
200.0   30.0   16.666666666666668
150.0   0.0   16.666666666666668
150.0   30.0   16.666666666666668
200.0   30.0   16.666666666666668
150.0   30.0   0.0
150.0   0.0   16.666666666666668
200.0   30.0   16.666666666666668
200.0   0.0   16.666666666666668
200.0   0.0   0.0
150.0   0.0   16.666666666666668
200.0   30.0   16.666666666666668
200.0   0.0   0.0
150.0   30.0   0.0
150.0   0.0   16.666666666666668
200.0   0.0   16.666666666666668
150.0   30.0   16.666666666666668
150.0   0.0   33.333333333333336
200.0   0.0   16.666666666666668
200.0   30.0   16.666666666666668
150.0   30.0   16.666666666666668
200.0   30.0   33.333333333333336
150.0   0.0   33.333333333333336
150.0   30.0   33.333333333333336
200.0   30.0   33.333333333333336
150.0   30.0   16.666666666666668
150.0   0.0   33.333333333333336
200.0   30.0   33.333333333333336
200.0   0.0   33.333333333333336
200.0   0.0   16.666666666666668
150.0   0.0   33.333333333333336
200.0   30.0   33.333333333333336
200.0   0.0   16.666666666666668
150.0   30.0   16.666666666666668
150.0   0.0   33.333333333333336
200.0   0.0   33.333333333333336
150.0   30.0   33.333333333333336
150.0   0.0   50.0
200.0   0.0   33.333333333333336
200.0   30.0   33.333333333333336
150.0   30.0   33.333333333333336
200.0   30.0   50.0
150.0   0.0   50.0
150.0   30.0   50.0
200.0   30.0   50.0
150.0   30.0   33.333333333333336
150.0   0.0   50.0
200.0   30.0   50.0
200.0   0.0   50.0
200.0   0.0   33.333333333333336
150.0   0.0   50.0
200.0   30.0   50.0
200.0   0.0   33.333333333333336
150.0   30.0   33.333333333333336
150.0   30.0   0.0
200.0   30.0   0.0
150.0   60.0   0.0
150.0   30.0   16.666666666666668
200.0   30.0   0.0
200.0   60.0   0.0
150.0   60.0   0.0
200.0   60.0   16.666666666666668
150.0   30.0   16.666666666666668
150.0   60.0   16.666666666666668
200.0   60.0   16.666666666666668
150.0   60.0   0.0
150.0   30.0   16.666666666666668
200.0   60.0   16.666666666666668
200.0   30.0   16.666666666666668
200.0   30.0   0.0
150.0   30.0   16.666666666666668
200.0   60.0   16.666666666666668
200.0   30.0   0.0
150.0   60.0   0.0
150.0   30.0   16.666666666666668
200.0   30.0   16.666666666666668
150.0   60.0   16.666666666666668
150.0   30.0   33.333333333333336
200.0   30.0   16.666666666666668
200.0   60.0   16.666666666666668
150.0   60.0   16.666666666666668
200.0   60.0   33.333333333333336
150.0   30.0   33.333333333333336
150.0   60.0   33.333333333333336
200.0   60.0   33.333333333333336
150.0   60.0   16.666666666666668
150.0   30.0   33.333333333333336
200.0   60.0   33.333333333333336
200.0   30.0   33.333333333333336
200.0   30.0   16.666666666666668
150.0   30.0   33.333333333333336
200.0   60.0   33.333333333333336
200.0   30.0   16.666666666666668
150.0   60.0   16.666666666666668
150.0   30.0   33.333333333333336
200.0   30.0   33.333333333333336
150.0   60.0   33.333333333333336
150.0   30.0   50.0
200.0   30.0   33.333333333333336
200.0   60.0   33.333333333333336
150.0   60.0   33.333333333333336
200.0   60.0   50.0
150.0   30.0   50.0
150.0   60.0   50.0
200.0   60.0   50.0
150.0   60.0   33.333333333333336
150.0   30.0   50.0
200.0   60.0   50.0
200.0   30.0   50.0
200.0   30.0   33.333333333333336
150.0   30.0   50.0
200.0   60.0   50.0
200.0   30.0   33.333333333333336
150.0   60.0   33.333333333333336
150.0   60.0   0.0
200.0   60.0   0.0
150.0   90.0   0.0
150.0   60.0   16.666666666666668
200.0   60.0   0.0
200.0   90.0   0.0
150.0   90.0   0.0
200.0   90.0   16.666666666666668
150.0   60.0   16.666666666666668
150.0   90.0   16.666666666666668
200.0   90.0   16.666666666666668
150.0   90.0   0.0
150.0   60.0   16.666666666666668
200.0   90.0   16.666666666666668
200.0   60.0   16.666666666666668
200.0   60.0   0.0
150.0   60.0   16.666666666666668
200.0   90.0   16.666666666666668
200.0   60.0   0.0
150.0   90.0   0.0
150.0   60.0   16.666666666666668
200.0   60.0   16.666666666666668
150.0   90.0   16.666666666666668
150.0   60.0   33.333333333333336
200.0   60.0   16.666666666666668
200.0   90.0   16.666666666666668
150.0   90.0   16.666666666666668
200.0   90.0   33.333333333333336
150.0   60.0   33.333333333333336
150.0   90.0   33.333333333333336
200.0   90.0   33.333333333333336
150.0   90.0   16.666666666666668
150.0   60.0   33.333333333333336
200.0   90.0   33.333333333333336
200.0   60.0   33.333333333333336
200.0   60.0   16.666666666666668
150.0   60.0   33.333333333333336
200.0   90.0   33.333333333333336
200.0   60.0   16.666666666666668
150.0   90.0   16.666666666666668
150.0   60.0   33.333333333333336
200.0   60.0   33.333333333333336
150.0   90.0   33.333333333333336
150.0   60.0   50.0
200.0   60.0   33.333333333333336
200.0   90.0   33.333333333333336
150.0   90.0   33.333333333333336
200.0   90.0   50.0
150.0   60.0   50.0
150.0   90.0   50.0
200.0   90.0   50.0
150.0   90.0   33.333333333333336
150.0   60.0   50.0
200.0   90.0   50.0
200.0   60.0   50.0
200.0   60.0   33.333333333333336
150.0   60.0   50.0
200.0   90.0   50.0
200.0   60.0   33.333333333333336
150.0   90.0   33.333333333333336
150.0   90.0   0.0
200.0   90.0   0.0
150.0   120.0   0.0
150.0   90.0   16.666666666666668
200.0   90.0   0.0
200.0   120.0   0.0
150.0   120.0   0.0
200.0   120.0   16.666666666666668
150.0   90.0   16.666666666666668
150.0   120.0   16.666666666666668
200.0   120.0   16.666666666666668
150.0   120.0   0.0
150.0   90.0   16.666666666666668
200.0   120.0   16.666666666666668
200.0   90.0   16.666666666666668
200.0   90.0   0.0
150.0   90.0   16.666666666666668
200.0   120.0   16.666666666666668
200.0   90.0   0.0
150.0   120.0   0.0
150.0   90.0   16.666666666666668
200.0   90.0   16.666666666666668
150.0   120.0   16.666666666666668
150.0   90.0   33.333333333333336
200.0   90.0   16.666666666666668
200.0   120.0   16.666666666666668
150.0   120.0   16.666666666666668
200.0   120.0   33.333333333333336
150.0   90.0   33.333333333333336
150.0   120.0   33.333333333333336
200.0   120.0   33.333333333333336
150.0   120.0   16.666666666666668
150.0   90.0   33.333333333333336
200.0   120.0   33.333333333333336
200.0   90.0   33.333333333333336
200.0   90.0   16.666666666666668
150.0   90.0   33.333333333333336
200.0   120.0   33.333333333333336
200.0   90.0   16.666666666666668
150.0   120.0   16.666666666666668
150.0   90.0   33.333333333333336
200.0   90.0   33.333333333333336
150.0   120.0   33.333333333333336
150.0   90.0   50.0
200.0   90.0   33.333333333333336
200.0   120.0   33.333333333333336
150.0   120.0   33.333333333333336
200.0   120.0   50.0
150.0   90.0   50.0
150.0   120.0   50.0
200.0   120.0   50.0
150.0   120.0   33.333333333333336
150.0   90.0   50.0
200.0   120.0   50.0
200.0   90.0   50.0
200.0   90.0   33.333333333333336
150.0   90.0   50.0
200.0   120.0   50.0
200.0   90.0   33.333333333333336
150.0   120.0   33.333333333333336
150.0   120.0   0.0
200.0   120.0   0.0
150.0   150.0   0.0
150.0   120.0   16.666666666666668
200.0   120.0   0.0
200.0   150.0   0.0
150.0   150.0   0.0
200.0   150.0   16.666666666666668
150.0   120.0   16.666666666666668
150.0   150.0   16.666666666666668
200.0   150.0   16.666666666666668
150.0   150.0   0.0
150.0   120.0   16.666666666666668
200.0   150.0   16.666666666666668
200.0   120.0   16.666666666666668
200.0   120.0   0.0
150.0   120.0   16.666666666666668
200.0   150.0   16.666666666666668
200.0   120.0   0.0
150.0   150.0   0.0
150.0   120.0   16.666666666666668
200.0   120.0   16.666666666666668
150.0   150.0   16.666666666666668
150.0   120.0   33.333333333333336
200.0   120.0   16.666666666666668
200.0   150.0   16.666666666666668
150.0   150.0   16.666666666666668
200.0   150.0   33.333333333333336
150.0   120.0   33.333333333333336
150.0   150.0   33.333333333333336
200.0   150.0   33.333333333333336
150.0   150.0   16.666666666666668
150.0   120.0   33.333333333333336
200.0   150.0   33.333333333333336
200.0   120.0   33.333333333333336
200.0   120.0   16.666666666666668
150.0   120.0   33.333333333333336
200.0   150.0   33.333333333333336
200.0   120.0   16.666666666666668
150.0   150.0   16.666666666666668
150.0   120.0   33.333333333333336
200.0   120.0   33.333333333333336
150.0   150.0   33.333333333333336
150.0   120.0   50.0
200.0   120.0   33.333333333333336
200.0   150.0   33.333333333333336
150.0   150.0   33.333333333333336
200.0   150.0   50.0
150.0   120.0   50.0
150.0   150.0   50.0
200.0   150.0   50.0
150.0   150.0   33.333333333333336
150.0   120.0   50.0
200.0   150.0   50.0
200.0   120.0   50.0
200.0   120.0   33.333333333333336
150.0   120.0   50.0
200.0   150.0   50.0
200.0   120.0   33.333333333333336
150.0   150.0   33.333333333333336
200.0   0.0   0.0
250.0   0.0   0.0
200.0   30.0   0.0
200.0   0.0   16.666666666666668
250.0   0.0   0.0
250.0   30.0   0.0
200.0   30.0   0.0
250.0   30.0   16.666666666666668
200.0   0.0   16.666666666666668
200.0   30.0   16.666666666666668
250.0   30.0   16.666666666666668
200.0   30.0   0.0
200.0   0.0   16.666666666666668
250.0   30.0   16.666666666666668
250.0   0.0   16.666666666666668
250.0   0.0   0.0
200.0   0.0   16.666666666666668
250.0   30.0   16.666666666666668
250.0   0.0   0.0
200.0   30.0   0.0
200.0   0.0   16.666666666666668
250.0   0.0   16.666666666666668
200.0   30.0   16.666666666666668
200.0   0.0   33.333333333333336
250.0   0.0   16.666666666666668
250.0   30.0   16.666666666666668
200.0   30.0   16.666666666666668
250.0   30.0   33.333333333333336
200.0   0.0   33.333333333333336
200.0   30.0   33.333333333333336
250.0   30.0   33.333333333333336
200.0   30.0   16.666666666666668
200.0   0.0   33.333333333333336
250.0   30.0   33.333333333333336
250.0   0.0   33.333333333333336
250.0   0.0   16.666666666666668
200.0   0.0   33.333333333333336
250.0   30.0   33.333333333333336
250.0   0.0   16.666666666666668
200.0   30.0   16.666666666666668
200.0   0.0   33.333333333333336
250.0   0.0   33.333333333333336
200.0   30.0   33.333333333333336
200.0   0.0   50.0
250.0   0.0   33.333333333333336
250.0   30.0   33.333333333333336
200.0   30.0   33.333333333333336
250.0   30.0   50.0
200.0   0.0   50.0
200.0   30.0   50.0
250.0   30.0   50.0
200.0   30.0   33.333333333333336
200.0   0.0   50.0
250.0   30.0   50.0
250.0   0.0   50.0
250.0   0.0   33.333333333333336
200.0   0.0   50.0
250.0   30.0   50.0
250.0   0.0   33.333333333333336
200.0   30.0   33.333333333333336
200.0   30.0   0.0
250.0   30.0   0.0
200.0   60.0   0.0
200.0   30.0   16.666666666666668
250.0   30.0   0.0
250.0   60.0   0.0
200.0   60.0   0.0
250.0   60.0   16.666666666666668
200.0   30.0   16.666666666666668
200.0   60.0   16.666666666666668
250.0   60.0   16.666666666666668
200.0   60.0   0.0
200.0   30.0   16.666666666666668
250.0   60.0   16.666666666666668
250.0   30.0   16.666666666666668
250.0   30.0   0.0
200.0   30.0   16.666666666666668
250.0   60.0   16.666666666666668
250.0   30.0   0.0
200.0   60.0   0.0
200.0   30.0   16.666666666666668
250.0   30.0   16.666666666666668
200.0   60.0   16.666666666666668
200.0   30.0   33.333333333333336
250.0   30.0   16.666666666666668
250.0   60.0   16.666666666666668
200.0   60.0   16.666666666666668
250.0   60.0   33.333333333333336
200.0   30.0   33.333333333333336
200.0   60.0   33.333333333333336
250.0   60.0   33.333333333333336
200.0   60.0   16.666666666666668
200.0   30.0   33.333333333333336
250.0   60.0   33.333333333333336
250.0   30.0   33.333333333333336
250.0   30.0   16.666666666666668
200.0   30.0   33.333333333333336
250.0   60.0   33.333333333333336
250.0   30.0   16.666666666666668
200.0   60.0   16.666666666666668
200.0   30.0   33.333333333333336
250.0   30.0   33.333333333333336
200.0   60.0   33.333333333333336
200.0   30.0   50.0
250.0   30.0   33.333333333333336
250.0   60.0   33.333333333333336
200.0   60.0   33.333333333333336
250.0   60.0   50.0
200.0   30.0   50.0
200.0   60.0   50.0
250.0   60.0   50.0
200.0   60.0   33.333333333333336
200.0   30.0   50.0
250.0   60.0   50.0
250.0   30.0   50.0
250.0   30.0   33.333333333333336
200.0   30.0   50.0
250.0   60.0   50.0
250.0   30.0   33.333333333333336
200.0   60.0   33.333333333333336
200.0   60.0   0.0
250.0   60.0   0.0
200.0   90.0   0.0
200.0   60.0   16.666666666666668
250.0   60.0   0.0
250.0   90.0   0.0
200.0   90.0   0.0
250.0   90.0   16.666666666666668
200.0   60.0   16.666666666666668
200.0   90.0   16.666666666666668
250.0   90.0   16.666666666666668
200.0   90.0   0.0
200.0   60.0   16.666666666666668
250.0   90.0   16.666666666666668
250.0   60.0   16.666666666666668
250.0   60.0   0.0
200.0   60.0   16.666666666666668
250.0   90.0   16.666666666666668
250.0   60.0   0.0
200.0   90.0   0.0
200.0   60.0   16.666666666666668
250.0   60.0   16.666666666666668
200.0   90.0   16.666666666666668
200.0   60.0   33.333333333333336
250.0   60.0   16.666666666666668
250.0   90.0   16.666666666666668
200.0   90.0   16.666666666666668
250.0   90.0   33.333333333333336
200.0   60.0   33.333333333333336
200.0   90.0   33.333333333333336
250.0   90.0   33.333333333333336
200.0   90.0   16.666666666666668
200.0   60.0   33.333333333333336
250.0   90.0   33.333333333333336
250.0   60.0   33.333333333333336
250.0   60.0   16.666666666666668
200.0   60.0   33.333333333333336
250.0   90.0   33.333333333333336
250.0   60.0   16.666666666666668
200.0   90.0   16.666666666666668
200.0   60.0   33.333333333333336
250.0   60.0   33.333333333333336
200.0   90.0   33.333333333333336
200.0   60.0   50.0
250.0   60.0   33.333333333333336
250.0   90.0   33.333333333333336
200.0   90.0   33.333333333333336
250.0   90.0   50.0
200.0   60.0   50.0
200.0   90.0   50.0
250.0   90.0   50.0
200.0   90.0   33.333333333333336
200.0   60.0   50.0
250.0   90.0   50.0
250.0   60.0   50.0
250.0   60.0   33.333333333333336
200.0   60.0   50.0
250.0   90.0   50.0
250.0   60.0   33.333333333333336
200.0   90.0   33.333333333333336
200.0   90.0   0.0
250.0   90.0   0.0
200.0   120.0   0.0
200.0   90.0   16.666666666666668
250.0   90.0   0.0
250.0   120.0   0.0
200.0   120.0   0.0
250.0   120.0   16.666666666666668
200.0   90.0   16.666666666666668
200.0   120.0   16.666666666666668
250.0   120.0   16.666666666666668
200.0   120.0   0.0
200.0   90.0   16.666666666666668
250.0   120.0   16.666666666666668
250.0   90.0   16.666666666666668
250.0   90.0   0.0
200.0   90.0   16.666666666666668
250.0   120.0   16.666666666666668
250.0   90.0   0.0
200.0   120.0   0.0
200.0   90.0   16.666666666666668
250.0   90.0   16.666666666666668
200.0   120.0   16.666666666666668
200.0   90.0   33.333333333333336
250.0   90.0   16.666666666666668
250.0   120.0   16.666666666666668
200.0   120.0   16.666666666666668
250.0   120.0   33.333333333333336
200.0   90.0   33.333333333333336
200.0   120.0   33.333333333333336
250.0   120.0   33.333333333333336
200.0   120.0   16.666666666666668
200.0   90.0   33.333333333333336
250.0   120.0   33.333333333333336
250.0   90.0   33.333333333333336
250.0   90.0   16.666666666666668
200.0   90.0   33.333333333333336
250.0   120.0   33.333333333333336
250.0   90.0   16.666666666666668
200.0   120.0   16.666666666666668
200.0   90.0   33.333333333333336
250.0   90.0   33.333333333333336
200.0   120.0   33.333333333333336
200.0   90.0   50.0
250.0   90.0   33.333333333333336
250.0   120.0   33.333333333333336
200.0   120.0   33.333333333333336
250.0   120.0   50.0
200.0   90.0   50.0
200.0   120.0   50.0
250.0   120.0   50.0
200.0   120.0   33.333333333333336
200.0   90.0   50.0
250.0   120.0   50.0
250.0   90.0   50.0
250.0   90.0   33.333333333333336
200.0   90.0   50.0
250.0   120.0   50.0
250.0   90.0   33.333333333333336
200.0   120.0   33.333333333333336
200.0   120.0   0.0
250.0   120.0   0.0
200.0   150.0   0.0
200.0   120.0   16.666666666666668
250.0   120.0   0.0
250.0   150.0   0.0
200.0   150.0   0.0
250.0   150.0   16.666666666666668
200.0   120.0   16.666666666666668
200.0   150.0   16.666666666666668
250.0   150.0   16.666666666666668
200.0   150.0   0.0
200.0   120.0   16.666666666666668
250.0   150.0   16.666666666666668
250.0   120.0   16.666666666666668
250.0   120.0   0.0
200.0   120.0   16.666666666666668
250.0   150.0   16.666666666666668
250.0   120.0   0.0
200.0   150.0   0.0
200.0   120.0   16.666666666666668
250.0   120.0   16.666666666666668
200.0   150.0   16.666666666666668
200.0   120.0   33.333333333333336
250.0   120.0   16.666666666666668
250.0   150.0   16.666666666666668
200.0   150.0   16.666666666666668
250.0   150.0   33.333333333333336
200.0   120.0   33.333333333333336
200.0   150.0   33.333333333333336
250.0   150.0   33.333333333333336
200.0   150.0   16.666666666666668
200.0   120.0   33.333333333333336
250.0   150.0   33.333333333333336
250.0   120.0   33.333333333333336
250.0   120.0   16.666666666666668
200.0   120.0   33.333333333333336
250.0   150.0   33.333333333333336
250.0   120.0   16.666666666666668
200.0   150.0   16.666666666666668
200.0   120.0   33.333333333333336
250.0   120.0   33.333333333333336
200.0   150.0   33.333333333333336
200.0   120.0   50.0
250.0   120.0   33.333333333333336
250.0   150.0   33.333333333333336
200.0   150.0   33.333333333333336
250.0   150.0   50.0
200.0   120.0   50.0
200.0   150.0   50.0
250.0   150.0   50.0
200.0   150.0   33.333333333333336
200.0   120.0   50.0
250.0   150.0   50.0
250.0   120.0   50.0
250.0   120.0   33.333333333333336
200.0   120.0   50.0
250.0   150.0   50.0
250.0   120.0   33.333333333333336
200.0   150.0   33.333333333333336
250.0   0.0   0.0
300.0   0.0   0.0
250.0   30.0   0.0
250.0   0.0   16.666666666666668
300.0   0.0   0.0
300.0   30.0   0.0
250.0   30.0   0.0
300.0   30.0   16.666666666666668
250.0   0.0   16.666666666666668
250.0   30.0   16.666666666666668
300.0   30.0   16.666666666666668
250.0   30.0   0.0
250.0   0.0   16.666666666666668
300.0   30.0   16.666666666666668
300.0   0.0   16.666666666666668
300.0   0.0   0.0
250.0   0.0   16.666666666666668
300.0   30.0   16.666666666666668
300.0   0.0   0.0
250.0   30.0   0.0
250.0   0.0   16.666666666666668
300.0   0.0   16.666666666666668
250.0   30.0   16.666666666666668
250.0   0.0   33.333333333333336
300.0   0.0   16.666666666666668
300.0   30.0   16.666666666666668
250.0   30.0   16.666666666666668
300.0   30.0   33.333333333333336
250.0   0.0   33.333333333333336
250.0   30.0   33.333333333333336
300.0   30.0   33.333333333333336
250.0   30.0   16.666666666666668
250.0   0.0   33.333333333333336
300.0   30.0   33.333333333333336
300.0   0.0   33.333333333333336
300.0   0.0   16.666666666666668
250.0   0.0   33.333333333333336
300.0   30.0   33.333333333333336
300.0   0.0   16.666666666666668
250.0   30.0   16.666666666666668
250.0   0.0   33.333333333333336
300.0   0.0   33.333333333333336
250.0   30.0   33.333333333333336
250.0   0.0   50.0
300.0   0.0   33.333333333333336
300.0   30.0   33.333333333333336
250.0   30.0   33.333333333333336
300.0   30.0   50.0
250.0   0.0   50.0
250.0   30.0   50.0
300.0   30.0   50.0
250.0   30.0   33.333333333333336
250.0   0.0   50.0
300.0   30.0   50.0
300.0   0.0   50.0
300.0   0.0   33.333333333333336
250.0   0.0   50.0
300.0   30.0   50.0
300.0   0.0   33.333333333333336
250.0   30.0   33.333333333333336
250.0   30.0   0.0
300.0   30.0   0.0
250.0   60.0   0.0
250.0   30.0   16.666666666666668
300.0   30.0   0.0
300.0   60.0   0.0
250.0   60.0   0.0
300.0   60.0   16.666666666666668
250.0   30.0   16.666666666666668
250.0   60.0   16.666666666666668
300.0   60.0   16.666666666666668
250.0   60.0   0.0
250.0   30.0   16.666666666666668
300.0   60.0   16.666666666666668
300.0   30.0   16.666666666666668
300.0   30.0   0.0
250.0   30.0   16.666666666666668
300.0   60.0   16.666666666666668
300.0   30.0   0.0
250.0   60.0   0.0
250.0   30.0   16.666666666666668
300.0   30.0   16.666666666666668
250.0   60.0   16.666666666666668
250.0   30.0   33.333333333333336
300.0   30.0   16.666666666666668
300.0   60.0   16.666666666666668
250.0   60.0   16.666666666666668
300.0   60.0   33.333333333333336
250.0   30.0   33.333333333333336
250.0   60.0   33.333333333333336
300.0   60.0   33.333333333333336
250.0   60.0   16.666666666666668
250.0   30.0   33.333333333333336
300.0   60.0   33.333333333333336
300.0   30.0   33.333333333333336
300.0   30.0   16.666666666666668
250.0   30.0   33.333333333333336
300.0   60.0   33.333333333333336
300.0   30.0   16.666666666666668
250.0   60.0   16.666666666666668
250.0   30.0   33.333333333333336
300.0   30.0   33.333333333333336
250.0   60.0   33.333333333333336
250.0   30.0   50.0
300.0   30.0   33.333333333333336
300.0   60.0   33.333333333333336
250.0   60.0   33.333333333333336
300.0   60.0   50.0
250.0   30.0   50.0
250.0   60.0   50.0
300.0   60.0   50.0
250.0   60.0   33.333333333333336
250.0   30.0   50.0
300.0   60.0   50.0
300.0   30.0   50.0
300.0   30.0   33.333333333333336
250.0   30.0   50.0
300.0   60.0   50.0
300.0   30.0   33.333333333333336
250.0   60.0   33.333333333333336
250.0   60.0   0.0
300.0   60.0   0.0
250.0   90.0   0.0
250.0   60.0   16.666666666666668
300.0   60.0   0.0
300.0   90.0   0.0
250.0   90.0   0.0
300.0   90.0   16.666666666666668
250.0   60.0   16.666666666666668
250.0   90.0   16.666666666666668
300.0   90.0   16.666666666666668
250.0   90.0   0.0
250.0   60.0   16.666666666666668
300.0   90.0   16.666666666666668
300.0   60.0   16.666666666666668
300.0   60.0   0.0
250.0   60.0   16.666666666666668
300.0   90.0   16.666666666666668
300.0   60.0   0.0
250.0   90.0   0.0
250.0   60.0   16.666666666666668
300.0   60.0   16.666666666666668
250.0   90.0   16.666666666666668
250.0   60.0   33.333333333333336
300.0   60.0   16.666666666666668
300.0   90.0   16.666666666666668
250.0   90.0   16.666666666666668
300.0   90.0   33.333333333333336
250.0   60.0   33.333333333333336
250.0   90.0   33.333333333333336
300.0   90.0   33.333333333333336
250.0   90.0   16.666666666666668
250.0   60.0   33.333333333333336
300.0   90.0   33.333333333333336
300.0   60.0   33.333333333333336
300.0   60.0   16.666666666666668
250.0   60.0   33.333333333333336
300.0   90.0   33.333333333333336
300.0   60.0   16.666666666666668
250.0   90.0   16.666666666666668
250.0   60.0   33.333333333333336
300.0   60.0   33.333333333333336
250.0   90.0   33.333333333333336
250.0   60.0   50.0
300.0   60.0   33.333333333333336
300.0   90.0   33.333333333333336
250.0   90.0   33.333333333333336
300.0   90.0   50.0
250.0   60.0   50.0
250.0   90.0   50.0
300.0   90.0   50.0
250.0   90.0   33.333333333333336
250.0   60.0   50.0
300.0   90.0   50.0
300.0   60.0   50.0
300.0   60.0   33.333333333333336
250.0   60.0   50.0
300.0   90.0   50.0
300.0   60.0   33.333333333333336
250.0   90.0   33.333333333333336
250.0   90.0   0.0
300.0   90.0   0.0
250.0   120.0   0.0
250.0   90.0   16.666666666666668
300.0   90.0   0.0
300.0   120.0   0.0
250.0   120.0   0.0
300.0   120.0   16.666666666666668
250.0   90.0   16.666666666666668
250.0   120.0   16.666666666666668
300.0   120.0   16.666666666666668
250.0   120.0   0.0
250.0   90.0   16.666666666666668
300.0   120.0   16.666666666666668
300.0   90.0   16.666666666666668
300.0   90.0   0.0
250.0   90.0   16.666666666666668
300.0   120.0   16.666666666666668
300.0   90.0   0.0
250.0   120.0   0.0
250.0   90.0   16.666666666666668
300.0   90.0   16.666666666666668
250.0   120.0   16.666666666666668
250.0   90.0   33.333333333333336
300.0   90.0   16.666666666666668
300.0   120.0   16.666666666666668
250.0   120.0   16.666666666666668
300.0   120.0   33.333333333333336
250.0   90.0   33.333333333333336
250.0   120.0   33.333333333333336
300.0   120.0   33.333333333333336
250.0   120.0   16.666666666666668
250.0   90.0   33.333333333333336
300.0   120.0   33.333333333333336
300.0   90.0   33.333333333333336
300.0   90.0   16.666666666666668
250.0   90.0   33.333333333333336
300.0   120.0   33.333333333333336
300.0   90.0   16.666666666666668
250.0   120.0   16.666666666666668
250.0   90.0   33.333333333333336
300.0   90.0   33.333333333333336
250.0   120.0   33.333333333333336
250.0   90.0   50.0
300.0   90.0   33.333333333333336
300.0   120.0   33.333333333333336
250.0   120.0   33.333333333333336
300.0   120.0   50.0
250.0   90.0   50.0
250.0   120.0   50.0
300.0   120.0   50.0
250.0   120.0   33.333333333333336
250.0   90.0   50.0
300.0   120.0   50.0
300.0   90.0   50.0
300.0   90.0   33.333333333333336
250.0   90.0   50.0
300.0   120.0   50.0
300.0   90.0   33.333333333333336
250.0   120.0   33.333333333333336
250.0   120.0   0.0
300.0   120.0   0.0
250.0   150.0   0.0
250.0   120.0   16.666666666666668
300.0   120.0   0.0
300.0   150.0   0.0
250.0   150.0   0.0
300.0   150.0   16.666666666666668
250.0   120.0   16.666666666666668
250.0   150.0   16.666666666666668
300.0   150.0   16.666666666666668
250.0   150.0   0.0
250.0   120.0   16.666666666666668
300.0   150.0   16.666666666666668
300.0   120.0   16.666666666666668
300.0   120.0   0.0
250.0   120.0   16.666666666666668
300.0   150.0   16.666666666666668
300.0   120.0   0.0
250.0   150.0   0.0
250.0   120.0   16.666666666666668
300.0   120.0   16.666666666666668
250.0   150.0   16.666666666666668
250.0   120.0   33.333333333333336
300.0   120.0   16.666666666666668
300.0   150.0   16.666666666666668
250.0   150.0   16.666666666666668
300.0   150.0   33.333333333333336
250.0   120.0   33.333333333333336
250.0   150.0   33.333333333333336
300.0   150.0   33.333333333333336
250.0   150.0   16.666666666666668
250.0   120.0   33.333333333333336
300.0   150.0   33.333333333333336
300.0   120.0   33.333333333333336
300.0   120.0   16.666666666666668
250.0   120.0   33.333333333333336
300.0   150.0   33.333333333333336
300.0   120.0   16.666666666666668
250.0   150.0   16.666666666666668
250.0   120.0   33.333333333333336
300.0   120.0   33.333333333333336
250.0   150.0   33.333333333333336
250.0   120.0   50.0
300.0   120.0   33.333333333333336
300.0   150.0   33.333333333333336
250.0   150.0   33.333333333333336
300.0   150.0   50.0
250.0   120.0   50.0
250.0   150.0   50.0
300.0   150.0   50.0
250.0   150.0   33.333333333333336
250.0   120.0   50.0
300.0   150.0   50.0
300.0   120.0   50.0
300.0   120.0   33.333333333333336
250.0   120.0   50.0
300.0   150.0   50.0
300.0   120.0   33.333333333333336
250.0   150.0   33.333333333333336
300.0   0.0   0.0
350.0   0.0   0.0
300.0   30.0   0.0
300.0   0.0   16.666666666666668
350.0   0.0   0.0
350.0   30.0   0.0
300.0   30.0   0.0
350.0   30.0   16.666666666666668
300.0   0.0   16.666666666666668
300.0   30.0   16.666666666666668
350.0   30.0   16.666666666666668
300.0   30.0   0.0
300.0   0.0   16.666666666666668
350.0   30.0   16.666666666666668
350.0   0.0   16.666666666666668
350.0   0.0   0.0
300.0   0.0   16.666666666666668
350.0   30.0   16.666666666666668
350.0   0.0   0.0
300.0   30.0   0.0
300.0   0.0   16.666666666666668
350.0   0.0   16.666666666666668
300.0   30.0   16.666666666666668
300.0   0.0   33.333333333333336
350.0   0.0   16.666666666666668
350.0   30.0   16.666666666666668
300.0   30.0   16.666666666666668
350.0   30.0   33.333333333333336
300.0   0.0   33.333333333333336
300.0   30.0   33.333333333333336
350.0   30.0   33.333333333333336
300.0   30.0   16.666666666666668
300.0   0.0   33.333333333333336
350.0   30.0   33.333333333333336
350.0   0.0   33.333333333333336
350.0   0.0   16.666666666666668
300.0   0.0   33.333333333333336
350.0   30.0   33.333333333333336
350.0   0.0   16.666666666666668
300.0   30.0   16.666666666666668
300.0   0.0   33.333333333333336
350.0   0.0   33.333333333333336
300.0   30.0   33.333333333333336
300.0   0.0   50.0
350.0   0.0   33.333333333333336
350.0   30.0   33.333333333333336
300.0   30.0   33.333333333333336
350.0   30.0   50.0
300.0   0.0   50.0
300.0   30.0   50.0
350.0   30.0   50.0
300.0   30.0   33.333333333333336
300.0   0.0   50.0
350.0   30.0   50.0
350.0   0.0   50.0
350.0   0.0   33.333333333333336
300.0   0.0   50.0
350.0   30.0   50.0
350.0   0.0   33.333333333333336
300.0   30.0   33.333333333333336
300.0   30.0   0.0
350.0   30.0   0.0
300.0   60.0   0.0
300.0   30.0   16.666666666666668
350.0   30.0   0.0
350.0   60.0   0.0
300.0   60.0   0.0
350.0   60.0   16.666666666666668
300.0   30.0   16.666666666666668
300.0   60.0   16.666666666666668
350.0   60.0   16.666666666666668
300.0   60.0   0.0
300.0   30.0   16.666666666666668
350.0   60.0   16.666666666666668
350.0   30.0   16.666666666666668
350.0   30.0   0.0
300.0   30.0   16.666666666666668
350.0   60.0   16.666666666666668
350.0   30.0   0.0
300.0   60.0   0.0
300.0   30.0   16.666666666666668
350.0   30.0   16.666666666666668
300.0   60.0   16.666666666666668
300.0   30.0   33.333333333333336
350.0   30.0   16.666666666666668
350.0   60.0   16.666666666666668
300.0   60.0   16.666666666666668
350.0   60.0   33.333333333333336
300.0   30.0   33.333333333333336
300.0   60.0   33.333333333333336
350.0   60.0   33.333333333333336
300.0   60.0   16.666666666666668
300.0   30.0   33.333333333333336
350.0   60.0   33.333333333333336
350.0   30.0   33.333333333333336
350.0   30.0   16.666666666666668
300.0   30.0   33.333333333333336
350.0   60.0   33.333333333333336
350.0   30.0   16.666666666666668
300.0   60.0   16.666666666666668
300.0   30.0   33.333333333333336
350.0   30.0   33.333333333333336
300.0   60.0   33.333333333333336
300.0   30.0   50.0
350.0   30.0   33.333333333333336
350.0   60.0   33.333333333333336
300.0   60.0   33.333333333333336
350.0   60.0   50.0
300.0   30.0   50.0
300.0   60.0   50.0
350.0   60.0   50.0
300.0   60.0   33.333333333333336
300.0   30.0   50.0
350.0   60.0   50.0
350.0   30.0   50.0
350.0   30.0   33.333333333333336
300.0   30.0   50.0
350.0   60.0   50.0
350.0   30.0   33.333333333333336
300.0   60.0   33.333333333333336
300.0   60.0   0.0
350.0   60.0   0.0
300.0   90.0   0.0
300.0   60.0   16.666666666666668
350.0   60.0   0.0
350.0   90.0   0.0
300.0   90.0   0.0
350.0   90.0   16.666666666666668
300.0   60.0   16.666666666666668
300.0   90.0   16.666666666666668
350.0   90.0   16.666666666666668
300.0   90.0   0.0
300.0   60.0   16.666666666666668
350.0   90.0   16.666666666666668
350.0   60.0   16.666666666666668
350.0   60.0   0.0
300.0   60.0   16.666666666666668
350.0   90.0   16.666666666666668
350.0   60.0   0.0
300.0   90.0   0.0
300.0   60.0   16.666666666666668
350.0   60.0   16.666666666666668
300.0   90.0   16.666666666666668
300.0   60.0   33.333333333333336
350.0   60.0   16.666666666666668
350.0   90.0   16.666666666666668
300.0   90.0   16.666666666666668
350.0   90.0   33.333333333333336
300.0   60.0   33.333333333333336
300.0   90.0   33.333333333333336
350.0   90.0   33.333333333333336
300.0   90.0   16.666666666666668
300.0   60.0   33.333333333333336
350.0   90.0   33.333333333333336
350.0   60.0   33.333333333333336
350.0   60.0   16.666666666666668
300.0   60.0   33.333333333333336
350.0   90.0   33.333333333333336
350.0   60.0   16.666666666666668
300.0   90.0   16.666666666666668
300.0   60.0   33.333333333333336
350.0   60.0   33.333333333333336
300.0   90.0   33.333333333333336
300.0   60.0   50.0
350.0   60.0   33.333333333333336
350.0   90.0   33.333333333333336
300.0   90.0   33.333333333333336
350.0   90.0   50.0
300.0   60.0   50.0
300.0   90.0   50.0
350.0   90.0   50.0
300.0   90.0   33.333333333333336
300.0   60.0   50.0
350.0   90.0   50.0
350.0   60.0   50.0
350.0   60.0   33.333333333333336
300.0   60.0   50.0
350.0   90.0   50.0
350.0   60.0   33.333333333333336
300.0   90.0   33.333333333333336
300.0   90.0   0.0
350.0   90.0   0.0
300.0   120.0   0.0
300.0   90.0   16.666666666666668
350.0   90.0   0.0
350.0   120.0   0.0
300.0   120.0   0.0
350.0   120.0   16.666666666666668
300.0   90.0   16.666666666666668
300.0   120.0   16.666666666666668
350.0   120.0   16.666666666666668
300.0   120.0   0.0
300.0   90.0   16.666666666666668
350.0   120.0   16.666666666666668
350.0   90.0   16.666666666666668
350.0   90.0   0.0
300.0   90.0   16.666666666666668
350.0   120.0   16.666666666666668
350.0   90.0   0.0
300.0   120.0   0.0
300.0   90.0   16.666666666666668
350.0   90.0   16.666666666666668
300.0   120.0   16.666666666666668
300.0   90.0   33.333333333333336
350.0   90.0   16.666666666666668
350.0   120.0   16.666666666666668
300.0   120.0   16.666666666666668
350.0   120.0   33.333333333333336
300.0   90.0   33.333333333333336
300.0   120.0   33.333333333333336
350.0   120.0   33.333333333333336
300.0   120.0   16.666666666666668
300.0   90.0   33.333333333333336
350.0   120.0   33.333333333333336
350.0   90.0   33.333333333333336
350.0   90.0   16.666666666666668
300.0   90.0   33.333333333333336
350.0   120.0   33.333333333333336
350.0   90.0   16.666666666666668
300.0   120.0   16.666666666666668
300.0   90.0   33.333333333333336
350.0   90.0   33.333333333333336
300.0   120.0   33.333333333333336
300.0   90.0   50.0
350.0   90.0   33.333333333333336
350.0   120.0   33.333333333333336
300.0   120.0   33.333333333333336
350.0   120.0   50.0
300.0   90.0   50.0
300.0   120.0   50.0
350.0   120.0   50.0
300.0   120.0   33.333333333333336
300.0   90.0   50.0
350.0   120.0   50.0
350.0   90.0   50.0
350.0   90.0   33.333333333333336
300.0   90.0   50.0
350.0   120.0   50.0
350.0   90.0   33.333333333333336
300.0   120.0   33.333333333333336
300.0   120.0   0.0
350.0   120.0   0.0
300.0   150.0   0.0
300.0   120.0   16.666666666666668
350.0   120.0   0.0
350.0   150.0   0.0
300.0   150.0   0.0
350.0   150.0   16.666666666666668
300.0   120.0   16.666666666666668
300.0   150.0   16.666666666666668
350.0   150.0   16.666666666666668
300.0   150.0   0.0
300.0   120.0   16.666666666666668
350.0   150.0   16.666666666666668
350.0   120.0   16.666666666666668
350.0   120.0   0.0
300.0   120.0   16.666666666666668
350.0   150.0   16.666666666666668
350.0   120.0   0.0
300.0   150.0   0.0
300.0   120.0   16.666666666666668
350.0   120.0   16.666666666666668
300.0   150.0   16.666666666666668
300.0   120.0   33.333333333333336
350.0   120.0   16.666666666666668
350.0   150.0   16.666666666666668
300.0   150.0   16.666666666666668
350.0   150.0   33.333333333333336
300.0   120.0   33.333333333333336
300.0   150.0   33.333333333333336
350.0   150.0   33.333333333333336
300.0   150.0   16.666666666666668
300.0   120.0   33.333333333333336
350.0   150.0   33.333333333333336
350.0   120.0   33.333333333333336
350.0   120.0   16.666666666666668
300.0   120.0   33.333333333333336
350.0   150.0   33.333333333333336
350.0   120.0   16.666666666666668
300.0   150.0   16.666666666666668
300.0   120.0   33.333333333333336
350.0   120.0   33.333333333333336
300.0   150.0   33.333333333333336
300.0   120.0   50.0
350.0   120.0   33.333333333333336
350.0   150.0   33.333333333333336
300.0   150.0   33.333333333333336
350.0   150.0   50.0
300.0   120.0   50.0
300.0   150.0   50.0
350.0   150.0   50.0
300.0   150.0   33.333333333333336
300.0   120.0   50.0
350.0   150.0   50.0
350.0   120.0   50.0
350.0   120.0   33.333333333333336
300.0   120.0   50.0
350.0   150.0   50.0
350.0   120.0   33.333333333333336
300.0   150.0   33.333333333333336
350.0   0.0   0.0
400.0   0.0   0.0
350.0   30.0   0.0
350.0   0.0   16.666666666666668
400.0   0.0   0.0
400.0   30.0   0.0
350.0   30.0   0.0
400.0   30.0   16.666666666666668
350.0   0.0   16.666666666666668
350.0   30.0   16.666666666666668
400.0   30.0   16.666666666666668
350.0   30.0   0.0
350.0   0.0   16.666666666666668
400.0   30.0   16.666666666666668
400.0   0.0   16.666666666666668
400.0   0.0   0.0
350.0   0.0   16.666666666666668
400.0   30.0   16.666666666666668
400.0   0.0   0.0
350.0   30.0   0.0
350.0   0.0   16.666666666666668
400.0   0.0   16.666666666666668
350.0   30.0   16.666666666666668
350.0   0.0   33.333333333333336
400.0   0.0   16.666666666666668
400.0   30.0   16.666666666666668
350.0   30.0   16.666666666666668
400.0   30.0   33.333333333333336
350.0   0.0   33.333333333333336
350.0   30.0   33.333333333333336
400.0   30.0   33.333333333333336
350.0   30.0   16.666666666666668
350.0   0.0   33.333333333333336
400.0   30.0   33.333333333333336
400.0   0.0   33.333333333333336
400.0   0.0   16.666666666666668
350.0   0.0   33.333333333333336
400.0   30.0   33.333333333333336
400.0   0.0   16.666666666666668
350.0   30.0   16.666666666666668
350.0   0.0   33.333333333333336
400.0   0.0   33.333333333333336
350.0   30.0   33.333333333333336
350.0   0.0   50.0
400.0   0.0   33.333333333333336
400.0   30.0   33.333333333333336
350.0   30.0   33.333333333333336
400.0   30.0   50.0
350.0   0.0   50.0
350.0   30.0   50.0
400.0   30.0   50.0
350.0   30.0   33.333333333333336
350.0   0.0   50.0
400.0   30.0   50.0
400.0   0.0   50.0
400.0   0.0   33.333333333333336
350.0   0.0   50.0
400.0   30.0   50.0
400.0   0.0   33.333333333333336
350.0   30.0   33.333333333333336
350.0   30.0   0.0
400.0   30.0   0.0
350.0   60.0   0.0
350.0   30.0   16.666666666666668
400.0   30.0   0.0
400.0   60.0   0.0
350.0   60.0   0.0
400.0   60.0   16.666666666666668
350.0   30.0   16.666666666666668
350.0   60.0   16.666666666666668
400.0   60.0   16.666666666666668
350.0   60.0   0.0
350.0   30.0   16.666666666666668
400.0   60.0   16.666666666666668
400.0   30.0   16.666666666666668
400.0   30.0   0.0
350.0   30.0   16.666666666666668
400.0   60.0   16.666666666666668
400.0   30.0   0.0
350.0   60.0   0.0
350.0   30.0   16.666666666666668
400.0   30.0   16.666666666666668
350.0   60.0   16.666666666666668
350.0   30.0   33.333333333333336
400.0   30.0   16.666666666666668
400.0   60.0   16.666666666666668
350.0   60.0   16.666666666666668
400.0   60.0   33.333333333333336
350.0   30.0   33.333333333333336
350.0   60.0   33.333333333333336
400.0   60.0   33.333333333333336
350.0   60.0   16.666666666666668
350.0   30.0   33.333333333333336
400.0   60.0   33.333333333333336
400.0   30.0   33.333333333333336
400.0   30.0   16.666666666666668
350.0   30.0   33.333333333333336
400.0   60.0   33.333333333333336
400.0   30.0   16.666666666666668
350.0   60.0   16.666666666666668
350.0   30.0   33.333333333333336
400.0   30.0   33.333333333333336
350.0   60.0   33.333333333333336
350.0   30.0   50.0
400.0   30.0   33.333333333333336
400.0   60.0   33.333333333333336
350.0   60.0   33.333333333333336
400.0   60.0   50.0
350.0   30.0   50.0
350.0   60.0   50.0
400.0   60.0   50.0
350.0   60.0   33.333333333333336
350.0   30.0   50.0
400.0   60.0   50.0
400.0   30.0   50.0
400.0   30.0   33.333333333333336
350.0   30.0   50.0
400.0   60.0   50.0
400.0   30.0   33.333333333333336
350.0   60.0   33.333333333333336
350.0   60.0   0.0
400.0   60.0   0.0
350.0   90.0   0.0
350.0   60.0   16.666666666666668
400.0   60.0   0.0
400.0   90.0   0.0
350.0   90.0   0.0
400.0   90.0   16.666666666666668
350.0   60.0   16.666666666666668
350.0   90.0   16.666666666666668
400.0   90.0   16.666666666666668
350.0   90.0   0.0
350.0   60.0   16.666666666666668
400.0   90.0   16.666666666666668
400.0   60.0   16.666666666666668
400.0   60.0   0.0
350.0   60.0   16.666666666666668
400.0   90.0   16.666666666666668
400.0   60.0   0.0
350.0   90.0   0.0
350.0   60.0   16.666666666666668
400.0   60.0   16.666666666666668
350.0   90.0   16.666666666666668
350.0   60.0   33.333333333333336
400.0   60.0   16.666666666666668
400.0   90.0   16.666666666666668
350.0   90.0   16.666666666666668
400.0   90.0   33.333333333333336
350.0   60.0   33.333333333333336
350.0   90.0   33.333333333333336
400.0   90.0   33.333333333333336
350.0   90.0   16.666666666666668
350.0   60.0   33.333333333333336
400.0   90.0   33.333333333333336
400.0   60.0   33.333333333333336
400.0   60.0   16.666666666666668
350.0   60.0   33.333333333333336
400.0   90.0   33.333333333333336
400.0   60.0   16.666666666666668
350.0   90.0   16.666666666666668
350.0   60.0   33.333333333333336
400.0   60.0   33.333333333333336
350.0   90.0   33.333333333333336
350.0   60.0   50.0
400.0   60.0   33.333333333333336
400.0   90.0   33.333333333333336
350.0   90.0   33.333333333333336
400.0   90.0   50.0
350.0   60.0   50.0
350.0   90.0   50.0
400.0   90.0   50.0
350.0   90.0   33.333333333333336
350.0   60.0   50.0
400.0   90.0   50.0
400.0   60.0   50.0
400.0   60.0   33.333333333333336
350.0   60.0   50.0
400.0   90.0   50.0
400.0   60.0   33.333333333333336
350.0   90.0   33.333333333333336
350.0   90.0   0.0
400.0   90.0   0.0
350.0   120.0   0.0
350.0   90.0   16.666666666666668
400.0   90.0   0.0
400.0   120.0   0.0
350.0   120.0   0.0
400.0   120.0   16.666666666666668
350.0   90.0   16.666666666666668
350.0   120.0   16.666666666666668
400.0   120.0   16.666666666666668
350.0   120.0   0.0
350.0   90.0   16.666666666666668
400.0   120.0   16.666666666666668
400.0   90.0   16.666666666666668
400.0   90.0   0.0
350.0   90.0   16.666666666666668
400.0   120.0   16.666666666666668
400.0   90.0   0.0
350.0   120.0   0.0
350.0   90.0   16.666666666666668
400.0   90.0   16.666666666666668
350.0   120.0   16.666666666666668
350.0   90.0   33.333333333333336
400.0   90.0   16.666666666666668
400.0   120.0   16.666666666666668
350.0   120.0   16.666666666666668
400.0   120.0   33.333333333333336
350.0   90.0   33.333333333333336
350.0   120.0   33.333333333333336
400.0   120.0   33.333333333333336
350.0   120.0   16.666666666666668
350.0   90.0   33.333333333333336
400.0   120.0   33.333333333333336
400.0   90.0   33.333333333333336
400.0   90.0   16.666666666666668
350.0   90.0   33.333333333333336
400.0   120.0   33.333333333333336
400.0   90.0   16.666666666666668
350.0   120.0   16.666666666666668
350.0   90.0   33.333333333333336
400.0   90.0   33.333333333333336
350.0   120.0   33.333333333333336
350.0   90.0   50.0
400.0   90.0   33.333333333333336
400.0   120.0   33.333333333333336
350.0   120.0   33.333333333333336
400.0   120.0   50.0
350.0   90.0   50.0
350.0   120.0   50.0
400.0   120.0   50.0
350.0   120.0   33.333333333333336
350.0   90.0   50.0
400.0   120.0   50.0
400.0   90.0   50.0
400.0   90.0   33.333333333333336
350.0   90.0   50.0
400.0   120.0   50.0
400.0   90.0   33.333333333333336
350.0   120.0   33.333333333333336
350.0   120.0   0.0
400.0   120.0   0.0
350.0   150.0   0.0
350.0   120.0   16.666666666666668
400.0   120.0   0.0
400.0   150.0   0.0
350.0   150.0   0.0
400.0   150.0   16.666666666666668
350.0   120.0   16.666666666666668
350.0   150.0   16.666666666666668
400.0   150.0   16.666666666666668
350.0   150.0   0.0
350.0   120.0   16.666666666666668
400.0   150.0   16.666666666666668
400.0   120.0   16.666666666666668
400.0   120.0   0.0
350.0   120.0   16.666666666666668
400.0   150.0   16.666666666666668
400.0   120.0   0.0
350.0   150.0   0.0
350.0   120.0   16.666666666666668
400.0   120.0   16.666666666666668
350.0   150.0   16.666666666666668
350.0   120.0   33.333333333333336
400.0   120.0   16.666666666666668
400.0   150.0   16.666666666666668
350.0   150.0   16.666666666666668
400.0   150.0   33.333333333333336
350.0   120.0   33.333333333333336
350.0   150.0   33.333333333333336
400.0   150.0   33.333333333333336
350.0   150.0   16.666666666666668
350.0   120.0   33.333333333333336
400.0   150.0   33.333333333333336
400.0   120.0   33.333333333333336
400.0   120.0   16.666666666666668
350.0   120.0   33.333333333333336
400.0   150.0   33.333333333333336
400.0   120.0   16.666666666666668
350.0   150.0   16.666666666666668
350.0   120.0   33.333333333333336
400.0   120.0   33.333333333333336
350.0   150.0   33.333333333333336
350.0   120.0   50.0
400.0   120.0   33.333333333333336
400.0   150.0   33.333333333333336
350.0   150.0   33.333333333333336
400.0   150.0   50.0
350.0   120.0   50.0
350.0   150.0   50.0
400.0   150.0   50.0
350.0   150.0   33.333333333333336
350.0   120.0   50.0
400.0   150.0   50.0
400.0   120.0   50.0
400.0   120.0   33.333333333333336
350.0   120.0   50.0
400.0   150.0   50.0
400.0   120.0   33.333333333333336
350.0   150.0   33.333333333333336
400.0   0.0   0.0
450.0   0.0   0.0
400.0   30.0   0.0
400.0   0.0   16.666666666666668
450.0   0.0   0.0
450.0   30.0   0.0
400.0   30.0   0.0
450.0   30.0   16.666666666666668
400.0   0.0   16.666666666666668
400.0   30.0   16.666666666666668
450.0   30.0   16.666666666666668
400.0   30.0   0.0
400.0   0.0   16.666666666666668
450.0   30.0   16.666666666666668
450.0   0.0   16.666666666666668
450.0   0.0   0.0
400.0   0.0   16.666666666666668
450.0   30.0   16.666666666666668
450.0   0.0   0.0
400.0   30.0   0.0
400.0   0.0   16.666666666666668
450.0   0.0   16.666666666666668
400.0   30.0   16.666666666666668
400.0   0.0   33.333333333333336
450.0   0.0   16.666666666666668
450.0   30.0   16.666666666666668
400.0   30.0   16.666666666666668
450.0   30.0   33.333333333333336
400.0   0.0   33.333333333333336
400.0   30.0   33.333333333333336
450.0   30.0   33.333333333333336
400.0   30.0   16.666666666666668
400.0   0.0   33.333333333333336
450.0   30.0   33.333333333333336
450.0   0.0   33.333333333333336
450.0   0.0   16.666666666666668
400.0   0.0   33.333333333333336
450.0   30.0   33.333333333333336
450.0   0.0   16.666666666666668
400.0   30.0   16.666666666666668
400.0   0.0   33.333333333333336
450.0   0.0   33.333333333333336
400.0   30.0   33.333333333333336
400.0   0.0   50.0
450.0   0.0   33.333333333333336
450.0   30.0   33.333333333333336
400.0   30.0   33.333333333333336
450.0   30.0   50.0
400.0   0.0   50.0
400.0   30.0   50.0
450.0   30.0   50.0
400.0   30.0   33.333333333333336
400.0   0.0   50.0
450.0   30.0   50.0
450.0   0.0   50.0
450.0   0.0   33.333333333333336
400.0   0.0   50.0
450.0   30.0   50.0
450.0   0.0   33.333333333333336
400.0   30.0   33.333333333333336
400.0   30.0   0.0
450.0   30.0   0.0
400.0   60.0   0.0
400.0   30.0   16.666666666666668
450.0   30.0   0.0
450.0   60.0   0.0
400.0   60.0   0.0
450.0   60.0   16.666666666666668
400.0   30.0   16.666666666666668
400.0   60.0   16.666666666666668
450.0   60.0   16.666666666666668
400.0   60.0   0.0
400.0   30.0   16.666666666666668
450.0   60.0   16.666666666666668
450.0   30.0   16.666666666666668
450.0   30.0   0.0
400.0   30.0   16.666666666666668
450.0   60.0   16.666666666666668
450.0   30.0   0.0
400.0   60.0   0.0
400.0   30.0   16.666666666666668
450.0   30.0   16.666666666666668
400.0   60.0   16.666666666666668
400.0   30.0   33.333333333333336
450.0   30.0   16.666666666666668
450.0   60.0   16.666666666666668
400.0   60.0   16.666666666666668
450.0   60.0   33.333333333333336
400.0   30.0   33.333333333333336
400.0   60.0   33.333333333333336
450.0   60.0   33.333333333333336
400.0   60.0   16.666666666666668
400.0   30.0   33.333333333333336
450.0   60.0   33.333333333333336
450.0   30.0   33.333333333333336
450.0   30.0   16.666666666666668
400.0   30.0   33.333333333333336
450.0   60.0   33.333333333333336
450.0   30.0   16.666666666666668
400.0   60.0   16.666666666666668
400.0   30.0   33.333333333333336
450.0   30.0   33.333333333333336
400.0   60.0   33.333333333333336
400.0   30.0   50.0
450.0   30.0   33.333333333333336
450.0   60.0   33.333333333333336
400.0   60.0   33.333333333333336
450.0   60.0   50.0
400.0   30.0   50.0
400.0   60.0   50.0
450.0   60.0   50.0
400.0   60.0   33.333333333333336
400.0   30.0   50.0
450.0   60.0   50.0
450.0   30.0   50.0
450.0   30.0   33.333333333333336
400.0   30.0   50.0
450.0   60.0   50.0
450.0   30.0   33.333333333333336
400.0   60.0   33.333333333333336
400.0   60.0   0.0
450.0   60.0   0.0
400.0   90.0   0.0
400.0   60.0   16.666666666666668
450.0   60.0   0.0
450.0   90.0   0.0
400.0   90.0   0.0
450.0   90.0   16.666666666666668
400.0   60.0   16.666666666666668
400.0   90.0   16.666666666666668
450.0   90.0   16.666666666666668
400.0   90.0   0.0
400.0   60.0   16.666666666666668
450.0   90.0   16.666666666666668
450.0   60.0   16.666666666666668
450.0   60.0   0.0
400.0   60.0   16.666666666666668
450.0   90.0   16.666666666666668
450.0   60.0   0.0
400.0   90.0   0.0
400.0   60.0   16.666666666666668
450.0   60.0   16.666666666666668
400.0   90.0   16.666666666666668
400.0   60.0   33.333333333333336
450.0   60.0   16.666666666666668
450.0   90.0   16.666666666666668
400.0   90.0   16.666666666666668
450.0   90.0   33.333333333333336
400.0   60.0   33.333333333333336
400.0   90.0   33.333333333333336
450.0   90.0   33.333333333333336
400.0   90.0   16.666666666666668
400.0   60.0   33.333333333333336
450.0   90.0   33.333333333333336
450.0   60.0   33.333333333333336
450.0   60.0   16.666666666666668
400.0   60.0   33.333333333333336
450.0   90.0   33.333333333333336
450.0   60.0   16.666666666666668
400.0   90.0   16.666666666666668
400.0   60.0   33.333333333333336
450.0   60.0   33.333333333333336
400.0   90.0   33.333333333333336
400.0   60.0   50.0
450.0   60.0   33.333333333333336
450.0   90.0   33.333333333333336
400.0   90.0   33.333333333333336
450.0   90.0   50.0
400.0   60.0   50.0
400.0   90.0   50.0
450.0   90.0   50.0
400.0   90.0   33.333333333333336
400.0   60.0   50.0
450.0   90.0   50.0
450.0   60.0   50.0
450.0   60.0   33.333333333333336
400.0   60.0   50.0
450.0   90.0   50.0
450.0   60.0   33.333333333333336
400.0   90.0   33.333333333333336
400.0   90.0   0.0
450.0   90.0   0.0
400.0   120.0   0.0
400.0   90.0   16.666666666666668
450.0   90.0   0.0
450.0   120.0   0.0
400.0   120.0   0.0
450.0   120.0   16.666666666666668
400.0   90.0   16.666666666666668
400.0   120.0   16.666666666666668
450.0   120.0   16.666666666666668
400.0   120.0   0.0
400.0   90.0   16.666666666666668
450.0   120.0   16.666666666666668
450.0   90.0   16.666666666666668
450.0   90.0   0.0
400.0   90.0   16.666666666666668
450.0   120.0   16.666666666666668
450.0   90.0   0.0
400.0   120.0   0.0
400.0   90.0   16.666666666666668
450.0   90.0   16.666666666666668
400.0   120.0   16.666666666666668
400.0   90.0   33.333333333333336
450.0   90.0   16.666666666666668
450.0   120.0   16.666666666666668
400.0   120.0   16.666666666666668
450.0   120.0   33.333333333333336
400.0   90.0   33.333333333333336
400.0   120.0   33.333333333333336
450.0   120.0   33.333333333333336
400.0   120.0   16.666666666666668
400.0   90.0   33.333333333333336
450.0   120.0   33.333333333333336
450.0   90.0   33.333333333333336
450.0   90.0   16.666666666666668
400.0   90.0   33.333333333333336
450.0   120.0   33.333333333333336
450.0   90.0   16.666666666666668
400.0   120.0   16.666666666666668
400.0   90.0   33.333333333333336
450.0   90.0   33.333333333333336
400.0   120.0   33.333333333333336
400.0   90.0   50.0
450.0   90.0   33.333333333333336
450.0   120.0   33.333333333333336
400.0   120.0   33.333333333333336
450.0   120.0   50.0
400.0   90.0   50.0
400.0   120.0   50.0
450.0   120.0   50.0
400.0   120.0   33.333333333333336
400.0   90.0   50.0
450.0   120.0   50.0
450.0   90.0   50.0
450.0   90.0   33.333333333333336
400.0   90.0   50.0
450.0   120.0   50.0
450.0   90.0   33.333333333333336
400.0   120.0   33.333333333333336
400.0   120.0   0.0
450.0   120.0   0.0
400.0   150.0   0.0
400.0   120.0   16.666666666666668
450.0   120.0   0.0
450.0   150.0   0.0
400.0   150.0   0.0
450.0   150.0   16.666666666666668
400.0   120.0   16.666666666666668
400.0   150.0   16.666666666666668
450.0   150.0   16.666666666666668
400.0   150.0   0.0
400.0   120.0   16.666666666666668
450.0   150.0   16.666666666666668
450.0   120.0   16.666666666666668
450.0   120.0   0.0
400.0   120.0   16.666666666666668
450.0   150.0   16.666666666666668
450.0   120.0   0.0
400.0   150.0   0.0
400.0   120.0   16.666666666666668
450.0   120.0   16.666666666666668
400.0   150.0   16.666666666666668
400.0   120.0   33.333333333333336
450.0   120.0   16.666666666666668
450.0   150.0   16.666666666666668
400.0   150.0   16.666666666666668
450.0   150.0   33.333333333333336
400.0   120.0   33.333333333333336
400.0   150.0   33.333333333333336
450.0   150.0   33.333333333333336
400.0   150.0   16.666666666666668
400.0   120.0   33.333333333333336
450.0   150.0   33.333333333333336
450.0   120.0   33.333333333333336
450.0   120.0   16.666666666666668
400.0   120.0   33.333333333333336
450.0   150.0   33.333333333333336
450.0   120.0   16.666666666666668
400.0   150.0   16.666666666666668
400.0   120.0   33.333333333333336
450.0   120.0   33.333333333333336
400.0   150.0   33.333333333333336
400.0   120.0   50.0
450.0   120.0   33.333333333333336
450.0   150.0   33.333333333333336
400.0   150.0   33.333333333333336
450.0   150.0   50.0
400.0   120.0   50.0
400.0   150.0   50.0
450.0   150.0   50.0
400.0   150.0   33.333333333333336
400.0   120.0   50.0
450.0   150.0   50.0
450.0   120.0   50.0
450.0   120.0   33.333333333333336
400.0   120.0   50.0
450.0   150.0   50.0
450.0   120.0   33.333333333333336
400.0   150.0   33.333333333333336
450.0   0.0   0.0
500.0   0.0   0.0
450.0   30.0   0.0
450.0   0.0   16.666666666666668
500.0   0.0   0.0
500.0   30.0   0.0
450.0   30.0   0.0
500.0   30.0   16.666666666666668
450.0   0.0   16.666666666666668
450.0   30.0   16.666666666666668
500.0   30.0   16.666666666666668
450.0   30.0   0.0
450.0   0.0   16.666666666666668
500.0   30.0   16.666666666666668
500.0   0.0   16.666666666666668
500.0   0.0   0.0
450.0   0.0   16.666666666666668
500.0   30.0   16.666666666666668
500.0   0.0   0.0
450.0   30.0   0.0
450.0   0.0   16.666666666666668
500.0   0.0   16.666666666666668
450.0   30.0   16.666666666666668
450.0   0.0   33.333333333333336
500.0   0.0   16.666666666666668
500.0   30.0   16.666666666666668
450.0   30.0   16.666666666666668
500.0   30.0   33.333333333333336
450.0   0.0   33.333333333333336
450.0   30.0   33.333333333333336
500.0   30.0   33.333333333333336
450.0   30.0   16.666666666666668
450.0   0.0   33.333333333333336
500.0   30.0   33.333333333333336
500.0   0.0   33.333333333333336
500.0   0.0   16.666666666666668
450.0   0.0   33.333333333333336
500.0   30.0   33.333333333333336
500.0   0.0   16.666666666666668
450.0   30.0   16.666666666666668
450.0   0.0   33.333333333333336
500.0   0.0   33.333333333333336
450.0   30.0   33.333333333333336
450.0   0.0   50.0
500.0   0.0   33.333333333333336
500.0   30.0   33.333333333333336
450.0   30.0   33.333333333333336
500.0   30.0   50.0
450.0   0.0   50.0
450.0   30.0   50.0
500.0   30.0   50.0
450.0   30.0   33.333333333333336
450.0   0.0   50.0
500.0   30.0   50.0
500.0   0.0   50.0
500.0   0.0   33.333333333333336
450.0   0.0   50.0
500.0   30.0   50.0
500.0   0.0   33.333333333333336
450.0   30.0   33.333333333333336
450.0   30.0   0.0
500.0   30.0   0.0
450.0   60.0   0.0
450.0   30.0   16.666666666666668
500.0   30.0   0.0
500.0   60.0   0.0
450.0   60.0   0.0
500.0   60.0   16.666666666666668
450.0   30.0   16.666666666666668
450.0   60.0   16.666666666666668
500.0   60.0   16.666666666666668
450.0   60.0   0.0
450.0   30.0   16.666666666666668
500.0   60.0   16.666666666666668
500.0   30.0   16.666666666666668
500.0   30.0   0.0
450.0   30.0   16.666666666666668
500.0   60.0   16.666666666666668
500.0   30.0   0.0
450.0   60.0   0.0
450.0   30.0   16.666666666666668
500.0   30.0   16.666666666666668
450.0   60.0   16.666666666666668
450.0   30.0   33.333333333333336
500.0   30.0   16.666666666666668
500.0   60.0   16.666666666666668
450.0   60.0   16.666666666666668
500.0   60.0   33.333333333333336
450.0   30.0   33.333333333333336
450.0   60.0   33.333333333333336
500.0   60.0   33.333333333333336
450.0   60.0   16.666666666666668
450.0   30.0   33.333333333333336
500.0   60.0   33.333333333333336
500.0   30.0   33.333333333333336
500.0   30.0   16.666666666666668
450.0   30.0   33.333333333333336
500.0   60.0   33.333333333333336
500.0   30.0   16.666666666666668
450.0   60.0   16.666666666666668
450.0   30.0   33.333333333333336
500.0   30.0   33.333333333333336
450.0   60.0   33.333333333333336
450.0   30.0   50.0
500.0   30.0   33.333333333333336
500.0   60.0   33.333333333333336
450.0   60.0   33.333333333333336
500.0   60.0   50.0
450.0   30.0   50.0
450.0   60.0   50.0
500.0   60.0   50.0
450.0   60.0   33.333333333333336
450.0   30.0   50.0
500.0   60.0   50.0
500.0   30.0   50.0
500.0   30.0   33.333333333333336
450.0   30.0   50.0
500.0   60.0   50.0
500.0   30.0   33.333333333333336
450.0   60.0   33.333333333333336
450.0   60.0   0.0
500.0   60.0   0.0
450.0   90.0   0.0
450.0   60.0   16.666666666666668
500.0   60.0   0.0
500.0   90.0   0.0
450.0   90.0   0.0
500.0   90.0   16.666666666666668
450.0   60.0   16.666666666666668
450.0   90.0   16.666666666666668
500.0   90.0   16.666666666666668
450.0   90.0   0.0
450.0   60.0   16.666666666666668
500.0   90.0   16.666666666666668
500.0   60.0   16.666666666666668
500.0   60.0   0.0
450.0   60.0   16.666666666666668
500.0   90.0   16.666666666666668
500.0   60.0   0.0
450.0   90.0   0.0
450.0   60.0   16.666666666666668
500.0   60.0   16.666666666666668
450.0   90.0   16.666666666666668
450.0   60.0   33.333333333333336
500.0   60.0   16.666666666666668
500.0   90.0   16.666666666666668
450.0   90.0   16.666666666666668
500.0   90.0   33.333333333333336
450.0   60.0   33.333333333333336
450.0   90.0   33.333333333333336
500.0   90.0   33.333333333333336
450.0   90.0   16.666666666666668
450.0   60.0   33.333333333333336
500.0   90.0   33.333333333333336
500.0   60.0   33.333333333333336
500.0   60.0   16.666666666666668
450.0   60.0   33.333333333333336
500.0   90.0   33.333333333333336
500.0   60.0   16.666666666666668
450.0   90.0   16.666666666666668
450.0   60.0   33.333333333333336
500.0   60.0   33.333333333333336
450.0   90.0   33.333333333333336
450.0   60.0   50.0
500.0   60.0   33.333333333333336
500.0   90.0   33.333333333333336
450.0   90.0   33.333333333333336
500.0   90.0   50.0
450.0   60.0   50.0
450.0   90.0   50.0
500.0   90.0   50.0
450.0   90.0   33.333333333333336
450.0   60.0   50.0
500.0   90.0   50.0
500.0   60.0   50.0
500.0   60.0   33.333333333333336
450.0   60.0   50.0
500.0   90.0   50.0
500.0   60.0   33.333333333333336
450.0   90.0   33.333333333333336
450.0   90.0   0.0
500.0   90.0   0.0
450.0   120.0   0.0
450.0   90.0   16.666666666666668
500.0   90.0   0.0
500.0   120.0   0.0
450.0   120.0   0.0
500.0   120.0   16.666666666666668
450.0   90.0   16.666666666666668
450.0   120.0   16.666666666666668
500.0   120.0   16.666666666666668
450.0   120.0   0.0
450.0   90.0   16.666666666666668
500.0   120.0   16.666666666666668
500.0   90.0   16.666666666666668
500.0   90.0   0.0
450.0   90.0   16.666666666666668
500.0   120.0   16.666666666666668
500.0   90.0   0.0
450.0   120.0   0.0
450.0   90.0   16.666666666666668
500.0   90.0   16.666666666666668
450.0   120.0   16.666666666666668
450.0   90.0   33.333333333333336
500.0   90.0   16.666666666666668
500.0   120.0   16.666666666666668
450.0   120.0   16.666666666666668
500.0   120.0   33.333333333333336
450.0   90.0   33.333333333333336
450.0   120.0   33.333333333333336
500.0   120.0   33.333333333333336
450.0   120.0   16.666666666666668
450.0   90.0   33.333333333333336
500.0   120.0   33.333333333333336
500.0   90.0   33.333333333333336
500.0   90.0   16.666666666666668
450.0   90.0   33.333333333333336
500.0   120.0   33.333333333333336
500.0   90.0   16.666666666666668
450.0   120.0   16.666666666666668
450.0   90.0   33.333333333333336
500.0   90.0   33.333333333333336
450.0   120.0   33.333333333333336
450.0   90.0   50.0
500.0   90.0   33.333333333333336
500.0   120.0   33.333333333333336
450.0   120.0   33.333333333333336
500.0   120.0   50.0
450.0   90.0   50.0
450.0   120.0   50.0
500.0   120.0   50.0
450.0   120.0   33.333333333333336
450.0   90.0   50.0
500.0   120.0   50.0
500.0   90.0   50.0
500.0   90.0   33.333333333333336
450.0   90.0   50.0
500.0   120.0   50.0
500.0   90.0   33.333333333333336
450.0   120.0   33.333333333333336
450.0   120.0   0.0
500.0   120.0   0.0
450.0   150.0   0.0
450.0   120.0   16.666666666666668
500.0   120.0   0.0
500.0   150.0   0.0
450.0   150.0   0.0
500.0   150.0   16.666666666666668
450.0   120.0   16.666666666666668
450.0   150.0   16.666666666666668
500.0   150.0   16.666666666666668
450.0   150.0   0.0
450.0   120.0   16.666666666666668
500.0   150.0   16.666666666666668
500.0   120.0   16.666666666666668
500.0   120.0   0.0
450.0   120.0   16.666666666666668
500.0   150.0   16.666666666666668
500.0   120.0   0.0
450.0   150.0   0.0
450.0   120.0   16.666666666666668
500.0   120.0   16.666666666666668
450.0   150.0   16.666666666666668
450.0   120.0   33.333333333333336
500.0   120.0   16.666666666666668
500.0   150.0   16.666666666666668
450.0   150.0   16.666666666666668
500.0   150.0   33.333333333333336
450.0   120.0   33.333333333333336
450.0   150.0   33.333333333333336
500.0   150.0   33.333333333333336
450.0   150.0   16.666666666666668
450.0   120.0   33.333333333333336
500.0   150.0   33.333333333333336
500.0   120.0   33.333333333333336
500.0   120.0   16.666666666666668
450.0   120.0   33.333333333333336
500.0   150.0   33.333333333333336
500.0   120.0   16.666666666666668
450.0   150.0   16.666666666666668
450.0   120.0   33.333333333333336
500.0   120.0   33.333333333333336
450.0   150.0   33.333333333333336
450.0   120.0   50.0
500.0   120.0   33.333333333333336
500.0   150.0   33.333333333333336
450.0   150.0   33.333333333333336
500.0   150.0   50.0
450.0   120.0   50.0
450.0   150.0   50.0
500.0   150.0   50.0
450.0   150.0   33.333333333333336
450.0   120.0   50.0
500.0   150.0   50.0
500.0   120.0   50.0
500.0   120.0   33.333333333333336
450.0   120.0   50.0
500.0   150.0   50.0
500.0   120.0   33.333333333333336
450.0   150.0   33.333333333333336
             </DataArray>   
          </Points>  
          <Cells>  
             <DataArray type="Int32" Name="connectivity" format="ascii">   
0   1   2   3
4   5   6   7
8   9   10   11
12   13   14   15
16   17   18   19
20   21   22   23
24   25   26   27
28   29   30   31
32   33   34   35
36   37   38   39
40   41   42   43
44   45   46   47
48   49   50   51
52   53   54   55
56   57   58   59
60   61   62   63
64   65   66   67
68   69   70   71
72   73   74   75
76   77   78   79
80   81   82   83
84   85   86   87
88   89   90   91
92   93   94   95
96   97   98   99
100   101   102   103
104   105   106   107
108   109   110   111
112   113   114   115
116   117   118   119
120   121   122   123
124   125   126   127
128   129   130   131
132   133   134   135
136   137   138   139
140   141   142   143
144   145   146   147
148   149   150   151
152   153   154   155
156   157   158   159
160   161   162   163
164   165   166   167
168   169   170   171
172   173   174   175
176   177   178   179
180   181   182   183
184   185   186   187
188   189   190   191
192   193   194   195
196   197   198   199
200   201   202   203
204   205   206   207
208   209   210   211
212   213   214   215
216   217   218   219
220   221   222   223
224   225   226   227
228   229   230   231
232   233   234   235
236   237   238   239
240   241   242   243
244   245   246   247
248   249   250   251
252   253   254   255
256   257   258   259
260   261   262   263
264   265   266   267
268   269   270   271
272   273   274   275
276   277   278   279
280   281   282   283
284   285   286   287
288   289   290   291
292   293   294   295
296   297   298   299
300   301   302   303
304   305   306   307
308   309   310   311
312   313   314   315
316   317   318   319
320   321   322   323
324   325   326   327
328   329   330   331
332   333   334   335
336   337   338   339
340   341   342   343
344   345   346   347
348   349   350   351
352   353   354   355
356   357   358   359
360   361   362   363
364   365   366   367
368   369   370   371
372   373   374   375
376   377   378   379
380   381   382   383
384   385   386   387
388   389   390   391
392   393   394   395
396   397   398   399
400   401   402   403
404   405   406   407
408   409   410   411
412   413   414   415
416   417   418   419
420   421   422   423
424   425   426   427
428   429   430   431
432   433   434   435
436   437   438   439
440   441   442   443
444   445   446   447
448   449   450   451
452   453   454   455
456   457   458   459
460   461   462   463
464   465   466   467
468   469   470   471
472   473   474   475
476   477   478   479
480   481   482   483
484   485   486   487
488   489   490   491
492   493   494   495
496   497   498   499
500   501   502   503
504   505   506   507
508   509   510   511
512   513   514   515
516   517   518   519
520   521   522   523
524   525   526   527
528   529   530   531
532   533   534   535
536   537   538   539
540   541   542   543
544   545   546   547
548   549   550   551
552   553   554   555
556   557   558   559
560   561   562   563
564   565   566   567
568   569   570   571
572   573   574   575
576   577   578   579
580   581   582   583
584   585   586   587
588   589   590   591
592   593   594   595
596   597   598   599
600   601   602   603
604   605   606   607
608   609   610   611
612   613   614   615
616   617   618   619
620   621   622   623
624   625   626   627
628   629   630   631
632   633   634   635
636   637   638   639
640   641   642   643
644   645   646   647
648   649   650   651
652   653   654   655
656   657   658   659
660   661   662   663
664   665   666   667
668   669   670   671
672   673   674   675
676   677   678   679
680   681   682   683
684   685   686   687
688   689   690   691
692   693   694   695
696   697   698   699
700   701   702   703
704   705   706   707
708   709   710   711
712   713   714   715
716   717   718   719
720   721   722   723
724   725   726   727
728   729   730   731
732   733   734   735
736   737   738   739
740   741   742   743
744   745   746   747
748   749   750   751
752   753   754   755
756   757   758   759
760   761   762   763
764   765   766   767
768   769   770   771
772   773   774   775
776   777   778   779
780   781   782   783
784   785   786   787
788   789   790   791
792   793   794   795
796   797   798   799
800   801   802   803
804   805   806   807
808   809   810   811
812   813   814   815
816   817   818   819
820   821   822   823
824   825   826   827
828   829   830   831
832   833   834   835
836   837   838   839
840   841   842   843
844   845   846   847
848   849   850   851
852   853   854   855
856   857   858   859
860   861   862   863
864   865   866   867
868   869   870   871
872   873   874   875
876   877   878   879
880   881   882   883
884   885   886   887
888   889   890   891
892   893   894   895
896   897   898   899
900   901   902   903
904   905   906   907
908   909   910   911
912   913   914   915
916   917   918   919
920   921   922   923
924   925   926   927
928   929   930   931
932   933   934   935
936   937   938   939
940   941   942   943
944   945   946   947
948   949   950   951
952   953   954   955
956   957   958   959
960   961   962   963
964   965   966   967
968   969   970   971
972   973   974   975
976   977   978   979
980   981   982   983
984   985   986   987
988   989   990   991
992   993   994   995
996   997   998   999
1000   1001   1002   1003
1004   1005   1006   1007
1008   1009   1010   1011
1012   1013   1014   1015
1016   1017   1018   1019
1020   1021   1022   1023
1024   1025   1026   1027
1028   1029   1030   1031
1032   1033   1034   1035
1036   1037   1038   1039
1040   1041   1042   1043
1044   1045   1046   1047
1048   1049   1050   1051
1052   1053   1054   1055
1056   1057   1058   1059
1060   1061   1062   1063
1064   1065   1066   1067
1068   1069   1070   1071
1072   1073   1074   1075
1076   1077   1078   1079
1080   1081   1082   1083
1084   1085   1086   1087
1088   1089   1090   1091
1092   1093   1094   1095
1096   1097   1098   1099
1100   1101   1102   1103
1104   1105   1106   1107
1108   1109   1110   1111
1112   1113   1114   1115
1116   1117   1118   1119
1120   1121   1122   1123
1124   1125   1126   1127
1128   1129   1130   1131
1132   1133   1134   1135
1136   1137   1138   1139
1140   1141   1142   1143
1144   1145   1146   1147
1148   1149   1150   1151
1152   1153   1154   1155
1156   1157   1158   1159
1160   1161   1162   1163
1164   1165   1166   1167
1168   1169   1170   1171
1172   1173   1174   1175
1176   1177   1178   1179
1180   1181   1182   1183
1184   1185   1186   1187
1188   1189   1190   1191
1192   1193   1194   1195
1196   1197   1198   1199
1200   1201   1202   1203
1204   1205   1206   1207
1208   1209   1210   1211
1212   1213   1214   1215
1216   1217   1218   1219
1220   1221   1222   1223
1224   1225   1226   1227
1228   1229   1230   1231
1232   1233   1234   1235
1236   1237   1238   1239
1240   1241   1242   1243
1244   1245   1246   1247
1248   1249   1250   1251
1252   1253   1254   1255
1256   1257   1258   1259
1260   1261   1262   1263
1264   1265   1266   1267
1268   1269   1270   1271
1272   1273   1274   1275
1276   1277   1278   1279
1280   1281   1282   1283
1284   1285   1286   1287
1288   1289   1290   1291
1292   1293   1294   1295
1296   1297   1298   1299
1300   1301   1302   1303
1304   1305   1306   1307
1308   1309   1310   1311
1312   1313   1314   1315
1316   1317   1318   1319
1320   1321   1322   1323
1324   1325   1326   1327
1328   1329   1330   1331
1332   1333   1334   1335
1336   1337   1338   1339
1340   1341   1342   1343
1344   1345   1346   1347
1348   1349   1350   1351
1352   1353   1354   1355
1356   1357   1358   1359
1360   1361   1362   1363
1364   1365   1366   1367
1368   1369   1370   1371
1372   1373   1374   1375
1376   1377   1378   1379
1380   1381   1382   1383
1384   1385   1386   1387
1388   1389   1390   1391
1392   1393   1394   1395
1396   1397   1398   1399
1400   1401   1402   1403
1404   1405   1406   1407
1408   1409   1410   1411
1412   1413   1414   1415
1416   1417   1418   1419
1420   1421   1422   1423
1424   1425   1426   1427
1428   1429   1430   1431
1432   1433   1434   1435
1436   1437   1438   1439
1440   1441   1442   1443
1444   1445   1446   1447
1448   1449   1450   1451
1452   1453   1454   1455
1456   1457   1458   1459
1460   1461   1462   1463
1464   1465   1466   1467
1468   1469   1470   1471
1472   1473   1474   1475
1476   1477   1478   1479
1480   1481   1482   1483
1484   1485   1486   1487
1488   1489   1490   1491
1492   1493   1494   1495
1496   1497   1498   1499
1500   1501   1502   1503
1504   1505   1506   1507
1508   1509   1510   1511
1512   1513   1514   1515
1516   1517   1518   1519
1520   1521   1522   1523
1524   1525   1526   1527
1528   1529   1530   1531
1532   1533   1534   1535
1536   1537   1538   1539
1540   1541   1542   1543
1544   1545   1546   1547
1548   1549   1550   1551
1552   1553   1554   1555
1556   1557   1558   1559
1560   1561   1562   1563
1564   1565   1566   1567
1568   1569   1570   1571
1572   1573   1574   1575
1576   1577   1578   1579
1580   1581   1582   1583
1584   1585   1586   1587
1588   1589   1590   1591
1592   1593   1594   1595
1596   1597   1598   1599
1600   1601   1602   1603
1604   1605   1606   1607
1608   1609   1610   1611
1612   1613   1614   1615
1616   1617   1618   1619
1620   1621   1622   1623
1624   1625   1626   1627
1628   1629   1630   1631
1632   1633   1634   1635
1636   1637   1638   1639
1640   1641   1642   1643
1644   1645   1646   1647
1648   1649   1650   1651
1652   1653   1654   1655
1656   1657   1658   1659
1660   1661   1662   1663
1664   1665   1666   1667
1668   1669   1670   1671
1672   1673   1674   1675
1676   1677   1678   1679
1680   1681   1682   1683
1684   1685   1686   1687
1688   1689   1690   1691
1692   1693   1694   1695
1696   1697   1698   1699
1700   1701   1702   1703
1704   1705   1706   1707
1708   1709   1710   1711
1712   1713   1714   1715
1716   1717   1718   1719
1720   1721   1722   1723
1724   1725   1726   1727
1728   1729   1730   1731
1732   1733   1734   1735
1736   1737   1738   1739
1740   1741   1742   1743
1744   1745   1746   1747
1748   1749   1750   1751
1752   1753   1754   1755
1756   1757   1758   1759
1760   1761   1762   1763
1764   1765   1766   1767
1768   1769   1770   1771
1772   1773   1774   1775
1776   1777   1778   1779
1780   1781   1782   1783
1784   1785   1786   1787
1788   1789   1790   1791
1792   1793   1794   1795
1796   1797   1798   1799
1800   1801   1802   1803
1804   1805   1806   1807
1808   1809   1810   1811
1812   1813   1814   1815
1816   1817   1818   1819
1820   1821   1822   1823
1824   1825   1826   1827
1828   1829   1830   1831
1832   1833   1834   1835
1836   1837   1838   1839
1840   1841   1842   1843
1844   1845   1846   1847
1848   1849   1850   1851
1852   1853   1854   1855
1856   1857   1858   1859
1860   1861   1862   1863
1864   1865   1866   1867
1868   1869   1870   1871
1872   1873   1874   1875
1876   1877   1878   1879
1880   1881   1882   1883
1884   1885   1886   1887
1888   1889   1890   1891
1892   1893   1894   1895
1896   1897   1898   1899
1900   1901   1902   1903
1904   1905   1906   1907
1908   1909   1910   1911
1912   1913   1914   1915
1916   1917   1918   1919
1920   1921   1922   1923
1924   1925   1926   1927
1928   1929   1930   1931
1932   1933   1934   1935
1936   1937   1938   1939
1940   1941   1942   1943
1944   1945   1946   1947
1948   1949   1950   1951
1952   1953   1954   1955
1956   1957   1958   1959
1960   1961   1962   1963
1964   1965   1966   1967
1968   1969   1970   1971
1972   1973   1974   1975
1976   1977   1978   1979
1980   1981   1982   1983
1984   1985   1986   1987
1988   1989   1990   1991
1992   1993   1994   1995
1996   1997   1998   1999
2000   2001   2002   2003
2004   2005   2006   2007
2008   2009   2010   2011
2012   2013   2014   2015
2016   2017   2018   2019
2020   2021   2022   2023
2024   2025   2026   2027
2028   2029   2030   2031
2032   2033   2034   2035
2036   2037   2038   2039
2040   2041   2042   2043
2044   2045   2046   2047
2048   2049   2050   2051
2052   2053   2054   2055
2056   2057   2058   2059
2060   2061   2062   2063
2064   2065   2066   2067
2068   2069   2070   2071
2072   2073   2074   2075
2076   2077   2078   2079
2080   2081   2082   2083
2084   2085   2086   2087
2088   2089   2090   2091
2092   2093   2094   2095
2096   2097   2098   2099
2100   2101   2102   2103
2104   2105   2106   2107
2108   2109   2110   2111
2112   2113   2114   2115
2116   2117   2118   2119
2120   2121   2122   2123
2124   2125   2126   2127
2128   2129   2130   2131
2132   2133   2134   2135
2136   2137   2138   2139
2140   2141   2142   2143
2144   2145   2146   2147
2148   2149   2150   2151
2152   2153   2154   2155
2156   2157   2158   2159
2160   2161   2162   2163
2164   2165   2166   2167
2168   2169   2170   2171
2172   2173   2174   2175
2176   2177   2178   2179
2180   2181   2182   2183
2184   2185   2186   2187
2188   2189   2190   2191
2192   2193   2194   2195
2196   2197   2198   2199
2200   2201   2202   2203
2204   2205   2206   2207
2208   2209   2210   2211
2212   2213   2214   2215
2216   2217   2218   2219
2220   2221   2222   2223
2224   2225   2226   2227
2228   2229   2230   2231
2232   2233   2234   2235
2236   2237   2238   2239
2240   2241   2242   2243
2244   2245   2246   2247
2248   2249   2250   2251
2252   2253   2254   2255
2256   2257   2258   2259
2260   2261   2262   2263
2264   2265   2266   2267
2268   2269   2270   2271
2272   2273   2274   2275
2276   2277   2278   2279
2280   2281   2282   2283
2284   2285   2286   2287
2288   2289   2290   2291
2292   2293   2294   2295
2296   2297   2298   2299
2300   2301   2302   2303
2304   2305   2306   2307
2308   2309   2310   2311
2312   2313   2314   2315
2316   2317   2318   2319
2320   2321   2322   2323
2324   2325   2326   2327
2328   2329   2330   2331
2332   2333   2334   2335
2336   2337   2338   2339
2340   2341   2342   2343
2344   2345   2346   2347
2348   2349   2350   2351
2352   2353   2354   2355
2356   2357   2358   2359
2360   2361   2362   2363
2364   2365   2366   2367
2368   2369   2370   2371
2372   2373   2374   2375
2376   2377   2378   2379
2380   2381   2382   2383
2384   2385   2386   2387
2388   2389   2390   2391
2392   2393   2394   2395
2396   2397   2398   2399
2400   2401   2402   2403
2404   2405   2406   2407
2408   2409   2410   2411
2412   2413   2414   2415
2416   2417   2418   2419
2420   2421   2422   2423
2424   2425   2426   2427
2428   2429   2430   2431
2432   2433   2434   2435
2436   2437   2438   2439
2440   2441   2442   2443
2444   2445   2446   2447
2448   2449   2450   2451
2452   2453   2454   2455
2456   2457   2458   2459
2460   2461   2462   2463
2464   2465   2466   2467
2468   2469   2470   2471
2472   2473   2474   2475
2476   2477   2478   2479
2480   2481   2482   2483
2484   2485   2486   2487
2488   2489   2490   2491
2492   2493   2494   2495
2496   2497   2498   2499
2500   2501   2502   2503
2504   2505   2506   2507
2508   2509   2510   2511
2512   2513   2514   2515
2516   2517   2518   2519
2520   2521   2522   2523
2524   2525   2526   2527
2528   2529   2530   2531
2532   2533   2534   2535
2536   2537   2538   2539
2540   2541   2542   2543
2544   2545   2546   2547
2548   2549   2550   2551
2552   2553   2554   2555
2556   2557   2558   2559
2560   2561   2562   2563
2564   2565   2566   2567
2568   2569   2570   2571
2572   2573   2574   2575
2576   2577   2578   2579
2580   2581   2582   2583
2584   2585   2586   2587
2588   2589   2590   2591
2592   2593   2594   2595
2596   2597   2598   2599
2600   2601   2602   2603
2604   2605   2606   2607
2608   2609   2610   2611
2612   2613   2614   2615
2616   2617   2618   2619
2620   2621   2622   2623
2624   2625   2626   2627
2628   2629   2630   2631
2632   2633   2634   2635
2636   2637   2638   2639
2640   2641   2642   2643
2644   2645   2646   2647
2648   2649   2650   2651
2652   2653   2654   2655
2656   2657   2658   2659
2660   2661   2662   2663
2664   2665   2666   2667
2668   2669   2670   2671
2672   2673   2674   2675
2676   2677   2678   2679
2680   2681   2682   2683
2684   2685   2686   2687
2688   2689   2690   2691
2692   2693   2694   2695
2696   2697   2698   2699
2700   2701   2702   2703
2704   2705   2706   2707
2708   2709   2710   2711
2712   2713   2714   2715
2716   2717   2718   2719
2720   2721   2722   2723
2724   2725   2726   2727
2728   2729   2730   2731
2732   2733   2734   2735
2736   2737   2738   2739
2740   2741   2742   2743
2744   2745   2746   2747
2748   2749   2750   2751
2752   2753   2754   2755
2756   2757   2758   2759
2760   2761   2762   2763
2764   2765   2766   2767
2768   2769   2770   2771
2772   2773   2774   2775
2776   2777   2778   2779
2780   2781   2782   2783
2784   2785   2786   2787
2788   2789   2790   2791
2792   2793   2794   2795
2796   2797   2798   2799
2800   2801   2802   2803
2804   2805   2806   2807
2808   2809   2810   2811
2812   2813   2814   2815
2816   2817   2818   2819
2820   2821   2822   2823
2824   2825   2826   2827
2828   2829   2830   2831
2832   2833   2834   2835
2836   2837   2838   2839
2840   2841   2842   2843
2844   2845   2846   2847
2848   2849   2850   2851
2852   2853   2854   2855
2856   2857   2858   2859
2860   2861   2862   2863
2864   2865   2866   2867
2868   2869   2870   2871
2872   2873   2874   2875
2876   2877   2878   2879
2880   2881   2882   2883
2884   2885   2886   2887
2888   2889   2890   2891
2892   2893   2894   2895
2896   2897   2898   2899
2900   2901   2902   2903
2904   2905   2906   2907
2908   2909   2910   2911
2912   2913   2914   2915
2916   2917   2918   2919
2920   2921   2922   2923
2924   2925   2926   2927
2928   2929   2930   2931
2932   2933   2934   2935
2936   2937   2938   2939
2940   2941   2942   2943
2944   2945   2946   2947
2948   2949   2950   2951
2952   2953   2954   2955
2956   2957   2958   2959
2960   2961   2962   2963
2964   2965   2966   2967
2968   2969   2970   2971
2972   2973   2974   2975
2976   2977   2978   2979
2980   2981   2982   2983
2984   2985   2986   2987
2988   2989   2990   2991
2992   2993   2994   2995
2996   2997   2998   2999
3000   3001   3002   3003
3004   3005   3006   3007
3008   3009   3010   3011
3012   3013   3014   3015
3016   3017   3018   3019
3020   3021   3022   3023
3024   3025   3026   3027
3028   3029   3030   3031
3032   3033   3034   3035
3036   3037   3038   3039
3040   3041   3042   3043
3044   3045   3046   3047
3048   3049   3050   3051
3052   3053   3054   3055
3056   3057   3058   3059
3060   3061   3062   3063
3064   3065   3066   3067
3068   3069   3070   3071
3072   3073   3074   3075
3076   3077   3078   3079
3080   3081   3082   3083
3084   3085   3086   3087
3088   3089   3090   3091
3092   3093   3094   3095
3096   3097   3098   3099
3100   3101   3102   3103
3104   3105   3106   3107
3108   3109   3110   3111
3112   3113   3114   3115
3116   3117   3118   3119
3120   3121   3122   3123
3124   3125   3126   3127
3128   3129   3130   3131
3132   3133   3134   3135
3136   3137   3138   3139
3140   3141   3142   3143
3144   3145   3146   3147
3148   3149   3150   3151
3152   3153   3154   3155
3156   3157   3158   3159
3160   3161   3162   3163
3164   3165   3166   3167
3168   3169   3170   3171
3172   3173   3174   3175
3176   3177   3178   3179
3180   3181   3182   3183
3184   3185   3186   3187
3188   3189   3190   3191
3192   3193   3194   3195
3196   3197   3198   3199
3200   3201   3202   3203
3204   3205   3206   3207
3208   3209   3210   3211
3212   3213   3214   3215
3216   3217   3218   3219
3220   3221   3222   3223
3224   3225   3226   3227
3228   3229   3230   3231
3232   3233   3234   3235
3236   3237   3238   3239
3240   3241   3242   3243
3244   3245   3246   3247
3248   3249   3250   3251
3252   3253   3254   3255
3256   3257   3258   3259
3260   3261   3262   3263
3264   3265   3266   3267
3268   3269   3270   3271
3272   3273   3274   3275
3276   3277   3278   3279
3280   3281   3282   3283
3284   3285   3286   3287
3288   3289   3290   3291
3292   3293   3294   3295
3296   3297   3298   3299
3300   3301   3302   3303
3304   3305   3306   3307
3308   3309   3310   3311
3312   3313   3314   3315
3316   3317   3318   3319
3320   3321   3322   3323
3324   3325   3326   3327
3328   3329   3330   3331
3332   3333   3334   3335
3336   3337   3338   3339
3340   3341   3342   3343
3344   3345   3346   3347
3348   3349   3350   3351
3352   3353   3354   3355
3356   3357   3358   3359
3360   3361   3362   3363
3364   3365   3366   3367
3368   3369   3370   3371
3372   3373   3374   3375
3376   3377   3378   3379
3380   3381   3382   3383
3384   3385   3386   3387
3388   3389   3390   3391
3392   3393   3394   3395
3396   3397   3398   3399
3400   3401   3402   3403
3404   3405   3406   3407
3408   3409   3410   3411
3412   3413   3414   3415
3416   3417   3418   3419
3420   3421   3422   3423
3424   3425   3426   3427
3428   3429   3430   3431
3432   3433   3434   3435
3436   3437   3438   3439
3440   3441   3442   3443
3444   3445   3446   3447
3448   3449   3450   3451
3452   3453   3454   3455
3456   3457   3458   3459
3460   3461   3462   3463
3464   3465   3466   3467
3468   3469   3470   3471
3472   3473   3474   3475
3476   3477   3478   3479
3480   3481   3482   3483
3484   3485   3486   3487
3488   3489   3490   3491
3492   3493   3494   3495
3496   3497   3498   3499
3500   3501   3502   3503
3504   3505   3506   3507
3508   3509   3510   3511
3512   3513   3514   3515
3516   3517   3518   3519
3520   3521   3522   3523
3524   3525   3526   3527
3528   3529   3530   3531
3532   3533   3534   3535
3536   3537   3538   3539
3540   3541   3542   3543
3544   3545   3546   3547
3548   3549   3550   3551
3552   3553   3554   3555
3556   3557   3558   3559
3560   3561   3562   3563
3564   3565   3566   3567
3568   3569   3570   3571
3572   3573   3574   3575
3576   3577   3578   3579
3580   3581   3582   3583
3584   3585   3586   3587
3588   3589   3590   3591
3592   3593   3594   3595
3596   3597   3598   3599
3600   3601   3602   3603
3604   3605   3606   3607
3608   3609   3610   3611
3612   3613   3614   3615
3616   3617   3618   3619
3620   3621   3622   3623
3624   3625   3626   3627
3628   3629   3630   3631
3632   3633   3634   3635
3636   3637   3638   3639
3640   3641   3642   3643
3644   3645   3646   3647
3648   3649   3650   3651
3652   3653   3654   3655
3656   3657   3658   3659
3660   3661   3662   3663
3664   3665   3666   3667
3668   3669   3670   3671
3672   3673   3674   3675
3676   3677   3678   3679
3680   3681   3682   3683
3684   3685   3686   3687
3688   3689   3690   3691
3692   3693   3694   3695
3696   3697   3698   3699
3700   3701   3702   3703
3704   3705   3706   3707
3708   3709   3710   3711
3712   3713   3714   3715
3716   3717   3718   3719
3720   3721   3722   3723
3724   3725   3726   3727
3728   3729   3730   3731
3732   3733   3734   3735
3736   3737   3738   3739
3740   3741   3742   3743
3744   3745   3746   3747
3748   3749   3750   3751
3752   3753   3754   3755
3756   3757   3758   3759
3760   3761   3762   3763
3764   3765   3766   3767
3768   3769   3770   3771
3772   3773   3774   3775
3776   3777   3778   3779
3780   3781   3782   3783
3784   3785   3786   3787
3788   3789   3790   3791
3792   3793   3794   3795
3796   3797   3798   3799
3800   3801   3802   3803
3804   3805   3806   3807
3808   3809   3810   3811
3812   3813   3814   3815
3816   3817   3818   3819
3820   3821   3822   3823
3824   3825   3826   3827
3828   3829   3830   3831
3832   3833   3834   3835
3836   3837   3838   3839
3840   3841   3842   3843
3844   3845   3846   3847
3848   3849   3850   3851
3852   3853   3854   3855
3856   3857   3858   3859
3860   3861   3862   3863
3864   3865   3866   3867
3868   3869   3870   3871
3872   3873   3874   3875
3876   3877   3878   3879
3880   3881   3882   3883
3884   3885   3886   3887
3888   3889   3890   3891
3892   3893   3894   3895
3896   3897   3898   3899
3900   3901   3902   3903
3904   3905   3906   3907
3908   3909   3910   3911
3912   3913   3914   3915
3916   3917   3918   3919
3920   3921   3922   3923
3924   3925   3926   3927
3928   3929   3930   3931
3932   3933   3934   3935
3936   3937   3938   3939
3940   3941   3942   3943
3944   3945   3946   3947
3948   3949   3950   3951
3952   3953   3954   3955
3956   3957   3958   3959
3960   3961   3962   3963
3964   3965   3966   3967
3968   3969   3970   3971
3972   3973   3974   3975
3976   3977   3978   3979
3980   3981   3982   3983
3984   3985   3986   3987
3988   3989   3990   3991
3992   3993   3994   3995
3996   3997   3998   3999
4000   4001   4002   4003
4004   4005   4006   4007
4008   4009   4010   4011
4012   4013   4014   4015
4016   4017   4018   4019
4020   4021   4022   4023
4024   4025   4026   4027
4028   4029   4030   4031
4032   4033   4034   4035
4036   4037   4038   4039
4040   4041   4042   4043
4044   4045   4046   4047
4048   4049   4050   4051
4052   4053   4054   4055
4056   4057   4058   4059
4060   4061   4062   4063
4064   4065   4066   4067
4068   4069   4070   4071
4072   4073   4074   4075
4076   4077   4078   4079
4080   4081   4082   4083
4084   4085   4086   4087
4088   4089   4090   4091
4092   4093   4094   4095
4096   4097   4098   4099
4100   4101   4102   4103
4104   4105   4106   4107
4108   4109   4110   4111
4112   4113   4114   4115
4116   4117   4118   4119
4120   4121   4122   4123
4124   4125   4126   4127
4128   4129   4130   4131
4132   4133   4134   4135
4136   4137   4138   4139
4140   4141   4142   4143
4144   4145   4146   4147
4148   4149   4150   4151
4152   4153   4154   4155
4156   4157   4158   4159
4160   4161   4162   4163
4164   4165   4166   4167
4168   4169   4170   4171
4172   4173   4174   4175
4176   4177   4178   4179
4180   4181   4182   4183
4184   4185   4186   4187
4188   4189   4190   4191
4192   4193   4194   4195
4196   4197   4198   4199
4200   4201   4202   4203
4204   4205   4206   4207
4208   4209   4210   4211
4212   4213   4214   4215
4216   4217   4218   4219
4220   4221   4222   4223
4224   4225   4226   4227
4228   4229   4230   4231
4232   4233   4234   4235
4236   4237   4238   4239
4240   4241   4242   4243
4244   4245   4246   4247
4248   4249   4250   4251
4252   4253   4254   4255
4256   4257   4258   4259
4260   4261   4262   4263
4264   4265   4266   4267
4268   4269   4270   4271
4272   4273   4274   4275
4276   4277   4278   4279
4280   4281   4282   4283
4284   4285   4286   4287
4288   4289   4290   4291
4292   4293   4294   4295
4296   4297   4298   4299
4300   4301   4302   4303
4304   4305   4306   4307
4308   4309   4310   4311
4312   4313   4314   4315
4316   4317   4318   4319
4320   4321   4322   4323
4324   4325   4326   4327
4328   4329   4330   4331
4332   4333   4334   4335
4336   4337   4338   4339
4340   4341   4342   4343
4344   4345   4346   4347
4348   4349   4350   4351
4352   4353   4354   4355
4356   4357   4358   4359
4360   4361   4362   4363
4364   4365   4366   4367
4368   4369   4370   4371
4372   4373   4374   4375
4376   4377   4378   4379
4380   4381   4382   4383
4384   4385   4386   4387
4388   4389   4390   4391
4392   4393   4394   4395
4396   4397   4398   4399
4400   4401   4402   4403
4404   4405   4406   4407
4408   4409   4410   4411
4412   4413   4414   4415
4416   4417   4418   4419
4420   4421   4422   4423
4424   4425   4426   4427
4428   4429   4430   4431
4432   4433   4434   4435
4436   4437   4438   4439
4440   4441   4442   4443
4444   4445   4446   4447
4448   4449   4450   4451
4452   4453   4454   4455
4456   4457   4458   4459
4460   4461   4462   4463
4464   4465   4466   4467
4468   4469   4470   4471
4472   4473   4474   4475
4476   4477   4478   4479
4480   4481   4482   4483
4484   4485   4486   4487
4488   4489   4490   4491
4492   4493   4494   4495
4496   4497   4498   4499
4500   4501   4502   4503
4504   4505   4506   4507
4508   4509   4510   4511
4512   4513   4514   4515
4516   4517   4518   4519
4520   4521   4522   4523
4524   4525   4526   4527
4528   4529   4530   4531
4532   4533   4534   4535
4536   4537   4538   4539
4540   4541   4542   4543
4544   4545   4546   4547
4548   4549   4550   4551
4552   4553   4554   4555
4556   4557   4558   4559
4560   4561   4562   4563
4564   4565   4566   4567
4568   4569   4570   4571
4572   4573   4574   4575
4576   4577   4578   4579
4580   4581   4582   4583
4584   4585   4586   4587
4588   4589   4590   4591
4592   4593   4594   4595
4596   4597   4598   4599
4600   4601   4602   4603
4604   4605   4606   4607
4608   4609   4610   4611
4612   4613   4614   4615
4616   4617   4618   4619
4620   4621   4622   4623
4624   4625   4626   4627
4628   4629   4630   4631
4632   4633   4634   4635
4636   4637   4638   4639
4640   4641   4642   4643
4644   4645   4646   4647
4648   4649   4650   4651
4652   4653   4654   4655
4656   4657   4658   4659
4660   4661   4662   4663
4664   4665   4666   4667
4668   4669   4670   4671
4672   4673   4674   4675
4676   4677   4678   4679
4680   4681   4682   4683
4684   4685   4686   4687
4688   4689   4690   4691
4692   4693   4694   4695
4696   4697   4698   4699
4700   4701   4702   4703
4704   4705   4706   4707
4708   4709   4710   4711
4712   4713   4714   4715
4716   4717   4718   4719
4720   4721   4722   4723
4724   4725   4726   4727
4728   4729   4730   4731
4732   4733   4734   4735
4736   4737   4738   4739
4740   4741   4742   4743
4744   4745   4746   4747
4748   4749   4750   4751
4752   4753   4754   4755
4756   4757   4758   4759
4760   4761   4762   4763
4764   4765   4766   4767
4768   4769   4770   4771
4772   4773   4774   4775
4776   4777   4778   4779
4780   4781   4782   4783
4784   4785   4786   4787
4788   4789   4790   4791
4792   4793   4794   4795
4796   4797   4798   4799
4800   4801   4802   4803
4804   4805   4806   4807
4808   4809   4810   4811
4812   4813   4814   4815
4816   4817   4818   4819
4820   4821   4822   4823
4824   4825   4826   4827
4828   4829   4830   4831
4832   4833   4834   4835
4836   4837   4838   4839
4840   4841   4842   4843
4844   4845   4846   4847
4848   4849   4850   4851
4852   4853   4854   4855
4856   4857   4858   4859
4860   4861   4862   4863
4864   4865   4866   4867
4868   4869   4870   4871
4872   4873   4874   4875
4876   4877   4878   4879
4880   4881   4882   4883
4884   4885   4886   4887
4888   4889   4890   4891
4892   4893   4894   4895
4896   4897   4898   4899
4900   4901   4902   4903
4904   4905   4906   4907
4908   4909   4910   4911
4912   4913   4914   4915
4916   4917   4918   4919
4920   4921   4922   4923
4924   4925   4926   4927
4928   4929   4930   4931
4932   4933   4934   4935
4936   4937   4938   4939
4940   4941   4942   4943
4944   4945   4946   4947
4948   4949   4950   4951
4952   4953   4954   4955
4956   4957   4958   4959
4960   4961   4962   4963
4964   4965   4966   4967
4968   4969   4970   4971
4972   4973   4974   4975
4976   4977   4978   4979
4980   4981   4982   4983
4984   4985   4986   4987
4988   4989   4990   4991
4992   4993   4994   4995
4996   4997   4998   4999
5000   5001   5002   5003
5004   5005   5006   5007
5008   5009   5010   5011
5012   5013   5014   5015
5016   5017   5018   5019
5020   5021   5022   5023
5024   5025   5026   5027
5028   5029   5030   5031
5032   5033   5034   5035
5036   5037   5038   5039
5040   5041   5042   5043
5044   5045   5046   5047
5048   5049   5050   5051
5052   5053   5054   5055
5056   5057   5058   5059
5060   5061   5062   5063
5064   5065   5066   5067
5068   5069   5070   5071
5072   5073   5074   5075
5076   5077   5078   5079
5080   5081   5082   5083
5084   5085   5086   5087
5088   5089   5090   5091
5092   5093   5094   5095
5096   5097   5098   5099
5100   5101   5102   5103
5104   5105   5106   5107
5108   5109   5110   5111
5112   5113   5114   5115
5116   5117   5118   5119
5120   5121   5122   5123
5124   5125   5126   5127
5128   5129   5130   5131
5132   5133   5134   5135
5136   5137   5138   5139
5140   5141   5142   5143
5144   5145   5146   5147
5148   5149   5150   5151
5152   5153   5154   5155
5156   5157   5158   5159
5160   5161   5162   5163
5164   5165   5166   5167
5168   5169   5170   5171
5172   5173   5174   5175
5176   5177   5178   5179
5180   5181   5182   5183
5184   5185   5186   5187
5188   5189   5190   5191
5192   5193   5194   5195
5196   5197   5198   5199
5200   5201   5202   5203
5204   5205   5206   5207
5208   5209   5210   5211
5212   5213   5214   5215
5216   5217   5218   5219
5220   5221   5222   5223
5224   5225   5226   5227
5228   5229   5230   5231
5232   5233   5234   5235
5236   5237   5238   5239
5240   5241   5242   5243
5244   5245   5246   5247
5248   5249   5250   5251
5252   5253   5254   5255
5256   5257   5258   5259
5260   5261   5262   5263
5264   5265   5266   5267
5268   5269   5270   5271
5272   5273   5274   5275
5276   5277   5278   5279
5280   5281   5282   5283
5284   5285   5286   5287
5288   5289   5290   5291
5292   5293   5294   5295
5296   5297   5298   5299
5300   5301   5302   5303
5304   5305   5306   5307
5308   5309   5310   5311
5312   5313   5314   5315
5316   5317   5318   5319
5320   5321   5322   5323
5324   5325   5326   5327
5328   5329   5330   5331
5332   5333   5334   5335
5336   5337   5338   5339
5340   5341   5342   5343
5344   5345   5346   5347
5348   5349   5350   5351
5352   5353   5354   5355
5356   5357   5358   5359
5360   5361   5362   5363
5364   5365   5366   5367
5368   5369   5370   5371
5372   5373   5374   5375
5376   5377   5378   5379
5380   5381   5382   5383
5384   5385   5386   5387
5388   5389   5390   5391
5392   5393   5394   5395
5396   5397   5398   5399
5400   5401   5402   5403
5404   5405   5406   5407
5408   5409   5410   5411
5412   5413   5414   5415
5416   5417   5418   5419
5420   5421   5422   5423
5424   5425   5426   5427
5428   5429   5430   5431
5432   5433   5434   5435
5436   5437   5438   5439
5440   5441   5442   5443
5444   5445   5446   5447
5448   5449   5450   5451
5452   5453   5454   5455
5456   5457   5458   5459
5460   5461   5462   5463
5464   5465   5466   5467
5468   5469   5470   5471
5472   5473   5474   5475
5476   5477   5478   5479
5480   5481   5482   5483
5484   5485   5486   5487
5488   5489   5490   5491
5492   5493   5494   5495
5496   5497   5498   5499
5500   5501   5502   5503
5504   5505   5506   5507
5508   5509   5510   5511
5512   5513   5514   5515
5516   5517   5518   5519
5520   5521   5522   5523
5524   5525   5526   5527
5528   5529   5530   5531
5532   5533   5534   5535
5536   5537   5538   5539
5540   5541   5542   5543
5544   5545   5546   5547
5548   5549   5550   5551
5552   5553   5554   5555
5556   5557   5558   5559
5560   5561   5562   5563
5564   5565   5566   5567
5568   5569   5570   5571
5572   5573   5574   5575
5576   5577   5578   5579
5580   5581   5582   5583
5584   5585   5586   5587
5588   5589   5590   5591
5592   5593   5594   5595
5596   5597   5598   5599
5600   5601   5602   5603
5604   5605   5606   5607
5608   5609   5610   5611
5612   5613   5614   5615
5616   5617   5618   5619
5620   5621   5622   5623
5624   5625   5626   5627
5628   5629   5630   5631
5632   5633   5634   5635
5636   5637   5638   5639
5640   5641   5642   5643
5644   5645   5646   5647
5648   5649   5650   5651
5652   5653   5654   5655
5656   5657   5658   5659
5660   5661   5662   5663
5664   5665   5666   5667
5668   5669   5670   5671
5672   5673   5674   5675
5676   5677   5678   5679
5680   5681   5682   5683
5684   5685   5686   5687
5688   5689   5690   5691
5692   5693   5694   5695
5696   5697   5698   5699
5700   5701   5702   5703
5704   5705   5706   5707
5708   5709   5710   5711
5712   5713   5714   5715
5716   5717   5718   5719
5720   5721   5722   5723
5724   5725   5726   5727
5728   5729   5730   5731
5732   5733   5734   5735
5736   5737   5738   5739
5740   5741   5742   5743
5744   5745   5746   5747
5748   5749   5750   5751
5752   5753   5754   5755
5756   5757   5758   5759
5760   5761   5762   5763
5764   5765   5766   5767
5768   5769   5770   5771
5772   5773   5774   5775
5776   5777   5778   5779
5780   5781   5782   5783
5784   5785   5786   5787
5788   5789   5790   5791
5792   5793   5794   5795
5796   5797   5798   5799
5800   5801   5802   5803
5804   5805   5806   5807
5808   5809   5810   5811
5812   5813   5814   5815
5816   5817   5818   5819
5820   5821   5822   5823
5824   5825   5826   5827
5828   5829   5830   5831
5832   5833   5834   5835
5836   5837   5838   5839
5840   5841   5842   5843
5844   5845   5846   5847
5848   5849   5850   5851
5852   5853   5854   5855
5856   5857   5858   5859
5860   5861   5862   5863
5864   5865   5866   5867
5868   5869   5870   5871
5872   5873   5874   5875
5876   5877   5878   5879
5880   5881   5882   5883
5884   5885   5886   5887
5888   5889   5890   5891
5892   5893   5894   5895
5896   5897   5898   5899
5900   5901   5902   5903
5904   5905   5906   5907
5908   5909   5910   5911
5912   5913   5914   5915
5916   5917   5918   5919
5920   5921   5922   5923
5924   5925   5926   5927
5928   5929   5930   5931
5932   5933   5934   5935
5936   5937   5938   5939
5940   5941   5942   5943
5944   5945   5946   5947
5948   5949   5950   5951
5952   5953   5954   5955
5956   5957   5958   5959
5960   5961   5962   5963
5964   5965   5966   5967
5968   5969   5970   5971
5972   5973   5974   5975
5976   5977   5978   5979
5980   5981   5982   5983
5984   5985   5986   5987
5988   5989   5990   5991
5992   5993   5994   5995
5996   5997   5998   5999
              </DataArray>   
              <DataArray type="Int32" Name="offsets" format="ascii">   
4
8
12
16
20
24
28
32
36
40
44
48
52
56
60
64
68
72
76
80
84
88
92
96
100
104
108
112
116
120
124
128
132
136
140
144
148
152
156
160
164
168
172
176
180
184
188
192
196
200
204
208
212
216
220
224
228
232
236
240
244
248
252
256
260
264
268
272
276
280
284
288
292
296
300
304
308
312
316
320
324
328
332
336
340
344
348
352
356
360
364
368
372
376
380
384
388
392
396
400
404
408
412
416
420
424
428
432
436
440
444
448
452
456
460
464
468
472
476
480
484
488
492
496
500
504
508
512
516
520
524
528
532
536
540
544
548
552
556
560
564
568
572
576
580
584
588
592
596
600
604
608
612
616
620
624
628
632
636
640
644
648
652
656
660
664
668
672
676
680
684
688
692
696
700
704
708
712
716
720
724
728
732
736
740
744
748
752
756
760
764
768
772
776
780
784
788
792
796
800
804
808
812
816
820
824
828
832
836
840
844
848
852
856
860
864
868
872
876
880
884
888
892
896
900
904
908
912
916
920
924
928
932
936
940
944
948
952
956
960
964
968
972
976
980
984
988
992
996
1000
1004
1008
1012
1016
1020
1024
1028
1032
1036
1040
1044
1048
1052
1056
1060
1064
1068
1072
1076
1080
1084
1088
1092
1096
1100
1104
1108
1112
1116
1120
1124
1128
1132
1136
1140
1144
1148
1152
1156
1160
1164
1168
1172
1176
1180
1184
1188
1192
1196
1200
1204
1208
1212
1216
1220
1224
1228
1232
1236
1240
1244
1248
1252
1256
1260
1264
1268
1272
1276
1280
1284
1288
1292
1296
1300
1304
1308
1312
1316
1320
1324
1328
1332
1336
1340
1344
1348
1352
1356
1360
1364
1368
1372
1376
1380
1384
1388
1392
1396
1400
1404
1408
1412
1416
1420
1424
1428
1432
1436
1440
1444
1448
1452
1456
1460
1464
1468
1472
1476
1480
1484
1488
1492
1496
1500
1504
1508
1512
1516
1520
1524
1528
1532
1536
1540
1544
1548
1552
1556
1560
1564
1568
1572
1576
1580
1584
1588
1592
1596
1600
1604
1608
1612
1616
1620
1624
1628
1632
1636
1640
1644
1648
1652
1656
1660
1664
1668
1672
1676
1680
1684
1688
1692
1696
1700
1704
1708
1712
1716
1720
1724
1728
1732
1736
1740
1744
1748
1752
1756
1760
1764
1768
1772
1776
1780
1784
1788
1792
1796
1800
1804
1808
1812
1816
1820
1824
1828
1832
1836
1840
1844
1848
1852
1856
1860
1864
1868
1872
1876
1880
1884
1888
1892
1896
1900
1904
1908
1912
1916
1920
1924
1928
1932
1936
1940
1944
1948
1952
1956
1960
1964
1968
1972
1976
1980
1984
1988
1992
1996
2000
2004
2008
2012
2016
2020
2024
2028
2032
2036
2040
2044
2048
2052
2056
2060
2064
2068
2072
2076
2080
2084
2088
2092
2096
2100
2104
2108
2112
2116
2120
2124
2128
2132
2136
2140
2144
2148
2152
2156
2160
2164
2168
2172
2176
2180
2184
2188
2192
2196
2200
2204
2208
2212
2216
2220
2224
2228
2232
2236
2240
2244
2248
2252
2256
2260
2264
2268
2272
2276
2280
2284
2288
2292
2296
2300
2304
2308
2312
2316
2320
2324
2328
2332
2336
2340
2344
2348
2352
2356
2360
2364
2368
2372
2376
2380
2384
2388
2392
2396
2400
2404
2408
2412
2416
2420
2424
2428
2432
2436
2440
2444
2448
2452
2456
2460
2464
2468
2472
2476
2480
2484
2488
2492
2496
2500
2504
2508
2512
2516
2520
2524
2528
2532
2536
2540
2544
2548
2552
2556
2560
2564
2568
2572
2576
2580
2584
2588
2592
2596
2600
2604
2608
2612
2616
2620
2624
2628
2632
2636
2640
2644
2648
2652
2656
2660
2664
2668
2672
2676
2680
2684
2688
2692
2696
2700
2704
2708
2712
2716
2720
2724
2728
2732
2736
2740
2744
2748
2752
2756
2760
2764
2768
2772
2776
2780
2784
2788
2792
2796
2800
2804
2808
2812
2816
2820
2824
2828
2832
2836
2840
2844
2848
2852
2856
2860
2864
2868
2872
2876
2880
2884
2888
2892
2896
2900
2904
2908
2912
2916
2920
2924
2928
2932
2936
2940
2944
2948
2952
2956
2960
2964
2968
2972
2976
2980
2984
2988
2992
2996
3000
3004
3008
3012
3016
3020
3024
3028
3032
3036
3040
3044
3048
3052
3056
3060
3064
3068
3072
3076
3080
3084
3088
3092
3096
3100
3104
3108
3112
3116
3120
3124
3128
3132
3136
3140
3144
3148
3152
3156
3160
3164
3168
3172
3176
3180
3184
3188
3192
3196
3200
3204
3208
3212
3216
3220
3224
3228
3232
3236
3240
3244
3248
3252
3256
3260
3264
3268
3272
3276
3280
3284
3288
3292
3296
3300
3304
3308
3312
3316
3320
3324
3328
3332
3336
3340
3344
3348
3352
3356
3360
3364
3368
3372
3376
3380
3384
3388
3392
3396
3400
3404
3408
3412
3416
3420
3424
3428
3432
3436
3440
3444
3448
3452
3456
3460
3464
3468
3472
3476
3480
3484
3488
3492
3496
3500
3504
3508
3512
3516
3520
3524
3528
3532
3536
3540
3544
3548
3552
3556
3560
3564
3568
3572
3576
3580
3584
3588
3592
3596
3600
3604
3608
3612
3616
3620
3624
3628
3632
3636
3640
3644
3648
3652
3656
3660
3664
3668
3672
3676
3680
3684
3688
3692
3696
3700
3704
3708
3712
3716
3720
3724
3728
3732
3736
3740
3744
3748
3752
3756
3760
3764
3768
3772
3776
3780
3784
3788
3792
3796
3800
3804
3808
3812
3816
3820
3824
3828
3832
3836
3840
3844
3848
3852
3856
3860
3864
3868
3872
3876
3880
3884
3888
3892
3896
3900
3904
3908
3912
3916
3920
3924
3928
3932
3936
3940
3944
3948
3952
3956
3960
3964
3968
3972
3976
3980
3984
3988
3992
3996
4000
4004
4008
4012
4016
4020
4024
4028
4032
4036
4040
4044
4048
4052
4056
4060
4064
4068
4072
4076
4080
4084
4088
4092
4096
4100
4104
4108
4112
4116
4120
4124
4128
4132
4136
4140
4144
4148
4152
4156
4160
4164
4168
4172
4176
4180
4184
4188
4192
4196
4200
4204
4208
4212
4216
4220
4224
4228
4232
4236
4240
4244
4248
4252
4256
4260
4264
4268
4272
4276
4280
4284
4288
4292
4296
4300
4304
4308
4312
4316
4320
4324
4328
4332
4336
4340
4344
4348
4352
4356
4360
4364
4368
4372
4376
4380
4384
4388
4392
4396
4400
4404
4408
4412
4416
4420
4424
4428
4432
4436
4440
4444
4448
4452
4456
4460
4464
4468
4472
4476
4480
4484
4488
4492
4496
4500
4504
4508
4512
4516
4520
4524
4528
4532
4536
4540
4544
4548
4552
4556
4560
4564
4568
4572
4576
4580
4584
4588
4592
4596
4600
4604
4608
4612
4616
4620
4624
4628
4632
4636
4640
4644
4648
4652
4656
4660
4664
4668
4672
4676
4680
4684
4688
4692
4696
4700
4704
4708
4712
4716
4720
4724
4728
4732
4736
4740
4744
4748
4752
4756
4760
4764
4768
4772
4776
4780
4784
4788
4792
4796
4800
4804
4808
4812
4816
4820
4824
4828
4832
4836
4840
4844
4848
4852
4856
4860
4864
4868
4872
4876
4880
4884
4888
4892
4896
4900
4904
4908
4912
4916
4920
4924
4928
4932
4936
4940
4944
4948
4952
4956
4960
4964
4968
4972
4976
4980
4984
4988
4992
4996
5000
5004
5008
5012
5016
5020
5024
5028
5032
5036
5040
5044
5048
5052
5056
5060
5064
5068
5072
5076
5080
5084
5088
5092
5096
5100
5104
5108
5112
5116
5120
5124
5128
5132
5136
5140
5144
5148
5152
5156
5160
5164
5168
5172
5176
5180
5184
5188
5192
5196
5200
5204
5208
5212
5216
5220
5224
5228
5232
5236
5240
5244
5248
5252
5256
5260
5264
5268
5272
5276
5280
5284
5288
5292
5296
5300
5304
5308
5312
5316
5320
5324
5328
5332
5336
5340
5344
5348
5352
5356
5360
5364
5368
5372
5376
5380
5384
5388
5392
5396
5400
5404
5408
5412
5416
5420
5424
5428
5432
5436
5440
5444
5448
5452
5456
5460
5464
5468
5472
5476
5480
5484
5488
5492
5496
5500
5504
5508
5512
5516
5520
5524
5528
5532
5536
5540
5544
5548
5552
5556
5560
5564
5568
5572
5576
5580
5584
5588
5592
5596
5600
5604
5608
5612
5616
5620
5624
5628
5632
5636
5640
5644
5648
5652
5656
5660
5664
5668
5672
5676
5680
5684
5688
5692
5696
5700
5704
5708
5712
5716
5720
5724
5728
5732
5736
5740
5744
5748
5752
5756
5760
5764
5768
5772
5776
5780
5784
5788
5792
5796
5800
5804
5808
5812
5816
5820
5824
5828
5832
5836
5840
5844
5848
5852
5856
5860
5864
5868
5872
5876
5880
5884
5888
5892
5896
5900
5904
5908
5912
5916
5920
5924
5928
5932
5936
5940
5944
5948
5952
5956
5960
5964
5968
5972
5976
5980
5984
5988
5992
5996
6000
              </DataArray>   
              <DataArray type="UInt8" Name="types" format="ascii">   
10
10
10
10
10
10
10
10
10
10
10
10
10
10
10
10
10
10
10
10
10
10
10
10
10
10
10
10
10
10
10
10
10
10
10
10
10
10
10
10
10
10
10
10
10
10
10
10
10
10
10
10
10
10
10
10
10
10
10
10
10
10
10
10
10
10
10
10
10
10
10
10
10
10
10
10
10
10
10
10
10
10
10
10
10
10
10
10
10
10
10
10
10
10
10
10
10
10
10
10
10
10
10
10
10
10
10
10
10
10
10
10
10
10
10
10
10
10
10
10
10
10
10
10
10
10
10
10
10
10
10
10
10
10
10
10
10
10
10
10
10
10
10
10
10
10
10
10
10
10
10
10
10
10
10
10
10
10
10
10
10
10
10
10
10
10
10
10
10
10
10
10
10
10
10
10
10
10
10
10
10
10
10
10
10
10
10
10
10
10
10
10
10
10
10
10
10
10
10
10
10
10
10
10
10
10
10
10
10
10
10
10
10
10
10
10
10
10
10
10
10
10
10
10
10
10
10
10
10
10
10
10
10
10
10
10
10
10
10
10
10
10
10
10
10
10
10
10
10
10
10
10
10
10
10
10
10
10
10
10
10
10
10
10
10
10
10
10
10
10
10
10
10
10
10
10
10
10
10
10
10
10
10
10
10
10
10
10
10
10
10
10
10
10
10
10
10
10
10
10
10
10
10
10
10
10
10
10
10
10
10
10
10
10
10
10
10
10
10
10
10
10
10
10
10
10
10
10
10
10
10
10
10
10
10
10
10
10
10
10
10
10
10
10
10
10
10
10
10
10
10
10
10
10
10
10
10
10
10
10
10
10
10
10
10
10
10
10
10
10
10
10
10
10
10
10
10
10
10
10
10
10
10
10
10
10
10
10
10
10
10
10
10
10
10
10
10
10
10
10
10
10
10
10
10
10
10
10
10
10
10
10
10
10
10
10
10
10
10
10
10
10
10
10
10
10
10
10
10
10
10
10
10
10
10
10
10
10
10
10
10
10
10
10
10
10
10
10
10
10
10
10
10
10
10
10
10
10
10
10
10
10
10
10
10
10
10
10
10
10
10
10
10
10
10
10
10
10
10
10
10
10
10
10
10
10
10
10
10
10
10
10
10
10
10
10
10
10
10
10
10
10
10
10
10
10
10
10
10
10
10
10
10
10
10
10
10
10
10
10
10
10
10
10
10
10
10
10
10
10
10
10
10
10
10
10
10
10
10
10
10
10
10
10
10
10
10
10
10
10
10
10
10
10
10
10
10
10
10
10
10
10
10
10
10
10
10
10
10
10
10
10
10
10
10
10
10
10
10
10
10
10
10
10
10
10
10
10
10
10
10
10
10
10
10
10
10
10
10
10
10
10
10
10
10
10
10
10
10
10
10
10
10
10
10
10
10
10
10
10
10
10
10
10
10
10
10
10
10
10
10
10
10
10
10
10
10
10
10
10
10
10
10
10
10
10
10
10
10
10
10
10
10
10
10
10
10
10
10
10
10
10
10
10
10
10
10
10
10
10
10
10
10
10
10
10
10
10
10
10
10
10
10
10
10
10
10
10
10
10
10
10
10
10
10
10
10
10
10
10
10
10
10
10
10
10
10
10
10
10
10
10
10
10
10
10
10
10
10
10
10
10
10
10
10
10
10
10
10
10
10
10
10
10
10
10
10
10
10
10
10
10
10
10
10
10
10
10
10
10
10
10
10
10
10
10
10
10
10
10
10
10
10
10
10
10
10
10
10
10
10
10
10
10
10
10
10
10
10
10
10
10
10
10
10
10
10
10
10
10
10
10
10
10
10
10
10
10
10
10
10
10
10
10
10
10
10
10
10
10
10
10
10
10
10
10
10
10
10
10
10
10
10
10
10
10
10
10
10
10
10
10
10
10
10
10
10
10
10
10
10
10
10
10
10
10
10
10
10
10
10
10
10
10
10
10
10
10
10
10
10
10
10
10
10
10
10
10
10
10
10
10
10
10
10
10
10
10
10
10
10
10
10
10
10
10
10
10
10
10
10
10
10
10
10
10
10
10
10
10
10
10
10
10
10
10
10
10
10
10
10
10
10
10
10
10
10
10
10
10
10
10
10
10
10
10
10
10
10
10
10
10
10
10
10
10
10
10
10
10
10
10
10
10
10
10
10
10
10
10
10
10
10
10
10
10
10
10
10
10
10
10
10
10
10
10
10
10
10
10
10
10
10
10
10
10
10
10
10
10
10
10
10
10
10
10
10
10
10
10
10
10
10
10
10
10
10
10
10
10
10
10
10
10
10
10
10
10
10
10
10
10
10
10
10
10
10
10
10
10
10
10
10
10
10
10
10
10
10
10
10
10
10
10
10
10
10
10
10
10
10
10
10
10
10
10
10
10
10
10
10
10
10
10
10
10
10
10
10
10
10
10
10
10
10
10
10
10
10
10
10
10
10
10
10
10
10
10
10
10
10
10
10
10
10
10
10
10
10
10
10
10
10
10
10
10
10
10
10
10
10
10
10
10
10
10
10
10
10
10
10
10
10
10
10
10
10
10
10
10
10
10
10
10
10
10
10
10
10
10
10
10
10
10
10
10
10
10
10
10
10
10
10
10
10
10
10
10
10
10
10
10
10
10
10
10
10
10
10
10
10
10
10
10
10
10
10
10
10
10
10
10
10
10
10
10
10
10
10
10
10
10
10
10
10
10
10
10
10
10
10
10
10
10
10
10
10
10
10
10
10
10
10
10
10
10
10
10
10
10
10
10
10
10
10
10
10
10
10
10
10
10
10
10
10
10
10
10
10
10
10
10
10
10
10
10
10
10
10
10
10
10
10
10
10
10
10
10
10
10
10
10
10
10
10
10
10
10
10
10
10
10
10
10
10
10
10
10
10
10
10
10
10
10
10
10
10
10
10
10
10
10
10
10
10
10
10
10
10
10
10
10
10
10
10
10
10
10
10
10
10
10
10
10
10
10
10
10
10
10
10
10
10
10
10
10
10
10
10
10
10
10
10
10
10
10
10
10
10
10
10
10
10
10
10
10
10
10
10
10
10
10
10
10
10
10
10
10
10
10
10
10
10
10
10
10
10
10
10
10
10
10
10
10
10
10
10
10
10
10
10
10
10
10
10
10
10
10
10
10
10
10
10
10
10
10
10
10
10
10
10
10
10
10
10
10
10
10
10
10
10
10
10
10
10
10
10
10
10
10
10
10
10
10
10
10
10
10
10
10
10
10
10
10
10
10
10
10
10
10
10
10
10
10
10
10
10
10
10
10
10
10
10
10
10
10
10
10
10
10
10
10
10
10
10
10
10
10
10
10
10
10
10
10
10
10
10
10
10
10
10
10
10
10
10
10
10
10
10
10
10
10
10
10
10
10
10
10
10
10
10
10
10
10
10
10
10
10
10
10
              </DataArray>   
          </Cells>  
          <PointData>  
             <DataArray type="Float64" NumberOfComponents="3" Name="Strains" format="ascii">   
-5.056313829227433e-05   0.0   -3.3306510373250345e-05
-5.056313829227433e-05   0.0   -3.3306510373250345e-05
-5.056313829227433e-05   0.0   -3.3306510373250345e-05
-5.056313829227433e-05   0.0   -3.3306510373250345e-05
-3.216225291141992e-05   5.585260096377461e-06   7.127879860000953e-07
-3.216225291141992e-05   5.585260096377461e-06   7.127879860000953e-07
-3.216225291141992e-05   5.585260096377461e-06   7.127879860000953e-07
-3.216225291141992e-05   5.585260096377461e-06   7.127879860000953e-07
-3.1517942177977973e-05   0.0   -3.14508209411491e-05
-3.1517942177977973e-05   0.0   -3.14508209411491e-05
-3.1517942177977973e-05   0.0   -3.14508209411491e-05
-3.1517942177977973e-05   0.0   -3.14508209411491e-05
-5.290652083237671e-05   6.710309663165297e-06   1.7062435161642106e-07
-5.290652083237671e-05   6.710309663165297e-06   1.7062435161642106e-07
-5.290652083237671e-05   6.710309663165297e-06   1.7062435161642106e-07
-5.290652083237671e-05   6.710309663165297e-06   1.7062435161642106e-07
-4.1040540235126084e-05   1.546407860084375e-06   -1.650766889528605e-05
-4.1040540235126084e-05   1.546407860084375e-06   -1.650766889528605e-05
-4.1040540235126084e-05   1.546407860084375e-06   -1.650766889528605e-05
-4.1040540235126084e-05   1.546407860084375e-06   -1.650766889528605e-05
-5.2906520832376804e-05   0.0   -3.547700673904828e-05
-5.2906520832376804e-05   0.0   -3.547700673904828e-05
-5.2906520832376804e-05   0.0   -3.547700673904828e-05
-5.2906520832376804e-05   0.0   -3.547700673904828e-05
-3.1517942177977973e-05   6.7103096631653035e-06   4.1968101495156005e-06
-3.1517942177977973e-05   6.7103096631653035e-06   4.1968101495156005e-06
-3.1517942177977973e-05   6.7103096631653035e-06   4.1968101495156005e-06
-3.1517942177977973e-05   6.7103096631653035e-06   4.1968101495156005e-06
-3.159791231178079e-05   0.0   -3.221822667534102e-05
-3.159791231178079e-05   0.0   -3.221822667534102e-05
-3.159791231178079e-05   0.0   -3.221822667534102e-05
-3.159791231178079e-05   0.0   -3.221822667534102e-05
-5.454816225219251e-05   7.191186078055897e-06   1.7174782451784417e-06
-5.454816225219251e-05   7.191186078055897e-06   1.7174782451784417e-06
-5.454816225219251e-05   7.191186078055897e-06   1.7174782451784417e-06
-5.454816225219251e-05   7.191186078055897e-06   1.7174782451784417e-06
-4.2252216572078726e-05   2.7156500530893807e-06   -1.6090442940031265e-05
-4.2252216572078726e-05   2.7156500530893807e-06   -1.6090442940031265e-05
-4.2252216572078726e-05   2.7156500530893807e-06   -1.6090442940031265e-05
-4.2252216572078726e-05   2.7156500530893807e-06   -1.6090442940031265e-05
-5.45481622521926e-05   0.0   -3.6532938322174566e-05
-5.45481622521926e-05   0.0   -3.6532938322174566e-05
-5.45481622521926e-05   0.0   -3.6532938322174566e-05
-5.45481622521926e-05   0.0   -3.6532938322174566e-05
-3.1597912311780736e-05   7.191186078055897e-06   6.032189892011985e-06
-3.1597912311780736e-05   7.191186078055897e-06   6.032189892011985e-06
-3.1597912311780736e-05   7.191186078055897e-06   6.032189892011985e-06
-3.1597912311780736e-05   7.191186078055897e-06   6.032189892011985e-06
-3.15712528834208e-05   0.0   -3.241682530889935e-05
-3.15712528834208e-05   0.0   -3.241682530889935e-05
-3.15712528834208e-05   0.0   -3.241682530889935e-05
-3.15712528834208e-05   0.0   -3.241682530889935e-05
-5.809355832668614e-05   8.198794460607705e-06   6.867740420178389e-06
-5.809355832668614e-05   8.198794460607705e-06   6.867740420178389e-06
-5.809355832668614e-05   8.198794460607705e-06   6.867740420178389e-06
-5.809355832668614e-05   8.198794460607705e-06   6.867740420178389e-06
-4.305970756780663e-05   3.4300941777293487e-06   -1.532745734156042e-05
-4.305970756780663e-05   3.4300941777293487e-06   -1.532745734156042e-05
-4.305970756780663e-05   3.4300941777293487e-06   -1.532745734156042e-05
-4.305970756780663e-05   3.4300941777293487e-06   -1.532745734156042e-05
-3.216225291141997e-05   0.0   -2.9955354315423864e-05
-3.216225291141997e-05   0.0   -2.9955354315423864e-05
-3.216225291141997e-05   0.0   -2.9955354315423864e-05
-3.216225291141997e-05   0.0   -2.9955354315423864e-05
-1.4657174646691113e-05   2.045334662580056e-06   4.469769233389118e-07
-1.4657174646691113e-05   2.045334662580056e-06   4.469769233389118e-07
-1.4657174646691113e-05   2.045334662580056e-06   4.469769233389118e-07
-1.4657174646691113e-05   2.045334662580056e-06   4.469769233389118e-07
-1.4088373301639291e-05   0.0   -2.9700471844037326e-05
-1.4088373301639291e-05   0.0   -2.9700471844037326e-05
-1.4088373301639291e-05   0.0   -2.9700471844037326e-05
-1.4088373301639291e-05   0.0   -2.9700471844037326e-05
-3.1517942177977973e-05   2.917248495186199e-06   -2.4015394805846686e-06
-3.1517942177977973e-05   2.917248495186199e-06   -2.4015394805846686e-06
-3.1517942177977973e-05   2.917248495186199e-06   -2.4015394805846686e-06
-3.1517942177977973e-05   2.917248495186199e-06   -2.4015394805846686e-06
-2.3125313106529605e-05   2.1240205948874037e-07   -1.4766346738246705e-05
-2.3125313106529605e-05   2.1240205948874037e-07   -1.4766346738246705e-05
-2.3125313106529605e-05   2.1240205948874037e-07   -1.4766346738246705e-05
-2.3125313106529605e-05   2.1240205948874037e-07   -1.4766346738246705e-05
-3.1517942177977946e-05   0.0   -3.145082094114907e-05
-3.1517942177977946e-05   0.0   -3.145082094114907e-05
-3.1517942177977946e-05   0.0   -3.145082094114907e-05
-3.1517942177977946e-05   0.0   -3.145082094114907e-05
-1.4088373301639291e-05   2.9172484951861923e-06   -6.511903834729478e-07
-1.4088373301639291e-05   2.9172484951861923e-06   -6.511903834729478e-07
-1.4088373301639291e-05   2.9172484951861923e-06   -6.511903834729478e-07
-1.4088373301639291e-05   2.9172484951861923e-06   -6.511903834729478e-07
-1.3765272299990537e-05   0.0   -3.0071449042221674e-05
-1.3765272299990537e-05   0.0   -3.0071449042221674e-05
-1.3765272299990537e-05   0.0   -3.0071449042221674e-05
-1.3765272299990537e-05   0.0   -3.0071449042221674e-05
-3.159791231178079e-05   3.577962721865494e-06   -2.4971599890239753e-06
-3.159791231178079e-05   3.577962721865494e-06   -2.4971599890239753e-06
-3.159791231178079e-05   3.577962721865494e-06   -2.4971599890239753e-06
-3.159791231178079e-05   3.577962721865494e-06   -2.4971599890239753e-06
-2.2641607238984223e-05   1.1494765824394726e-06   -1.5967243426695845e-05
-2.2641607238984223e-05   1.1494765824394726e-06   -1.5967243426695845e-05
-2.2641607238984223e-05   1.1494765824394726e-06   -1.5967243426695845e-05
-2.2641607238984223e-05   1.1494765824394726e-06   -1.5967243426695845e-05
-3.159791231178079e-05   0.0   -3.221822667534102e-05
-3.159791231178079e-05   0.0   -3.221822667534102e-05
-3.159791231178079e-05   0.0   -3.221822667534102e-05
-3.159791231178079e-05   0.0   -3.221822667534102e-05
-1.376527229999056e-05   3.577962721865494e-06   -3.503823559046741e-07
-1.376527229999056e-05   3.577962721865494e-06   -3.503823559046741e-07
-1.376527229999056e-05   3.577962721865494e-06   -3.503823559046741e-07
-1.376527229999056e-05   3.577962721865494e-06   -3.503823559046741e-07
-1.3469590650334817e-05   0.0   -2.991753005706833e-05
-1.3469590650334817e-05   0.0   -2.991753005706833e-05
-1.3469590650334817e-05   0.0   -2.991753005706833e-05
-1.3469590650334817e-05   0.0   -2.991753005706833e-05
-3.157125288342072e-05   4.165492086384978e-06   -2.247388253756023e-06
-3.157125288342072e-05   4.165492086384978e-06   -2.247388253756023e-06
-3.157125288342072e-05   4.165492086384978e-06   -2.247388253756023e-06
-3.157125288342072e-05   4.165492086384978e-06   -2.247388253756023e-06
-2.2533751481057797e-05   1.9172471818938857e-06   -1.596094364833303e-05
-2.2533751481057797e-05   1.9172471818938857e-06   -1.596094364833303e-05
-2.2533751481057797e-05   1.9172471818938857e-06   -1.596094364833303e-05
-2.2533751481057797e-05   1.9172471818938857e-06   -1.596094364833303e-05
-1.4657174646691139e-05   0.0   -2.872815351787583e-05
-1.4657174646691139e-05   0.0   -2.872815351787583e-05
-1.4657174646691139e-05   0.0   -2.872815351787583e-05
-1.4657174646691139e-05   0.0   -2.872815351787583e-05
1.8742159409569757e-06   -2.6438502896988477e-07   -1.3344668891775404e-06
1.8742159409569757e-06   -2.6438502896988477e-07   -1.3344668891775404e-06
1.8742159409569757e-06   -2.6438502896988477e-07   -1.3344668891775404e-06
1.8742159409569757e-06   -2.6438502896988477e-07   -1.3344668891775404e-06
2.2414139848598364e-06   0.0   -2.9389541628511267e-05
2.2414139848598364e-06   0.0   -2.9389541628511267e-05
2.2414139848598364e-06   0.0   -2.9389541628511267e-05
2.2414139848598364e-06   0.0   -2.9389541628511267e-05
-1.4088373301639291e-05   5.18217025876678e-07   -2.4841596998721097e-06
-1.4088373301639291e-05   5.18217025876678e-07   -2.4841596998721097e-06
-1.4088373301639291e-05   5.18217025876678e-07   -2.4841596998721097e-06
-1.4088373301639291e-05   5.18217025876678e-07   -2.4841596998721097e-06
-6.207880330915637e-06   -5.511567588629487e-07   -1.497669038023441e-05
-6.207880330915637e-06   -5.511567588629487e-07   -1.497669038023441e-05
-6.207880330915637e-06   -5.511567588629487e-07   -1.497669038023441e-05
-6.207880330915637e-06   -5.511567588629487e-07   -1.497669038023441e-05
-1.4088373301639317e-05   0.0   -2.9700471844037377e-05
-1.4088373301639317e-05   0.0   -2.9700471844037377e-05
-1.4088373301639317e-05   0.0   -2.9700471844037377e-05
-1.4088373301639317e-05   0.0   -2.9700471844037377e-05
2.2414139848598402e-06   5.18217025876678e-07   -2.1732294843461e-06
2.2414139848598402e-06   5.18217025876678e-07   -2.1732294843461e-06
2.2414139848598402e-06   5.18217025876678e-07   -2.1732294843461e-06
2.2414139848598402e-06   5.18217025876678e-07   -2.1732294843461e-06
2.532408428955654e-06   0.0   -2.9346810764104385e-05
2.532408428955654e-06   0.0   -2.9346810764104385e-05
2.532408428955654e-06   0.0   -2.9346810764104385e-05
2.532408428955654e-06   0.0   -2.9346810764104385e-05
-1.3765272299990513e-05   1.2077304635288132e-06   -2.908647827311357e-06
-1.3765272299990513e-05   1.2077304635288132e-06   -2.908647827311357e-06
-1.3765272299990513e-05   1.2077304635288132e-06   -2.908647827311357e-06
-1.3765272299990513e-05   1.2077304635288132e-06   -2.908647827311357e-06
-5.777982436341818e-06   2.9471756661078306e-07   -1.567298986190839e-05
-5.777982436341818e-06   2.9471756661078306e-07   -1.567298986190839e-05
-5.777982436341818e-06   2.9471756661078306e-07   -1.567298986190839e-05
-5.777982436341818e-06   2.9471756661078306e-07   -1.567298986190839e-05
-1.376527229999056e-05   0.0   -3.0071449042221725e-05
-1.376527229999056e-05   0.0   -3.0071449042221725e-05
-1.376527229999056e-05   0.0   -3.0071449042221725e-05
-1.376527229999056e-05   0.0   -3.0071449042221725e-05
2.5324084289556583e-06   1.2077304635288132e-06   -2.184009549194077e-06
2.5324084289556583e-06   1.2077304635288132e-06   -2.184009549194077e-06
2.5324084289556583e-06   1.2077304635288132e-06   -2.184009549194077e-06
2.5324084289556583e-06   1.2077304635288132e-06   -2.184009549194077e-06
2.9209831097360184e-06   0.0   -2.8714030474046355e-05
2.9209831097360184e-06   0.0   -2.8714030474046355e-05
2.9209831097360184e-06   0.0   -2.8714030474046355e-05
2.9209831097360184e-06   0.0   -2.8714030474046355e-05
-1.3469590650334805e-05   2.0058326383699124e-06   -2.5999071236169347e-06
-1.3469590650334805e-05   2.0058326383699124e-06   -2.5999071236169347e-06
-1.3469590650334805e-05   2.0058326383699124e-06   -2.5999071236169347e-06
-1.3469590650334805e-05   2.0058326383699124e-06   -2.5999071236169347e-06
-5.422144595127259e-06   1.1311821401460982e-06   -1.548752691669521e-05
-5.422144595127259e-06   1.1311821401460982e-06   -1.548752691669521e-05
-5.422144595127259e-06   1.1311821401460982e-06   -1.548752691669521e-05
-5.422144595127259e-06   1.1311821401460982e-06   -1.548752691669521e-05
1.874215940956979e-06   0.0   -2.888678453525776e-05
1.874215940956979e-06   0.0   -2.888678453525776e-05
1.874215940956979e-06   0.0   -2.888678453525776e-05
1.874215940956979e-06   0.0   -2.888678453525776e-05
1.9826375837329204e-05   -2.3254783560622695e-06   -3.6180505494128187e-07
1.9826375837329204e-05   -2.3254783560622695e-06   -3.6180505494128187e-07
1.9826375837329204e-05   -2.3254783560622695e-06   -3.6180505494128187e-07
1.9826375837329204e-05   -2.3254783560622695e-06   -3.6180505494128187e-07
1.9872527721590028e-05   0.0   -3.0439895491498697e-05
1.9872527721590028e-05   0.0   -3.0439895491498697e-05
1.9872527721590028e-05   0.0   -3.0439895491498697e-05
1.9872527721590028e-05   0.0   -3.0439895491498697e-05
2.2414139848598402e-06   -1.7505897716455442e-06   -4.352067294397937e-09
2.2414139848598402e-06   -1.7505897716455442e-06   -4.352067294397937e-09
2.2414139848598402e-06   -1.7505897716455442e-06   -4.352067294397937e-09
2.2414139848598402e-06   -1.7505897716455442e-06   -4.352067294397937e-09
1.0873371831273503e-05   -1.2942591302007784e-06   -1.4664746862850677e-05
1.0873371831273503e-05   -1.2942591302007784e-06   -1.4664746862850677e-05
1.0873371831273503e-05   -1.2942591302007784e-06   -1.4664746862850677e-05
1.0873371831273503e-05   -1.2942591302007784e-06   -1.4664746862850677e-05
2.2414139848598445e-06   0.0   -2.9389541628511372e-05
2.2414139848598445e-06   0.0   -2.9389541628511372e-05
2.2414139848598445e-06   0.0   -2.9389541628511372e-05
2.2414139848598445e-06   0.0   -2.9389541628511372e-05
1.9872527721589994e-05   -1.7505897716455442e-06   -1.054705930281726e-06
1.9872527721589994e-05   -1.7505897716455442e-06   -1.054705930281726e-06
1.9872527721589994e-05   -1.7505897716455442e-06   -1.054705930281726e-06
1.9872527721589994e-05   -1.7505897716455442e-06   -1.054705930281726e-06
1.9796807612471664e-05   0.0   -3.0005303346386206e-05
1.9796807612471664e-05   0.0   -3.0005303346386206e-05
1.9796807612471664e-05   0.0   -3.0005303346386206e-05
1.9796807612471664e-05   0.0   -3.0005303346386206e-05
2.5324084289556583e-06   -1.0974876371362775e-06   -5.728121249110989e-07
2.5324084289556583e-06   -1.0974876371362775e-06   -5.728121249110989e-07
2.5324084289556583e-06   -1.0974876371362775e-06   -5.728121249110989e-07
2.5324084289556583e-06   -1.0974876371362775e-06   -5.728121249110989e-07
1.1019110798665755e-05   -5.131347648956981e-07   -1.5067927797772263e-05
1.1019110798665755e-05   -5.131347648956981e-07   -1.5067927797772263e-05
1.1019110798665755e-05   -5.131347648956981e-07   -1.5067927797772263e-05
1.1019110798665755e-05   -5.131347648956981e-07   -1.5067927797772263e-05
2.5324084289556583e-06   0.0   -2.9346810764104436e-05
2.5324084289556583e-06   0.0   -2.9346810764104436e-05
2.5324084289556583e-06   0.0   -2.9346810764104436e-05
2.5324084289556583e-06   0.0   -2.9346810764104436e-05
1.979680761247163e-05   -1.0974876371362775e-06   -1.2313047071928633e-06
1.979680761247163e-05   -1.0974876371362775e-06   -1.2313047071928633e-06
1.979680761247163e-05   -1.0974876371362775e-06   -1.2313047071928633e-06
1.979680761247163e-05   -1.0974876371362775e-06   -1.2313047071928633e-06
2.018923575383186e-05   0.0   -2.884629235559784e-05
2.018923575383186e-05   0.0   -2.884629235559784e-05
2.018923575383186e-05   0.0   -2.884629235559784e-05
2.018923575383186e-05   0.0   -2.884629235559784e-05
2.9209831097360235e-06   -2.2043646925239092e-07   6.639059944664916e-08
2.9209831097360235e-06   -2.2043646925239092e-07   6.639059944664916e-08
2.9209831097360235e-06   -2.2043646925239092e-07   6.639059944664916e-08
2.9209831097360235e-06   -2.2043646925239092e-07   6.639059944664916e-08
1.1360822091393759e-05   4.1709867375549616e-07   -1.4382528789120962e-05
1.1360822091393759e-05   4.1709867375549616e-07   -1.4382528789120962e-05
1.1360822091393759e-05   4.1709867375549616e-07   -1.4382528789120962e-05
1.1360822091393759e-05   4.1709867375549616e-07   -1.4382528789120962e-05
1.9826375837329276e-05   0.0   -3.0282071548895127e-05
1.9826375837329276e-05   0.0   -3.0282071548895127e-05
1.9826375837329276e-05   0.0   -3.0282071548895127e-05
1.9826375837329276e-05   0.0   -3.0282071548895127e-05
4.481849261607427e-05   -5.902407897992705e-06   7.830011676884379e-06
4.481849261607427e-05   -5.902407897992705e-06   7.830011676884379e-06
4.481849261607427e-05   -5.902407897992705e-06   7.830011676884379e-06
4.481849261607427e-05   -5.902407897992705e-06   7.830011676884379e-06
4.2105952049364845e-05   0.0   -3.3449648038128365e-05
4.2105952049364845e-05   0.0   -3.3449648038128365e-05
4.2105952049364845e-05   0.0   -3.3449648038128365e-05
4.2105952049364845e-05   0.0   -3.3449648038128365e-05
1.9872527721589994e-05   -5.01625424438277e-06   6.615811721459319e-06
1.9872527721589994e-05   -5.01625424438277e-06   6.615811721459319e-06
1.9872527721589994e-05   -5.01625424438277e-06   6.615811721459319e-06
1.9872527721589994e-05   -5.01625424438277e-06   6.615811721459319e-06
3.096616394334706e-05   -2.6396470743610355e-06   -1.329954628348209e-05
3.096616394334706e-05   -2.6396470743610355e-06   -1.329954628348209e-05
3.096616394334706e-05   -2.6396470743610355e-06   -1.329954628348209e-05
3.096616394334706e-05   -2.6396470743610355e-06   -1.329954628348209e-05
1.987252772159001e-05   0.0   -3.043989549149867e-05
1.987252772159001e-05   0.0   -3.043989549149867e-05
1.987252772159001e-05   0.0   -3.043989549149867e-05
1.987252772159001e-05   0.0   -3.043989549149867e-05
4.2105952049364845e-05   -5.016254244382784e-06   3.6060591748296607e-06
4.2105952049364845e-05   -5.016254244382784e-06   3.6060591748296607e-06
4.2105952049364845e-05   -5.016254244382784e-06   3.6060591748296607e-06
4.2105952049364845e-05   -5.016254244382784e-06   3.6060591748296607e-06
4.0859332974515917e-05   0.0   -3.275431449443458e-05
4.0859332974515917e-05   0.0   -3.275431449443458e-05
4.0859332974515917e-05   0.0   -3.275431449443458e-05
4.0859332974515917e-05   0.0   -3.275431449443458e-05
1.979680761247163e-05   -4.581685246747287e-06   5.098905590354209e-06
1.979680761247163e-05   -4.581685246747287e-06   5.098905590354209e-06
1.979680761247163e-05   -4.581685246747287e-06   5.098905590354209e-06
1.979680761247163e-05   -4.581685246747287e-06   5.098905590354209e-06
3.0365930348052955e-05   -1.928682502446573e-06   -1.4108100615528375e-05
3.0365930348052955e-05   -1.928682502446573e-06   -1.4108100615528375e-05
3.0365930348052955e-05   -1.928682502446573e-06   -1.4108100615528375e-05
3.0365930348052955e-05   -1.928682502446573e-06   -1.4108100615528375e-05
1.9796807612471664e-05   0.0   -3.0005303346386206e-05
1.9796807612471664e-05   0.0   -3.0005303346386206e-05
1.9796807612471664e-05   0.0   -3.0005303346386206e-05
1.9796807612471664e-05   0.0   -3.0005303346386206e-05
4.085933297451584e-05   -4.581685246747287e-06   2.3498944423058256e-06
4.085933297451584e-05   -4.581685246747287e-06   2.3498944423058256e-06
4.085933297451584e-05   -4.581685246747287e-06   2.3498944423058256e-06
4.085933297451584e-05   -4.581685246747287e-06   2.3498944423058256e-06
3.899690401126531e-05   0.0   -3.097883096028127e-05
3.899690401126531e-05   0.0   -3.097883096028127e-05
3.899690401126531e-05   0.0   -3.097883096028127e-05
3.899690401126531e-05   0.0   -3.097883096028127e-05
2.0189235753831807e-05   -3.5542310078057055e-06   2.4998214067912627e-06
2.0189235753831807e-05   -3.5542310078057055e-06   2.4998214067912627e-06
2.0189235753831807e-05   -3.5542310078057055e-06   2.4998214067912627e-06
2.0189235753831807e-05   -3.5542310078057055e-06   2.4998214067912627e-06
2.9396855811868435e-05   -8.112730115792212e-07   -1.4491986821005659e-05
2.9396855811868435e-05   -8.112730115792212e-07   -1.4491986821005659e-05
2.9396855811868435e-05   -8.112730115792212e-07   -1.4491986821005659e-05
2.9396855811868435e-05   -8.112730115792212e-07   -1.4491986821005659e-05
-4.378051475921601e-05   5.585260096377448e-06   -2.880669767062034e-05
-4.378051475921601e-05   5.585260096377448e-06   -2.880669767062034e-05
-4.378051475921601e-05   5.585260096377448e-06   -2.880669767062034e-05
-4.378051475921601e-05   5.585260096377448e-06   -2.880669767062034e-05
-2.8049172551467786e-05   5.017267864357332e-06   -2.9285893302520214e-06
-2.8049172551467786e-05   5.017267864357332e-06   -2.9285893302520214e-06
-2.8049172551467786e-05   5.017267864357332e-06   -2.9285893302520214e-06
-2.8049172551467786e-05   5.017267864357332e-06   -2.9285893302520214e-06
-2.8750186363191834e-05   6.71030966316529e-06   -2.420068907802941e-05
-2.8750186363191834e-05   6.71030966316529e-06   -2.420068907802941e-05
-2.8750186363191834e-05   6.71030966316529e-06   -2.420068907802941e-05
-2.8750186363191834e-05   6.71030966316529e-06   -2.420068907802941e-05
-4.424456834400224e-05   6.026830878822084e-06   2.0333681605938544e-06
-4.424456834400224e-05   6.026830878822084e-06   2.0333681605938544e-06
-4.424456834400224e-05   6.026830878822084e-06   2.0333681605938544e-06
-4.424456834400224e-05   6.026830878822084e-06   2.0333681605938544e-06
-3.477150392443176e-05   5.8365513825631865e-06   -1.3640904840935057e-05
-3.477150392443176e-05   5.8365513825631865e-06   -1.3640904840935057e-05
-3.477150392443176e-05   5.8365513825631865e-06   -1.3640904840935057e-05
-3.477150392443176e-05   5.8365513825631865e-06   -1.3640904840935057e-05
-4.424456834400224e-05   6.71030966316529e-06   -2.3790601807423503e-05
-4.424456834400224e-05   6.71030966316529e-06   -2.3790601807423503e-05
-4.424456834400224e-05   6.71030966316529e-06   -2.3790601807423503e-05
-4.424456834400224e-05   6.71030966316529e-06   -2.3790601807423503e-05
-2.8750186363191935e-05   6.026830878822084e-06   1.6232808899880078e-06
-2.8750186363191935e-05   6.026830878822084e-06   1.6232808899880078e-06
-2.8750186363191935e-05   6.026830878822084e-06   1.6232808899880078e-06
-2.8750186363191935e-05   6.026830878822084e-06   1.6232808899880078e-06
-2.8892066270123246e-05   7.191186078055897e-06   -2.176339957280792e-05
-2.8892066270123246e-05   7.191186078055897e-06   -2.176339957280792e-05
-2.8892066270123246e-05   7.191186078055897e-06   -2.176339957280792e-05
-2.8892066270123246e-05   7.191186078055897e-06   -2.176339957280792e-05
-4.454742184009251e-05   6.48266658981214e-06   4.753971403420383e-06
-4.454742184009251e-05   6.48266658981214e-06   4.753971403420383e-06
-4.454742184009251e-05   6.48266658981214e-06   4.753971403420383e-06
-4.454742184009251e-05   6.48266658981214e-06   4.753971403420383e-06
-3.578748166405632e-05   6.4710951688833664e-06   -9.83898603741599e-06
-3.578748166405632e-05   6.4710951688833664e-06   -9.83898603741599e-06
-3.578748166405632e-05   6.4710951688833664e-06   -9.83898603741599e-06
-3.578748166405632e-05   6.4710951688833664e-06   -9.83898603741599e-06
-4.4547421840092445e-05   7.191186078055897e-06   -2.1338287879861644e-05
-4.4547421840092445e-05   7.191186078055897e-06   -2.1338287879861644e-05
-4.4547421840092445e-05   7.191186078055897e-06   -2.1338287879861644e-05
-4.4547421840092445e-05   7.191186078055897e-06   -2.1338287879861644e-05
-2.88920662701233e-05   6.482666589812113e-06   4.328859710474065e-06
-2.88920662701233e-05   6.482666589812113e-06   4.328859710474065e-06
-2.88920662701233e-05   6.482666589812113e-06   4.328859710474065e-06
-2.88920662701233e-05   6.482666589812113e-06   4.328859710474065e-06
-2.8722420280944575e-05   8.198794460607705e-06   -1.6097695974366292e-05
-2.8722420280944575e-05   8.198794460607705e-06   -1.6097695974366292e-05
-2.8722420280944575e-05   8.198794460607705e-06   -1.6097695974366292e-05
-2.8722420280944575e-05   8.198794460607705e-06   -1.6097695974366292e-05
-4.329968005782129e-05   6.847800556026483e-06   9.008333329843544e-06
-4.329968005782129e-05   6.847800556026483e-06   9.008333329843544e-06
-4.329968005782129e-05   6.847800556026483e-06   9.008333329843544e-06
-4.329968005782129e-05   6.847800556026483e-06   9.008333329843544e-06
-3.484889330909177e-05   7.1009619921701304e-06   -5.228208113058548e-06
-3.484889330909177e-05   7.1009619921701304e-06   -5.228208113058548e-06
-3.484889330909177e-05   7.1009619921701304e-06   -5.228208113058548e-06
-3.484889330909177e-05   7.1009619921701304e-06   -5.228208113058548e-06
-2.8049172551467786e-05   2.0453346625800493e-06   -3.064050487004164e-05
-2.8049172551467786e-05   2.0453346625800493e-06   -3.064050487004164e-05
-2.8049172551467786e-05   2.0453346625800493e-06   -3.064050487004164e-05
-2.8049172551467786e-05   2.0453346625800493e-06   -3.064050487004164e-05
-1.3305761351387678e-05   2.334783384163984e-06   -5.894483636957715e-06
-1.3305761351387678e-05   2.334783384163984e-06   -5.894483636957715e-06
-1.3305761351387678e-05   2.334783384163984e-06   -5.894483636957715e-06
-1.3305761351387678e-05   2.334783384163984e-06   -5.894483636957715e-06
-1.3618638642536023e-05   2.9172484951861923e-06   -3.0591572654544504e-05
-1.3618638642536023e-05   2.9172484951861923e-06   -3.0591572654544504e-05
-1.3618638642536023e-05   2.9172484951861923e-06   -3.0591572654544504e-05
-1.3618638642536023e-05   2.9172484951861923e-06   -3.0591572654544504e-05
-2.8750186363191834e-05   3.263025251161526e-06   -5.579792507036601e-06
-2.8750186363191834e-05   3.263025251161526e-06   -5.579792507036601e-06
-2.8750186363191834e-05   3.263025251161526e-06   -5.579792507036601e-06
-2.8750186363191834e-05   3.263025251161526e-06   -5.579792507036601e-06
-2.0871660291197008e-05   2.6269425756726697e-06   -1.8329019688401402e-05
-2.0871660291197008e-05   2.6269425756726697e-06   -1.8329019688401402e-05
-2.0871660291197008e-05   2.6269425756726697e-06   -1.8329019688401402e-05
-2.0871660291197008e-05   2.6269425756726697e-06   -1.8329019688401402e-05
-2.8750186363191807e-05   2.9172484951861855e-06   -3.0799038708129625e-05
-2.8750186363191807e-05   2.9172484951861855e-06   -3.0799038708129625e-05
-2.8750186363191807e-05   2.9172484951861855e-06   -3.0799038708129625e-05
-2.8750186363191807e-05   2.9172484951861855e-06   -3.0799038708129625e-05
-1.3618638642536e-05   3.263025251161553e-06   -5.3723264534513436e-06
-1.3618638642536e-05   3.263025251161553e-06   -5.3723264534513436e-06
-1.3618638642536e-05   3.263025251161553e-06   -5.3723264534513436e-06
-1.3618638642536e-05   3.263025251161553e-06   -5.3723264534513436e-06
-1.3713296241016847e-05   3.5779627218654873e-06   -3.0020348689571114e-05
-1.3713296241016847e-05   3.5779627218654873e-06   -3.0020348689571114e-05
-1.3713296241016847e-05   3.5779627218654873e-06   -3.0020348689571114e-05
-1.3713296241016847e-05   3.5779627218654873e-06   -3.0020348689571114e-05
-2.8892066270123246e-05   4.031963995653447e-06   -4.994799405333128e-06
-2.8892066270123246e-05   4.031963995653447e-06   -4.994799405333128e-06
-2.8892066270123246e-05   4.031963995653447e-06   -4.994799405333128e-06
-2.8892066270123246e-05   4.031963995653447e-06   -4.994799405333128e-06
-2.1030205734378566e-05   3.3366929358641753e-06   -1.7680737662367374e-05
-2.1030205734378566e-05   3.3366929358641753e-06   -1.7680737662367374e-05
-2.1030205734378566e-05   3.3366929358641753e-06   -1.7680737662367374e-05
-2.1030205734378566e-05   3.3366929358641753e-06   -1.7680737662367374e-05
-2.8892066270123246e-05   3.5779627218654805e-06   -3.0292749453843847e-05
-2.8892066270123246e-05   3.5779627218654805e-06   -3.0292749453843847e-05
-2.8892066270123246e-05   3.5779627218654805e-06   -3.0292749453843847e-05
-2.8892066270123246e-05   3.5779627218654805e-06   -3.0292749453843847e-05
-1.3713296241016871e-05   4.031963995653447e-06   -4.722398641060417e-06
-1.3713296241016871e-05   4.031963995653447e-06   -4.722398641060417e-06
-1.3713296241016871e-05   4.031963995653447e-06   -4.722398641060417e-06
-1.3713296241016871e-05   4.031963995653447e-06   -4.722398641060417e-06
-1.3674919755518808e-05   4.165492086384978e-06   -2.9715504991214287e-05
-1.3674919755518808e-05   4.165492086384978e-06   -2.9715504991214287e-05
-1.3674919755518808e-05   4.165492086384978e-06   -2.9715504991214287e-05
-1.3674919755518808e-05   4.165492086384978e-06   -2.9715504991214287e-05
-2.8722420280944602e-05   4.859819308803434e-06   -5.0529337822890325e-06
-2.8722420280944602e-05   4.859819308803434e-06   -5.0529337822890325e-06
-2.8722420280944602e-05   4.859819308803434e-06   -5.0529337822890325e-06
-2.8722420280944602e-05   4.859819308803434e-06   -5.0529337822890325e-06
-2.1148981902173164e-05   3.979122482294676e-06   -1.7146912984336185e-05
-2.1148981902173164e-05   3.979122482294676e-06   -1.7146912984336185e-05
-2.1148981902173164e-05   3.979122482294676e-06   -1.7146912984336185e-05
-2.1148981902173164e-05   3.979122482294676e-06   -1.7146912984336185e-05
-1.3305761351387656e-05   -2.6438502896988477e-07   -3.208964843222579e-05
-1.3305761351387656e-05   -2.6438502896988477e-07   -3.208964843222579e-05
-1.3305761351387656e-05   -2.6438502896988477e-07   -3.208964843222579e-05
-1.3305761351387656e-05   -2.6438502896988477e-07   -3.208964843222579e-05
1.250811573657454e-06   -7.09830106004818e-08   -7.712652346128948e-06
1.250811573657454e-06   -7.09830106004818e-08   -7.712652346128948e-06
1.250811573657454e-06   -7.09830106004818e-08   -7.712652346128948e-06
1.250811573657454e-06   -7.09830106004818e-08   -7.712652346128948e-06
1.1956273738834258e-06   5.18217025876678e-07   -3.226475131478004e-05
1.1956273738834258e-06   5.18217025876678e-07   -3.226475131478004e-05
1.1956273738834258e-06   5.18217025876678e-07   -3.226475131478004e-05
1.1956273738834258e-06   5.18217025876678e-07   -3.226475131478004e-05
-1.3618638642536e-05   7.845347861493493e-07   -7.734098610244567e-06
-1.3618638642536e-05   7.845347861493493e-07   -7.734098610244567e-06
-1.3618638642536e-05   7.845347861493493e-07   -7.734098610244567e-06
-1.3618638642536e-05   7.845347861493493e-07   -7.734098610244567e-06
-6.155868639326594e-06   2.6100151458730714e-07   -1.985792865265637e-05
-6.155868639326594e-06   2.6100151458730714e-07   -1.985792865265637e-05
-6.155868639326594e-06   2.6100151458730714e-07   -1.985792865265637e-05
-6.155868639326594e-06   2.6100151458730714e-07   -1.985792865265637e-05
-1.3618638642536e-05   5.18217025876678e-07   -3.242454197094363e-05
-1.3618638642536e-05   5.18217025876678e-07   -3.242454197094363e-05
-1.3618638642536e-05   5.18217025876678e-07   -3.242454197094363e-05
-1.3618638642536e-05   5.18217025876678e-07   -3.242454197094363e-05
1.195627373883428e-06   7.845347861493222e-07   -7.574307954080936e-06
1.195627373883428e-06   7.845347861493222e-07   -7.574307954080936e-06
1.195627373883428e-06   7.845347861493222e-07   -7.574307954080936e-06
1.195627373883428e-06   7.845347861493222e-07   -7.574307954080936e-06
1.1192331430337334e-06   1.2077304635288132e-06   -3.233088295462892e-05
1.1192331430337334e-06   1.2077304635288132e-06   -3.233088295462892e-05
1.1192331430337334e-06   1.2077304635288132e-06   -3.233088295462892e-05
1.1192331430337334e-06   1.2077304635288132e-06   -3.233088295462892e-05
-1.3713296241016824e-05   1.6206158074435323e-06   -7.857731854226818e-06
-1.3713296241016824e-05   1.6206158074435323e-06   -7.857731854226818e-06
-1.3713296241016824e-05   1.6206158074435323e-06   -7.857731854226818e-06
-1.3713296241016824e-05   1.6206158074435323e-06   -7.857731854226818e-06
-6.2657560285276045e-06   9.856153660107772e-07   -1.9889298610182502e-05
-6.2657560285276045e-06   9.856153660107772e-07   -1.9889298610182502e-05
-6.2657560285276045e-06   9.856153660107772e-07   -1.9889298610182502e-05
-6.2657560285276045e-06   9.856153660107772e-07   -1.9889298610182502e-05
-1.3713296241016824e-05   1.2077304635288132e-06   -3.2578614160977756e-05
-1.3713296241016824e-05   1.2077304635288132e-06   -3.2578614160977756e-05
-1.3713296241016824e-05   1.2077304635288132e-06   -3.2578614160977756e-05
-1.3713296241016824e-05   1.2077304635288132e-06   -3.2578614160977756e-05
1.1192331430337334e-06   1.6206158074435052e-06   -7.610000647878029e-06
1.1192331430337334e-06   1.6206158074435052e-06   -7.610000647878029e-06
1.1192331430337334e-06   1.6206158074435052e-06   -7.610000647878029e-06
1.1192331430337334e-06   1.6206158074435052e-06   -7.610000647878029e-06
9.597986972528338e-07   2.005832638369919e-06   -3.227590550951752e-05
9.597986972528338e-07   2.005832638369919e-06   -3.227590550951752e-05
9.597986972528338e-07   2.005832638369919e-06   -3.227590550951752e-05
9.597986972528338e-07   2.005832638369919e-06   -3.227590550951752e-05
-1.3674919755518797e-05   2.491521977350964e-06   -8.176121691620127e-06
-1.3674919755518797e-05   2.491521977350964e-06   -8.176121691620127e-06
-1.3674919755518797e-05   2.491521977350964e-06   -8.176121691620127e-06
-1.3674919755518797e-05   2.491521977350964e-06   -8.176121691620127e-06
-6.330302256319679e-06   1.7300206617153454e-06   -1.9960250067570596e-05
-6.330302256319679e-06   1.7300206617153454e-06   -1.9960250067570596e-05
-6.330302256319679e-06   1.7300206617153454e-06   -1.9960250067570596e-05
-6.330302256319679e-06   1.7300206617153454e-06   -1.9960250067570596e-05
1.250811573657454e-06   -2.3254783560622695e-06   -2.9605658373330522e-05
1.250811573657454e-06   -2.3254783560622695e-06   -2.9605658373330522e-05
1.250811573657454e-06   -2.3254783560622695e-06   -2.9605658373330522e-05
1.250811573657454e-06   -2.3254783560622695e-06   -2.9605658373330522e-05
1.6251342595382806e-05   -2.3903891633828434e-06   -4.643719821513962e-06
1.6251342595382806e-05   -2.3903891633828434e-06   -4.643719821513962e-06
1.6251342595382806e-05   -2.3903891633828434e-06   -4.643719821513962e-06
1.6251342595382806e-05   -2.3903891633828434e-06   -4.643719821513962e-06
1.6390243094639332e-05   -1.7505897716455374e-06   -3.001275154578108e-05
1.6390243094639332e-05   -1.7505897716455374e-06   -3.001275154578108e-05
1.6390243094639332e-05   -1.7505897716455374e-06   -3.001275154578108e-05
1.6390243094639332e-05   -1.7505897716455374e-06   -3.001275154578108e-05
1.195627373883428e-06   -1.6120525184001486e-06   -4.771514363135142e-06
1.195627373883428e-06   -1.6120525184001486e-06   -4.771514363135142e-06
1.195627373883428e-06   -1.6120525184001486e-06   -4.771514363135142e-06
1.195627373883428e-06   -1.6120525184001486e-06   -4.771514363135142e-06
8.66000425432734e-06   -1.9313809302819865e-06   -1.7020545450079214e-05
8.66000425432734e-06   -1.9313809302819865e-06   -1.7020545450079214e-05
8.66000425432734e-06   -1.9313809302819865e-06   -1.7020545450079214e-05
8.66000425432734e-06   -1.9313809302819865e-06   -1.7020545450079214e-05
1.1956273738834258e-06   -1.7505897716455374e-06   -3.0095873897728347e-05
1.1956273738834258e-06   -1.7505897716455374e-06   -3.0095873897728347e-05
1.1956273738834258e-06   -1.7505897716455374e-06   -3.0095873897728347e-05
1.1956273738834258e-06   -1.7505897716455374e-06   -3.0095873897728347e-05
1.6390243094639332e-05   -1.6120525184001215e-06   -4.688392011187827e-06
1.6390243094639332e-05   -1.6120525184001215e-06   -4.688392011187827e-06
1.6390243094639332e-05   -1.6120525184001215e-06   -4.688392011187827e-06
1.6390243094639332e-05   -1.6120525184001215e-06   -4.688392011187827e-06
1.6315193260219763e-05   -1.0974876371362775e-06   -3.057135335791219e-05
1.6315193260219763e-05   -1.0974876371362775e-06   -3.057135335791219e-05
1.6315193260219763e-05   -1.0974876371362775e-06   -3.057135335791219e-05
1.6315193260219763e-05   -1.0974876371362775e-06   -3.057135335791219e-05
1.1192331430337334e-06   -8.502673497465826e-07   -5.3930853350359234e-06
1.1192331430337334e-06   -8.502673497465826e-07   -5.3930853350359234e-06
1.1192331430337334e-06   -8.502673497465826e-07   -5.3930853350359234e-06
1.1192331430337334e-06   -8.502673497465826e-07   -5.3930853350359234e-06
8.572053040444507e-06   -1.3109458195243709e-06   -1.753804474885388e-05
8.572053040444507e-06   -1.3109458195243709e-06   -1.753804474885388e-05
8.572053040444507e-06   -1.3109458195243709e-06   -1.753804474885388e-05
8.572053040444507e-06   -1.3109458195243709e-06   -1.753804474885388e-05
1.1192331430337334e-06   -1.0974876371362775e-06   -3.071968553034596e-05
1.1192331430337334e-06   -1.0974876371362775e-06   -3.071968553034596e-05
1.1192331430337334e-06   -1.0974876371362775e-06   -3.071968553034596e-05
1.1192331430337334e-06   -1.0974876371362775e-06   -3.071968553034596e-05
1.6315193260219763e-05   -8.502673497465826e-07   -5.244753162602156e-06
1.6315193260219763e-05   -8.502673497465826e-07   -5.244753162602156e-06
1.6315193260219763e-05   -8.502673497465826e-07   -5.244753162602156e-06
1.6315193260219763e-05   -8.502673497465826e-07   -5.244753162602156e-06
1.5842458114551704e-05   -2.2043646925239092e-07   -3.0626140234888116e-05
1.5842458114551704e-05   -2.2043646925239092e-07   -3.0626140234888116e-05
1.5842458114551704e-05   -2.2043646925239092e-07   -3.0626140234888116e-05
1.5842458114551704e-05   -2.2043646925239092e-07   -3.0626140234888116e-05
9.597986972528338e-07   9.117542172729781e-08   -6.008675007311169e-06
9.597986972528338e-07   9.117542172729781e-08   -6.008675007311169e-06
9.597986972528338e-07   9.117542172729781e-08   -6.008675007311169e-06
9.597986972528338e-07   9.117542172729781e-08   -6.008675007311169e-06
8.482772359082636e-06   -5.863596688958464e-07   -1.814044338932026e-05
8.482772359082636e-06   -5.863596688958464e-07   -1.814044338932026e-05
8.482772359082636e-06   -5.863596688958464e-07   -1.814044338932026e-05
8.482772359082636e-06   -5.863596688958464e-07   -1.814044338932026e-05
1.6251342595382806e-05   -5.902407897992691e-06   -1.7911343387101602e-05
1.6251342595382806e-05   -5.902407897992691e-06   -1.7911343387101602e-05
1.6251342595382806e-05   -5.902407897992691e-06   -1.7911343387101602e-05
1.6251342595382806e-05   -5.902407897992691e-06   -1.7911343387101602e-05
3.1045530670048674e-05   -4.43818421215058e-06   7.624170948846814e-06
3.1045530670048674e-05   -4.43818421215058e-06   7.624170948846814e-06
3.1045530670048674e-05   -4.43818421215058e-06   7.624170948846814e-06
3.1045530670048674e-05   -4.43818421215058e-06   7.624170948846814e-06
3.223958793059365e-05   -5.016254244382777e-06   -2.1745445279133684e-05
3.223958793059365e-05   -5.016254244382777e-06   -2.1745445279133684e-05
3.223958793059365e-05   -5.016254244382777e-06   -2.1745445279133684e-05
3.223958793059365e-05   -5.016254244382777e-06   -2.1745445279133684e-05
1.639024309463936e-05   -4.021606552872105e-06   4.073340832550412e-06
1.639024309463936e-05   -4.021606552872105e-06   4.073340832550412e-06
1.639024309463936e-05   -4.021606552872105e-06   4.073340832550412e-06
1.639024309463936e-05   -4.021606552872105e-06   4.073340832550412e-06
2.286611903750311e-05   -4.822898688200208e-06   -6.23901045769233e-06
2.286611903750311e-05   -4.822898688200208e-06   -6.23901045769233e-06
2.286611903750311e-05   -4.822898688200208e-06   -6.23901045769233e-06
2.286611903750311e-05   -4.822898688200208e-06   -6.23901045769233e-06
1.6390243094639315e-05   -5.01625424438277e-06   -2.234223389404001e-05
1.6390243094639315e-05   -5.01625424438277e-06   -2.234223389404001e-05
1.6390243094639315e-05   -5.01625424438277e-06   -2.234223389404001e-05
1.6390243094639315e-05   -5.01625424438277e-06   -2.234223389404001e-05
3.22395879305936e-05   -4.021606552872105e-06   4.670129447456871e-06
3.22395879305936e-05   -4.021606552872105e-06   4.670129447456871e-06
3.22395879305936e-05   -4.021606552872105e-06   4.670129447456871e-06
3.22395879305936e-05   -4.021606552872105e-06   4.670129447456871e-06
3.2127036481322757e-05   -4.581685246747294e-06   -2.3642140565669366e-05
3.2127036481322757e-05   -4.581685246747294e-06   -2.3642140565669366e-05
3.2127036481322757e-05   -4.581685246747294e-06   -2.3642140565669366e-05
3.2127036481322757e-05   -4.581685246747294e-06   -2.3642140565669366e-05
1.6315193260219763e-05   -3.5833477555877093e-06   2.1119289748065587e-06
1.6315193260219763e-05   -3.5833477555877093e-06   2.1119289748065587e-06
1.6315193260219763e-05   -3.5833477555877093e-06   2.1119289748065587e-06
1.6315193260219763e-05   -3.5833477555877093e-06   2.1119289748065587e-06
2.367319030511575e-05   -4.255976741741401e-06   -9.747822041661209e-06
2.367319030511575e-05   -4.255976741741401e-06   -9.747822041661209e-06
2.367319030511575e-05   -4.255976741741401e-06   -9.747822041661209e-06
2.367319030511575e-05   -4.255976741741401e-06   -9.747822041661209e-06
1.631519326021974e-05   -4.58168524674728e-06   -2.4241143060365082e-05
1.631519326021974e-05   -4.58168524674728e-06   -2.4241143060365082e-05
1.631519326021974e-05   -4.58168524674728e-06   -2.4241143060365082e-05
1.631519326021974e-05   -4.58168524674728e-06   -2.4241143060365082e-05
3.21270364813227e-05   -3.5833477555877093e-06   2.710931469502258e-06
3.21270364813227e-05   -3.5833477555877093e-06   2.710931469502258e-06
3.21270364813227e-05   -3.5833477555877093e-06   2.710931469502258e-06
3.21270364813227e-05   -3.5833477555877093e-06   2.710931469502258e-06
3.1942185700912974e-05   -3.5542310078057123e-06   -2.7512305021336805e-05
3.1942185700912974e-05   -3.5542310078057123e-06   -2.7512305021336805e-05
3.1942185700912974e-05   -3.5542310078057123e-06   -2.7512305021336805e-05
3.1942185700912974e-05   -3.5542310078057123e-06   -2.7512305021336805e-05
1.5842458114551694e-05   -2.640660133380239e-06   -1.2275682353899723e-06
1.5842458114551694e-05   -2.640660133380239e-06   -1.2275682353899723e-06
1.5842458114551694e-05   -2.640660133380239e-06   -1.2275682353899723e-06
1.5842458114551694e-05   -2.640660133380239e-06   -1.2275682353899723e-06
2.300126092826099e-05   -3.6621804494601362e-06   -1.2545994068590846e-05
2.300126092826099e-05   -3.6621804494601362e-06   -1.2545994068590846e-05
2.300126092826099e-05   -3.6621804494601362e-06   -1.2545994068590846e-05
2.300126092826099e-05   -3.6621804494601362e-06   -1.2545994068590846e-05
-3.480095437151356e-05   5.017267864357332e-06   -2.4076412251254677e-05
-3.480095437151356e-05   5.017267864357332e-06   -2.4076412251254677e-05
-3.480095437151356e-05   5.017267864357332e-06   -2.4076412251254677e-05
-3.480095437151356e-05   5.017267864357332e-06   -2.4076412251254677e-05
-2.2833122931551043e-05   3.827257788187744e-06   -4.84403256368559e-06
-2.2833122931551043e-05   3.827257788187744e-06   -4.84403256368559e-06
-2.2833122931551043e-05   3.827257788187744e-06   -4.84403256368559e-06
-2.2833122931551043e-05   3.827257788187744e-06   -4.84403256368559e-06
-2.294077157623065e-05   6.026830878822084e-06   -1.9994033744869704e-05
-2.294077157623065e-05   6.026830878822084e-06   -1.9994033744869704e-05
-2.294077157623065e-05   6.026830878822084e-06   -1.9994033744869704e-05
-2.294077157623065e-05   6.026830878822084e-06   -1.9994033744869704e-05
-3.426562185716117e-05   4.6333735386940435e-06   -2.8320887257537433e-07
-3.426562185716117e-05   4.6333735386940435e-06   -2.8320887257537433e-07
-3.426562185716117e-05   4.6333735386940435e-06   -2.8320887257537433e-07
-3.426562185716117e-05   4.6333735386940435e-06   -2.8320887257537433e-07
-2.7495496450568826e-05   5.103568895512426e-06   -1.184886843098705e-05
-2.7495496450568826e-05   5.103568895512426e-06   -1.184886843098705e-05
-2.7495496450568826e-05   5.103568895512426e-06   -1.184886843098705e-05
-2.7495496450568826e-05   5.103568895512426e-06   -1.184886843098705e-05
-3.426562185716117e-05   6.026830878822084e-06   -1.9157959340792874e-05
-3.426562185716117e-05   6.026830878822084e-06   -1.9157959340792874e-05
-3.426562185716117e-05   6.026830878822084e-06   -1.9157959340792874e-05
-3.426562185716117e-05   6.026830878822084e-06   -1.9157959340792874e-05
-2.294077157623065e-05   4.6333735386940435e-06   -1.1192832766521903e-06
-2.294077157623065e-05   4.6333735386940435e-06   -1.1192832766521903e-06
-2.294077157623065e-05   4.6333735386940435e-06   -1.1192832766521903e-06
-2.294077157623065e-05   4.6333735386940435e-06   -1.1192832766521903e-06
-2.2914620877572002e-05   6.482666589812113e-06   -1.7107591396461517e-05
-2.2914620877572002e-05   6.482666589812113e-06   -1.7107591396461517e-05
-2.2914620877572002e-05   6.482666589812113e-06   -1.7107591396461517e-05
-2.2914620877572002e-05   6.482666589812113e-06   -1.7107591396461517e-05
-3.374535429557348e-05   4.988156630821798e-06   1.8403369422683802e-06
-3.374535429557348e-05   4.988156630821798e-06   1.8403369422683802e-06
-3.374535429557348e-05   4.988156630821798e-06   1.8403369422683802e-06
-3.374535429557348e-05   4.988156630821798e-06   1.8403369422683802e-06
-2.7728798929780693e-05   5.570826361299094e-06   -8.53685717233921e-06
-2.7728798929780693e-05   5.570826361299094e-06   -8.53685717233921e-06
-2.7728798929780693e-05   5.570826361299094e-06   -8.53685717233921e-06
-2.7728798929780693e-05   5.570826361299094e-06   -8.53685717233921e-06
-3.374535429557348e-05   6.482666589812113e-06   -1.6210885421067366e-05
-3.374535429557348e-05   6.482666589812113e-06   -1.6210885421067366e-05
-3.374535429557348e-05   6.482666589812113e-06   -1.6210885421067366e-05
-3.374535429557348e-05   6.482666589812113e-06   -1.6210885421067366e-05
-2.291462087757205e-05   4.988156630821852e-06   9.436309668743172e-07
-2.291462087757205e-05   4.988156630821852e-06   9.436309668743172e-07
-2.291462087757205e-05   4.988156630821852e-06   9.436309668743172e-07
-2.291462087757205e-05   4.988156630821852e-06   9.436309668743172e-07
-2.2935826945157367e-05   6.847800556026483e-06   -1.307060730332206e-05
-2.2935826945157367e-05   6.847800556026483e-06   -1.307060730332206e-05
-2.2935826945157367e-05   6.847800556026483e-06   -1.307060730332206e-05
-2.2935826945157367e-05   6.847800556026483e-06   -1.307060730332206e-05
-3.306816795727473e-05   5.339375266721219e-06   4.721682890456542e-06
-3.306816795727473e-05   5.339375266721219e-06   4.721682890456542e-06
-3.306816795727473e-05   5.339375266721219e-06   4.721682890456542e-06
-3.306816795727473e-05   5.339375266721219e-06   4.721682890456542e-06
-2.7093610765484893e-05   5.818299074150107e-06   -5.523266713650236e-06
-2.7093610765484893e-05   5.818299074150107e-06   -5.523266713650236e-06
-2.7093610765484893e-05   5.818299074150107e-06   -5.523266713650236e-06
-2.7093610765484893e-05   5.818299074150107e-06   -5.523266713650236e-06
-2.2833122931551043e-05   2.334783384163984e-06   -2.7929981836612477e-05
-2.2833122931551043e-05   2.334783384163984e-06   -2.7929981836612477e-05
-2.2833122931551043e-05   2.334783384163984e-06   -2.7929981836612477e-05
-2.2833122931551043e-05   2.334783384163984e-06   -2.7929981836612477e-05
-1.1640714803728293e-05   1.910824810700683e-06   -9.530343434319197e-06
-1.1640714803728293e-05   1.910824810700683e-06   -9.530343434319197e-06
-1.1640714803728293e-05   1.910824810700683e-06   -9.530343434319197e-06
-1.1640714803728293e-05   1.910824810700683e-06   -9.530343434319197e-06
-1.1779871183286511e-05   3.263025251161553e-06   -2.7532430876686984e-05
-1.1779871183286511e-05   3.263025251161553e-06   -2.7532430876686984e-05
-1.1779871183286511e-05   3.263025251161553e-06   -2.7532430876686984e-05
-1.1779871183286511e-05   3.263025251161553e-06   -2.7532430876686984e-05
-2.294077157623065e-05   2.7041523598403134e-06   -8.595606486987362e-06
-2.294077157623065e-05   2.7041523598403134e-06   -8.595606486987362e-06
-2.294077157623065e-05   2.7041523598403134e-06   -8.595606486987362e-06
-2.294077157623065e-05   2.7041523598403134e-06   -8.595606486987362e-06
-1.7150183491326012e-05   2.6959924340096473e-06   -1.824169067299668e-05
-1.7150183491326012e-05   2.6959924340096473e-06   -1.824169067299668e-05
-1.7150183491326012e-05   2.6959924340096473e-06   -1.824169067299668e-05
-1.7150183491326012e-05   2.6959924340096473e-06   -1.824169067299668e-05
-2.2940771576230615e-05   3.263025251161553e-06   -2.719710714189419e-05
-2.2940771576230615e-05   3.263025251161553e-06   -2.719710714189419e-05
-2.2940771576230615e-05   3.263025251161553e-06   -2.719710714189419e-05
-2.2940771576230615e-05   3.263025251161553e-06   -2.719710714189419e-05
-1.1779871183286532e-05   2.7041523598403134e-06   -8.930930221780126e-06
-1.1779871183286532e-05   2.7041523598403134e-06   -8.930930221780126e-06
-1.1779871183286532e-05   2.7041523598403134e-06   -8.930930221780126e-06
-1.1779871183286532e-05   2.7041523598403134e-06   -8.930930221780126e-06
-1.1869342677092778e-05   4.031963995653447e-06   -2.6804590018170642e-05
-1.1869342677092778e-05   4.031963995653447e-06   -2.6804590018170642e-05
-1.1869342677092778e-05   4.031963995653447e-06   -2.6804590018170642e-05
-1.1869342677092778e-05   4.031963995653447e-06   -2.6804590018170642e-05
-2.2914620877572002e-05   3.409731485817021e-06   -8.022453511470049e-06
-2.2914620877572002e-05   3.409731485817021e-06   -8.022453511470049e-06
-2.2914620877572002e-05   3.409731485817021e-06   -8.022453511470049e-06
-2.2914620877572002e-05   3.409731485817021e-06   -8.022453511470049e-06
-1.7179910404710616e-05   3.3491846655353026e-06   -1.754397620740323e-05
-1.7179910404710616e-05   3.3491846655353026e-06   -1.754397620740323e-05
-1.7179910404710616e-05   3.3491846655353026e-06   -1.754397620740323e-05
-1.7179910404710616e-05   3.3491846655353026e-06   -1.754397620740323e-05
-2.2914620877572002e-05   4.031963995653447e-06   -2.643125051226875e-05
-2.2914620877572002e-05   4.031963995653447e-06   -2.643125051226875e-05
-2.2914620877572002e-05   4.031963995653447e-06   -2.643125051226875e-05
-2.2914620877572002e-05   4.031963995653447e-06   -2.643125051226875e-05
-1.1869342677092798e-05   3.409731485817021e-06   -8.395793017371886e-06
-1.1869342677092798e-05   3.409731485817021e-06   -8.395793017371886e-06
-1.1869342677092798e-05   3.409731485817021e-06   -8.395793017371886e-06
-1.1869342677092798e-05   3.409731485817021e-06   -8.395793017371886e-06
-1.1985944594455055e-05   4.859819308803434e-06   -2.6740503406796613e-05
-1.1985944594455055e-05   4.859819308803434e-06   -2.6740503406796613e-05
-1.1985944594455055e-05   4.859819308803434e-06   -2.6740503406796613e-05
-1.1985944594455055e-05   4.859819308803434e-06   -2.6740503406796613e-05
-2.2935826945157346e-05   4.161110418652225e-06   -8.071474154868808e-06
-2.2935826945157346e-05   4.161110418652225e-06   -8.071474154868808e-06
-2.2935826945157346e-05   4.161110418652225e-06   -8.071474154868808e-06
-2.2935826945157346e-05   4.161110418652225e-06   -8.071474154868808e-06
-1.7381406377205956e-05   3.996857687878802e-06   -1.7230290129656847e-05
-1.7381406377205956e-05   3.996857687878802e-06   -1.7230290129656847e-05
-1.7381406377205956e-05   3.996857687878802e-06   -1.7230290129656847e-05
-1.7381406377205956e-05   3.996857687878802e-06   -1.7230290129656847e-05
-1.1640714803728273e-05   -7.09830106004818e-08   -3.0118566900883352e-05
-1.1640714803728273e-05   -7.09830106004818e-08   -3.0118566900883352e-05
-1.1640714803728273e-05   -7.09830106004818e-08   -3.0118566900883352e-05
-1.1640714803728273e-05   -7.09830106004818e-08   -3.0118566900883352e-05
-5.711249291459925e-07   1.022103832926894e-07   -1.1565334406910314e-05
-5.711249291459925e-07   1.022103832926894e-07   -1.1565334406910314e-05
-5.711249291459925e-07   1.022103832926894e-07   -1.1565334406910314e-05
-5.711249291459925e-07   1.022103832926894e-07   -1.1565334406910314e-05
-6.824977387527352e-07   7.845347861493222e-07   -2.9834622323096334e-05
-6.824977387527352e-07   7.845347861493222e-07   -2.9834622323096334e-05
-6.824977387527352e-07   7.845347861493222e-07   -2.9834622323096334e-05
-6.824977387527352e-07   7.845347861493222e-07   -2.9834622323096334e-05
-1.1779871183286491e-05   8.838359701223613e-07   -1.1398580625923861e-05
-1.1779871183286491e-05   8.838359701223613e-07   -1.1398580625923861e-05
-1.1779871183286491e-05   8.838359701223613e-07   -1.1398580625923861e-05
-1.1779871183286491e-05   8.838359701223613e-07   -1.1398580625923861e-05
-6.133561376127823e-06   5.15493882839469e-07   -2.0588091718818623e-05
-6.133561376127823e-06   5.15493882839469e-07   -2.0588091718818623e-05
-6.133561376127823e-06   5.15493882839469e-07   -2.0588091718818623e-05
-6.133561376127823e-06   5.15493882839469e-07   -2.0588091718818623e-05
-1.1779871183286511e-05   7.845347861493222e-07   -2.9894203033480188e-05
-1.1779871183286511e-05   7.845347861493222e-07   -2.9894203033480188e-05
-1.1779871183286511e-05   7.845347861493222e-07   -2.9894203033480188e-05
-1.1779871183286511e-05   7.845347861493222e-07   -2.9894203033480188e-05
-6.824977387527352e-07   8.838359701223613e-07   -1.1338999915540049e-05
-6.824977387527352e-07   8.838359701223613e-07   -1.1338999915540049e-05
-6.824977387527352e-07   8.838359701223613e-07   -1.1338999915540049e-05
-6.824977387527352e-07   8.838359701223613e-07   -1.1338999915540049e-05
-7.62198546720599e-07   1.6206158074435323e-06   -2.9914369752692736e-05
-7.62198546720599e-07   1.6206158074435323e-06   -2.9914369752692736e-05
-7.62198546720599e-07   1.6206158074435323e-06   -2.9914369752692736e-05
-7.62198546720599e-07   1.6206158074435323e-06   -2.9914369752692736e-05
-1.1869342677092778e-05   1.6632049385174375e-06   -1.1428016347383475e-05
-1.1869342677092778e-05   1.6632049385174375e-06   -1.1428016347383475e-05
-1.1869342677092778e-05   1.6632049385174375e-06   -1.1428016347383475e-05
-1.1869342677092778e-05   1.6632049385174375e-06   -1.1428016347383475e-05
-6.277956459964458e-06   1.2049963501218025e-06   -2.0472068222893287e-05
-6.277956459964458e-06   1.2049963501218025e-06   -2.0472068222893287e-05
-6.277956459964458e-06   1.2049963501218025e-06   -2.0472068222893287e-05
-6.277956459964458e-06   1.2049963501218025e-06   -2.0472068222893287e-05
-1.1869342677092778e-05   1.6206158074435323e-06   -2.9939923231337092e-05
-1.1869342677092778e-05   1.6206158074435323e-06   -2.9939923231337092e-05
-1.1869342677092778e-05   1.6206158074435323e-06   -2.9939923231337092e-05
-1.1869342677092778e-05   1.6206158074435323e-06   -2.9939923231337092e-05
-7.62198546720599e-07   1.6632049385174917e-06   -1.1402462868739062e-05
-7.62198546720599e-07   1.6632049385174917e-06   -1.1402462868739062e-05
-7.62198546720599e-07   1.6632049385174917e-06   -1.1402462868739062e-05
-7.62198546720599e-07   1.6632049385174917e-06   -1.1402462868739062e-05
-8.886947553265394e-07   2.491521977350964e-06   -3.0298833003552177e-05
-8.886947553265394e-07   2.491521977350964e-06   -3.0298833003552177e-05
-8.886947553265394e-07   2.491521977350964e-06   -3.0298833003552177e-05
-8.886947553265394e-07   2.491521977350964e-06   -3.0298833003552177e-05
-1.1985944594455065e-05   2.4606130540619697e-06   -1.1784871251031357e-05
-1.1985944594455065e-05   2.4606130540619697e-06   -1.1784871251031357e-05
-1.1985944594455065e-05   2.4606130540619697e-06   -1.1784871251031357e-05
-1.1985944594455065e-05   2.4606130540619697e-06   -1.1784871251031357e-05
-6.431477666286806e-06   1.9026967213213252e-06   -2.0707566331667187e-05
-6.431477666286806e-06   1.9026967213213252e-06   -2.0707566331667187e-05
-6.431477666286806e-06   1.9026967213213252e-06   -2.0707566331667187e-05
-6.431477666286806e-06   1.9026967213213252e-06   -2.0707566331667187e-05
-5.711249291459938e-07   -2.3903891633828705e-06   -2.6906771855540077e-05
-5.711249291459938e-07   -2.3903891633828705e-06   -2.6906771855540077e-05
-5.711249291459938e-07   -2.3903891633828705e-06   -2.6906771855540077e-05
-5.711249291459938e-07   -2.3903891633828705e-06   -2.6906771855540077e-05
1.0438042956543634e-05   -1.5986308730350806e-06   -8.083103738515428e-06
1.0438042956543634e-05   -1.5986308730350806e-06   -8.083103738515428e-06
1.0438042956543634e-05   -1.5986308730350806e-06   -8.083103738515428e-06
1.0438042956543634e-05   -1.5986308730350806e-06   -8.083103738515428e-06
1.0432250230238817e-05   -1.6120525184001215e-06   -2.659329251543537e-05
1.0432250230238817e-05   -1.6120525184001215e-06   -2.659329251543537e-05
1.0432250230238817e-05   -1.6120525184001215e-06   -2.659329251543537e-05
1.0432250230238817e-05   -1.6120525184001215e-06   -2.659329251543537e-05
-6.824977387527352e-07   -8.811588238748897e-07   -8.507248783831242e-06
-6.824977387527352e-07   -8.811588238748897e-07   -8.507248783831242e-06
-6.824977387527352e-07   -8.811588238748897e-07   -8.507248783831242e-06
-6.824977387527352e-07   -8.811588238748897e-07   -8.507248783831242e-06
4.867081920240634e-06   -1.563652695510417e-06   -1.7347051892505567e-05
4.867081920240634e-06   -1.563652695510417e-06   -1.7347051892505567e-05
4.867081920240634e-06   -1.563652695510417e-06   -1.7347051892505567e-05
4.867081920240634e-06   -1.563652695510417e-06   -1.7347051892505567e-05
-6.824977387527352e-07   -1.6120525184001215e-06   -2.7031828732150503e-05
-6.824977387527352e-07   -1.6120525184001215e-06   -2.7031828732150503e-05
-6.824977387527352e-07   -1.6120525184001215e-06   -2.7031828732150503e-05
-6.824977387527352e-07   -1.6120525184001215e-06   -2.7031828732150503e-05
1.0432250230238837e-05   -8.811588238748897e-07   -8.068712567116143e-06
1.0432250230238837e-05   -8.811588238748897e-07   -8.068712567116143e-06
1.0432250230238837e-05   -8.811588238748897e-07   -8.068712567116143e-06
1.0432250230238837e-05   -8.811588238748897e-07   -8.068712567116143e-06
1.0484913296087225e-05   -8.502673497465826e-07   -2.7293504453855178e-05
1.0484913296087225e-05   -8.502673497465826e-07   -2.7293504453855178e-05
1.0484913296087225e-05   -8.502673497465826e-07   -2.7293504453855178e-05
1.0484913296087225e-05   -8.502673497465826e-07   -2.7293504453855178e-05
-7.621985467206003e-07   -1.7701737308736592e-07   -8.952268035170995e-06
-7.621985467206003e-07   -1.7701737308736592e-07   -8.952268035170995e-06
-7.621985467206003e-07   -1.7701737308736592e-07   -8.952268035170995e-06
-7.621985467206003e-07   -1.7701737308736592e-07   -8.952268035170995e-06
4.718522700275205e-06   -9.417644844049152e-07   -1.7627955180040144e-05
4.718522700275205e-06   -9.417644844049152e-07   -1.7627955180040144e-05
4.718522700275205e-06   -9.417644844049152e-07   -1.7627955180040144e-05
4.718522700275205e-06   -9.417644844049152e-07   -1.7627955180040144e-05
-7.62198546720599e-07   -8.502673497465826e-07   -2.7697454439850702e-05
-7.62198546720599e-07   -8.502673497465826e-07   -2.7697454439850702e-05
-7.62198546720599e-07   -8.502673497465826e-07   -2.7697454439850702e-05
-7.62198546720599e-07   -8.502673497465826e-07   -2.7697454439850702e-05
1.0484913296087239e-05   -1.7701737308742013e-07   -8.548318049175443e-06
1.0484913296087239e-05   -1.7701737308742013e-07   -8.548318049175443e-06
1.0484913296087239e-05   -1.7701737308742013e-07   -8.548318049175443e-06
1.0484913296087239e-05   -1.7701737308742013e-07   -8.548318049175443e-06
1.0406954015263654e-05   9.117542172729781e-08   -2.8090279938332196e-05
1.0406954015263654e-05   9.117542172729781e-08   -2.8090279938332196e-05
1.0406954015263654e-05   9.117542172729781e-08   -2.8090279938332196e-05
1.0406954015263654e-05   9.117542172729781e-08   -2.8090279938332196e-05
-8.886947553265403e-07   6.453753955601416e-07   -9.596718638314988e-06
-8.886947553265403e-07   6.453753955601416e-07   -9.596718638314988e-06
-8.886947553265403e-07   6.453753955601416e-07   -9.596718638314988e-06
-8.886947553265403e-07   6.453753955601416e-07   -9.596718638314988e-06
4.667654114617859e-06   -2.77112713706069e-07   -1.830380722266245e-05
4.667654114617859e-06   -2.77112713706069e-07   -1.830380722266245e-05
4.667654114617859e-06   -2.77112713706069e-07   -1.830380722266245e-05
4.667654114617859e-06   -2.77112713706069e-07   -1.830380722266245e-05
1.0438042956543613e-05   -4.43818421215058e-06   -1.5042360322475927e-05
1.0438042956543613e-05   -4.43818421215058e-06   -1.5042360322475927e-05
1.0438042956543613e-05   -4.43818421215058e-06   -1.5042360322475927e-05
1.0438042956543613e-05   -4.43818421215058e-06   -1.5042360322475927e-05
2.0728172167249013e-05   -2.8929067895477455e-06   3.0350214822614185e-06
2.0728172167249013e-05   -2.8929067895477455e-06   3.0350214822614185e-06
2.0728172167249013e-05   -2.8929067895477455e-06   3.0350214822614185e-06
2.0728172167249013e-05   -2.8929067895477455e-06   3.0350214822614185e-06
2.1436092758815768e-05   -4.021606552872105e-06   -1.6905309634517612e-05
2.1436092758815768e-05   -4.021606552872105e-06   -1.6905309634517612e-05
2.1436092758815768e-05   -4.021606552872105e-06   -1.6905309634517612e-05
2.1436092758815768e-05   -4.021606552872105e-06   -1.6905309634517612e-05
1.0432250230238817e-05   -2.4778564909063794e-06   5.081778759312449e-07
1.0432250230238817e-05   -2.4778564909063794e-06   5.081778759312449e-07
1.0432250230238817e-05   -2.4778564909063794e-06   5.081778759312449e-07
1.0432250230238817e-05   -2.4778564909063794e-06   5.081778759312449e-07
1.5085300012838745e-05   -3.4163313513212547e-06   -6.683820178819761e-06
1.5085300012838745e-05   -3.4163313513212547e-06   -6.683820178819761e-06
1.5085300012838745e-05   -3.4163313513212547e-06   -6.683820178819761e-06
1.5085300012838745e-05   -3.4163313513212547e-06   -6.683820178819761e-06
1.043225023023881e-05   -4.021606552872105e-06   -1.7831559671697034e-05
1.043225023023881e-05   -4.021606552872105e-06   -1.7831559671697034e-05
1.043225023023881e-05   -4.021606552872105e-06   -1.7831559671697034e-05
1.043225023023881e-05   -4.021606552872105e-06   -1.7831559671697034e-05
2.1436092758815768e-05   -2.4778564909063794e-06   1.4344279131106802e-06
2.1436092758815768e-05   -2.4778564909063794e-06   1.4344279131106802e-06
2.1436092758815768e-05   -2.4778564909063794e-06   1.4344279131106802e-06
2.1436092758815768e-05   -2.4778564909063794e-06   1.4344279131106802e-06
2.1981974253774245e-05   -3.5833477555876822e-06   -1.9061055309609363e-05
2.1981974253774245e-05   -3.5833477555876822e-06   -1.9061055309609363e-05
2.1981974253774245e-05   -3.5833477555876822e-06   -1.9061055309609363e-05
2.1981974253774245e-05   -3.5833477555876822e-06   -1.9061055309609363e-05
1.0484913296087205e-05   -2.123736077525734e-06   -7.750540536348373e-07
1.0484913296087205e-05   -2.123736077525734e-06   -7.750540536348373e-07
1.0484913296087205e-05   -2.123736077525734e-06   -7.750540536348373e-07
1.0484913296087205e-05   -2.123736077525734e-06   -7.750540536348373e-07
1.560291195171555e-05   -3.1487227127930984e-06   -8.690059831854965e-06
1.560291195171555e-05   -3.1487227127930984e-06   -8.690059831854965e-06
1.560291195171555e-05   -3.1487227127930984e-06   -8.690059831854965e-06
1.560291195171555e-05   -3.1487227127930984e-06   -8.690059831854965e-06
1.0484913296087225e-05   -3.5833477555876822e-06   -1.9936822316446524e-05
1.0484913296087225e-05   -3.5833477555876822e-06   -1.9936822316446524e-05
1.0484913296087225e-05   -3.5833477555876822e-06   -1.9936822316446524e-05
1.0484913296087225e-05   -3.5833477555876822e-06   -1.9936822316446524e-05
2.198197425377419e-05   -2.123736077525788e-06   1.0071295320239135e-07
2.198197425377419e-05   -2.123736077525788e-06   1.0071295320239135e-07
2.198197425377419e-05   -2.123736077525788e-06   1.0071295320239135e-07
2.198197425377419e-05   -2.123736077525788e-06   1.0071295320239135e-07
2.2565188726854103e-05   -2.640660133380239e-06   -2.273300763656456e-05
2.2565188726854103e-05   -2.640660133380239e-06   -2.273300763656456e-05
2.2565188726854103e-05   -2.640660133380239e-06   -2.273300763656456e-05
2.2565188726854103e-05   -2.640660133380239e-06   -2.273300763656456e-05
1.0406954015263627e-05   -1.3687723593231631e-06   -3.2324157816813543e-06
1.0406954015263627e-05   -1.3687723593231631e-06   -3.2324157816813543e-06
1.0406954015263627e-05   -1.3687723593231631e-06   -3.2324157816813543e-06
1.0406954015263627e-05   -1.3687723593231631e-06   -3.2324157816813543e-06
1.554156464179444e-05   -2.7102517954814576e-06   -1.0985212497537698e-05
1.554156464179444e-05   -2.7102517954814576e-06   -1.0985212497537698e-05
1.554156464179444e-05   -2.7102517954814576e-06   -1.0985212497537698e-05
1.554156464179444e-05   -2.7102517954814576e-06   -1.0985212497537698e-05
-2.494457310208274e-05   3.827257788187744e-06   -1.9019231880086545e-05
-2.494457310208274e-05   3.827257788187744e-06   -1.9019231880086545e-05
-2.494457310208274e-05   3.827257788187744e-06   -1.9019231880086545e-05
-2.494457310208274e-05   3.827257788187744e-06   -1.9019231880086545e-05
-1.700967886216215e-05   2.428544768258347e-06   -6.63363595884312e-06
-1.700967886216215e-05   2.428544768258347e-06   -6.63363595884312e-06
-1.700967886216215e-05   2.428544768258347e-06   -6.63363595884312e-06
-1.700967886216215e-05   2.428544768258347e-06   -6.63363595884312e-06
-1.6947270695266453e-05   4.6333735386940435e-06   -1.615882683187955e-05
-1.6947270695266453e-05   4.6333735386940435e-06   -1.615882683187955e-05
-1.6947270695266453e-05   4.6333735386940435e-06   -1.615882683187955e-05
-1.6947270695266453e-05   4.6333735386940435e-06   -1.615882683187955e-05
-2.4192519636831043e-05   3.094407485444077e-06   -3.160032297321925e-06
-2.4192519636831043e-05   3.094407485444077e-06   -3.160032297321925e-06
-2.4192519636831043e-05   3.094407485444077e-06   -3.160032297321925e-06
-2.4192519636831043e-05   3.094407485444077e-06   -3.160032297321925e-06
-1.989204595488728e-05   3.6865533597597118e-06   -1.0682775958484255e-05
-1.989204595488728e-05   3.6865533597597118e-06   -1.0682775958484255e-05
-1.989204595488728e-05   3.6865533597597118e-06   -1.0682775958484255e-05
-1.989204595488728e-05   3.6865533597597118e-06   -1.0682775958484255e-05
-2.4192519636831043e-05   4.6333735386940435e-06   -1.5235447199929566e-05
-2.4192519636831043e-05   4.6333735386940435e-06   -1.5235447199929566e-05
-2.4192519636831043e-05   4.6333735386940435e-06   -1.5235447199929566e-05
-2.4192519636831043e-05   4.6333735386940435e-06   -1.5235447199929566e-05
-1.6947270695266494e-05   3.0944074854440226e-06   -4.083411929271875e-06
-1.6947270695266494e-05   3.0944074854440226e-06   -4.083411929271875e-06
-1.6947270695266494e-05   3.0944074854440226e-06   -4.083411929271875e-06
-1.6947270695266494e-05   3.0944074854440226e-06   -4.083411929271875e-06
-1.6818414167772547e-05   4.988156630821798e-06   -1.409087973955461e-05
-1.6818414167772547e-05   4.988156630821798e-06   -1.409087973955461e-05
-1.6818414167772547e-05   4.988156630821798e-06   -1.409087973955461e-05
-1.6818414167772547e-05   4.988156630821798e-06   -1.409087973955461e-05
-2.3631394559667874e-05   3.4055235497139976e-06   -1.7863325710643421e-06
-2.3631394559667874e-05   3.4055235497139976e-06   -1.7863325710643421e-06
-2.3631394559667874e-05   3.4055235497139976e-06   -1.7863325710643421e-06
-2.3631394559667874e-05   3.4055235497139976e-06   -1.7863325710643421e-06
-1.9891202896180424e-05   4.058282395844374e-06   -8.41164065122166e-06
-1.9891202896180424e-05   4.058282395844374e-06   -8.41164065122166e-06
-1.9891202896180424e-05   4.058282395844374e-06   -8.41164065122166e-06
-1.9891202896180424e-05   4.058282395844374e-06   -8.41164065122166e-06
-2.3631394559667874e-05   4.988156630821798e-06   -1.3141299890889914e-05
-2.3631394559667874e-05   4.988156630821798e-06   -1.3141299890889914e-05
-2.3631394559667874e-05   4.988156630821798e-06   -1.3141299890889914e-05
-2.3631394559667874e-05   4.988156630821798e-06   -1.3141299890889914e-05
-1.681841416777256e-05   3.4055235497139976e-06   -2.7359124197289817e-06
-1.681841416777256e-05   3.4055235497139976e-06   -2.7359124197289817e-06
-1.681841416777256e-05   3.4055235497139976e-06   -2.7359124197289817e-06
-1.681841416777256e-05   3.4055235497139976e-06   -2.7359124197289817e-06
-1.676752151995924e-05   5.339375266721273e-06   -1.1231562683928044e-05
-1.676752151995924e-05   5.339375266721273e-06   -1.1231562683928044e-05
-1.676752151995924e-05   5.339375266721273e-06   -1.1231562683928044e-05
-1.676752151995924e-05   5.339375266721273e-06   -1.1231562683928044e-05
-2.289843541241604e-05   3.7980889477016414e-06   -8.860107175492622e-08
-2.289843541241604e-05   3.7980889477016414e-06   -8.860107175492622e-08
-2.289843541241604e-05   3.7980889477016414e-06   -8.860107175492622e-08
-2.289843541241604e-05   3.7980889477016414e-06   -8.860107175492622e-08
-1.9301674387875063e-05   4.261370143632872e-06   -6.3611714968819105e-06
-1.9301674387875063e-05   4.261370143632872e-06   -6.3611714968819105e-06
-1.9301674387875063e-05   4.261370143632872e-06   -6.3611714968819105e-06
-1.9301674387875063e-05   4.261370143632872e-06   -6.3611714968819105e-06
-1.7009678862162122e-05   1.910824810700683e-06   -2.4290395418599746e-05
-1.7009678862162122e-05   1.910824810700683e-06   -2.4290395418599746e-05
-1.7009678862162122e-05   1.910824810700683e-06   -2.4290395418599746e-05
-1.7009678862162122e-05   1.910824810700683e-06   -2.4290395418599746e-05
-9.80965356254073e-06   1.259678046364968e-06   -1.2681041311165544e-05
-9.80965356254073e-06   1.259678046364968e-06   -1.2681041311165544e-05
-9.80965356254073e-06   1.259678046364968e-06   -1.2681041311165544e-05
-9.80965356254073e-06   1.259678046364968e-06   -1.2681041311165544e-05
-9.814660019732856e-06   2.7041523598403134e-06   -2.4079692631427565e-05
-9.814660019732856e-06   2.7041523598403134e-06   -2.4079692631427565e-05
-9.814660019732856e-06   2.7041523598403134e-06   -2.4079692631427565e-05
-9.814660019732856e-06   2.7041523598403134e-06   -2.4079692631427565e-05
-1.6947270695266453e-05   1.963248044485513e-06   -1.1747465582992103e-05
-1.6947270695266453e-05   1.963248044485513e-06   -1.1747465582992103e-05
-1.6947270695266453e-05   1.963248044485513e-06   -1.1747465582992103e-05
-1.6947270695266453e-05   1.963248044485513e-06   -1.1747465582992103e-05
-1.3271609742294038e-05   2.0926306338766144e-06   -1.7951196724914074e-05
-1.3271609742294038e-05   2.0926306338766144e-06   -1.7951196724914074e-05
-1.3271609742294038e-05   2.0926306338766144e-06   -1.7951196724914074e-05
-1.3271609742294038e-05   2.0926306338766144e-06   -1.7951196724914074e-05
-1.6947270695266453e-05   2.7041523598403134e-06   -2.3635150042214628e-05
-1.6947270695266453e-05   2.7041523598403134e-06   -2.3635150042214628e-05
-1.6947270695266453e-05   2.7041523598403134e-06   -2.3635150042214628e-05
-1.6947270695266453e-05   2.7041523598403134e-06   -2.3635150042214628e-05
-9.814660019732856e-06   1.9632480444854586e-06   -1.2192008172204959e-05
-9.814660019732856e-06   1.9632480444854586e-06   -1.2192008172204959e-05
-9.814660019732856e-06   1.9632480444854586e-06   -1.2192008172204959e-05
-9.814660019732856e-06   1.9632480444854586e-06   -1.2192008172204959e-05
-9.807751518954261e-06   3.409731485817021e-06   -2.3540209671881916e-05
-9.807751518954261e-06   3.409731485817021e-06   -2.3540209671881916e-05
-9.807751518954261e-06   3.409731485817021e-06   -2.3540209671881916e-05
-9.807751518954261e-06   3.409731485817021e-06   -2.3540209671881916e-05
-1.6818414167772547e-05   2.604322395845227e-06   -1.1372526469868486e-05
-1.6818414167772547e-05   2.604322395845227e-06   -1.1372526469868486e-05
-1.6818414167772547e-05   2.604322395845227e-06   -1.1372526469868486e-05
-1.6818414167772547e-05   2.604322395845227e-06   -1.1372526469868486e-05
-1.321017548139171e-05   2.6712377155542065e-06   -1.7426406805661747e-05
-1.321017548139171e-05   2.6712377155542065e-06   -1.7426406805661747e-05
-1.321017548139171e-05   2.6712377155542065e-06   -1.7426406805661747e-05
-1.321017548139171e-05   2.6712377155542065e-06   -1.7426406805661747e-05
-1.6818414167772547e-05   3.409731485817021e-06   -2.3056964217898956e-05
-1.6818414167772547e-05   3.409731485817021e-06   -2.3056964217898956e-05
-1.6818414167772547e-05   3.409731485817021e-06   -2.3056964217898956e-05
-1.6818414167772547e-05   3.409731485817021e-06   -2.3056964217898956e-05
-9.807751518954261e-06   2.604322395845227e-06   -1.1855771923851405e-05
-9.807751518954261e-06   2.604322395845227e-06   -1.1855771923851405e-05
-9.807751518954261e-06   2.604322395845227e-06   -1.1855771923851405e-05
-9.807751518954261e-06   2.604322395845227e-06   -1.1855771923851405e-05
-9.816113327875562e-06   4.161110418652225e-06   -2.3635396242229986e-05
-9.816113327875562e-06   4.161110418652225e-06   -2.3635396242229986e-05
-9.816113327875562e-06   4.161110418652225e-06   -2.3635396242229986e-05
-9.816113327875562e-06   4.161110418652225e-06   -2.3635396242229986e-05
-1.6767521519959227e-05   3.3015576077193715e-06   -1.1533984235530736e-05
-1.6767521519959227e-05   3.3015576077193715e-06   -1.1533984235530736e-05
-1.6767521519959227e-05   3.3015576077193715e-06   -1.1533984235530736e-05
-1.6767521519959227e-05   3.3015576077193715e-06   -1.1533984235530736e-05
-1.329608531390495e-05   3.244565282183406e-06   -1.7285515850299693e-05
-1.329608531390495e-05   3.244565282183406e-06   -1.7285515850299693e-05
-1.329608531390495e-05   3.244565282183406e-06   -1.7285515850299693e-05
-1.329608531390495e-05   3.244565282183406e-06   -1.7285515850299693e-05
-9.80965356254075e-06   1.022103832926894e-07   -2.681999048612823e-05
-9.80965356254075e-06   1.022103832926894e-07   -2.681999048612823e-05
-9.80965356254075e-06   1.022103832926894e-07   -2.681999048612823e-05
-9.80965356254075e-06   1.022103832926894e-07   -2.681999048612823e-05
-2.705889696688379e-06   2.194354359154934e-07   -1.4910049011467307e-05
-2.705889696688379e-06   2.194354359154934e-07   -1.4910049011467307e-05
-2.705889696688379e-06   2.194354359154934e-07   -1.4910049011467307e-05
-2.705889696688379e-06   2.194354359154934e-07   -1.4910049011467307e-05
-2.711434289906278e-06   8.838359701223613e-07   -2.6521003232704224e-05
-2.711434289906278e-06   8.838359701223613e-07   -2.6521003232704224e-05
-2.711434289906278e-06   8.838359701223613e-07   -2.6521003232704224e-05
-2.711434289906278e-06   8.838359701223613e-07   -2.6521003232704224e-05
-9.814660019732856e-06   9.277356415676404e-07   -1.4708633485860362e-05
-9.814660019732856e-06   9.277356415676404e-07   -1.4708633485860362e-05
-9.814660019732856e-06   9.277356415676404e-07   -1.4708633485860362e-05
-9.814660019732856e-06   9.277356415676404e-07   -1.4708633485860362e-05
-6.218607246135083e-06   6.256884432041115e-07   -2.052082645617193e-05
-6.218607246135083e-06   6.256884432041115e-07   -2.052082645617193e-05
-6.218607246135083e-06   6.256884432041115e-07   -2.052082645617193e-05
-6.218607246135083e-06   6.256884432041115e-07   -2.052082645617193e-05
-9.814660019732876e-06   8.838359701223613e-07   -2.654734303557136e-05
-9.814660019732876e-06   8.838359701223613e-07   -2.654734303557136e-05
-9.814660019732876e-06   8.838359701223613e-07   -2.654734303557136e-05
-9.814660019732876e-06   8.838359701223613e-07   -2.654734303557136e-05
-2.711434289906278e-06   9.277356415675862e-07   -1.4682293682993227e-05
-2.711434289906278e-06   9.277356415675862e-07   -1.4682293682993227e-05
-2.711434289906278e-06   9.277356415675862e-07   -1.4682293682993227e-05
-2.711434289906278e-06   9.277356415675862e-07   -1.4682293682993227e-05
-2.702336382482574e-06   1.6632049385174375e-06   -2.6587367233127e-05
-2.702336382482574e-06   1.6632049385174375e-06   -2.6587367233127e-05
-2.702336382482574e-06   1.6632049385174375e-06   -2.6587367233127e-05
-2.702336382482574e-06   1.6632049385174375e-06   -2.6587367233127e-05
-9.807751518954261e-06   1.6383145531282685e-06   -1.4730074441107293e-05
-9.807751518954261e-06   1.6383145531282685e-06   -1.4730074441107293e-05
-9.807751518954261e-06   1.6383145531282685e-06   -1.4730074441107293e-05
-9.807751518954261e-06   1.6383145531282685e-06   -1.4730074441107293e-05
-6.2605344531494284e-06   1.2458232120282544e-06   -2.0406608079455394e-05
-6.2605344531494284e-06   1.2458232120282544e-06   -2.0406608079455394e-05
-6.2605344531494284e-06   1.2458232120282544e-06   -2.0406608079455394e-05
-6.2605344531494284e-06   1.2458232120282544e-06   -2.0406608079455394e-05
-9.807751518954261e-06   1.6632049385174375e-06   -2.6572433001893485e-05
-9.807751518954261e-06   1.6632049385174375e-06   -2.6572433001893485e-05
-9.807751518954261e-06   1.6632049385174375e-06   -2.6572433001893485e-05
-9.807751518954261e-06   1.6632049385174375e-06   -2.6572433001893485e-05
-2.702336382482574e-06   1.6383145531282685e-06   -1.4745008672340795e-05
-2.702336382482574e-06   1.6383145531282685e-06   -1.4745008672340795e-05
-2.702336382482574e-06   1.6383145531282685e-06   -1.4745008672340795e-05
-2.702336382482574e-06   1.6383145531282685e-06   -1.4745008672340795e-05
-2.7067160140823567e-06   2.4606130540619697e-06   -2.6989145809953814e-05
-2.7067160140823567e-06   2.4606130540619697e-06   -2.6989145809953814e-05
-2.7067160140823567e-06   2.4606130540619697e-06   -2.6989145809953814e-05
-2.7067160140823567e-06   2.4606130540619697e-06   -2.6989145809953814e-05
-9.816113327875569e-06   2.3613167113085867e-06   -1.5080572481313031e-05
-9.816113327875569e-06   2.3613167113085867e-06   -1.5080572481313031e-05
-9.816113327875569e-06   2.3613167113085867e-06   -1.5080572481313031e-05
-9.816113327875569e-06   2.3613167113085867e-06   -1.5080572481313031e-05
-6.314639862217286e-06   1.8741096998477192e-06   -2.0624037383866982e-05
-6.314639862217286e-06   1.8741096998477192e-06   -2.0624037383866982e-05
-6.314639862217286e-06   1.8741096998477192e-06   -2.0624037383866982e-05
-6.314639862217286e-06   1.8741096998477192e-06   -2.0624037383866982e-05
-2.705889696688374e-06   -1.5986308730350806e-06   -2.3742479760368278e-05
-2.705889696688374e-06   -1.5986308730350806e-06   -2.3742479760368278e-05
-2.705889696688374e-06   -1.5986308730350806e-06   -2.3742479760368278e-05
-2.705889696688374e-06   -1.5986308730350806e-06   -2.3742479760368278e-05
4.288617211182239e-06   -7.311940912329575e-07   -1.1564506178169407e-05
4.288617211182239e-06   -7.311940912329575e-07   -1.1564506178169407e-05
4.288617211182239e-06   -7.311940912329575e-07   -1.1564506178169407e-05
4.288617211182239e-06   -7.311940912329575e-07   -1.1564506178169407e-05
4.345516052366035e-06   -8.811588238748897e-07   -2.31984316039909e-05
4.345516052366035e-06   -8.811588238748897e-07   -2.31984316039909e-05
4.345516052366035e-06   -8.811588238748897e-07   -2.31984316039909e-05
4.345516052366035e-06   -8.811588238748897e-07   -2.31984316039909e-05
-2.7114342899062733e-06   -6.312466220066313e-08   -1.1927668197208213e-05
-2.7114342899062733e-06   -6.312466220066313e-08   -1.1927668197208213e-05
-2.7114342899062733e-06   -6.312466220066313e-08   -1.1927668197208213e-05
-2.7114342899062733e-06   -6.312466220066313e-08   -1.1927668197208213e-05
8.091224891840232e-07   -7.568250274326877e-07   -1.7379042609886198e-05
8.091224891840232e-07   -7.568250274326877e-07   -1.7379042609886198e-05
8.091224891840232e-07   -7.568250274326877e-07   -1.7379042609886198e-05
8.091224891840232e-07   -7.568250274326877e-07   -1.7379042609886198e-05
-2.711434289906278e-06   -8.811588238748897e-07   -2.3689252100995403e-05
-2.711434289906278e-06   -8.811588238748897e-07   -2.3689252100995403e-05
-2.711434289906278e-06   -8.811588238748897e-07   -2.3689252100995403e-05
-2.711434289906278e-06   -8.811588238748897e-07   -2.3689252100995403e-05
4.345516052366041e-06   -6.312466220066313e-08   -1.1436847700203683e-05
4.345516052366041e-06   -6.312466220066313e-08   -1.1436847700203683e-05
4.345516052366041e-06   -6.312466220066313e-08   -1.1436847700203683e-05
4.345516052366041e-06   -6.312466220066313e-08   -1.1436847700203683e-05
4.481098447097242e-06   -1.7701737308742013e-07   -2.3683724597302227e-05
4.481098447097242e-06   -1.7701737308742013e-07   -2.3683724597302227e-05
4.481098447097242e-06   -1.7701737308742013e-07   -2.3683724597302227e-05
4.481098447097242e-06   -1.7701737308742013e-07   -2.3683724597302227e-05
-2.7023363824825695e-06   5.787289640070436e-07   -1.216478101692583e-05
-2.7023363824825695e-06   5.787289640070436e-07   -1.216478101692583e-05
-2.7023363824825695e-06   5.787289640070436e-07   -1.216478101692583e-05
-2.7023363824825695e-06   5.787289640070436e-07   -1.216478101692583e-05
7.683289371115781e-07   -2.0086200794818053e-07   -1.748146863307632e-05
7.683289371115781e-07   -2.0086200794818053e-07   -1.748146863307632e-05
7.683289371115781e-07   -2.0086200794818053e-07   -1.748146863307632e-05
7.683289371115781e-07   -2.0086200794818053e-07   -1.748146863307632e-05
-2.702336382482574e-06   -1.7701737308742013e-07   -2.4137172399558892e-05
-2.702336382482574e-06   -1.7701737308742013e-07   -2.4137172399558892e-05
-2.702336382482574e-06   -1.7701737308742013e-07   -2.4137172399558892e-05
-2.702336382482574e-06   -1.7701737308742013e-07   -2.4137172399558892e-05
4.481098447097249e-06   5.787289640069894e-07   -1.1711333214669151e-05
4.481098447097249e-06   5.787289640069894e-07   -1.1711333214669151e-05
4.481098447097249e-06   5.787289640069894e-07   -1.1711333214669151e-05
4.481098447097249e-06   5.787289640069894e-07   -1.1711333214669151e-05
4.547831718527338e-06   6.453753955601416e-07   -2.43816156107985e-05
4.547831718527338e-06   6.453753955601416e-07   -2.43816156107985e-05
4.547831718527338e-06   6.453753955601416e-07   -2.43816156107985e-05
4.547831718527338e-06   6.453753955601416e-07   -2.43816156107985e-05
-2.7067160140823567e-06   1.3134291163362341e-06   -1.2691534955581194e-05
-2.7067160140823567e-06   1.3134291163362341e-06   -1.2691534955581194e-05
-2.7067160140823567e-06   1.3134291163362341e-06   -1.2691534955581194e-05
-2.7067160140823567e-06   1.3134291163362341e-06   -1.2691534955581194e-05
7.922925122598959e-07   3.9285176787697993e-07   -1.7970869423742804e-05
7.922925122598959e-07   3.9285176787697993e-07   -1.7970869423742804e-05
7.922925122598959e-07   3.9285176787697993e-07   -1.7970869423742804e-05
7.922925122598959e-07   3.9285176787697993e-07   -1.7970869423742804e-05
4.288617211182232e-06   -2.8929067895477997e-06   -1.303105892407183e-05
4.288617211182232e-06   -2.8929067895477997e-06   -1.303105892407183e-05
4.288617211182232e-06   -2.8929067895477997e-06   -1.303105892407183e-05
4.288617211182232e-06   -2.8929067895477997e-06   -1.303105892407183e-05
1.0478645031124234e-05   -1.338346893727698e-06   -1.7816099533430035e-06
1.0478645031124234e-05   -1.338346893727698e-06   -1.7816099533430035e-06
1.0478645031124234e-05   -1.338346893727698e-06   -1.7816099533430035e-06
1.0478645031124234e-05   -1.338346893727698e-06   -1.7816099533430035e-06
1.1221739477317521e-05   -2.4778564909063794e-06   -1.366562178126783e-05
1.1221739477317521e-05   -2.4778564909063794e-06   -1.366562178126783e-05
1.1221739477317521e-05   -2.4778564909063794e-06   -1.366562178126783e-05
1.1221739477317521e-05   -2.4778564909063794e-06   -1.366562178126783e-05
4.345516052366035e-06   -8.846575247802154e-07   -3.161168786024388e-06
4.345516052366035e-06   -8.846575247802154e-07   -3.161168786024388e-06
4.345516052366035e-06   -8.846575247802154e-07   -3.161168786024388e-06
4.345516052366035e-06   -8.846575247802154e-07   -3.161168786024388e-06
7.260267158344731e-06   -1.8394307270427717e-06   -7.446223374631308e-06
7.260267158344731e-06   -1.8394307270427717e-06   -7.446223374631308e-06
7.260267158344731e-06   -1.8394307270427717e-06   -7.446223374631308e-06
7.260267158344731e-06   -1.8394307270427717e-06   -7.446223374631308e-06
4.345516052366028e-06   -2.4778564909063794e-06   -1.4621541160943376e-05
4.345516052366028e-06   -2.4778564909063794e-06   -1.4621541160943376e-05
4.345516052366028e-06   -2.4778564909063794e-06   -1.4621541160943376e-05
4.345516052366028e-06   -2.4778564909063794e-06   -1.4621541160943376e-05
1.1221739477317507e-05   -8.846575247802697e-07   -2.2052494063486247e-06
1.1221739477317507e-05   -8.846575247802697e-07   -2.2052494063486247e-06
1.1221739477317507e-05   -8.846575247802697e-07   -2.2052494063486247e-06
1.1221739477317507e-05   -8.846575247802697e-07   -2.2052494063486247e-06
1.179467830048322e-05   -2.123736077525734e-06   -1.4979722988157454e-05
1.179467830048322e-05   -2.123736077525734e-06   -1.4979722988157454e-05
1.179467830048322e-05   -2.123736077525734e-06   -1.4979722988157454e-05
1.179467830048322e-05   -2.123736077525734e-06   -1.4979722988157454e-05
4.481098447097249e-06   -5.725067215189188e-07   -3.7211608461182853e-06
4.481098447097249e-06   -5.725067215189188e-07   -3.7211608461182853e-06
4.481098447097249e-06   -5.725067215189188e-07   -3.7211608461182853e-06
4.481098447097249e-06   -5.725067215189188e-07   -3.7211608461182853e-06
7.712506100688657e-06   -1.6059725965168151e-06   -8.48676074377187e-06
7.712506100688657e-06   -1.6059725965168151e-06   -8.48676074377187e-06
7.712506100688657e-06   -1.6059725965168151e-06   -8.48676074377187e-06
7.712506100688657e-06   -1.6059725965168151e-06   -8.48676074377187e-06
4.481098447097242e-06   -2.123736077525734e-06   -1.5910460601761595e-05
4.481098447097242e-06   -2.123736077525734e-06   -1.5910460601761595e-05
4.481098447097242e-06   -2.123736077525734e-06   -1.5910460601761595e-05
4.481098447097242e-06   -2.123736077525734e-06   -1.5910460601761595e-05
1.179467830048322e-05   -5.725067215189188e-07   -2.79042323251405e-06
1.179467830048322e-05   -5.725067215189188e-07   -2.79042323251405e-06
1.179467830048322e-05   -5.725067215189188e-07   -2.79042323251405e-06
1.179467830048322e-05   -5.725067215189188e-07   -2.79042323251405e-06
1.2557453727522048e-05   -1.3687723593231631e-06   -1.750509549496079e-05
1.2557453727522048e-05   -1.3687723593231631e-06   -1.750509549496079e-05
1.2557453727522048e-05   -1.3687723593231631e-06   -1.750509549496079e-05
1.2557453727522048e-05   -1.3687723593231631e-06   -1.750509549496079e-05
4.547831718527338e-06   3.912304651656996e-08   -5.0004627234732934e-06
4.547831718527338e-06   3.912304651656996e-08   -5.0004627234732934e-06
4.547831718527338e-06   3.912304651656996e-08   -5.0004627234732934e-06
4.547831718527338e-06   3.912304651656996e-08   -5.0004627234732934e-06
7.866376594585156e-06   -1.2615069274112217e-06   -9.750992865879817e-06
7.866376594585156e-06   -1.2615069274112217e-06   -9.750992865879817e-06
7.866376594585156e-06   -1.2615069274112217e-06   -9.750992865879817e-06
7.866376594585156e-06   -1.2615069274112217e-06   -9.750992865879817e-06
-1.5042401370927077e-05   2.428544768258347e-06   -1.4135435197255104e-05
-1.5042401370927077e-05   2.428544768258347e-06   -1.4135435197255104e-05
-1.5042401370927077e-05   2.428544768258347e-06   -1.4135435197255104e-05
-1.5042401370927077e-05   2.428544768258347e-06   -1.4135435197255104e-05
-1.1141216578596183e-05   9.837512200380804e-07   -8.50033667230244e-06
-1.1141216578596183e-05   9.837512200380804e-07   -8.50033667230244e-06
-1.1141216578596183e-05   9.837512200380804e-07   -8.50033667230244e-06
-1.1141216578596183e-05   9.837512200380804e-07   -8.50033667230244e-06
-1.097925118186321e-05   3.094407485444077e-06   -1.2470229511994256e-05
-1.097925118186321e-05   3.094407485444077e-06   -1.2470229511994256e-05
-1.097925118186321e-05   3.094407485444077e-06   -1.2470229511994256e-05
-1.097925118186321e-05   3.094407485444077e-06   -1.2470229511994256e-05
-1.4220818495054945e-05   1.5365935915860477e-06   -6.132928987026521e-06
-1.4220818495054945e-05   1.5365935915860477e-06   -6.132928987026521e-06
-1.4220818495054945e-05   1.5365935915860477e-06   -6.132928987026521e-06
-1.4220818495054945e-05   1.5365935915860477e-06   -6.132928987026521e-06
-1.2301772981785882e-05   2.1795550462089394e-06   -9.717115048582622e-06
-1.2301772981785882e-05   2.1795550462089394e-06   -9.717115048582622e-06
-1.2301772981785882e-05   2.1795550462089394e-06   -9.717115048582622e-06
-1.2301772981785882e-05   2.1795550462089394e-06   -9.717115048582622e-06
-1.4220818495054945e-05   3.094407485444077e-06   -1.1535541175679563e-05
-1.4220818495054945e-05   3.094407485444077e-06   -1.1535541175679563e-05
-1.4220818495054945e-05   3.094407485444077e-06   -1.1535541175679563e-05
-1.4220818495054945e-05   3.094407485444077e-06   -1.1535541175679563e-05
-1.0979251181863237e-05   1.5365935915860477e-06   -7.067617323341336e-06
-1.0979251181863237e-05   1.5365935915860477e-06   -7.067617323341336e-06
-1.0979251181863237e-05   1.5365935915860477e-06   -7.067617323341336e-06
-1.0979251181863237e-05   1.5365935915860477e-06   -7.067617323341336e-06
-1.074750504146214e-05   3.4055235497139976e-06   -1.1134437760654974e-05
-1.074750504146214e-05   3.4055235497139976e-06   -1.1134437760654974e-05
-1.074750504146214e-05   3.4055235497139976e-06   -1.1134437760654974e-05
-1.074750504146214e-05   3.4055235497139976e-06   -1.1134437760654974e-05
-1.3567174954780292e-05   1.8169906792004286e-06   -5.4818681828165965e-06
-1.3567174954780292e-05   1.8169906792004286e-06   -5.4818681828165965e-06
-1.3567174954780292e-05   1.8169906792004286e-06   -5.4818681828165965e-06
-1.3567174954780292e-05   1.8169906792004286e-06   -5.4818681828165965e-06
-1.2086032036971836e-05   2.4783024431918683e-06   -8.347226770892205e-06
-1.2086032036971836e-05   2.4783024431918683e-06   -8.347226770892205e-06
-1.2086032036971836e-05   2.4783024431918683e-06   -8.347226770892205e-06
-1.2086032036971836e-05   2.4783024431918683e-06   -8.347226770892205e-06
-1.3567174954780265e-05   3.4055235497139976e-06   -1.0181318038346828e-05
-1.3567174954780265e-05   3.4055235497139976e-06   -1.0181318038346828e-05
-1.3567174954780265e-05   3.4055235497139976e-06   -1.0181318038346828e-05
-1.3567174954780265e-05   3.4055235497139976e-06   -1.0181318038346828e-05
-1.0747505041462167e-05   1.8169906792004286e-06   -6.434987905124662e-06
-1.0747505041462167e-05   1.8169906792004286e-06   -6.434987905124662e-06
-1.0747505041462167e-05   1.8169906792004286e-06   -6.434987905124662e-06
-1.0747505041462167e-05   1.8169906792004286e-06   -6.434987905124662e-06
-1.0591150277098973e-05   3.7980889477016414e-06   -9.4231150326872e-06
-1.0591150277098973e-05   3.7980889477016414e-06   -9.4231150326872e-06
-1.0591150277098973e-05   3.7980889477016414e-06   -9.4231150326872e-06
-1.0591150277098973e-05   3.7980889477016414e-06   -9.4231150326872e-06
-1.2735269465480304e-05   2.2616803005775198e-06   -4.927737863777079e-06
-1.2735269465480304e-05   2.2616803005775198e-06   -4.927737863777079e-06
-1.2735269465480304e-05   2.2616803005775198e-06   -4.927737863777079e-06
-1.2735269465480304e-05   2.2616803005775198e-06   -4.927737863777079e-06
-1.1522412213720436e-05   2.68711319170427e-06   -7.204426351386298e-06
-1.1522412213720436e-05   2.68711319170427e-06   -7.204426351386298e-06
-1.1522412213720436e-05   2.68711319170427e-06   -7.204426351386298e-06
-1.1522412213720436e-05   2.68711319170427e-06   -7.204426351386298e-06
-1.1141216578596183e-05   1.2596780463650223e-06   -2.0659028619908262e-05
-1.1141216578596183e-05   1.2596780463650223e-06   -2.0659028619908262e-05
-1.1141216578596183e-05   1.2596780463650223e-06   -2.0659028619908262e-05
-1.1141216578596183e-05   1.2596780463650223e-06   -2.0659028619908262e-05
-7.967245058155151e-06   5.705794981101728e-07   -1.5782535214792806e-05
-7.967245058155151e-06   5.705794981101728e-07   -1.5782535214792806e-05
-7.967245058155151e-06   5.705794981101728e-07   -1.5782535214792806e-05
-7.967245058155151e-06   5.705794981101728e-07   -1.5782535214792806e-05
-7.862506565352823e-06   1.9632480444854586e-06   -2.058918057670458e-05
-7.862506565352823e-06   1.9632480444854586e-06   -2.058918057670458e-05
-7.862506565352823e-06   1.9632480444854586e-06   -2.058918057670458e-05
-7.862506565352823e-06   1.9632480444854586e-06   -2.058918057670458e-05
-1.0979251181863237e-05   1.2050856928354226e-06   -1.4939708804863707e-05
-1.0979251181863237e-05   1.2050856928354226e-06   -1.4939708804863707e-05
-1.0979251181863237e-05   1.2050856928354226e-06   -1.4939708804863707e-05
-1.0979251181863237e-05   1.2050856928354226e-06   -1.4939708804863707e-05
-9.395009185364967e-06   1.372857563068029e-06   -1.768077525450086e-05
-9.395009185364967e-06   1.372857563068029e-06   -1.768077525450086e-05
-9.395009185364967e-06   1.372857563068029e-06   -1.768077525450086e-05
-9.395009185364967e-06   1.372857563068029e-06   -1.768077525450086e-05
-1.0979251181863196e-05   1.9632480444854586e-06   -2.0134283165714395e-05
-1.0979251181863196e-05   1.9632480444854586e-06   -2.0134283165714395e-05
-1.0979251181863196e-05   1.9632480444854586e-06   -2.0134283165714395e-05
-1.0979251181863196e-05   1.9632480444854586e-06   -2.0134283165714395e-05
-7.86250656535283e-06   1.2050856928354226e-06   -1.5394606215853837e-05
-7.86250656535283e-06   1.2050856928354226e-06   -1.5394606215853837e-05
-7.86250656535283e-06   1.2050856928354226e-06   -1.5394606215853837e-05
-7.86250656535283e-06   1.2050856928354226e-06   -1.5394606215853837e-05
-7.746653290463687e-06   2.604322395845227e-06   -2.0256058334443413e-05
-7.746653290463687e-06   2.604322395845227e-06   -2.0256058334443413e-05
-7.746653290463687e-06   2.604322395845227e-06   -2.0256058334443413e-05
-7.746653290463687e-06   2.604322395845227e-06   -2.0256058334443413e-05
-1.0747505041462194e-05   1.7959781897636381e-06   -1.4769632225796869e-05
-1.0747505041462194e-05   1.7959781897636381e-06   -1.4769632225796869e-05
-1.0747505041462194e-05   1.7959781897636381e-06   -1.4769632225796869e-05
-1.0747505041462194e-05   1.7959781897636381e-06   -1.4769632225796869e-05
-9.256590623802464e-06   1.8868569896664212e-06   -1.730901686850458e-05
-9.256590623802464e-06   1.8868569896664212e-06   -1.730901686850458e-05
-9.256590623802464e-06   1.8868569896664212e-06   -1.730901686850458e-05
-9.256590623802464e-06   1.8868569896664212e-06   -1.730901686850458e-05
-1.074750504146214e-05   2.604322395845281e-06   -1.9771051810794354e-05
-1.074750504146214e-05   2.604322395845281e-06   -1.9771051810794354e-05
-1.074750504146214e-05   2.604322395845281e-06   -1.9771051810794354e-05
-1.074750504146214e-05   2.604322395845281e-06   -1.9771051810794354e-05
-7.746653290463687e-06   1.7959781897636381e-06   -1.5254638749445806e-05
-7.746653290463687e-06   1.7959781897636381e-06   -1.5254638749445806e-05
-7.746653290463687e-06   1.7959781897636381e-06   -1.5254638749445806e-05
-7.746653290463687e-06   1.7959781897636381e-06   -1.5254638749445806e-05
-7.644133630218236e-06   3.3015576077193715e-06   -2.0452594781659214e-05
-7.644133630218236e-06   3.3015576077193715e-06   -2.0452594781659214e-05
-7.644133630218236e-06   3.3015576077193715e-06   -2.0452594781659214e-05
-7.644133630218236e-06   3.3015576077193715e-06   -2.0452594781659214e-05
-1.0591150277099013e-05   2.453443646705986e-06   -1.503203199358324e-05
-1.0591150277099013e-05   2.453443646705986e-06   -1.503203199358324e-05
-1.0591150277099013e-05   2.453443646705986e-06   -1.503203199358324e-05
-1.0591150277099013e-05   2.453443646705986e-06   -1.503203199358324e-05
-9.204268130288387e-06   2.4084563995288414e-06   -1.731650988996122e-05
-9.204268130288387e-06   2.4084563995288414e-06   -1.731650988996122e-05
-9.204268130288387e-06   2.4084563995288414e-06   -1.731650988996122e-05
-9.204268130288387e-06   2.4084563995288414e-06   -1.731650988996122e-05
-7.967245058155124e-06   2.194354359154392e-07   -2.33718304807365e-05
-7.967245058155124e-06   2.194354359154392e-07   -2.33718304807365e-05
-7.967245058155124e-06   2.194354359154392e-07   -2.33718304807365e-05
-7.967245058155124e-06   2.194354359154392e-07   -2.33718304807365e-05
-4.8707806887268045e-06   3.3085058034432267e-07   -1.8144207445032012e-05
-4.8707806887268045e-06   3.3085058034432267e-07   -1.8144207445032012e-05
-4.8707806887268045e-06   3.3085058034432267e-07   -1.8144207445032012e-05
-4.8707806887268045e-06   3.3085058034432267e-07   -1.8144207445032012e-05
-4.7690192751183594e-06   9.277356415675862e-07   -2.3075576184997126e-05
-4.7690192751183594e-06   9.277356415675862e-07   -2.3075576184997126e-05
-4.7690192751183594e-06   9.277356415675862e-07   -2.3075576184997126e-05
-4.7690192751183594e-06   9.277356415675862e-07   -2.3075576184997126e-05
-7.862506565352823e-06   9.78118483839171e-07   -1.794999373996907e-05
-7.862506565352823e-06   9.78118483839171e-07   -1.794999373996907e-05
-7.862506565352823e-06   9.78118483839171e-07   -1.794999373996907e-05
-7.862506565352823e-06   9.78118483839171e-07   -1.794999373996907e-05
-6.326464554561218e-06   7.047207516475184e-07   -2.0346025118640564e-05
-6.326464554561218e-06   7.047207516475184e-07   -2.0346025118640564e-05
-6.326464554561218e-06   7.047207516475184e-07   -2.0346025118640564e-05
-6.326464554561218e-06   7.047207516475184e-07   -2.0346025118640564e-05
-7.86250656535281e-06   9.277356415676404e-07   -2.310580589035996e-05
-7.86250656535281e-06   9.277356415676404e-07   -2.310580589035996e-05
-7.86250656535281e-06   9.277356415676404e-07   -2.310580589035996e-05
-7.86250656535281e-06   9.277356415676404e-07   -2.310580589035996e-05
-4.769019275118351e-06   9.78118483839171e-07   -1.7919764034606228e-05
-4.769019275118351e-06   9.78118483839171e-07   -1.7919764034606228e-05
-4.769019275118351e-06   9.78118483839171e-07   -1.7919764034606228e-05
-4.769019275118351e-06   9.78118483839171e-07   -1.7919764034606228e-05
-4.653957864969902e-06   1.6383145531282685e-06   -2.3134743315420295e-05
-4.653957864969902e-06   1.6383145531282685e-06   -2.3134743315420295e-05
-4.653957864969902e-06   1.6383145531282685e-06   -2.3134743315420295e-05
-4.653957864969902e-06   1.6383145531282685e-06   -2.3134743315420295e-05
-7.746653290463674e-06   1.6310104469265119e-06   -1.7975868475876165e-05
-7.746653290463674e-06   1.6310104469265119e-06   -1.7975868475876165e-05
-7.746653290463674e-06   1.6310104469265119e-06   -1.7975868475876165e-05
-7.746653290463674e-06   1.6310104469265119e-06   -1.7975868475876165e-05
-6.259173763880518e-06   1.2615259895731455e-06   -2.0233310345769463e-05
-6.259173763880518e-06   1.2615259895731455e-06   -2.0233310345769463e-05
-6.259173763880518e-06   1.2615259895731455e-06   -2.0233310345769463e-05
-6.259173763880518e-06   1.2615259895731455e-06   -2.0233310345769463e-05
-7.746653290463654e-06   1.6383145531282143e-06   -2.313036085169914e-05
-7.746653290463654e-06   1.6383145531282143e-06   -2.313036085169914e-05
-7.746653290463654e-06   1.6383145531282143e-06   -2.313036085169914e-05
-7.746653290463654e-06   1.6383145531282143e-06   -2.313036085169914e-05
-4.653957864969894e-06   1.6310104469265119e-06   -1.7980250939597187e-05
-4.653957864969894e-06   1.6310104469265119e-06   -1.7980250939597187e-05
-4.653957864969894e-06   1.6310104469265119e-06   -1.7980250939597187e-05
-4.653957864969894e-06   1.6310104469265119e-06   -1.7980250939597187e-05
-4.550748883962171e-06   2.3613167113085867e-06   -2.352395578993251e-05
-4.550748883962171e-06   2.3613167113085867e-06   -2.352395578993251e-05
-4.550748883962171e-06   2.3613167113085867e-06   -2.352395578993251e-05
-4.550748883962171e-06   2.3613167113085867e-06   -2.352395578993251e-05
-7.64413363021825e-06   2.293809296224111e-06   -1.8327810097121602e-05
-7.64413363021825e-06   2.293809296224111e-06   -1.8327810097121602e-05
-7.64413363021825e-06   2.293809296224111e-06   -1.8327810097121602e-05
-7.64413363021825e-06   2.293809296224111e-06   -1.8327810097121602e-05
-6.204116094251132e-06   1.8257504254635265e-06   -2.044700400127711e-05
-6.204116094251132e-06   1.8257504254635265e-06   -2.044700400127711e-05
-6.204116094251132e-06   1.8257504254635265e-06   -2.044700400127711e-05
-6.204116094251132e-06   1.8257504254635265e-06   -2.044700400127711e-05
-4.870780688726788e-06   -7.311940912329033e-07   -2.0479900629862536e-05
-4.870780688726788e-06   -7.311940912329033e-07   -2.0479900629862536e-05
-4.870780688726788e-06   -7.311940912329033e-07   -2.0479900629862536e-05
-4.870780688726788e-06   -7.311940912329033e-07   -2.0479900629862536e-05
-1.874815327737734e-06   1.4832758809049662e-07   -1.4958912020620132e-05
-1.874815327737734e-06   1.4832758809049662e-07   -1.4958912020620132e-05
-1.874815327737734e-06   1.4832758809049662e-07   -1.4958912020620132e-05
-1.874815327737734e-06   1.4832758809049662e-07   -1.4958912020620132e-05
-1.721396810620169e-06   -6.312466220066313e-08   -1.9817419110800254e-05
-1.721396810620169e-06   -6.312466220066313e-08   -1.9817419110800254e-05
-1.721396810620169e-06   -6.312466220066313e-08   -1.9817419110800254e-05
-1.721396810620169e-06   -6.312466220066313e-08   -1.9817419110800254e-05
-4.769019275118351e-06   7.760946518191184e-07   -1.5241579925048235e-05
-4.769019275118351e-06   7.760946518191184e-07   -1.5241579925048235e-05
-4.769019275118351e-06   7.760946518191184e-07   -1.5241579925048235e-05
-4.769019275118351e-06   7.760946518191184e-07   -1.5241579925048235e-05
-3.2755577211274343e-06   9.787792098461725e-08   -1.7323752476532768e-05
-3.2755577211274343e-06   9.787792098461725e-08   -1.7323752476532768e-05
-3.2755577211274343e-06   9.787792098461725e-08   -1.7323752476532768e-05
-3.2755577211274343e-06   9.787792098461725e-08   -1.7323752476532768e-05
-4.769019275118343e-06   -6.312466220071734e-08   -2.032095069921199e-05
-4.769019275118343e-06   -6.312466220071734e-08   -2.032095069921199e-05
-4.769019275118343e-06   -6.312466220071734e-08   -2.032095069921199e-05
-4.769019275118343e-06   -6.312466220071734e-08   -2.032095069921199e-05
-1.721396810620169e-06   7.760946518192268e-07   -1.4738048336636485e-05
-1.721396810620169e-06   7.760946518192268e-07   -1.4738048336636485e-05
-1.721396810620169e-06   7.760946518192268e-07   -1.4738048336636485e-05
-1.721396810620169e-06   7.760946518192268e-07   -1.4738048336636485e-05
-1.491384569134624e-06   5.787289640069894e-07   -2.0081615203585638e-05
-1.491384569134624e-06   5.787289640069894e-07   -2.0081615203585638e-05
-1.491384569134624e-06   5.787289640069894e-07   -2.0081615203585638e-05
-1.491384569134624e-06   5.787289640069894e-07   -2.0081615203585638e-05
-4.653957864969894e-06   1.3668963913730618e-06   -1.5283560166946407e-05
-4.653957864969894e-06   1.3668963913730618e-06   -1.5283560166946407e-05
-4.653957864969894e-06   1.3668963913730618e-06   -1.5283560166946407e-05
-4.653957864969894e-06   1.3668963913730618e-06   -1.5283560166946407e-05
-3.1834628199566416e-06   6.051953356756251e-07   -1.7277364608550062e-05
-3.1834628199566416e-06   6.051953356756251e-07   -1.7277364608550062e-05
-3.1834628199566416e-06   6.051953356756251e-07   -1.7277364608550062e-05
-3.1834628199566416e-06   6.051953356756251e-07   -1.7277364608550062e-05
-4.653957864969886e-06   5.787289640070436e-07   -2.0554515660005263e-05
-4.653957864969886e-06   5.787289640070436e-07   -2.0554515660005263e-05
-4.653957864969886e-06   5.787289640070436e-07   -2.0554515660005263e-05
-4.653957864969886e-06   5.787289640070436e-07   -2.0554515660005263e-05
-1.4913845691346309e-06   1.3668963913731702e-06   -1.4810659710526742e-05
-1.4913845691346309e-06   1.3668963913731702e-06   -1.4810659710526742e-05
-1.4913845691346309e-06   1.3668963913731702e-06   -1.4810659710526742e-05
-1.4913845691346309e-06   1.3668963913731702e-06   -1.4810659710526742e-05
-1.3311688104649129e-06   1.31342911633618e-06   -2.064302835590398e-05
-1.3311688104649129e-06   1.31342911633618e-06   -2.064302835590398e-05
-1.3311688104649129e-06   1.31342911633618e-06   -2.064302835590398e-05
-1.3311688104649129e-06   1.31342911633618e-06   -2.064302835590398e-05
-4.550748883962171e-06   2.033949287410532e-06   -1.570937366938643e-05
-4.550748883962171e-06   2.033949287410532e-06   -1.570937366938643e-05
-4.550748883962171e-06   2.033949287410532e-06   -1.570937366938643e-05
-4.550748883962171e-06   2.033949287410532e-06   -1.570937366938643e-05
-3.0874620419649496e-06   1.1359259720547651e-06   -1.7609371083501682e-05
-3.0874620419649496e-06   1.1359259720547651e-06   -1.7609371083501682e-05
-3.0874620419649496e-06   1.1359259720547651e-06   -1.7609371083501682e-05
-3.0874620419649496e-06   1.1359259720547651e-06   -1.7609371083501682e-05
-1.8748153277377272e-06   -1.338346893727698e-06   -1.1102027334934341e-05
-1.8748153277377272e-06   -1.338346893727698e-06   -1.1102027334934341e-05
-1.8748153277377272e-06   -1.338346893727698e-06   -1.1102027334934341e-05
-1.8748153277377272e-06   -1.338346893727698e-06   -1.1102027334934341e-05
3.1267817885438924e-07   2.1340152071976873e-07   -6.52515577527897e-06
3.1267817885438924e-07   2.1340152071976873e-07   -6.52515577527897e-06
3.1267817885438924e-07   2.1340152071976873e-07   -6.52515577527897e-06
3.1267817885438924e-07   2.1340152071976873e-07   -6.52515577527897e-06
1.1366515325665426e-06   -8.846575247802697e-07   -1.0584612416331737e-05
1.1366515325665426e-06   -8.846575247802697e-07   -1.0584612416331737e-05
1.1366515325665426e-06   -8.846575247802697e-07   -1.0584612416331737e-05
1.1366515325665426e-06   -8.846575247802697e-07   -1.0584612416331737e-05
-1.721396810620169e-06   7.105554423683267e-07   -6.778326291309437e-06
-1.721396810620169e-06   7.105554423683267e-07   -6.778326291309437e-06
-1.721396810620169e-06   7.105554423683267e-07   -6.778326291309437e-06
-1.721396810620169e-06   7.105554423683267e-07   -6.778326291309437e-06
-5.208952809860126e-07   -2.58619267639958e-07   -8.197657348028403e-06
-5.208952809860126e-07   -2.58619267639958e-07   -8.197657348028403e-06
-5.208952809860126e-07   -2.58619267639958e-07   -8.197657348028403e-06
-5.208952809860126e-07   -2.58619267639958e-07   -8.197657348028403e-06
-1.7213968106201622e-06   -8.846575247802154e-07   -1.1541740196620716e-05
-1.7213968106201622e-06   -8.846575247802154e-07   -1.1541740196620716e-05
-1.7213968106201622e-06   -8.846575247802154e-07   -1.1541740196620716e-05
-1.7213968106201622e-06   -8.846575247802154e-07   -1.1541740196620716e-05
1.1366515325665426e-06   7.105554423683267e-07   -5.821198511020431e-06
1.1366515325665426e-06   7.105554423683267e-07   -5.821198511020431e-06
1.1366515325665426e-06   7.105554423683267e-07   -5.821198511020431e-06
1.1366515325665426e-06   7.105554423683267e-07   -5.821198511020431e-06
1.7875926395312283e-06   -5.725067215189188e-07   -1.1154147586770613e-05
1.7875926395312283e-06   -5.725067215189188e-07   -1.1154147586770613e-05
1.7875926395312283e-06   -5.725067215189188e-07   -1.1154147586770613e-05
1.7875926395312283e-06   -5.725067215189188e-07   -1.1154147586770613e-05
-1.491384569134624e-06   9.896520255878866e-07   -6.626480820591486e-06
-1.491384569134624e-06   9.896520255878866e-07   -6.626480820591486e-06
-1.491384569134624e-06   9.896520255878866e-07   -6.626480820591486e-06
-1.491384569134624e-06   9.896520255878866e-07   -6.626480820591486e-06
-1.0581494706320138e-07   -1.971922183362034e-08   -8.330140775590929e-06
-1.0581494706320138e-07   -1.971922183362034e-08   -8.330140775590929e-06
-1.0581494706320138e-07   -1.971922183362034e-08   -8.330140775590929e-06
-1.0581494706320138e-07   -1.971922183362034e-08   -8.330140775590929e-06
-1.491384569134624e-06   -5.725067215189188e-07   -1.2091442835034664e-05
-1.491384569134624e-06   -5.725067215189188e-07   -1.2091442835034664e-05
-1.491384569134624e-06   -5.725067215189188e-07   -1.2091442835034664e-05
-1.491384569134624e-06   -5.725067215189188e-07   -1.2091442835034664e-05
1.7875926395312147e-06   9.896520255878866e-07   -5.689185572327381e-06
1.7875926395312147e-06   9.896520255878866e-07   -5.689185572327381e-06
1.7875926395312147e-06   9.896520255878866e-07   -5.689185572327381e-06
1.7875926395312147e-06   9.896520255878866e-07   -5.689185572327381e-06
2.610990672796893e-06   3.912304651656996e-08   -1.2486911186642904e-05
2.610990672796893e-06   3.912304651656996e-08   -1.2486911186642904e-05
2.610990672796893e-06   3.912304651656996e-08   -1.2486911186642904e-05
2.610990672796893e-06   3.912304651656996e-08   -1.2486911186642904e-05
-1.331168810464906e-06   1.4822516625481383e-06   -6.7825225508253e-06
-1.331168810464906e-06   1.4822516625481383e-06   -6.7825225508253e-06
-1.331168810464906e-06   1.4822516625481383e-06   -6.7825225508253e-06
-1.331168810464906e-06   1.4822516625481383e-06   -6.7825225508253e-06
2.5492463691099737e-07   2.506356887146998e-07   -8.687042045485291e-06
2.5492463691099737e-07   2.506356887146998e-07   -8.687042045485291e-06
2.5492463691099737e-07   2.506356887146998e-07   -8.687042045485291e-06
2.5492463691099737e-07   2.506356887146998e-07   -8.687042045485291e-06
-5.178732653206953e-06   9.837512200380804e-07   -9.37482132151138e-06
-5.178732653206953e-06   9.837512200380804e-07   -9.37482132151138e-06
-5.178732653206953e-06   9.837512200380804e-07   -9.37482132151138e-06
-5.178732653206953e-06   9.837512200380804e-07   -9.37482132151138e-06
-5.3078135035972715e-06   -4.6658756172287316e-07   -1.0460159341218556e-05
-5.3078135035972715e-06   -4.6658756172287316e-07   -1.0460159341218556e-05
-5.3078135035972715e-06   -4.6658756172287316e-07   -1.0460159341218556e-05
-5.3078135035972715e-06   -4.6658756172287316e-07   -1.0460159341218556e-05
-5.0454157638049385e-06   1.536593591586156e-06   -8.809789419176543e-06
-5.0454157638049385e-06   1.536593591586156e-06   -8.809789419176543e-06
-5.0454157638049385e-06   1.536593591586156e-06   -8.809789419176543e-06
-5.0454157638049385e-06   1.536593591586156e-06   -8.809789419176543e-06
-4.2635566091249846e-06   -2.0529093675437232e-08   -9.178614399152796e-06
-4.2635566091249846e-06   -2.0529093675437232e-08   -9.178614399152796e-06
-4.2635566091249846e-06   -2.0529093675437232e-08   -9.178614399152796e-06
-4.2635566091249846e-06   -2.0529093675437232e-08   -9.178614399152796e-06
-4.7328296534662295e-06   6.775752270915796e-07   -8.815355251044703e-06
-4.7328296534662295e-06   6.775752270915796e-07   -8.815355251044703e-06
-4.7328296534662295e-06   6.775752270915796e-07   -8.815355251044703e-06
-4.7328296534662295e-06   6.775752270915796e-07   -8.815355251044703e-06
-4.2635566091249846e-06   1.536593591586156e-06   -7.875515808019549e-06
-4.2635566091249846e-06   1.536593591586156e-06   -7.875515808019549e-06
-4.2635566091249846e-06   1.536593591586156e-06   -7.875515808019549e-06
-4.2635566091249846e-06   1.536593591586156e-06   -7.875515808019549e-06
-5.045415763804966e-06   -2.0529093675437232e-08   -1.0112888010309871e-05
-5.045415763804966e-06   -2.0529093675437232e-08   -1.0112888010309871e-05
-5.045415763804966e-06   -2.0529093675437232e-08   -1.0112888010309871e-05
-5.045415763804966e-06   -2.0529093675437232e-08   -1.0112888010309871e-05
-4.713697564405294e-06   1.816990679200537e-06   -8.175004582310573e-06
-4.713697564405294e-06   1.816990679200537e-06   -8.175004582310573e-06
-4.713697564405294e-06   1.816990679200537e-06   -8.175004582310573e-06
-4.713697564405294e-06   1.816990679200537e-06   -8.175004582310573e-06
-3.5087673187266725e-06   2.3303737906998218e-07   -9.232849678363281e-06
-3.5087673187266725e-06   2.3303737906998218e-07   -9.232849678363281e-06
-3.5087673187266725e-06   2.3303737906998218e-07   -9.232849678363281e-06
-3.5087673187266725e-06   2.3303737906998218e-07   -9.232849678363281e-06
-4.301446055415191e-06   9.072708475117599e-07   -8.31625853161443e-06
-4.301446055415191e-06   9.072708475117599e-07   -8.31625853161443e-06
-4.301446055415191e-06   9.072708475117599e-07   -8.31625853161443e-06
-4.301446055415191e-06   9.072708475117599e-07   -8.31625853161443e-06
-3.5087673187266725e-06   1.816990679200537e-06   -7.224632602232327e-06
-3.5087673187266725e-06   1.816990679200537e-06   -7.224632602232327e-06
-3.5087673187266725e-06   1.816990679200537e-06   -7.224632602232327e-06
-3.5087673187266725e-06   1.816990679200537e-06   -7.224632602232327e-06
-4.713697564405294e-06   2.3303737906998218e-07   -1.0183221658441555e-05
-4.713697564405294e-06   2.3303737906998218e-07   -1.0183221658441555e-05
-4.713697564405294e-06   2.3303737906998218e-07   -1.0183221658441555e-05
-4.713697564405294e-06   2.3303737906998218e-07   -1.0183221658441555e-05
-4.456637870967837e-06   2.2616803005775198e-06   -7.587171971295474e-06
-4.456637870967837e-06   2.2616803005775198e-06   -7.587171971295474e-06
-4.456637870967837e-06   2.2616803005775198e-06   -7.587171971295474e-06
-4.456637870967837e-06   2.2616803005775198e-06   -7.587171971295474e-06
-2.576842252859508e-06   7.383300410450768e-07   -9.806154512423317e-06
-2.576842252859508e-06   7.383300410450768e-07   -9.806154512423317e-06
-2.576842252859508e-06   7.383300410450768e-07   -9.806154512423317e-06
-2.576842252859508e-06   7.383300410450768e-07   -9.806154512423317e-06
-3.763727555096462e-06   1.1289553496954914e-06   -8.062387527218328e-06
-3.763727555096462e-06   1.1289553496954914e-06   -8.062387527218328e-06
-3.763727555096462e-06   1.1289553496954914e-06   -8.062387527218328e-06
-3.763727555096462e-06   1.1289553496954914e-06   -8.062387527218328e-06
-5.307813503597258e-06   5.705794981101728e-07   -1.7113764004105352e-05
-5.307813503597258e-06   5.705794981101728e-07   -1.7113764004105352e-05
-5.307813503597258e-06   5.705794981101728e-07   -1.7113764004105352e-05
-5.307813503597258e-06   5.705794981101728e-07   -1.7113764004105352e-05
-6.161746563874873e-06   -9.703444595098379e-08   -1.8937554137671525e-05
-6.161746563874873e-06   -9.703444595098379e-08   -1.8937554137671525e-05
-6.161746563874873e-06   -9.703444595098379e-08   -1.8937554137671525e-05
-6.161746563874873e-06   -9.703444595098379e-08   -1.8937554137671525e-05
-5.951067144313477e-06   1.2050856928354226e-06   -1.7124982190270285e-05
-5.951067144313477e-06   1.2050856928354226e-06   -1.7124982190270285e-05
-5.951067144313477e-06   1.2050856928354226e-06   -1.7124982190270285e-05
-5.951067144313477e-06   1.2050856928354226e-06   -1.7124982190270285e-05
-5.045415763804966e-06   4.66583543549926e-07   -1.819129986821308e-05
-5.045415763804966e-06   4.66583543549926e-07   -1.819129986821308e-05
-5.045415763804966e-06   4.66583543549926e-07   -1.819129986821308e-05
-5.045415763804966e-06   4.66583543549926e-07   -1.819129986821308e-05
-5.55120138931114e-06   6.611537329900418e-07   -1.746506593936715e-05
-5.55120138931114e-06   6.611537329900418e-07   -1.746506593936715e-05
-5.55120138931114e-06   6.611537329900418e-07   -1.746506593936715e-05
-5.55120138931114e-06   6.611537329900418e-07   -1.746506593936715e-05
-5.045415763804952e-06   1.2050856928354226e-06   -1.668188090069882e-05
-5.045415763804952e-06   1.2050856928354226e-06   -1.668188090069882e-05
-5.045415763804952e-06   1.2050856928354226e-06   -1.668188090069882e-05
-5.045415763804952e-06   1.2050856928354226e-06   -1.668188090069882e-05
-5.951067144313463e-06   4.66583543549926e-07   -1.8634401157784357e-05
-5.951067144313463e-06   4.66583543549926e-07   -1.8634401157784357e-05
-5.951067144313463e-06   4.66583543549926e-07   -1.8634401157784357e-05
-5.951067144313463e-06   4.66583543549926e-07   -1.8634401157784357e-05
-5.731833413840242e-06   1.7959781897636381e-06   -1.698121319990912e-05
-5.731833413840242e-06   1.7959781897636381e-06   -1.698121319990912e-05
-5.731833413840242e-06   1.7959781897636381e-06   -1.698121319990912e-05
-5.731833413840242e-06   1.7959781897636381e-06   -1.698121319990912e-05
-4.713697564405294e-06   1.0100376948862398e-06   -1.8206541985374164e-05
-4.713697564405294e-06   1.0100376948862398e-06   -1.8206541985374164e-05
-4.713697564405294e-06   1.0100376948862398e-06   -1.8206541985374164e-05
-4.713697564405294e-06   1.0100376948862398e-06   -1.8206541985374164e-05
-5.340209409217559e-06   1.1166017486101496e-06   -1.7226294009588147e-05
-5.340209409217559e-06   1.1166017486101496e-06   -1.7226294009588147e-05
-5.340209409217559e-06   1.1166017486101496e-06   -1.7226294009588147e-05
-5.340209409217559e-06   1.1166017486101496e-06   -1.7226294009588147e-05
-4.713697564405294e-06   1.7959781897635297e-06   -1.6509648902982672e-05
-4.713697564405294e-06   1.7959781897635297e-06   -1.6509648902982672e-05
-4.713697564405294e-06   1.7959781897635297e-06   -1.6509648902982672e-05
-4.713697564405294e-06   1.7959781897635297e-06   -1.6509648902982672e-05
-5.731833413840235e-06   1.0100376948861314e-06   -1.8678106282300614e-05
-5.731833413840235e-06   1.0100376948861314e-06   -1.8678106282300614e-05
-5.731833413840235e-06   1.0100376948861314e-06   -1.8678106282300614e-05
-5.731833413840235e-06   1.0100376948861314e-06   -1.8678106282300614e-05
-5.5258205863647735e-06   2.453443646705986e-06   -1.7262821787495893e-05
-5.5258205863647735e-06   2.453443646705986e-06   -1.7262821787495893e-05
-5.5258205863647735e-06   2.453443646705986e-06   -1.7262821787495893e-05
-5.5258205863647735e-06   2.453443646705986e-06   -1.7262821787495893e-05
-4.456637870967837e-06   1.6314421889248925e-06   -1.855159210515544e-05
-4.456637870967837e-06   1.6314421889248925e-06   -1.855159210515544e-05
-4.456637870967837e-06   1.6314421889248925e-06   -1.855159210515544e-05
-4.456637870967837e-06   1.6314421889248925e-06   -1.855159210515544e-05
-5.155125421892111e-06   1.5953066992160057e-06   -1.736576489312267e-05
-5.155125421892111e-06   1.5953066992160057e-06   -1.736576489312267e-05
-5.155125421892111e-06   1.5953066992160057e-06   -1.736576489312267e-05
-5.155125421892111e-06   1.5953066992160057e-06   -1.736576489312267e-05
-6.161746563874859e-06   3.3085058034432267e-07   -1.9942853687438645e-05
-6.161746563874859e-06   3.3085058034432267e-07   -1.9942853687438645e-05
-6.161746563874859e-06   3.3085058034432267e-07   -1.9942853687438645e-05
-6.161746563874859e-06   3.3085058034432267e-07   -1.9942853687438645e-05
-7.054665187758589e-06   4.7300994137169407e-07   -2.134575577729522e-05
-7.054665187758589e-06   4.7300994137169407e-07   -2.134575577729522e-05
-7.054665187758589e-06   4.7300994137169407e-07   -2.134575577729522e-05
-7.054665187758589e-06   4.7300994137169407e-07   -2.134575577729522e-05
-6.8479324815364375e-06   9.78118483839171e-07   -1.9633275689075105e-05
-6.8479324815364375e-06   9.78118483839171e-07   -1.9633275689075105e-05
-6.8479324815364375e-06   9.78118483839171e-07   -1.9633275689075105e-05
-6.8479324815364375e-06   9.78118483839171e-07   -1.9633275689075105e-05
-5.951067144313463e-06   1.0566085260233383e-06   -2.117514527642377e-05
-5.951067144313463e-06   1.0566085260233383e-06   -2.117514527642377e-05
-5.951067144313463e-06   1.0566085260233383e-06   -2.117514527642377e-05
-5.951067144313463e-06   1.0566085260233383e-06   -2.117514527642377e-05
-6.464660450227051e-06   8.008576627316528e-07   -2.0165705915259726e-05
-6.464660450227051e-06   8.008576627316528e-07   -2.0165705915259726e-05
-6.464660450227051e-06   8.008576627316528e-07   -2.0165705915259726e-05
-6.464660450227051e-06   8.008576627316528e-07   -2.0165705915259726e-05
-5.951067144313456e-06   9.781184838390626e-07   -1.9680369714385525e-05
-5.951067144313456e-06   9.781184838390626e-07   -1.9680369714385525e-05
-5.951067144313456e-06   9.781184838390626e-07   -1.9680369714385525e-05
-5.951067144313456e-06   9.781184838390626e-07   -1.9680369714385525e-05
-6.8479324815364375e-06   1.0566085260232299e-06   -2.112805125111341e-05
-6.8479324815364375e-06   1.0566085260232299e-06   -2.112805125111341e-05
-6.8479324815364375e-06   1.0566085260232299e-06   -2.112805125111341e-05
-6.8479324815364375e-06   1.0566085260232299e-06   -2.112805125111341e-05
-6.630020010418449e-06   1.6310104469265119e-06   -1.968932747702074e-05
-6.630020010418449e-06   1.6310104469265119e-06   -1.968932747702074e-05
-6.630020010418449e-06   1.6310104469265119e-06   -1.968932747702074e-05
-6.630020010418449e-06   1.6310104469265119e-06   -1.968932747702074e-05
-5.731833413840235e-06   1.6528695291244747e-06   -2.1199420587303115e-05
-5.731833413840235e-06   1.6528695291244747e-06   -2.1199420587303115e-05
-5.731833413840235e-06   1.6528695291244747e-06   -2.1199420587303115e-05
-5.731833413840235e-06   1.6528695291244747e-06   -2.1199420587303115e-05
-6.291881058455466e-06   1.3008148884351362e-06   -2.0054775061864442e-05
-6.291881058455466e-06   1.3008148884351362e-06   -2.0054775061864442e-05
-6.291881058455466e-06   1.3008148884351362e-06   -2.0054775061864442e-05
-6.291881058455466e-06   1.3008148884351362e-06   -2.0054775061864442e-05
-5.731833413840229e-06   1.6310104469265119e-06   -1.9702442926339437e-05
-5.731833413840229e-06   1.6310104469265119e-06   -1.9702442926339437e-05
-5.731833413840229e-06   1.6310104469265119e-06   -1.9702442926339437e-05
-5.731833413840229e-06   1.6310104469265119e-06   -1.9702442926339437e-05
-6.630020010418438e-06   1.6528695291244747e-06   -2.1186305137984294e-05
-6.630020010418438e-06   1.6528695291244747e-06   -2.1186305137984294e-05
-6.630020010418438e-06   1.6528695291244747e-06   -2.1186305137984294e-05
-6.630020010418438e-06   1.6528695291244747e-06   -2.1186305137984294e-05
-6.424623322358131e-06   2.293809296224111e-06   -2.0071539010497184e-05
-6.424623322358131e-06   2.293809296224111e-06   -2.0071539010497184e-05
-6.424623322358131e-06   2.293809296224111e-06   -2.0071539010497184e-05
-6.424623322358131e-06   2.293809296224111e-06   -2.0071539010497184e-05
-5.5258205863647735e-06   2.2574634694392344e-06   -2.1547736074415194e-05
-5.5258205863647735e-06   2.2574634694392344e-06   -2.1547736074415194e-05
-5.5258205863647735e-06   2.2574634694392344e-06   -2.1547736074415194e-05
-5.5258205863647735e-06   2.2574634694392344e-06   -2.1547736074415194e-05
-6.133298714756249e-06   1.8078029866028201e-06   -2.026547623739389e-05
-6.133298714756249e-06   1.8078029866028201e-06   -2.026547623739389e-05
-6.133298714756249e-06   1.8078029866028201e-06   -2.026547623739389e-05
-6.133298714756249e-06   1.8078029866028201e-06   -2.026547623739389e-05
-7.054665187758575e-06   1.4832758809049662e-07   -1.7199975654004428e-05
-7.054665187758575e-06   1.4832758809049662e-07   -1.7199975654004428e-05
-7.054665187758575e-06   1.4832758809049662e-07   -1.7199975654004428e-05
-7.054665187758575e-06   1.4832758809049662e-07   -1.7199975654004428e-05
-8.001972474545722e-06   1.0490717100004963e-06   -1.8238374658837006e-05
-8.001972474545722e-06   1.0490717100004963e-06   -1.8238374658837006e-05
-8.001972474545722e-06   1.0490717100004963e-06   -1.8238374658837006e-05
-8.001972474545722e-06   1.0490717100004963e-06   -1.8238374658837006e-05
-7.750896339445807e-06   7.760946518192268e-07   -1.643963000149437e-05
-7.750896339445807e-06   7.760946518192268e-07   -1.643963000149437e-05
-7.750896339445807e-06   7.760946518192268e-07   -1.643963000149437e-05
-7.750896339445807e-06   7.760946518192268e-07   -1.643963000149437e-05
-6.8479324815364375e-06   1.6351972818572395e-06   -1.846003134269947e-05
-6.8479324815364375e-06   1.6351972818572395e-06   -1.846003134269947e-05
-6.8479324815364375e-06   1.6351972818572395e-06   -1.846003134269947e-05
-6.8479324815364375e-06   1.6351972818572395e-06   -1.846003134269947e-05
-7.356421183301596e-06   9.670558851000884e-07   -1.721166533503679e-05
-7.356421183301596e-06   9.670558851000884e-07   -1.721166533503679e-05
-7.356421183301596e-06   9.670558851000884e-07   -1.721166533503679e-05
-7.356421183301596e-06   9.670558851000884e-07   -1.721166533503679e-05
-6.8479324815364265e-06   7.760946518192268e-07   -1.6955091579517207e-05
-6.8479324815364265e-06   7.760946518192268e-07   -1.6955091579517207e-05
-6.8479324815364265e-06   7.760946518192268e-07   -1.6955091579517207e-05
-6.8479324815364265e-06   7.760946518192268e-07   -1.6955091579517207e-05
-7.750896339445807e-06   1.6351972818572395e-06   -1.7944569764676672e-05
-7.750896339445807e-06   1.6351972818572395e-06   -1.7944569764676672e-05
-7.750896339445807e-06   1.6351972818572395e-06   -1.7944569764676672e-05
-7.750896339445807e-06   1.6351972818572395e-06   -1.7944569764676672e-05
-7.424282991712429e-06   1.3668963913730618e-06   -1.6507634545361266e-05
-7.424282991712429e-06   1.3668963913730618e-06   -1.6507634545361266e-05
-7.424282991712429e-06   1.3668963913730618e-06   -1.6507634545361266e-05
-7.424282991712429e-06   1.3668963913730618e-06   -1.6507634545361266e-05
-6.630020010418438e-06   2.1752333230541133e-06   -1.83164083398598e-05
-6.630020010418438e-06   2.1752333230541133e-06   -1.83164083398598e-05
-6.630020010418438e-06   2.1752333230541133e-06   -1.83164083398598e-05
-6.630020010418438e-06   2.1752333230541133e-06   -1.83164083398598e-05
-7.1318932187860415e-06   1.4326693893968812e-06   -1.7034414632386368e-05
-7.1318932187860415e-06   1.4326693893968812e-06   -1.7034414632386368e-05
-7.1318932187860415e-06   1.4326693893968812e-06   -1.7034414632386368e-05
-7.1318932187860415e-06   1.4326693893968812e-06   -1.7034414632386368e-05
-6.630020010418427e-06   1.3668963913731702e-06   -1.6992636704369894e-05
-6.630020010418427e-06   1.3668963913731702e-06   -1.6992636704369894e-05
-6.630020010418427e-06   1.3668963913731702e-06   -1.6992636704369894e-05
-6.630020010418427e-06   1.3668963913731702e-06   -1.6992636704369894e-05
-7.424282991712443e-06   2.1752333230541133e-06   -1.7831406180851268e-05
-7.424282991712443e-06   2.1752333230541133e-06   -1.7831406180851268e-05
-7.424282991712443e-06   2.1752333230541133e-06   -1.7831406180851268e-05
-7.424282991712443e-06   2.1752333230541133e-06   -1.7831406180851268e-05
-7.168241591963235e-06   2.033949287410532e-06   -1.6965334915696384e-05
-7.168241591963235e-06   2.033949287410532e-06   -1.6965334915696384e-05
-7.168241591963235e-06   2.033949287410532e-06   -1.6965334915696384e-05
-7.168241591963235e-06   2.033949287410532e-06   -1.6965334915696384e-05
-6.424623322358131e-06   2.7793879841020485e-06   -1.8651961916386504e-05
-6.424623322358131e-06   2.7793879841020485e-06   -1.8651961916386504e-05
-6.424623322358131e-06   2.7793879841020485e-06   -1.8651961916386504e-05
-6.424623322358131e-06   2.7793879841020485e-06   -1.8651961916386504e-05
-6.965526116607391e-06   1.907605761666028e-06   -1.7227387925842602e-05
-6.965526116607391e-06   1.907605761666028e-06   -1.7227387925842602e-05
-6.965526116607391e-06   1.907605761666028e-06   -1.7227387925842602e-05
-6.965526116607391e-06   1.907605761666028e-06   -1.7227387925842602e-05
-8.001972474545695e-06   2.1340152071976873e-07   -9.156821984185705e-06
-8.001972474545695e-06   2.1340152071976873e-07   -9.156821984185705e-06
-8.001972474545695e-06   2.1340152071976873e-07   -9.156821984185705e-06
-8.001972474545695e-06   2.1340152071976873e-07   -9.156821984185705e-06
-9.731243095453237e-06   1.7670511426638464e-06   -1.1106749912531905e-05
-9.731243095453237e-06   1.7670511426638464e-06   -1.1106749912531905e-05
-9.731243095453237e-06   1.7670511426638464e-06   -1.1106749912531905e-05
-9.731243095453237e-06   1.7670511426638464e-06   -1.1106749912531905e-05
-8.82569692025497e-06   7.105554423682183e-07   -7.526623610775536e-06
-8.82569692025497e-06   7.105554423682183e-07   -7.526623610775536e-06
-8.82569692025497e-06   7.105554423682183e-07   -7.526623610775536e-06
-8.82569692025497e-06   7.105554423682183e-07   -7.526623610775536e-06
-7.750896339445794e-06   2.299362684688149e-06   -1.0271242257515979e-05
-7.750896339445794e-06   2.299362684688149e-06   -1.0271242257515979e-05
-7.750896339445794e-06   2.299362684688149e-06   -1.0271242257515979e-05
-7.750896339445794e-06   2.299362684688149e-06   -1.0271242257515979e-05
-8.230370662503465e-06   1.31085480689424e-06   -8.879013659077037e-06
-8.230370662503465e-06   1.31085480689424e-06   -8.879013659077037e-06
-8.230370662503465e-06   1.31085480689424e-06   -8.879013659077037e-06
-8.230370662503465e-06   1.31085480689424e-06   -8.879013659077037e-06
-7.750896339445773e-06   7.105554423683267e-07   -8.479907956167348e-06
-7.750896339445773e-06   7.105554423683267e-07   -8.479907956167348e-06
-7.750896339445773e-06   7.105554423683267e-07   -8.479907956167348e-06
-7.750896339445773e-06   7.105554423683267e-07   -8.479907956167348e-06
-8.82569692025497e-06   2.2993626846882576e-06   -9.317957912124085e-06
-8.82569692025497e-06   2.2993626846882576e-06   -9.317957912124085e-06
-8.82569692025497e-06   2.2993626846882576e-06   -9.317957912124085e-06
-8.82569692025497e-06   2.2993626846882576e-06   -9.317957912124085e-06
-8.089163292736588e-06   9.896520255878866e-07   -7.391442297254144e-06
-8.089163292736588e-06   9.896520255878866e-07   -7.391442297254144e-06
-8.089163292736588e-06   9.896520255878866e-07   -7.391442297254144e-06
-8.089163292736588e-06   9.896520255878866e-07   -7.391442297254144e-06
-7.424282991712429e-06   2.5430076225411947e-06   -9.431589490466218e-06
-7.424282991712429e-06   2.5430076225411947e-06   -9.431589490466218e-06
-7.424282991712429e-06   2.5430076225411947e-06   -9.431589490466218e-06
-7.424282991712429e-06   2.5430076225411947e-06   -9.431589490466218e-06
-7.848478244870338e-06   1.558404085236437e-06   -8.133835279486892e-06
-7.848478244870338e-06   1.558404085236437e-06   -8.133835279486892e-06
-7.848478244870338e-06   1.558404085236437e-06   -8.133835279486892e-06
-7.848478244870338e-06   1.558404085236437e-06   -8.133835279486892e-06
-7.424282991712416e-06   9.896520255878866e-07   -8.323455655426037e-06
-7.424282991712416e-06   9.896520255878866e-07   -8.323455655426037e-06
-7.424282991712416e-06   9.896520255878866e-07   -8.323455655426037e-06
-7.424282991712416e-06   9.896520255878866e-07   -8.323455655426037e-06
-8.089163292736602e-06   2.5430076225410863e-06   -8.499576132294353e-06
-8.089163292736602e-06   2.5430076225410863e-06   -8.499576132294353e-06
-8.089163292736602e-06   2.5430076225410863e-06   -8.499576132294353e-06
-8.089163292736602e-06   2.5430076225410863e-06   -8.499576132294353e-06
-7.186015896297349e-06   1.4822516625481383e-06   -7.609376054550294e-06
-7.186015896297349e-06   1.4822516625481383e-06   -7.609376054550294e-06
-7.186015896297349e-06   1.4822516625481383e-06   -7.609376054550294e-06
-7.186015896297349e-06   1.4822516625481383e-06   -7.609376054550294e-06
-7.168241591963235e-06   2.917951404597641e-06   -8.50041974033677e-06
-7.168241591963235e-06   2.917951404597641e-06   -8.50041974033677e-06
-7.168241591963235e-06   2.917951404597641e-06   -8.50041974033677e-06
-7.168241591963235e-06   2.917951404597641e-06   -8.50041974033677e-06
-7.278436721627036e-06   1.7568161715264693e-06   -7.620080051054447e-06
-7.278436721627036e-06   1.7568161715264693e-06   -7.620080051054447e-06
-7.278436721627036e-06   1.7568161715264693e-06   -7.620080051054447e-06
-7.278436721627036e-06   1.7568161715264693e-06   -7.620080051054447e-06
4.728962021139765e-06   -4.665875617229816e-07   -4.691305541297693e-06
4.728962021139765e-06   -4.665875617229816e-07   -4.691305541297693e-06
4.728962021139765e-06   -4.665875617229816e-07   -4.691305541297693e-06
4.728962021139765e-06   -4.665875617229816e-07   -4.691305541297693e-06
4.961752147293255e-07   -1.9372823439119547e-06   -1.2628367087961796e-05
4.961752147293255e-07   -1.9372823439119547e-06   -1.2628367087961796e-05
4.961752147293255e-07   -1.9372823439119547e-06   -1.2628367087961796e-05
4.961752147293255e-07   -1.9372823439119547e-06   -1.2628367087961796e-05
8.550907711594329e-07   -2.0529093675437232e-08   -5.195943068424182e-06
8.550907711594329e-07   -2.0529093675437232e-08   -5.195943068424182e-06
8.550907711594329e-07   -2.0529093675437232e-08   -5.195943068424182e-06
8.550907711594329e-07   -2.0529093675437232e-08   -5.195943068424182e-06
5.74294952886622e-06   -1.5934947778937147e-06   -1.2398594920738052e-05
5.74294952886622e-06   -1.5934947778937147e-06   -1.2398594920738052e-05
5.74294952886622e-06   -1.5934947778937147e-06   -1.2398594920738052e-05
5.74294952886622e-06   -1.5934947778937147e-06   -1.2398594920738052e-05
2.844881799044484e-06   -8.109101639015631e-07   -8.038032806097038e-06
2.844881799044484e-06   -8.109101639015631e-07   -8.038032806097038e-06
2.844881799044484e-06   -8.109101639015631e-07   -8.038032806097038e-06
2.844881799044484e-06   -8.109101639015631e-07   -8.038032806097038e-06
5.742949528866247e-06   -2.0529093675437232e-08   -4.252163657893362e-06
5.742949528866247e-06   -2.0529093675437232e-08   -4.252163657893362e-06
5.742949528866247e-06   -2.0529093675437232e-08   -4.252163657893362e-06
5.742949528866247e-06   -2.0529093675437232e-08   -4.252163657893362e-06
8.550907711594329e-07   -1.5934947778937147e-06   -1.3342374331269007e-05
8.550907711594329e-07   -1.5934947778937147e-06   -1.3342374331269007e-05
8.550907711594329e-07   -1.5934947778937147e-06   -1.3342374331269007e-05
8.550907711594329e-07   -1.5934947778937147e-06   -1.3342374331269007e-05
1.2788300038266246e-06   2.3303737906998218e-07   -5.240104716306587e-06
1.2788300038266246e-06   2.3303737906998218e-07   -5.240104716306587e-06
1.2788300038266246e-06   2.3303737906998218e-07   -5.240104716306587e-06
1.2788300038266246e-06   2.3303737906998218e-07   -5.240104716306587e-06
6.597906310323344e-06   -1.3628650067259475e-06   -1.3147690462323466e-05
6.597906310323344e-06   -1.3628650067259475e-06   -1.3147690462323466e-05
6.597906310323344e-06   -1.3628650067259475e-06   -1.3147690462323466e-05
6.597906310323344e-06   -1.3628650067259475e-06   -1.3147690462323466e-05
3.48653525219703e-06   -6.493786444546307e-07   -8.39016384947608e-06
3.48653525219703e-06   -6.493786444546307e-07   -8.39016384947608e-06
3.48653525219703e-06   -6.493786444546307e-07   -8.39016384947608e-06
3.48653525219703e-06   -6.493786444546307e-07   -8.39016384947608e-06
6.597906310323344e-06   2.3303737906998218e-07   -4.282563284828893e-06
6.597906310323344e-06   2.3303737906998218e-07   -4.282563284828893e-06
6.597906310323344e-06   2.3303737906998218e-07   -4.282563284828893e-06
6.597906310323344e-06   2.3303737906998218e-07   -4.282563284828893e-06
1.2788300038266381e-06   -1.362865006726056e-06   -1.410523189380097e-05
1.2788300038266381e-06   -1.362865006726056e-06   -1.410523189380097e-05
1.2788300038266381e-06   -1.362865006726056e-06   -1.410523189380097e-05
1.2788300038266381e-06   -1.362865006726056e-06   -1.410523189380097e-05
1.6260113759138025e-06   7.383300410450768e-07   -5.753343834881191e-06
1.6260113759138025e-06   7.383300410450768e-07   -5.753343834881191e-06
1.6260113759138025e-06   7.383300410450768e-07   -5.753343834881191e-06
1.6260113759138025e-06   7.383300410450768e-07   -5.753343834881191e-06
7.625108118969922e-06   -7.831339617947507e-07   -1.4838960004937452e-05
7.625108118969922e-06   -7.831339617947507e-07   -1.4838960004937452e-05
7.625108118969922e-06   -7.831339617947507e-07   -1.4838960004937452e-05
7.625108118969922e-06   -7.831339617947507e-07   -1.4838960004937452e-05
3.993501196654478e-06   -4.1091773036349604e-07   -9.009611539937106e-06
3.993501196654478e-06   -4.1091773036349604e-07   -9.009611539937106e-06
3.993501196654478e-06   -4.1091773036349604e-07   -9.009611539937106e-06
3.993501196654478e-06   -4.1091773036349604e-07   -9.009611539937106e-06
4.961752147293255e-07   -9.703444595098379e-08   -1.3650548840627425e-05
4.961752147293255e-07   -9.703444595098379e-08   -1.3650548840627425e-05
4.961752147293255e-07   -9.703444595098379e-08   -1.3650548840627425e-05
4.961752147293255e-07   -9.703444595098379e-08   -1.3650548840627425e-05
-4.416953554210859e-06   -7.604001794911473e-07   -2.223711622898508e-05
-4.416953554210859e-06   -7.604001794911473e-07   -2.223711622898508e-05
-4.416953554210859e-06   -7.604001794911473e-07   -2.223711622898508e-05
-4.416953554210859e-06   -7.604001794911473e-07   -2.223711622898508e-05
-4.103355264805514e-06   4.66583543549926e-07   -1.3726802457529716e-05
-4.103355264805514e-06   4.66583543549926e-07   -1.3726802457529716e-05
-4.103355264805514e-06   4.66583543549926e-07   -1.3726802457529716e-05
-4.103355264805514e-06   4.66583543549926e-07   -1.3726802457529716e-05
8.550907711594329e-07   -2.874956751202718e-07   -2.153843165293571e-05
8.550907711594329e-07   -2.874956751202718e-07   -2.153843165293571e-05
8.550907711594329e-07   -2.874956751202718e-07   -2.153843165293571e-05
8.550907711594329e-07   -2.874956751202718e-07   -2.153843165293571e-05
-1.7512102505093217e-06   -2.4269505643549107e-08   -1.73525323185073e-05
-1.7512102505093217e-06   -2.4269505643549107e-08   -1.73525323185073e-05
-1.7512102505093217e-06   -2.4269505643549107e-08   -1.73525323185073e-05
-1.7512102505093217e-06   -2.4269505643549107e-08   -1.73525323185073e-05
8.550907711594329e-07   4.66583543549926e-07   -1.3274354926327581e-05
8.550907711594329e-07   4.66583543549926e-07   -1.3274354926327581e-05
8.550907711594329e-07   4.66583543549926e-07   -1.3274354926327581e-05
8.550907711594329e-07   4.66583543549926e-07   -1.3274354926327581e-05
-4.103355264805514e-06   -2.8749567512016336e-07   -2.1990879184138087e-05
-4.103355264805514e-06   -2.8749567512016336e-07   -2.1990879184138087e-05
-4.103355264805514e-06   -2.8749567512016336e-07   -2.1990879184138087e-05
-4.103355264805514e-06   -2.8749567512016336e-07   -2.1990879184138087e-05
-3.7879165137387727e-06   1.0100376948861314e-06   -1.3748246725884573e-05
-3.7879165137387727e-06   1.0100376948861314e-06   -1.3748246725884573e-05
-3.7879165137387727e-06   1.0100376948861314e-06   -1.3748246725884573e-05
-3.7879165137387727e-06   1.0100376948861314e-06   -1.3748246725884573e-05
1.2788300038266246e-06   2.020015571436648e-07   -2.1708002572514795e-05
1.2788300038266246e-06   2.020015571436648e-07   -2.1708002572514795e-05
1.2788300038266246e-06   2.020015571436648e-07   -2.1708002572514795e-05
1.2788300038266246e-06   2.020015571436648e-07   -2.1708002572514795e-05
-1.4742399261478305e-06   3.65142605304031e-07   -1.7217437318120256e-05
-1.4742399261478305e-06   3.65142605304031e-07   -1.7217437318120256e-05
-1.4742399261478305e-06   3.65142605304031e-07   -1.7217437318120256e-05
-1.4742399261478305e-06   3.65142605304031e-07   -1.7217437318120256e-05
1.2788300038266246e-06   1.0100376948862398e-06   -1.3263425043239156e-05
1.2788300038266246e-06   1.0100376948862398e-06   -1.3263425043239156e-05
1.2788300038266246e-06   1.0100376948862398e-06   -1.3263425043239156e-05
1.2788300038266246e-06   1.0100376948862398e-06   -1.3263425043239156e-05
-3.7879165137387727e-06   2.020015571436648e-07   -2.2192824255160253e-05
-3.7879165137387727e-06   2.020015571436648e-07   -2.2192824255160253e-05
-3.7879165137387727e-06   2.020015571436648e-07   -2.2192824255160253e-05
-3.7879165137387727e-06   2.020015571436648e-07   -2.2192824255160253e-05
-3.4869564889058877e-06   1.6314421889248925e-06   -1.409415769846082e-05
-3.4869564889058877e-06   1.6314421889248925e-06   -1.409415769846082e-05
-3.4869564889058877e-06   1.6314421889248925e-06   -1.409415769846082e-05
-3.4869564889058877e-06   1.6314421889248925e-06   -1.409415769846082e-05
1.6260113759138025e-06   7.824648113128729e-07   -2.210638437992647e-05
1.6260113759138025e-06   7.824648113128729e-07   -2.210638437992647e-05
1.6260113759138025e-06   7.824648113128729e-07   -2.210638437992647e-05
1.6260113759138025e-06   7.824648113128729e-07   -2.210638437992647e-05
-1.164953022027686e-06   7.976010055764414e-07   -1.7463858766582184e-05
-1.164953022027686e-06   7.976010055764414e-07   -1.7463858766582184e-05
-1.164953022027686e-06   7.976010055764414e-07   -1.7463858766582184e-05
-1.164953022027686e-06   7.976010055764414e-07   -1.7463858766582184e-05
-4.416953554210872e-06   4.7300994137169407e-07   -1.6542065536991583e-05
-4.416953554210872e-06   4.7300994137169407e-07   -1.6542065536991583e-05
-4.416953554210872e-06   4.7300994137169407e-07   -1.6542065536991583e-05
-4.416953554210872e-06   4.7300994137169407e-07   -1.6542065536991583e-05
-9.285145492455831e-06   5.959031224452536e-07   -2.4581982858755728e-05
-9.285145492455831e-06   5.959031224452536e-07   -2.4581982858755728e-05
-9.285145492455831e-06   5.959031224452536e-07   -2.4581982858755728e-05
-9.285145492455831e-06   5.959031224452536e-07   -2.4581982858755728e-05
-8.96959645888512e-06   1.0566085260232299e-06   -1.6243159867037672e-05
-8.96959645888512e-06   1.0566085260232299e-06   -1.6243159867037672e-05
-8.96959645888512e-06   1.0566085260232299e-06   -1.6243159867037672e-05
-8.96959645888512e-06   1.0566085260232299e-06   -1.6243159867037672e-05
-4.103355264805514e-06   1.0972530412422903e-06   -2.4377948566301855e-05
-4.103355264805514e-06   1.0972530412422903e-06   -2.4377948566301855e-05
-4.103355264805514e-06   1.0972530412422903e-06   -2.4377948566301855e-05
-4.103355264805514e-06   1.0972530412422903e-06   -2.4377948566301855e-05
-6.655069290739016e-06   9.077703036340537e-07   -2.0011402213847767e-05
-6.655069290739016e-06   9.077703036340537e-07   -2.0011402213847767e-05
-6.655069290739016e-06   9.077703036340537e-07   -2.0011402213847767e-05
-6.655069290739016e-06   9.077703036340537e-07   -2.0011402213847767e-05
-4.103355264805514e-06   1.0566085260232299e-06   -1.626754657616912e-05
-4.103355264805514e-06   1.0566085260232299e-06   -1.626754657616912e-05
-4.103355264805514e-06   1.0566085260232299e-06   -1.626754657616912e-05
-4.103355264805514e-06   1.0566085260232299e-06   -1.626754657616912e-05
-8.969596458885107e-06   1.0972530412421818e-06   -2.435356185717045e-05
-8.969596458885107e-06   1.0972530412421818e-06   -2.435356185717045e-05
-8.969596458885107e-06   1.0972530412421818e-06   -2.435356185717045e-05
-8.969596458885107e-06   1.0972530412421818e-06   -2.435356185717045e-05
-8.64858258202298e-06   1.6528695291244747e-06   -1.6284731578809124e-05
-8.64858258202298e-06   1.6528695291244747e-06   -1.6284731578809124e-05
-8.64858258202298e-06   1.6528695291244747e-06   -1.6284731578809124e-05
-8.64858258202298e-06   1.6528695291244747e-06   -1.6284731578809124e-05
-3.7879165137387862e-06   1.6275852825878333e-06   -2.437067114469414e-05
-3.7879165137387862e-06   1.6275852825878333e-06   -2.437067114469414e-05
-3.7879165137387862e-06   1.6275852825878333e-06   -2.437067114469414e-05
-3.7879165137387862e-06   1.6275852825878333e-06   -2.437067114469414e-05
-6.377967034181366e-06   1.3459684997265786e-06   -1.9884950207573393e-05
-6.377967034181366e-06   1.3459684997265786e-06   -1.9884950207573393e-05
-6.377967034181366e-06   1.3459684997265786e-06   -1.9884950207573393e-05
-6.377967034181366e-06   1.3459684997265786e-06   -1.9884950207573393e-05
-3.7879165137387862e-06   1.6528695291244747e-06   -1.626956103088711e-05
-3.7879165137387862e-06   1.6528695291244747e-06   -1.626956103088711e-05
-3.7879165137387862e-06   1.6528695291244747e-06   -1.626956103088711e-05
-3.7879165137387862e-06   1.6528695291244747e-06   -1.626956103088711e-05
-8.648582582022962e-06   1.6275852825878333e-06   -2.438584169261608e-05
-8.648582582022962e-06   1.6275852825878333e-06   -2.438584169261608e-05
-8.648582582022962e-06   1.6275852825878333e-06   -2.438584169261608e-05
-8.648582582022962e-06   1.6275852825878333e-06   -2.438584169261608e-05
-8.342551970270965e-06   2.2574634694393428e-06   -1.6651297546360177e-05
-8.342551970270965e-06   2.2574634694393428e-06   -1.6651297546360177e-05
-8.342551970270965e-06   2.2574634694393428e-06   -1.6651297546360177e-05
-8.342551970270965e-06   2.2574634694393428e-06   -1.6651297546360177e-05
-3.4869564889058877e-06   2.1671355472591483e-06   -2.468975992866041e-05
-3.4869564889058877e-06   2.1671355472591483e-06   -2.468975992866041e-05
-3.4869564889058877e-06   2.1671355472591483e-06   -2.468975992866041e-05
-3.4869564889058877e-06   2.1671355472591483e-06   -2.468975992866041e-05
-6.120612658369521e-06   1.7908816707339742e-06   -2.0074580653639318e-05
-6.120612658369521e-06   1.7908816707339742e-06   -2.0074580653639318e-05
-6.120612658369521e-06   1.7908816707339742e-06   -2.0074580653639318e-05
-6.120612658369521e-06   1.7908816707339742e-06   -2.0074580653639318e-05
-9.285145492455848e-06   1.0490717100004963e-06   -1.3901394983035253e-05
-9.285145492455848e-06   1.0490717100004963e-06   -1.3901394983035253e-05
-9.285145492455848e-06   1.0490717100004963e-06   -1.3901394983035253e-05
-9.285145492455848e-06   1.0490717100004963e-06   -1.3901394983035253e-05
-1.4104226955038787e-05   1.9148746358503945e-06   -2.14137156651636e-05
-1.4104226955038787e-05   1.9148746358503945e-06   -2.14137156651636e-05
-1.4104226955038787e-05   1.9148746358503945e-06   -2.14137156651636e-05
-1.4104226955038787e-05   1.9148746358503945e-06   -2.14137156651636e-05
-1.3742986500272531e-05   1.6351972818572395e-06   -1.3086199869409153e-05
-1.3742986500272531e-05   1.6351972818572395e-06   -1.3086199869409153e-05
-1.3742986500272531e-05   1.6351972818572395e-06   -1.3086199869409153e-05
-1.3742986500272531e-05   1.6351972818572395e-06   -1.3086199869409153e-05
-8.969596458885107e-06   2.450097430548525e-06   -2.1530790027602927e-05
-8.969596458885107e-06   2.450097430548525e-06   -2.1530790027602927e-05
-8.969596458885107e-06   2.450097430548525e-06   -2.1530790027602927e-05
-8.969596458885107e-06   2.450097430548525e-06   -2.1530790027602927e-05
-1.1445534701624692e-05   1.8310990496743225e-06   -1.7032827261179097e-05
-1.1445534701624692e-05   1.8310990496743225e-06   -1.7032827261179097e-05
-1.1445534701624692e-05   1.8310990496743225e-06   -1.7032827261179097e-05
-1.1445534701624692e-05   1.8310990496743225e-06   -1.7032827261179097e-05
-8.96959645888512e-06   1.6351972818572395e-06   -1.3575139958623919e-05
-8.96959645888512e-06   1.6351972818572395e-06   -1.3575139958623919e-05
-8.96959645888512e-06   1.6351972818572395e-06   -1.3575139958623919e-05
-8.96959645888512e-06   1.6351972818572395e-06   -1.3575139958623919e-05
-1.3742986500272558e-05   2.450097430548525e-06   -2.1041849938388405e-05
-1.3742986500272558e-05   2.450097430548525e-06   -2.1041849938388405e-05
-1.3742986500272558e-05   2.450097430548525e-06   -2.1041849938388405e-05
-1.3742986500272558e-05   2.450097430548525e-06   -2.1041849938388405e-05
-1.3308525378768422e-05   2.1752333230541133e-06   -1.296097861862495e-05
-1.3308525378768422e-05   2.1752333230541133e-06   -1.296097861862495e-05
-1.3308525378768422e-05   2.1752333230541133e-06   -1.296097861862495e-05
-1.3308525378768422e-05   2.1752333230541133e-06   -1.296097861862495e-05
-8.64858258202298e-06   2.9316602598201957e-06   -2.1181406108593693e-05
-8.64858258202298e-06   2.9316602598201957e-06   -2.1181406108593693e-05
-8.64858258202298e-06   2.9316602598201957e-06   -2.1181406108593693e-05
-8.64858258202298e-06   2.9316602598201957e-06   -2.1181406108593693e-05
-1.1080495962680702e-05   2.254335985381968e-06   -1.6721822576168128e-05
-1.1080495962680702e-05   2.254335985381968e-06   -1.6721822576168128e-05
-1.1080495962680702e-05   2.254335985381968e-06   -1.6721822576168128e-05
-1.1080495962680702e-05   2.254335985381968e-06   -1.6721822576168128e-05
-8.64858258202298e-06   2.1752333230541133e-06   -1.3414834780684591e-05
-8.64858258202298e-06   2.1752333230541133e-06   -1.3414834780684591e-05
-8.64858258202298e-06   2.1752333230541133e-06   -1.3414834780684591e-05
-8.64858258202298e-06   2.1752333230541133e-06   -1.3414834780684591e-05
-1.3308525378768422e-05   2.9316602598201957e-06   -2.0727549946534065e-05
-1.3308525378768422e-05   2.9316602598201957e-06   -2.0727549946534065e-05
-1.3308525378768422e-05   2.9316602598201957e-06   -2.0727549946534065e-05
-1.3308525378768422e-05   2.9316602598201957e-06   -2.0727549946534065e-05
-1.2947065004153705e-05   2.77938798410194e-06   -1.331978434551196e-05
-1.2947065004153705e-05   2.77938798410194e-06   -1.331978434551196e-05
-1.2947065004153705e-05   2.77938798410194e-06   -1.331978434551196e-05
-1.2947065004153705e-05   2.77938798410194e-06   -1.331978434551196e-05
-8.342551970270965e-06   3.4692738953495195e-06   -2.1407904282065115e-05
-8.342551970270965e-06   3.4692738953495195e-06   -2.1407904282065115e-05
-8.342551970270965e-06   3.4692738953495195e-06   -2.1407904282065115e-05
-8.342551970270965e-06   3.4692738953495195e-06   -2.1407904282065115e-05
-1.083889675266045e-05   2.6706109039222026e-06   -1.6768131849892887e-05
-1.083889675266045e-05   2.6706109039222026e-06   -1.6768131849892887e-05
-1.083889675266045e-05   2.6706109039222026e-06   -1.6768131849892887e-05
-1.083889675266045e-05   2.6706109039222026e-06   -1.6768131849892887e-05
-1.4104226955038787e-05   1.7670511426638464e-06   -7.182478254386614e-06
-1.4104226955038787e-05   1.7670511426638464e-06   -7.182478254386614e-06
-1.4104226955038787e-05   1.7670511426638464e-06   -7.182478254386614e-06
-1.4104226955038787e-05   1.7670511426638464e-06   -7.182478254386614e-06
-1.960614769178048e-05   3.2938211325815505e-06   -1.543628415500559e-05
-1.960614769178048e-05   3.2938211325815505e-06   -1.543628415500559e-05
-1.960614769178048e-05   3.2938211325815505e-06   -1.543628415500559e-05
-1.960614769178048e-05   3.2938211325815505e-06   -1.543628415500559e-05
-1.8601254267447002e-05   2.2993626846882576e-06   -4.482214078355563e-06
-1.8601254267447002e-05   2.2993626846882576e-06   -4.482214078355563e-06
-1.8601254267447002e-05   2.2993626846882576e-06   -4.482214078355563e-06
-1.8601254267447002e-05   2.2993626846882576e-06   -4.482214078355563e-06
-1.3742986500272531e-05   3.8504598245099695e-06   -1.350998530753937e-05
-1.3742986500272531e-05   3.8504598245099695e-06   -1.350998530753937e-05
-1.3742986500272531e-05   3.8504598245099695e-06   -1.350998530753937e-05
-1.3742986500272531e-05   3.8504598245099695e-06   -1.350998530753937e-05
-1.5842041556296844e-05   2.8648185744074134e-06   -9.420175464103968e-06
-1.5842041556296844e-05   2.8648185744074134e-06   -9.420175464103968e-06
-1.5842041556296844e-05   2.8648185744074134e-06   -9.420175464103968e-06
-1.5842041556296844e-05   2.8648185744074134e-06   -9.420175464103968e-06
-1.3742986500272541e-05   2.2993626846882576e-06   -5.412872362248433e-06
-1.3742986500272541e-05   2.2993626846882576e-06   -5.412872362248433e-06
-1.3742986500272541e-05   2.2993626846882576e-06   -5.412872362248433e-06
-1.3742986500272541e-05   2.2993626846882576e-06   -5.412872362248433e-06
-1.8601254267446948e-05   3.8504598245099695e-06   -1.2579327023646311e-05
-1.8601254267446948e-05   3.8504598245099695e-06   -1.2579327023646311e-05
-1.8601254267446948e-05   3.8504598245099695e-06   -1.2579327023646311e-05
-1.8601254267446948e-05   3.8504598245099695e-06   -1.2579327023646311e-05
-1.7770781600420427e-05   2.5430076225411947e-06   -3.6568305399669264e-06
-1.7770781600420427e-05   2.5430076225411947e-06   -3.6568305399669264e-06
-1.7770781600420427e-05   2.5430076225411947e-06   -3.6568305399669264e-06
-1.7770781600420427e-05   2.5430076225411947e-06   -3.6568305399669264e-06
-1.3308525378768406e-05   4.05022660299615e-06   -1.1998255630993413e-05
-1.3308525378768406e-05   4.05022660299615e-06   -1.1998255630993413e-05
-1.3308525378768406e-05   4.05022660299615e-06   -1.1998255630993413e-05
-1.3308525378768406e-05   4.05022660299615e-06   -1.1998255630993413e-05
-1.5480372339233123e-05   3.1164652524227985e-06   -7.81825388654155e-06
-1.5480372339233123e-05   3.1164652524227985e-06   -7.81825388654155e-06
-1.5480372339233123e-05   3.1164652524227985e-06   -7.81825388654155e-06
-1.5480372339233123e-05   3.1164652524227985e-06   -7.81825388654155e-06
-1.3308525378768422e-05   2.5430076225410863e-06   -4.561161928240008e-06
-1.3308525378768422e-05   2.5430076225410863e-06   -4.561161928240008e-06
-1.3308525378768422e-05   2.5430076225410863e-06   -4.561161928240008e-06
-1.3308525378768422e-05   2.5430076225410863e-06   -4.561161928240008e-06
-1.77707816004204e-05   4.0502266029962585e-06   -1.1093924242720223e-05
-1.77707816004204e-05   4.0502266029962585e-06   -1.1093924242720223e-05
-1.77707816004204e-05   4.0502266029962585e-06   -1.1093924242720223e-05
-1.77707816004204e-05   4.0502266029962585e-06   -1.1093924242720223e-05
-1.678613939499106e-05   2.9179514045977496e-06   -2.7858155013898273e-06
-1.678613939499106e-05   2.9179514045977496e-06   -2.7858155013898273e-06
-1.678613939499106e-05   2.9179514045977496e-06   -2.7858155013898273e-06
-1.678613939499106e-05   2.9179514045977496e-06   -2.7858155013898273e-06
-1.2947065004153691e-05   4.300767881409984e-06   -1.0013962705539487e-05
-1.2947065004153691e-05   4.300767881409984e-06   -1.0013962705539487e-05
-1.2947065004153691e-05   4.300767881409984e-06   -1.0013962705539487e-05
-1.2947065004153691e-05   4.300767881409984e-06   -1.0013962705539487e-05
-1.469706666615686e-05   3.236974533936724e-06   -6.459017260383715e-06
-1.469706666615686e-05   3.236974533936724e-06   -6.459017260383715e-06
-1.469706666615686e-05   3.236974533936724e-06   -6.459017260383715e-06
-1.469706666615686e-05   3.236974533936724e-06   -6.459017260383715e-06
1.4798616402874113e-05   -1.9372823439119547e-06   -1.7178563906875693e-08
1.4798616402874113e-05   -1.9372823439119547e-06   -1.7178563906875693e-08
1.4798616402874113e-05   -1.9372823439119547e-06   -1.7178563906875693e-08
1.4798616402874113e-05   -1.9372823439119547e-06   -1.7178563906875693e-08
6.290422581994065e-06   -3.4820549807571075e-06   -1.512436518081396e-05
6.290422581994065e-06   -3.4820549807571075e-06   -1.512436518081396e-05
6.290422581994065e-06   -3.4820549807571075e-06   -1.512436518081396e-05
6.290422581994065e-06   -3.4820549807571075e-06   -1.512436518081396e-05
6.7275813434034074e-06   -1.5934947778937147e-06   -1.5729580379852384e-06
6.7275813434034074e-06   -1.5934947778937147e-06   -1.5729580379852384e-06
6.7275813434034074e-06   -1.5934947778937147e-06   -1.5729580379852384e-06
6.7275813434034074e-06   -1.5934947778937147e-06   -1.5729580379852384e-06
1.59033617038258e-05   -3.239767159149724e-06   -1.587816187660206e-05
1.59033617038258e-05   -3.239767159149724e-06   -1.587816187660206e-05
1.59033617038258e-05   -3.239767159149724e-06   -1.587816187660206e-05
1.59033617038258e-05   -3.239767159149724e-06   -1.587816187660206e-05
1.0488418300385444e-05   -2.298869864986598e-06   -7.417794580699347e-06
1.0488418300385444e-05   -2.298869864986598e-06   -7.417794580699347e-06
1.0488418300385444e-05   -2.298869864986598e-06   -7.417794580699347e-06
1.0488418300385444e-05   -2.298869864986598e-06   -7.417794580699347e-06
1.5903361703825826e-05   -1.5934947778937147e-06   -5.851946092314214e-07
1.5903361703825826e-05   -1.5934947778937147e-06   -5.851946092314214e-07
1.5903361703825826e-05   -1.5934947778937147e-06   -5.851946092314214e-07
1.5903361703825826e-05   -1.5934947778937147e-06   -5.851946092314214e-07
6.727581343403394e-06   -3.239767159149941e-06   -1.6865925305355688e-05
6.727581343403394e-06   -3.239767159149941e-06   -1.6865925305355688e-05
6.727581343403394e-06   -3.239767159149941e-06   -1.6865925305355688e-05
6.727581343403394e-06   -3.239767159149941e-06   -1.6865925305355688e-05
7.212321517465725e-06   -1.3628650067259475e-06   -2.2575825083269224e-06
7.212321517465725e-06   -1.3628650067259475e-06   -2.2575825083269224e-06
7.212321517465725e-06   -1.3628650067259475e-06   -2.2575825083269224e-06
7.212321517465725e-06   -1.3628650067259475e-06   -2.2575825083269224e-06
1.6829541532688183e-05   -3.0297547169190475e-06   -1.7286148707581985e-05
1.6829541532688183e-05   -3.0297547169190475e-06   -1.7286148707581985e-05
1.6829541532688183e-05   -3.0297547169190475e-06   -1.7286148707581985e-05
1.6829541532688183e-05   -3.0297547169190475e-06   -1.7286148707581985e-05
1.1317878322101384e-05   -2.2052717844884932e-06   -8.594733116062248e-06
1.1317878322101384e-05   -2.2052717844884932e-06   -8.594733116062248e-06
1.1317878322101384e-05   -2.2052717844884932e-06   -8.594733116062248e-06
1.1317878322101384e-05   -2.2052717844884932e-06   -8.594733116062248e-06
1.682954153268821e-05   -1.3628650067259475e-06   -1.2574486822111545e-06
1.682954153268821e-05   -1.3628650067259475e-06   -1.2574486822111545e-06
1.682954153268821e-05   -1.3628650067259475e-06   -1.2574486822111545e-06
1.682954153268821e-05   -1.3628650067259475e-06   -1.2574486822111545e-06
7.212321517465698e-06   -3.0297547169190475e-06   -1.8286282533697996e-05
7.212321517465698e-06   -3.0297547169190475e-06   -1.8286282533697996e-05
7.212321517465698e-06   -3.0297547169190475e-06   -1.8286282533697996e-05
7.212321517465698e-06   -3.0297547169190475e-06   -1.8286282533697996e-05
7.6115412270996285e-06   -7.831339617947507e-07   -3.8318193993449635e-06
7.6115412270996285e-06   -7.831339617947507e-07   -3.8318193993449635e-06
7.6115412270996285e-06   -7.831339617947507e-07   -3.8318193993449635e-06
7.6115412270996285e-06   -7.831339617947507e-07   -3.8318193993449635e-06
1.790520547639569e-05   -2.367618248042035e-06   -2.0037235909756666e-05
1.790520547639569e-05   -2.367618248042035e-06   -2.0037235909756666e-05
1.790520547639569e-05   -2.367618248042035e-06   -2.0037235909756666e-05
1.790520547639569e-05   -2.367618248042035e-06   -2.0037235909756666e-05
1.1762073515150117e-05   -1.9447865686951396e-06   -1.0052381648622676e-05
1.1762073515150117e-05   -1.9447865686951396e-06   -1.0052381648622676e-05
1.1762073515150117e-05   -1.9447865686951396e-06   -1.0052381648622676e-05
1.1762073515150117e-05   -1.9447865686951396e-06   -1.0052381648622676e-05
6.290422581994078e-06   -7.604001794911473e-07   -1.0154771846913245e-05
6.290422581994078e-06   -7.604001794911473e-07   -1.0154771846913245e-05
6.290422581994078e-06   -7.604001794911473e-07   -1.0154771846913245e-05
6.290422581994078e-06   -7.604001794911473e-07   -1.0154771846913245e-05
-2.6983090763704477e-06   -1.6213833547279975e-06   -2.5652581182662683e-05
-2.6983090763704477e-06   -1.6213833547279975e-06   -2.5652581182662683e-05
-2.6983090763704477e-06   -1.6213833547279975e-06   -2.5652581182662683e-05
-2.6983090763704477e-06   -1.6213833547279975e-06   -2.5652581182662683e-05
-2.292614326713182e-06   -2.874956751202718e-07   -1.036570430204217e-05
-2.292614326713182e-06   -2.874956751202718e-07   -1.036570430204217e-05
-2.292614326713182e-06   -2.874956751202718e-07   -1.036570430204217e-05
-2.292614326713182e-06   -2.874956751202718e-07   -1.036570430204217e-05
6.7275813434034074e-06   -1.281977245770529e-06   -2.4802674809846332e-05
6.7275813434034074e-06   -1.281977245770529e-06   -2.4802674809846332e-05
6.7275813434034074e-06   -1.281977245770529e-06   -2.4802674809846332e-05
6.7275813434034074e-06   -1.281977245770529e-06   -2.4802674809846332e-05
2.028625268656853e-06   -7.822836982920248e-07   -1.7270897480422555e-05
2.028625268656853e-06   -7.822836982920248e-07   -1.7270897480422555e-05
2.028625268656853e-06   -7.822836982920248e-07   -1.7270897480422555e-05
2.028625268656853e-06   -7.822836982920248e-07   -1.7270897480422555e-05
6.7275813434034074e-06   -2.874956751202718e-07   -9.769015359651845e-06
6.7275813434034074e-06   -2.874956751202718e-07   -9.769015359651845e-06
6.7275813434034074e-06   -2.874956751202718e-07   -9.769015359651845e-06
6.7275813434034074e-06   -2.874956751202718e-07   -9.769015359651845e-06
-2.2926143267131682e-06   -1.2819772457707459e-06   -2.53993637522364e-05
-2.2926143267131682e-06   -1.2819772457707459e-06   -2.53993637522364e-05
-2.2926143267131682e-06   -1.2819772457707459e-06   -2.53993637522364e-05
-2.2926143267131682e-06   -1.2819772457707459e-06   -2.53993637522364e-05
-1.9052975421385813e-06   2.020015571436648e-07   -1.0501974973028418e-05
-1.9052975421385813e-06   2.020015571436648e-07   -1.0501974973028418e-05
-1.9052975421385813e-06   2.020015571436648e-07   -1.0501974973028418e-05
-1.9052975421385813e-06   2.020015571436648e-07   -1.0501974973028418e-05
7.212321517465698e-06   -8.673680861690652e-07   -2.5056384953047925e-05
7.212321517465698e-06   -8.673680861690652e-07   -2.5056384953047925e-05
7.212321517465698e-06   -8.673680861690652e-07   -2.5056384953047925e-05
7.212321517465698e-06   -8.673680861690652e-07   -2.5056384953047925e-05
2.349164604974007e-06   -4.81387582195326e-07   -1.7182711734612326e-05
2.349164604974007e-06   -4.81387582195326e-07   -1.7182711734612326e-05
2.349164604974007e-06   -4.81387582195326e-07   -1.7182711734612326e-05
2.349164604974007e-06   -4.81387582195326e-07   -1.7182711734612326e-05
7.212321517465725e-06   2.020015571436648e-07   -9.860353187040788e-06
7.212321517465725e-06   2.020015571436648e-07   -9.860353187040788e-06
7.212321517465725e-06   2.020015571436648e-07   -9.860353187040788e-06
7.212321517465725e-06   2.020015571436648e-07   -9.860353187040788e-06
-1.9052975421385813e-06   -8.673680861690652e-07   -2.5698006739035596e-05
-1.9052975421385813e-06   -8.673680861690652e-07   -2.5698006739035596e-05
-1.9052975421385813e-06   -8.673680861690652e-07   -2.5698006739035596e-05
-1.9052975421385813e-06   -8.673680861690652e-07   -2.5698006739035596e-05
-1.5418697554959955e-06   7.824648113128729e-07   -1.0862889846957884e-05
-1.5418697554959955e-06   7.824648113128729e-07   -1.0862889846957884e-05
-1.5418697554959955e-06   7.824648113128729e-07   -1.0862889846957884e-05
-1.5418697554959955e-06   7.824648113128729e-07   -1.0862889846957884e-05
7.6115412270996285e-06   -3.450759792334411e-07   -2.5442050343622803e-05
7.6115412270996285e-06   -3.450759792334411e-07   -2.5442050343622803e-05
7.6115412270996285e-06   -3.450759792334411e-07   -2.5442050343622803e-05
7.6115412270996285e-06   -3.450759792334411e-07   -2.5442050343622803e-05
2.751225427869664e-06   -1.0987944038329126e-07   -1.748264193488351e-05
2.751225427869664e-06   -1.0987944038329126e-07   -1.748264193488351e-05
2.751225427869664e-06   -1.0987944038329126e-07   -1.748264193488351e-05
2.751225427869664e-06   -1.0987944038329126e-07   -1.748264193488351e-05
-2.6983090763704477e-06   5.959031224452536e-07   -1.3089964290469993e-05
-2.6983090763704477e-06   5.959031224452536e-07   -1.3089964290469993e-05
-2.6983090763704477e-06   5.959031224452536e-07   -1.3089964290469993e-05
-2.6983090763704477e-06   5.959031224452536e-07   -1.3089964290469993e-05
-1.152864342479133e-05   3.1346086540144646e-07   -2.79766535587312e-05
-1.152864342479133e-05   3.1346086540144646e-07   -2.79766535587312e-05
-1.152864342479133e-05   3.1346086540144646e-07   -2.79766535587312e-05
-1.152864342479133e-05   3.1346086540144646e-07   -2.79766535587312e-05
-1.1092110594533848e-05   1.0972530412422903e-06   -1.2993904528640996e-05
-1.1092110594533848e-05   1.0972530412422903e-06   -1.2993904528640996e-05
-1.1092110594533848e-05   1.0972530412422903e-06   -1.2993904528640996e-05
-1.1092110594533848e-05   1.0972530412422903e-06   -1.2993904528640996e-05
-2.2926143267131682e-06   6.953683005172465e-07   -2.741860079724049e-05
-2.2926143267131682e-06   6.953683005172465e-07   -2.741860079724049e-05
-2.2926143267131682e-06   6.953683005172465e-07   -2.741860079724049e-05
-2.2926143267131682e-06   6.953683005172465e-07   -2.741860079724049e-05
-6.856028747560481e-06   8.177915281132515e-07   -1.988636403238588e-05
-6.856028747560481e-06   8.177915281132515e-07   -1.988636403238588e-05
-6.856028747560481e-06   8.177915281132515e-07   -1.988636403238588e-05
-6.856028747560481e-06   8.177915281132515e-07   -1.988636403238588e-05
-2.292614326713182e-06   1.0972530412422903e-06   -1.275277368420608e-05
-2.292614326713182e-06   1.0972530412422903e-06   -1.275277368420608e-05
-2.292614326713182e-06   1.0972530412422903e-06   -1.275277368420608e-05
-2.292614326713182e-06   1.0972530412422903e-06   -1.275277368420608e-05
-1.1092110594533848e-05   6.953683005172465e-07   -2.7659731641675495e-05
-1.1092110594533848e-05   6.953683005172465e-07   -2.7659731641675495e-05
-1.1092110594533848e-05   6.953683005172465e-07   -2.7659731641675495e-05
-1.1092110594533848e-05   6.953683005172465e-07   -2.7659731641675495e-05
-1.0670822579835086e-05   1.6275852825878333e-06   -1.2974414601624315e-05
-1.0670822579835086e-05   1.6275852825878333e-06   -1.2974414601624315e-05
-1.0670822579835086e-05   1.6275852825878333e-06   -1.2974414601624315e-05
-1.0670822579835086e-05   1.6275852825878333e-06   -1.2974414601624315e-05
-1.9052975421385678e-06   1.1365973841509329e-06   -2.7289030258723155e-05
-1.9052975421385678e-06   1.1365973841509329e-06   -2.7289030258723155e-05
-1.9052975421385678e-06   1.1365973841509329e-06   -2.7289030258723155e-05
-1.9052975421385678e-06   1.1365973841509329e-06   -2.7289030258723155e-05
-6.480929001143542e-06   1.175525474814826e-06   -1.968633468144639e-05
-6.480929001143542e-06   1.175525474814826e-06   -1.968633468144639e-05
-6.480929001143542e-06   1.175525474814826e-06   -1.968633468144639e-05
-6.480929001143542e-06   1.175525474814826e-06   -1.968633468144639e-05
-1.9052975421385678e-06   1.6275852825878333e-06   -1.2679821862562325e-05
-1.9052975421385678e-06   1.6275852825878333e-06   -1.2679821862562325e-05
-1.9052975421385678e-06   1.6275852825878333e-06   -1.2679821862562325e-05
-1.9052975421385678e-06   1.6275852825878333e-06   -1.2679821862562325e-05
-1.0670822579835086e-05   1.1365973841509329e-06   -2.7583622997785274e-05
-1.0670822579835086e-05   1.1365973841509329e-06   -2.7583622997785274e-05
-1.0670822579835086e-05   1.1365973841509329e-06   -2.7583622997785274e-05
-1.0670822579835086e-05   1.1365973841509329e-06   -2.7583622997785274e-05
-1.0281571654754754e-05   2.1671355472591483e-06   -1.3281721210231263e-05
-1.0281571654754754e-05   2.1671355472591483e-06   -1.3281721210231263e-05
-1.0281571654754754e-05   2.1671355472591483e-06   -1.3281721210231263e-05
-1.0281571654754754e-05   2.1671355472591483e-06   -1.3281721210231263e-05
-1.5418697554959955e-06   1.5923984787481749e-06   -2.7503048801222623e-05
-1.5418697554959955e-06   1.5923984787481749e-06   -2.7503048801222623e-05
-1.5418697554959955e-06   1.5923984787481749e-06   -2.7503048801222623e-05
-1.5418697554959955e-06   1.5923984787481749e-06   -2.7503048801222623e-05
-6.146277721351746e-06   1.5425640777128632e-06   -1.9799134884175584e-05
-6.146277721351746e-06   1.5425640777128632e-06   -1.9799134884175584e-05
-6.146277721351746e-06   1.5425640777128632e-06   -1.9799134884175584e-05
-6.146277721351746e-06   1.5425640777128632e-06   -1.9799134884175584e-05
-1.1528643424791354e-05   1.9148746358503945e-06   -1.0610644206614223e-05
-1.1528643424791354e-05   1.9148746358503945e-06   -1.0610644206614223e-05
-1.1528643424791354e-05   1.9148746358503945e-06   -1.0610644206614223e-05
-1.1528643424791354e-05   1.9148746358503945e-06   -1.0610644206614223e-05
-2.020601357932842e-05   2.3179045405094956e-06   -2.4831109854713766e-05
-2.020601357932842e-05   2.3179045405094956e-06   -2.4831109854713766e-05
-2.020601357932842e-05   2.3179045405094956e-06   -2.4831109854713766e-05
-2.020601357932842e-05   2.3179045405094956e-06   -2.4831109854713766e-05
-1.967918421983205e-05   2.450097430548525e-06   -9.960232855856497e-06
-1.967918421983205e-05   2.450097430548525e-06   -9.960232855856497e-06
-1.967918421983205e-05   2.450097430548525e-06   -9.960232855856497e-06
-1.967918421983205e-05   2.450097430548525e-06   -9.960232855856497e-06
-1.1092110594533868e-05   2.8015971692432837e-06   -2.4482922074570493e-05
-1.1092110594533868e-05   2.8015971692432837e-06   -2.4482922074570493e-05
-1.1092110594533868e-05   2.8015971692432837e-06   -2.4482922074570493e-05
-1.1092110594533868e-05   2.8015971692432837e-06   -2.4482922074570493e-05
-1.551253681697446e-05   2.4706704773383307e-06   -1.6916989022026506e-05
-1.551253681697446e-05   2.4706704773383307e-06   -1.6916989022026506e-05
-1.551253681697446e-05   2.4706704773383307e-06   -1.6916989022026506e-05
-1.551253681697446e-05   2.4706704773383307e-06   -1.6916989022026506e-05
-1.1092110594533868e-05   2.450097430548525e-06   -1.017113269907356e-05
-1.1092110594533868e-05   2.450097430548525e-06   -1.017113269907356e-05
-1.1092110594533868e-05   2.450097430548525e-06   -1.017113269907356e-05
-1.1092110594533868e-05   2.450097430548525e-06   -1.017113269907356e-05
-1.967918421983205e-05   2.8015971692432837e-06   -2.4272022231353464e-05
-1.967918421983205e-05   2.8015971692432837e-06   -2.4272022231353464e-05
-1.967918421983205e-05   2.8015971692432837e-06   -2.4272022231353464e-05
-1.967918421983205e-05   2.8015971692432837e-06   -2.4272022231353464e-05
-1.9094743488389958e-05   2.9316602598201957e-06   -9.598200764459404e-06
-1.9094743488389958e-05   2.9316602598201957e-06   -9.598200764459404e-06
-1.9094743488389958e-05   2.9316602598201957e-06   -9.598200764459404e-06
-1.9094743488389958e-05   2.9316602598201957e-06   -9.598200764459404e-06
-1.06708225798351e-05   3.2179573483911202e-06   -2.3809847198526788e-05
-1.06708225798351e-05   3.2179573483911202e-06   -2.3809847198526788e-05
-1.06708225798351e-05   3.2179573483911202e-06   -2.3809847198526788e-05
-1.06708225798351e-05   3.2179573483911202e-06   -2.3809847198526788e-05
-1.4978138462994845e-05   2.8480760727320003e-06   -1.640905862786504e-05
-1.4978138462994845e-05   2.8480760727320003e-06   -1.640905862786504e-05
-1.4978138462994845e-05   2.8480760727320003e-06   -1.640905862786504e-05
-1.4978138462994845e-05   2.8480760727320003e-06   -1.640905862786504e-05
-1.06708225798351e-05   2.9316602598201957e-06   -9.769979017601994e-06
-1.06708225798351e-05   2.9316602598201957e-06   -9.769979017601994e-06
-1.06708225798351e-05   2.9316602598201957e-06   -9.769979017601994e-06
-1.06708225798351e-05   2.9316602598201957e-06   -9.769979017601994e-06
-1.9094743488389958e-05   3.2179573483911202e-06   -2.3638068945384212e-05
-1.9094743488389958e-05   3.2179573483911202e-06   -2.3638068945384212e-05
-1.9094743488389958e-05   3.2179573483911202e-06   -2.3638068945384212e-05
-1.9094743488389958e-05   3.2179573483911202e-06   -2.3638068945384212e-05
-1.86012810841692e-05   3.4692738953495195e-06   -9.82070248763036e-06
-1.86012810841692e-05   3.4692738953495195e-06   -9.82070248763036e-06
-1.86012810841692e-05   3.4692738953495195e-06   -9.82070248763036e-06
-1.86012810841692e-05   3.4692738953495195e-06   -9.82070248763036e-06
-1.0281571654754771e-05   3.6775510998451194e-06   -2.381185119268523e-05
-1.0281571654754771e-05   3.6775510998451194e-06   -2.381185119268523e-05
-1.0281571654754771e-05   3.6775510998451194e-06   -2.381185119268523e-05
-1.0281571654754771e-05   3.6775510998451194e-06   -2.381185119268523e-05
-1.4649409910142925e-05   3.1953032918405886e-06   -1.624277208223579e-05
-1.4649409910142925e-05   3.1953032918405886e-06   -1.624277208223579e-05
-1.4649409910142925e-05   3.1953032918405886e-06   -1.624277208223579e-05
-1.4649409910142925e-05   3.1953032918405886e-06   -1.624277208223579e-05
-2.020601357932842e-05   3.2938211325815505e-06   -5.307456747611326e-06
-2.020601357932842e-05   3.2938211325815505e-06   -5.307456747611326e-06
-2.020601357932842e-05   3.2938211325815505e-06   -5.307456747611326e-06
-2.020601357932842e-05   3.2938211325815505e-06   -5.307456747611326e-06
-2.936056149592747e-05   4.540732943190224e-06   -1.9816889522244682e-05
-2.936056149592747e-05   4.540732943190224e-06   -1.9816889522244682e-05
-2.936056149592747e-05   4.540732943190224e-06   -1.9816889522244682e-05
-2.936056149592747e-05   4.540732943190224e-06   -1.9816889522244682e-05
-2.8140155637638314e-05   3.8504598245099695e-06   -1.6284861276654036e-06
-2.8140155637638314e-05   3.8504598245099695e-06   -1.6284861276654036e-06
-2.8140155637638314e-05   3.8504598245099695e-06   -1.6284861276654036e-06
-2.8140155637638314e-05   3.8504598245099695e-06   -1.6284861276654036e-06
-1.967918421983202e-05   5.183596653413709e-06   -1.652998725468495e-05
-1.967918421983202e-05   5.183596653413709e-06   -1.652998725468495e-05
-1.967918421983202e-05   5.183596653413709e-06   -1.652998725468495e-05
-1.967918421983202e-05   5.183596653413709e-06   -1.652998725468495e-05
-2.3340559068753636e-05   4.3253783848070586e-06   -9.91276487865146e-06
-2.3340559068753636e-05   4.3253783848070586e-06   -9.91276487865146e-06
-2.3340559068753636e-05   4.3253783848070586e-06   -9.91276487865146e-06
-2.3340559068753636e-05   4.3253783848070586e-06   -9.91276487865146e-06
-1.9679184219832035e-05   3.8504598245099695e-06   -2.428368225007707e-06
-1.9679184219832035e-05   3.8504598245099695e-06   -2.428368225007707e-06
-1.9679184219832035e-05   3.8504598245099695e-06   -2.428368225007707e-06
-1.9679184219832035e-05   3.8504598245099695e-06   -2.428368225007707e-06
-2.814015563763826e-05   5.183596653413709e-06   -1.573010515734262e-05
-2.814015563763826e-05   5.183596653413709e-06   -1.573010515734262e-05
-2.814015563763826e-05   5.183596653413709e-06   -1.573010515734262e-05
-2.814015563763826e-05   5.183596653413709e-06   -1.573010515734262e-05
-2.7136101965832905e-05   4.05022660299615e-06   -8.707742174345577e-08
-2.7136101965832905e-05   4.05022660299615e-06   -8.707742174345577e-08
-2.7136101965832905e-05   4.05022660299615e-06   -8.707742174345577e-08
-2.7136101965832905e-05   4.05022660299615e-06   -8.707742174345577e-08
-1.9094743488389958e-05   5.353274981621716e-06   -1.4271170577990263e-05
-1.9094743488389958e-05   5.353274981621716e-06   -1.4271170577990263e-05
-1.9094743488389958e-05   5.353274981621716e-06   -1.4271170577990263e-05
-1.9094743488389958e-05   5.353274981621716e-06   -1.4271170577990263e-05
-2.2933125608957892e-05   4.583314761266103e-06   -7.411890911496839e-06
-2.2933125608957892e-05   4.583314761266103e-06   -7.411890911496839e-06
-2.2933125608957892e-05   4.583314761266103e-06   -7.411890911496839e-06
-2.2933125608957892e-05   4.583314761266103e-06   -7.411890911496839e-06
-1.9094743488389958e-05   4.05022660299615e-06   -8.68906448918752e-07
-1.9094743488389958e-05   4.05022660299615e-06   -8.68906448918752e-07
-1.9094743488389958e-05   4.05022660299615e-06   -8.68906448918752e-07
-1.9094743488389958e-05   4.05022660299615e-06   -8.68906448918752e-07
-2.7136101965832796e-05   5.353274981621499e-06   -1.3489341550815184e-05
-2.7136101965832796e-05   5.353274981621499e-06   -1.3489341550815184e-05
-2.7136101965832796e-05   5.353274981621499e-06   -1.3489341550815184e-05
-2.7136101965832796e-05   5.353274981621499e-06   -1.3489341550815184e-05
-2.6050277108833333e-05   4.300767881409984e-06   1.8766277106773213e-06
-2.6050277108833333e-05   4.300767881409984e-06   1.8766277106773213e-06
-2.6050277108833333e-05   4.300767881409984e-06   1.8766277106773213e-06
-2.6050277108833333e-05   4.300767881409984e-06   1.8766277106773213e-06
-1.8601281084169185e-05   5.4963014956275254e-06   -1.1255685832293355e-05
-1.8601281084169185e-05   5.4963014956275254e-06   -1.1255685832293355e-05
-1.8601281084169185e-05   5.4963014956275254e-06   -1.1255685832293355e-05
-1.8601281084169185e-05   5.4963014956275254e-06   -1.1255685832293355e-05
-2.1910653662481414e-05   4.6249517192821065e-06   -5.217255002633011e-06
-2.1910653662481414e-05   4.6249517192821065e-06   -5.217255002633011e-06
-2.1910653662481414e-05   4.6249517192821065e-06   -5.217255002633011e-06
-2.1910653662481414e-05   4.6249517192821065e-06   -5.217255002633011e-06
2.5010240730290336e-05   -3.4820549807573244e-06   5.051363344617688e-06
2.5010240730290336e-05   -3.4820549807573244e-06   5.051363344617688e-06
2.5010240730290336e-05   -3.4820549807573244e-06   5.051363344617688e-06
2.5010240730290336e-05   -3.4820549807573244e-06   5.051363344617688e-06
1.2032009483013288e-05   -5.141849713694545e-06   -1.757489890727318e-05
1.2032009483013288e-05   -5.141849713694545e-06   -1.757489890727318e-05
1.2032009483013288e-05   -5.141849713694545e-06   -1.757489890727318e-05
1.2032009483013288e-05   -5.141849713694545e-06   -1.757489890727318e-05
1.2515917822069117e-05   -3.239767159149941e-06   2.4848847975676496e-06
1.2515917822069117e-05   -3.239767159149941e-06   2.4848847975676496e-06
1.2515917822069117e-05   -3.239767159149941e-06   2.4848847975676496e-06
1.2515917822069117e-05   -3.239767159149941e-06   2.4848847975676496e-06
2.6141892325088012e-05   -5.023424752720459e-06   -1.91548781513218e-05
2.6141892325088012e-05   -5.023424752720459e-06   -1.91548781513218e-05
2.6141892325088012e-05   -5.023424752720459e-06   -1.91548781513218e-05
2.6141892325088012e-05   -5.023424752720459e-06   -1.91548781513218e-05
1.815460543365521e-05   -3.809438074371717e-06   -6.571125339276205e-06
1.815460543365521e-05   -3.809438074371717e-06   -6.571125339276205e-06
1.815460543365521e-05   -3.809438074371717e-06   -6.571125339276205e-06
1.815460543365521e-05   -3.809438074371717e-06   -6.571125339276205e-06
2.6141892325088066e-05   -3.239767159149941e-06   3.5550793537098306e-06
2.6141892325088066e-05   -3.239767159149941e-06   3.5550793537098306e-06
2.6141892325088066e-05   -3.239767159149941e-06   3.5550793537098306e-06
2.6141892325088066e-05   -3.239767159149941e-06   3.5550793537098306e-06
1.251591782206909e-05   -5.023424752720459e-06   -2.022507270746398e-05
1.251591782206909e-05   -5.023424752720459e-06   -2.022507270746398e-05
1.251591782206909e-05   -5.023424752720459e-06   -2.022507270746398e-05
1.251591782206909e-05   -5.023424752720459e-06   -2.022507270746398e-05
1.2997525395634752e-05   -3.0297547169190475e-06   1.225385625690874e-06
1.2997525395634752e-05   -3.0297547169190475e-06   1.225385625690874e-06
1.2997525395634752e-05   -3.0297547169190475e-06   1.225385625690874e-06
1.2997525395634752e-05   -3.0297547169190475e-06   1.225385625690874e-06
2.700926153922028e-05   -4.8484683396585095e-06   -2.103627977330792e-05
2.700926153922028e-05   -4.8484683396585095e-06   -2.103627977330792e-05
2.700926153922028e-05   -4.8484683396585095e-06   -2.103627977330792e-05
2.700926153922028e-05   -4.8484683396585095e-06   -2.103627977330792e-05
1.9109025744416997e-05   -3.796497055982666e-06   -8.500402885508148e-06
1.9109025744416997e-05   -3.796497055982666e-06   -8.500402885508148e-06
1.9109025744416997e-05   -3.796497055982666e-06   -8.500402885508148e-06
1.9109025744416997e-05   -3.796497055982666e-06   -8.500402885508148e-06
2.700926153922028e-05   -3.0297547169190475e-06   2.316613799334665e-06
2.700926153922028e-05   -3.0297547169190475e-06   2.316613799334665e-06
2.700926153922028e-05   -3.0297547169190475e-06   2.316613799334665e-06
2.700926153922028e-05   -3.0297547169190475e-06   2.316613799334665e-06
1.2997525395634752e-05   -4.848468339658726e-06   -2.2127507946951793e-05
1.2997525395634752e-05   -4.848468339658726e-06   -2.2127507946951793e-05
1.2997525395634752e-05   -4.848468339658726e-06   -2.2127507946951793e-05
1.2997525395634752e-05   -4.848468339658726e-06   -2.2127507946951793e-05
1.33232203853369e-05   -2.367618248042035e-06   -1.304963307378784e-06
1.33232203853369e-05   -2.367618248042035e-06   -1.304963307378784e-06
1.33232203853369e-05   -2.367618248042035e-06   -1.304963307378784e-06
1.33232203853369e-05   -2.367618248042035e-06   -1.304963307378784e-06
2.792691359414504e-05   -4.168078082009965e-06   -2.4564176088344783e-05
2.792691359414504e-05   -4.168078082009965e-06   -2.4564176088344783e-05
2.792691359414504e-05   -4.168078082009965e-06   -2.4564176088344783e-05
2.792691359414504e-05   -4.168078082009965e-06   -2.4564176088344783e-05
1.9369550980498053e-05   -3.503639677573901e-06   -1.0700568108261974e-05
1.9369550980498053e-05   -3.503639677573901e-06   -1.0700568108261974e-05
1.9369550980498053e-05   -3.503639677573901e-06   -1.0700568108261974e-05
1.9369550980498053e-05   -3.503639677573901e-06   -1.0700568108261974e-05
1.2032009483013302e-05   -1.6213833547277807e-06   -5.9561395918514195e-06
1.2032009483013302e-05   -1.6213833547277807e-06   -5.9561395918514195e-06
1.2032009483013302e-05   -1.6213833547277807e-06   -5.9561395918514195e-06
1.2032009483013302e-05   -1.6213833547277807e-06   -5.9561395918514195e-06
-7.653555919758106e-07   -3.3098639934750224e-06   -2.8298169766748137e-05
-7.653555919758106e-07   -3.3098639934750224e-06   -2.8298169766748137e-05
-7.653555919758106e-07   -3.3098639934750224e-06   -2.8298169766748137e-05
-7.653555919758106e-07   -3.3098639934750224e-06   -2.8298169766748137e-05
-2.6943678518021584e-07   -1.281977245770529e-06   -6.571662342477877e-06
-2.6943678518021584e-07   -1.281977245770529e-06   -6.571662342477877e-06
-2.6943678518021584e-07   -1.281977245770529e-06   -6.571662342477877e-06
-2.6943678518021584e-07   -1.281977245770529e-06   -6.571662342477877e-06
1.2515917822069117e-05   -3.148306638362181e-06   -2.6760789052338464e-05
1.2515917822069117e-05   -3.148306638362181e-06   -2.6760789052338464e-05
1.2515917822069117e-05   -3.148306638362181e-06   -2.6760789052338464e-05
1.2515917822069117e-05   -3.148306638362181e-06   -2.6760789052338464e-05
5.895275484056909e-06   -2.003474634494455e-06   -1.6413284357972126e-05
5.895275484056909e-06   -2.003474634494455e-06   -1.6413284357972126e-05
5.895275484056909e-06   -2.003474634494455e-06   -1.6413284357972126e-05
5.895275484056909e-06   -2.003474634494455e-06   -1.6413284357972126e-05
1.2515917822069104e-05   -1.281977245770529e-06   -5.4518647069228855e-06
1.2515917822069104e-05   -1.281977245770529e-06   -5.4518647069228855e-06
1.2515917822069104e-05   -1.281977245770529e-06   -5.4518647069228855e-06
1.2515917822069104e-05   -1.281977245770529e-06   -5.4518647069228855e-06
-2.6943678518021584e-07   -3.148306638362181e-06   -2.7880586687893455e-05
-2.6943678518021584e-07   -3.148306638362181e-06   -2.7880586687893455e-05
-2.6943678518021584e-07   -3.148306638362181e-06   -2.7880586687893455e-05
-2.6943678518021584e-07   -3.148306638362181e-06   -2.7880586687893455e-05
1.672977472961791e-07   -8.673680861690652e-07   -6.734174555975787e-06
1.672977472961791e-07   -8.673680861690652e-07   -6.734174555975787e-06
1.672977472961791e-07   -8.673680861690652e-07   -6.734174555975787e-06
1.672977472961791e-07   -8.673680861690652e-07   -6.734174555975787e-06
1.2997525395634752e-05   -2.8497976900297792e-06   -2.6928429540890335e-05
1.2997525395634752e-05   -2.8497976900297792e-06   -2.6928429540890335e-05
1.2997525395634752e-05   -2.8497976900297792e-06   -2.6928429540890335e-05
1.2997525395634752e-05   -2.8497976900297792e-06   -2.6928429540890335e-05
6.23091879428039e-06   -1.8357947890630666e-06   -1.6259153612545936e-05
6.23091879428039e-06   -1.8357947890630666e-06   -1.6259153612545936e-05
6.23091879428039e-06   -1.8357947890630666e-06   -1.6259153612545936e-05
6.23091879428039e-06   -1.8357947890630666e-06   -1.6259153612545936e-05
1.2997525395634752e-05   -8.673680861688484e-07   -5.544716793659299e-06
1.2997525395634752e-05   -8.673680861688484e-07   -5.544716793659299e-06
1.2997525395634752e-05   -8.673680861688484e-07   -5.544716793659299e-06
1.2997525395634752e-05   -8.673680861688484e-07   -5.544716793659299e-06
1.672977472961791e-07   -2.8497976900295624e-06   -2.811788730320685e-05
1.672977472961791e-07   -2.8497976900295624e-06   -2.811788730320685e-05
1.672977472961791e-07   -2.8497976900295624e-06   -2.811788730320685e-05
1.672977472961791e-07   -2.8497976900295624e-06   -2.811788730320685e-05
4.775453986941323e-07   -3.450759792334411e-07   -7.006987698610773e-06
4.775453986941323e-07   -3.450759792334411e-07   -7.006987698610773e-06
4.775453986941323e-07   -3.450759792334411e-07   -7.006987698610773e-06
4.775453986941323e-07   -3.450759792334411e-07   -7.006987698610773e-06
1.3323220385336927e-05   -2.42491019442374e-06   -2.716854548056799e-05
1.3323220385336927e-05   -2.42491019442374e-06   -2.716854548056799e-05
1.3323220385336927e-05   -2.42491019442374e-06   -2.716854548056799e-05
1.3323220385336927e-05   -2.42491019442374e-06   -2.716854548056799e-05
6.6356389825535485e-06   -1.5417355240200312e-06   -1.6552481278171748e-05
6.6356389825535485e-06   -1.5417355240200312e-06   -1.6552481278171748e-05
6.6356389825535485e-06   -1.5417355240200312e-06   -1.6552481278171748e-05
6.6356389825535485e-06   -1.5417355240200312e-06   -1.6552481278171748e-05
-7.653555919758106e-07   3.134608654012296e-07   -9.1238349969417e-06
-7.653555919758106e-07   3.134608654012296e-07   -9.1238349969417e-06
-7.653555919758106e-07   3.134608654012296e-07   -9.1238349969417e-06
-7.653555919758106e-07   3.134608654012296e-07   -9.1238349969417e-06
-1.3373782003692448e-05   -1.7034830564364653e-06   -3.134804536957219e-05
-1.3373782003692448e-05   -1.7034830564364653e-06   -3.134804536957219e-05
-1.3373782003692448e-05   -1.7034830564364653e-06   -3.134804536957219e-05
-1.3373782003692448e-05   -1.7034830564364653e-06   -3.134804536957219e-05
-1.277847181677563e-05   6.953683005172465e-07   -9.915414611399347e-06
-1.277847181677563e-05   6.953683005172465e-07   -9.915414611399347e-06
-1.277847181677563e-05   6.953683005172465e-07   -9.915414611399347e-06
-1.277847181677563e-05   6.953683005172465e-07   -9.915414611399347e-06
-2.6943678518021584e-07   -1.5121570726786028e-06   -2.9439291106807524e-05
-2.6943678518021584e-07   -1.5121570726786028e-06   -2.9439291106807524e-05
-2.6943678518021584e-07   -1.5121570726786028e-06   -2.9439291106807524e-05
-2.6943678518021584e-07   -1.5121570726786028e-06   -2.9439291106807524e-05
-6.71731357618395e-06   -3.0690211851036597e-07   -1.9415982760968907e-05
-6.71731357618395e-06   -3.0690211851036597e-07   -1.9415982760968907e-05
-6.71731357618395e-06   -3.0690211851036597e-07   -1.9415982760968907e-05
-6.71731357618395e-06   -3.0690211851036597e-07   -1.9415982760968907e-05
-2.6943678518021584e-07   6.953683005172465e-07   -8.59089938748188e-06
-2.6943678518021584e-07   6.953683005172465e-07   -8.59089938748188e-06
-2.6943678518021584e-07   6.953683005172465e-07   -8.59089938748188e-06
-2.6943678518021584e-07   6.953683005172465e-07   -8.59089938748188e-06
-1.277847181677563e-05   -1.5121570726786028e-06   -3.076380633072501e-05
-1.277847181677563e-05   -1.5121570726786028e-06   -3.076380633072501e-05
-1.277847181677563e-05   -1.5121570726786028e-06   -3.076380633072501e-05
-1.277847181677563e-05   -1.5121570726786028e-06   -3.076380633072501e-05
-1.2232341582292136e-05   1.1365973841509329e-06   -9.737706892233773e-06
-1.2232341582292136e-05   1.1365973841509329e-06   -9.737706892233773e-06
-1.2232341582292136e-05   1.1365973841509329e-06   -9.737706892233773e-06
-1.2232341582292136e-05   1.1365973841509329e-06   -9.737706892233773e-06
1.672977472961791e-07   -1.2175839767996147e-06   -2.899126362497723e-05
1.672977472961791e-07   -1.2175839767996147e-06   -2.899126362497723e-05
1.672977472961791e-07   -1.2175839767996147e-06   -2.899126362497723e-05
1.672977472961791e-07   -1.2175839767996147e-06   -2.899126362497723e-05
-6.233114116543505e-06   -8.906526493873603e-08   -1.900102174569432e-05
-6.233114116543505e-06   -8.906526493873603e-08   -1.900102174569432e-05
-6.233114116543505e-06   -8.906526493873603e-08   -1.900102174569432e-05
-6.233114116543505e-06   -8.906526493873603e-08   -1.900102174569432e-05
1.672977472961791e-07   1.1365973841509329e-06   -8.32519807566338e-06
1.672977472961791e-07   1.1365973841509329e-06   -8.32519807566338e-06
1.672977472961791e-07   1.1365973841509329e-06   -8.32519807566338e-06
1.672977472961791e-07   1.1365973841509329e-06   -8.32519807566338e-06
-1.2232341582292136e-05   -1.2175839767996147e-06   -3.04037724415476e-05
-1.2232341582292136e-05   -1.2175839767996147e-06   -3.04037724415476e-05
-1.2232341582292136e-05   -1.2175839767996147e-06   -3.04037724415476e-05
-1.2232341582292136e-05   -1.2175839767996147e-06   -3.04037724415476e-05
-1.1864387947455451e-05   1.5923984787481749e-06   -9.909569032407676e-06
-1.1864387947455451e-05   1.5923984787481749e-06   -9.909569032407676e-06
-1.1864387947455451e-05   1.5923984787481749e-06   -9.909569032407676e-06
-1.1864387947455451e-05   1.5923984787481749e-06   -9.909569032407676e-06
4.775453986941458e-07   -9.377804387933515e-07   -2.896135059213213e-05
4.775453986941458e-07   -9.377804387933515e-07   -2.896135059213213e-05
4.775453986941458e-07   -9.377804387933515e-07   -2.896135059213213e-05
4.775453986941458e-07   -9.377804387933515e-07   -2.896135059213213e-05
-5.8884766537658435e-06   1.5510978329058654e-07   -1.9007047971282684e-05
-5.8884766537658435e-06   1.5510978329058654e-07   -1.9007047971282684e-05
-5.8884766537658435e-06   1.5510978329058654e-07   -1.9007047971282684e-05
-5.8884766537658435e-06   1.5510978329058654e-07   -1.9007047971282684e-05
-1.3373782003692448e-05   2.3179045405094956e-06   -7.43027558882244e-06
-1.3373782003692448e-05   2.3179045405094956e-06   -7.43027558882244e-06
-1.3373782003692448e-05   2.3179045405094956e-06   -7.43027558882244e-06
-1.3373782003692448e-05   2.3179045405094956e-06   -7.43027558882244e-06
-2.616257541637078e-05   5.064120298548403e-07   -2.9831826783012516e-05
-2.616257541637078e-05   5.064120298548403e-07   -2.9831826783012516e-05
-2.616257541637078e-05   5.064120298548403e-07   -2.9831826783012516e-05
-2.616257541637078e-05   5.064120298548403e-07   -2.9831826783012516e-05
-2.5314717667943077e-05   2.8015971692435006e-06   -7.906199813221323e-06
-2.5314717667943077e-05   2.8015971692435006e-06   -7.906199813221323e-06
-2.5314717667943077e-05   2.8015971692435006e-06   -7.906199813221323e-06
-2.5314717667943077e-05   2.8015971692435006e-06   -7.906199813221323e-06
-1.277847181677563e-05   8.556058876984293e-07   -2.7632348129573436e-05
-1.277847181677563e-05   8.556058876984293e-07   -2.7632348129573436e-05
-1.277847181677563e-05   8.556058876984293e-07   -2.7632348129573436e-05
-1.277847181677563e-05   8.556058876984293e-07   -2.7632348129573436e-05
-1.9207724565861077e-05   1.7839104735532059e-06   -1.747390963261061e-05
-1.9207724565861077e-05   1.7839104735532059e-06   -1.747390963261061e-05
-1.9207724565861077e-05   1.7839104735532059e-06   -1.747390963261061e-05
-1.9207724565861077e-05   1.7839104735532059e-06   -1.747390963261061e-05
-1.277847181677563e-05   2.8015971692435006e-06   -6.7386050442943705e-06
-1.277847181677563e-05   2.8015971692435006e-06   -6.7386050442943705e-06
-1.277847181677563e-05   2.8015971692435006e-06   -6.7386050442943705e-06
-1.277847181677563e-05   2.8015971692435006e-06   -6.7386050442943705e-06
-2.531471766794312e-05   8.556058876982124e-07   -2.8799942898500522e-05
-2.531471766794312e-05   8.556058876982124e-07   -2.8799942898500522e-05
-2.531471766794312e-05   8.556058876982124e-07   -2.8799942898500522e-05
-2.531471766794312e-05   8.556058876982124e-07   -2.8799942898500522e-05
-2.449355360056142e-05   3.2179573483911202e-06   -7.188756087802271e-06
-2.449355360056142e-05   3.2179573483911202e-06   -7.188756087802271e-06
-2.449355360056142e-05   3.2179573483911202e-06   -7.188756087802271e-06
-2.449355360056142e-05   3.2179573483911202e-06   -7.188756087802271e-06
-1.223234158229216e-05   1.1765823570125244e-06   -2.6399284456757278e-05
-1.223234158229216e-05   1.1765823570125244e-06   -2.6399284456757278e-05
-1.223234158229216e-05   1.1765823570125244e-06   -2.6399284456757278e-05
-1.223234158229216e-05   1.1765823570125244e-06   -2.6399284456757278e-05
-1.8439147771829794e-05   2.0878043424531114e-06   -1.6601340665458773e-05
-1.8439147771829794e-05   2.0878043424531114e-06   -1.6601340665458773e-05
-1.8439147771829794e-05   2.0878043424531114e-06   -1.6601340665458773e-05
-1.8439147771829794e-05   2.0878043424531114e-06   -1.6601340665458773e-05
-1.2232341582292136e-05   3.2179573483911202e-06   -5.963931092975151e-06
-1.2232341582292136e-05   3.2179573483911202e-06   -5.963931092975151e-06
-1.2232341582292136e-05   3.2179573483911202e-06   -5.963931092975151e-06
-1.2232341582292136e-05   3.2179573483911202e-06   -5.963931092975151e-06
-2.449355360056146e-05   1.1765823570125244e-06   -2.762410945158448e-05
-2.449355360056146e-05   1.1765823570125244e-06   -2.762410945158448e-05
-2.449355360056146e-05   1.1765823570125244e-06   -2.762410945158448e-05
-2.449355360056146e-05   1.1765823570125244e-06   -2.762410945158448e-05
-2.3872889086637667e-05   3.6775510998453362e-06   -7.211818235120632e-06
-2.3872889086637667e-05   3.6775510998453362e-06   -7.211818235120632e-06
-2.3872889086637667e-05   3.6775510998453362e-06   -7.211818235120632e-06
-2.3872889086637667e-05   3.6775510998453362e-06   -7.211818235120632e-06
-1.1864387947455468e-05   1.4470693459169362e-06   -2.588769774806727e-05
-1.1864387947455468e-05   1.4470693459169362e-06   -2.588769774806727e-05
-1.1864387947455468e-05   1.4470693459169362e-06   -2.588769774806727e-05
-1.1864387947455468e-05   1.4470693459169362e-06   -2.588769774806727e-05
-1.8013867673035463e-05   2.3002158794702262e-06   -1.6150452792232947e-05
-1.8013867673035463e-05   2.3002158794702262e-06   -1.6150452792232947e-05
-1.8013867673035463e-05   2.3002158794702262e-06   -1.6150452792232947e-05
-1.8013867673035463e-05   2.3002158794702262e-06   -1.6150452792232947e-05
-2.616257541637078e-05   4.540732943190224e-06   -4.251097849111487e-06
-2.616257541637078e-05   4.540732943190224e-06   -4.251097849111487e-06
-2.616257541637078e-05   4.540732943190224e-06   -4.251097849111487e-06
-2.616257541637078e-05   4.540732943190224e-06   -4.251097849111487e-06
-3.9537464429572204e-05   4.301178693340247e-06   -2.6686312087690592e-05
-3.9537464429572204e-05   4.301178693340247e-06   -2.6686312087690592e-05
-3.9537464429572204e-05   4.301178693340247e-06   -2.6686312087690592e-05
-3.9537464429572204e-05   4.301178693340247e-06   -2.6686312087690592e-05
-3.78525039586019e-05   5.183596653413709e-06   -1.914400612091239e-08
-3.78525039586019e-05   5.183596653413709e-06   -1.914400612091239e-08
-3.78525039586019e-05   5.183596653413709e-06   -1.914400612091239e-08
-3.78525039586019e-05   5.183596653413709e-06   -1.914400612091239e-08
-2.5314717667943036e-05   5.425298037466759e-06   -2.1060475320984007e-05
-2.5314717667943036e-05   5.425298037466759e-06   -2.1060475320984007e-05
-2.5314717667943036e-05   5.425298037466759e-06   -2.1060475320984007e-05
-2.5314717667943036e-05   5.425298037466759e-06   -2.1060475320984007e-05
-3.082822589836019e-05   5.1129213643326355e-06   -1.1683868933075087e-05
-3.082822589836019e-05   5.1129213643326355e-06   -1.1683868933075087e-05
-3.082822589836019e-05   5.1129213643326355e-06   -1.1683868933075087e-05
-3.082822589836019e-05   5.1129213643326355e-06   -1.1683868933075087e-05
-2.53147176679431e-05   5.183596653413709e-06   -1.6416483655264493e-07
-2.53147176679431e-05   5.183596653413709e-06   -1.6416483655264493e-07
-2.53147176679431e-05   5.183596653413709e-06   -1.6416483655264493e-07
-2.53147176679431e-05   5.183596653413709e-06   -1.6416483655264493e-07
-3.7852503958601835e-05   5.425298037466759e-06   -2.0915454490552112e-05
-3.7852503958601835e-05   5.425298037466759e-06   -2.0915454490552112e-05
-3.7852503958601835e-05   5.425298037466759e-06   -2.0915454490552112e-05
-3.7852503958601835e-05   5.425298037466759e-06   -2.0915454490552112e-05
-3.6456875268931854e-05   5.353274981621499e-06   2.37347209507458e-06
-3.6456875268931854e-05   5.353274981621499e-06   2.37347209507458e-06
-3.6456875268931854e-05   5.353274981621499e-06   2.37347209507458e-06
-3.6456875268931854e-05   5.353274981621499e-06   2.37347209507458e-06
-2.449355360056142e-05   5.678824674092966e-06   -1.7760727167692508e-05
-2.449355360056142e-05   5.678824674092966e-06   -1.7760727167692508e-05
-2.449355360056142e-05   5.678824674092966e-06   -1.7760727167692508e-05
-2.449355360056142e-05   5.678824674092966e-06   -1.7760727167692508e-05
-3.020147251438119e-05   5.482233388161674e-06   -8.12957420643376e-06
-3.020147251438119e-05   5.482233388161674e-06   -8.12957420643376e-06
-3.020147251438119e-05   5.482233388161674e-06   -8.12957420643376e-06
-3.020147251438119e-05   5.482233388161674e-06   -8.12957420643376e-06
-2.449355360056146e-05   5.353274981621499e-06   2.178142279591651e-06
-2.449355360056146e-05   5.353274981621499e-06   2.178142279591651e-06
-2.449355360056146e-05   5.353274981621499e-06   2.178142279591651e-06
-2.449355360056146e-05   5.353274981621499e-06   2.178142279591651e-06
-3.645687526893192e-05   5.678824674093183e-06   -1.7565397352209714e-05
-3.645687526893192e-05   5.678824674093183e-06   -1.7565397352209714e-05
-3.645687526893192e-05   5.678824674093183e-06   -1.7565397352209714e-05
-3.645687526893192e-05   5.678824674093183e-06   -1.7565397352209714e-05
-3.499526661334345e-05   5.4963014956275254e-06   5.5866050608798954e-06
-3.499526661334345e-05   5.4963014956275254e-06   5.5866050608798954e-06
-3.499526661334345e-05   5.4963014956275254e-06   5.5866050608798954e-06
-3.499526661334345e-05   5.4963014956275254e-06   5.5866050608798954e-06
-2.3872889086637687e-05   6.1083419261381226e-06   -1.3317915075269568e-05
-2.3872889086637687e-05   6.1083419261381226e-06   -1.3317915075269568e-05
-2.3872889086637687e-05   6.1083419261381226e-06   -1.3317915075269568e-05
-2.3872889086637687e-05   6.1083419261381226e-06   -1.3317915075269568e-05
-2.878637224443288e-05   5.603957604921107e-06   -4.826145886214497e-06
-2.878637224443288e-05   5.603957604921107e-06   -4.826145886214497e-06
-2.878637224443288e-05   5.603957604921107e-06   -4.826145886214497e-06
-2.878637224443288e-05   5.603957604921107e-06   -4.826145886214497e-06
3.430243414249063e-05   -5.141849713694328e-06   1.1775620145050168e-05
3.430243414249063e-05   -5.141849713694328e-06   1.1775620145050168e-05
3.430243414249063e-05   -5.141849713694328e-06   1.1775620145050168e-05
3.430243414249063e-05   -5.141849713694328e-06   1.1775620145050168e-05
1.7220216278073184e-05   -6.491726638846278e-06   -1.7504669117403304e-05
1.7220216278073184e-05   -6.491726638846278e-06   -1.7504669117403304e-05
1.7220216278073184e-05   -6.491726638846278e-06   -1.7504669117403304e-05
1.7220216278073184e-05   -6.491726638846278e-06   -1.7504669117403304e-05
1.763356341821036e-05   -5.023424752720242e-06   8.464695300053012e-06
1.763356341821036e-05   -5.023424752720242e-06   8.464695300053012e-06
1.763356341821036e-05   -5.023424752720242e-06   8.464695300053012e-06
1.763356341821036e-05   -5.023424752720242e-06   8.464695300053012e-06
3.514762333178298e-05   -6.654199720368317e-06   -1.9746939575312258e-05
3.514762333178298e-05   -6.654199720368317e-06   -1.9746939575312258e-05
3.514762333178298e-05   -6.654199720368317e-06   -1.9746939575312258e-05
3.514762333178298e-05   -6.654199720368317e-06   -1.9746939575312258e-05
2.5035653309955037e-05   -5.251892741828766e-06   -3.735040392722957e-06
2.5035653309955037e-05   -5.251892741828766e-06   -3.735040392722957e-06
2.5035653309955037e-05   -5.251892741828766e-06   -3.735040392722957e-06
2.5035653309955037e-05   -5.251892741828766e-06   -3.735040392722957e-06
3.514762333178298e-05   -5.023424752720242e-06   9.443160280642014e-06
3.514762333178298e-05   -5.023424752720242e-06   9.443160280642014e-06
3.514762333178298e-05   -5.023424752720242e-06   9.443160280642014e-06
3.514762333178298e-05   -5.023424752720242e-06   9.443160280642014e-06
1.763356341821036e-05   -6.654199720368317e-06   -2.072540455590134e-05
1.763356341821036e-05   -6.654199720368317e-06   -2.072540455590134e-05
1.763356341821036e-05   -6.654199720368317e-06   -2.072540455590134e-05
1.763356341821036e-05   -6.654199720368317e-06   -2.072540455590134e-05
1.7982770109624445e-05   -4.848468339658726e-06   6.68854440229866e-06
1.7982770109624445e-05   -4.848468339658726e-06   6.68854440229866e-06
1.7982770109624445e-05   -4.848468339658726e-06   6.68854440229866e-06
1.7982770109624445e-05   -4.848468339658726e-06   6.68854440229866e-06
3.567360116912012e-05   -6.592473793999836e-06   -2.1749770757589423e-05
3.567360116912012e-05   -6.592473793999836e-06   -2.1749770757589423e-05
3.567360116912012e-05   -6.592473793999836e-06   -2.1749770757589423e-05
3.567360116912012e-05   -6.592473793999836e-06   -2.1749770757589423e-05
2.5911632784476025e-05   -5.416004399731939e-06   -6.185705086409962e-06
2.5911632784476025e-05   -5.416004399731939e-06   -6.185705086409962e-06
2.5911632784476025e-05   -5.416004399731939e-06   -6.185705086409962e-06
2.5911632784476025e-05   -5.416004399731939e-06   -6.185705086409962e-06
3.567360116912012e-05   -4.848468339658726e-06   7.734947674903304e-06
3.567360116912012e-05   -4.848468339658726e-06   7.734947674903304e-06
3.567360116912012e-05   -4.848468339658726e-06   7.734947674903304e-06
3.567360116912012e-05   -4.848468339658726e-06   7.734947674903304e-06
1.7982770109624445e-05   -6.592473793999836e-06   -2.2796174030194068e-05
1.7982770109624445e-05   -6.592473793999836e-06   -2.2796174030194068e-05
1.7982770109624445e-05   -6.592473793999836e-06   -2.2796174030194068e-05
1.7982770109624445e-05   -6.592473793999836e-06   -2.2796174030194068e-05
1.834652397123778e-05   -4.168078082010182e-06   3.250644444944238e-06
1.834652397123778e-05   -4.168078082010182e-06   3.250644444944238e-06
1.834652397123778e-05   -4.168078082010182e-06   3.250644444944238e-06
1.834652397123778e-05   -4.168078082010182e-06   3.250644444944238e-06
3.6191596951413614e-05   -6.221535753371619e-06   -2.525906925253201e-05
3.6191596951413614e-05   -6.221535753371619e-06   -2.525906925253201e-05
3.6191596951413614e-05   -6.221535753371619e-06   -2.525906925253201e-05
3.6191596951413614e-05   -6.221535753371619e-06   -2.525906925253201e-05
2.5917394055787054e-05   -5.210002251378404e-06   -8.742317861016972e-06
2.5917394055787054e-05   -5.210002251378404e-06   -8.742317861016972e-06
2.5917394055787054e-05   -5.210002251378404e-06   -8.742317861016972e-06
2.5917394055787054e-05   -5.210002251378404e-06   -8.742317861016972e-06
1.7220216278073184e-05   -3.3098639934750224e-06   1.2555115137323996e-06
1.7220216278073184e-05   -3.3098639934750224e-06   1.2555115137323996e-06
1.7220216278073184e-05   -3.3098639934750224e-06   1.2555115137323996e-06
1.7220216278073184e-05   -3.3098639934750224e-06   1.2555115137323996e-06
1.9837154300744877e-06   -6.459487753721202e-06   -2.6028430822413323e-05
1.9837154300744877e-06   -6.459487753721202e-06   -2.6028430822413323e-05
1.9837154300744877e-06   -6.459487753721202e-06   -2.6028430822413323e-05
1.9837154300744877e-06   -6.459487753721202e-06   -2.6028430822413323e-05
2.4647646852879863e-06   -3.1483066383623977e-06   -3.609687585089897e-08
2.4647646852879863e-06   -3.1483066383623977e-06   -3.609687585089897e-08
2.4647646852879863e-06   -3.1483066383623977e-06   -3.609687585089897e-08
2.4647646852879863e-06   -3.1483066383623977e-06   -3.609687585089897e-08
1.76335634182104e-05   -6.4234330234113745e-06   -2.33523522663588e-05
1.76335634182104e-05   -6.4234330234113745e-06   -2.33523522663588e-05
1.76335634182104e-05   -6.4234330234113745e-06   -2.33523522663588e-05
1.76335634182104e-05   -6.4234330234113745e-06   -2.33523522663588e-05
9.86248485069084e-06   -4.360965554488705e-06   -1.1638035135179826e-05
9.86248485069084e-06   -4.360965554488705e-06   -1.1638035135179826e-05
9.86248485069084e-06   -4.360965554488705e-06   -1.1638035135179826e-05
9.86248485069084e-06   -4.360965554488705e-06   -1.1638035135179826e-05
1.7633563418210346e-05   -3.1483066383623977e-06   1.928978955178666e-06
1.7633563418210346e-05   -3.1483066383623977e-06   1.928978955178666e-06
1.7633563418210346e-05   -3.1483066383623977e-06   1.928978955178666e-06
1.7633563418210346e-05   -3.1483066383623977e-06   1.928978955178666e-06
2.4647646852879863e-06   -6.4234330234113745e-06   -2.531742809738823e-05
2.4647646852879863e-06   -6.4234330234113745e-06   -2.531742809738823e-05
2.4647646852879863e-06   -6.4234330234113745e-06   -2.531742809738823e-05
2.4647646852879863e-06   -6.4234330234113745e-06   -2.531742809738823e-05
2.898902264121352e-06   -2.8497976900297792e-06   -2.0246651491343318e-07
2.898902264121352e-06   -2.8497976900297792e-06   -2.0246651491343318e-07
2.898902264121352e-06   -2.8497976900297792e-06   -2.0246651491343318e-07
2.898902264121352e-06   -2.8497976900297792e-06   -2.0246651491343318e-07
1.7982770109624445e-05   -6.333279895485338e-06   -2.3252156934145123e-05
1.7982770109624445e-05   -6.333279895485338e-06   -2.3252156934145123e-05
1.7982770109624445e-05   -6.333279895485338e-06   -2.3252156934145123e-05
1.7982770109624445e-05   -6.333279895485338e-06   -2.3252156934145123e-05
1.0133107330219005e-05   -4.405463636642285e-06   -1.132607539044159e-05
1.0133107330219005e-05   -4.405463636642285e-06   -1.132607539044159e-05
1.0133107330219005e-05   -4.405463636642285e-06   -1.132607539044159e-05
1.0133107330219005e-05   -4.405463636642285e-06   -1.132607539044159e-05
1.7982770109624445e-05   -2.8497976900295624e-06   1.8876228083601322e-06
1.7982770109624445e-05   -2.8497976900295624e-06   1.8876228083601322e-06
1.7982770109624445e-05   -2.8497976900295624e-06   1.8876228083601322e-06
1.7982770109624445e-05   -2.8497976900295624e-06   1.8876228083601322e-06
2.898902264121352e-06   -6.333279895485338e-06   -2.5342246257418675e-05
2.898902264121352e-06   -6.333279895485338e-06   -2.5342246257418675e-05
2.898902264121352e-06   -6.333279895485338e-06   -2.5342246257418675e-05
2.898902264121352e-06   -6.333279895485338e-06   -2.5342246257418675e-05
3.547437342478135e-06   -2.4249101944239567e-06   -5.119324967887929e-07
3.547437342478135e-06   -2.4249101944239567e-06   -5.119324967887929e-07
3.547437342478135e-06   -2.4249101944239567e-06   -5.119324967887929e-07
3.547437342478135e-06   -2.4249101944239567e-06   -5.119324967887929e-07
1.8346523971237753e-05   -6.155715944241918e-06   -2.2938593428164047e-05
1.8346523971237753e-05   -6.155715944241918e-06   -2.2938593428164047e-05
1.8346523971237753e-05   -6.155715944241918e-06   -2.2938593428164047e-05
1.8346523971237753e-05   -6.155715944241918e-06   -2.2938593428164047e-05
1.0655483642288299e-05   -4.332483130509244e-06   -1.1214132568154592e-05
1.0655483642288299e-05   -4.332483130509244e-06   -1.1214132568154592e-05
1.0655483642288299e-05   -4.332483130509244e-06   -1.1214132568154592e-05
1.0655483642288299e-05   -4.332483130509244e-06   -1.1214132568154592e-05
1.9837154300744877e-06   -1.7034830564366821e-06   -2.4739719921367768e-06
1.9837154300744877e-06   -1.7034830564366821e-06   -2.4739719921367768e-06
1.9837154300744877e-06   -1.7034830564366821e-06   -2.4739719921367768e-06
1.9837154300744877e-06   -1.7034830564366821e-06   -2.4739719921367768e-06
-1.3092762237027358e-05   -7.736110766895813e-06   -3.122101139691532e-05
-1.3092762237027358e-05   -7.736110766895813e-06   -3.122101139691532e-05
-1.3092762237027358e-05   -7.736110766895813e-06   -3.122101139691532e-05
-1.3092762237027358e-05   -7.736110766895813e-06   -3.122101139691532e-05
-1.2342788483824718e-05   -1.512157072678386e-06   -5.429162080377269e-06
-1.2342788483824718e-05   -1.512157072678386e-06   -5.429162080377269e-06
-1.2342788483824718e-05   -1.512157072678386e-06   -5.429162080377269e-06
-1.2342788483824718e-05   -1.512157072678386e-06   -5.429162080377269e-06
2.4647646852879863e-06   -7.902758382032473e-06   -2.627405657661954e-05
2.4647646852879863e-06   -7.902758382032473e-06   -2.627405657661954e-05
2.4647646852879863e-06   -7.902758382032473e-06   -2.627405657661954e-05
2.4647646852879863e-06   -7.902758382032473e-06   -2.627405657661954e-05
-5.07524070862274e-06   -4.360189077681482e-06   -1.5832922502712207e-05
-5.07524070862274e-06   -4.360189077681482e-06   -1.5832922502712207e-05
-5.07524070862274e-06   -4.360189077681482e-06   -1.5832922502712207e-05
-5.07524070862274e-06   -4.360189077681482e-06   -1.5832922502712207e-05
2.4647646852879863e-06   -1.512157072678386e-06   -1.594801294765009e-06
2.4647646852879863e-06   -1.512157072678386e-06   -1.594801294765009e-06
2.4647646852879863e-06   -1.512157072678386e-06   -1.594801294765009e-06
2.4647646852879863e-06   -1.512157072678386e-06   -1.594801294765009e-06
-1.2342788483824739e-05   -7.902758382032473e-06   -3.010841736223195e-05
-1.2342788483824739e-05   -7.902758382032473e-06   -3.010841736223195e-05
-1.2342788483824739e-05   -7.902758382032473e-06   -3.010841736223195e-05
-1.2342788483824739e-05   -7.902758382032473e-06   -3.010841736223195e-05
-1.1695776588488905e-05   -1.2175839767998315e-06   -5.0615521091843235e-06
-1.1695776588488905e-05   -1.2175839767998315e-06   -5.0615521091843235e-06
-1.1695776588488905e-05   -1.2175839767998315e-06   -5.0615521091843235e-06
-1.1695776588488905e-05   -1.2175839767998315e-06   -5.0615521091843235e-06
2.898902264121352e-06   -7.860432764300682e-06   -2.5400307591034316e-05
2.898902264121352e-06   -7.860432764300682e-06   -2.5400307591034316e-05
2.898902264121352e-06   -7.860432764300682e-06   -2.5400307591034316e-05
2.898902264121352e-06   -7.860432764300682e-06   -2.5400307591034316e-05
-4.543033033404253e-06   -4.455143198411351e-06   -1.5040255834691775e-05
-4.543033033404253e-06   -4.455143198411351e-06   -1.5040255834691775e-05
-4.543033033404253e-06   -4.455143198411351e-06   -1.5040255834691775e-05
-4.543033033404253e-06   -4.455143198411351e-06   -1.5040255834691775e-05
2.898902264121352e-06   -1.2175839767996147e-06   -1.075842836683813e-06
2.898902264121352e-06   -1.2175839767996147e-06   -1.075842836683813e-06
2.898902264121352e-06   -1.2175839767996147e-06   -1.075842836683813e-06
2.898902264121352e-06   -1.2175839767996147e-06   -1.075842836683813e-06
-1.1695776588488946e-05   -7.860432764300682e-06   -2.9386016863534935e-05
-1.1695776588488946e-05   -7.860432764300682e-06   -2.9386016863534935e-05
-1.1695776588488946e-05   -7.860432764300682e-06   -2.9386016863534935e-05
-1.1695776588488946e-05   -7.860432764300682e-06   -2.9386016863534935e-05
-1.0578978571221633e-05   -9.377804387931347e-07   -5.041287999630229e-06
-1.0578978571221633e-05   -9.377804387931347e-07   -5.041287999630229e-06
-1.0578978571221633e-05   -9.377804387931347e-07   -5.041287999630229e-06
-1.0578978571221633e-05   -9.377804387931347e-07   -5.041287999630229e-06
3.547437342478135e-06   -7.578531972779034e-06   -2.4600863602071746e-05
3.547437342478135e-06   -7.578531972779034e-06   -2.4600863602071746e-05
3.547437342478135e-06   -7.578531972779034e-06   -2.4600863602071746e-05
3.547437342478135e-06   -7.578531972779034e-06   -2.4600863602071746e-05
-3.8511167155169925e-06   -4.351446060343921e-06   -1.4206191719540965e-05
-3.8511167155169925e-06   -4.351446060343921e-06   -1.4206191719540965e-05
-3.8511167155169925e-06   -4.351446060343921e-06   -1.4206191719540965e-05
-3.8511167155169925e-06   -4.351446060343921e-06   -1.4206191719540965e-05
-1.3092762237027338e-05   5.064120298548403e-07   -3.4904345254596495e-06
-1.3092762237027338e-05   5.064120298548403e-07   -3.4904345254596495e-06
-1.3092762237027338e-05   5.064120298548403e-07   -3.4904345254596495e-06
-1.3092762237027338e-05   5.064120298548403e-07   -3.4904345254596495e-06
-2.9890555054567734e-05   -9.590790267008159e-06   -3.75450772661447e-05
-2.9890555054567734e-05   -9.590790267008159e-06   -3.75450772661447e-05
-2.9890555054567734e-05   -9.590790267008159e-06   -3.75450772661447e-05
-2.9890555054567734e-05   -9.590790267008159e-06   -3.75450772661447e-05
-2.8990552231052392e-05   8.556058876984293e-07   -9.249979028977265e-06
-2.8990552231052392e-05   8.556058876984293e-07   -9.249979028977265e-06
-2.8990552231052392e-05   8.556058876984293e-07   -9.249979028977265e-06
-2.8990552231052392e-05   8.556058876984293e-07   -9.249979028977265e-06
-1.2342788483824718e-05   -1.0731519361887416e-05   -3.0043976791271887e-05
-1.2342788483824718e-05   -1.0731519361887416e-05   -3.0043976791271887e-05
-1.2342788483824718e-05   -1.0731519361887416e-05   -3.0043976791271887e-05
-1.2342788483824718e-05   -1.0731519361887416e-05   -3.0043976791271887e-05
-2.0778858183327763e-05   -4.8486088239106705e-06   -1.9513606948219576e-05
-2.0778858183327763e-05   -4.8486088239106705e-06   -1.9513606948219576e-05
-2.0778858183327763e-05   -4.8486088239106705e-06   -1.9513606948219576e-05
-2.0778858183327763e-05   -4.8486088239106705e-06   -1.9513606948219576e-05
-1.2342788483824718e-05   8.556058876984293e-07   -2.2977038792257845e-06
-1.2342788483824718e-05   8.556058876984293e-07   -2.2977038792257845e-06
-1.2342788483824718e-05   8.556058876984293e-07   -2.2977038792257845e-06
-1.2342788483824718e-05   8.556058876984293e-07   -2.2977038792257845e-06
-2.8990552231052443e-05   -1.0731519361887416e-05   -3.699625194102346e-05
-2.8990552231052443e-05   -1.0731519361887416e-05   -3.699625194102346e-05
-2.8990552231052443e-05   -1.0731519361887416e-05   -3.699625194102346e-05
-2.8990552231052443e-05   -1.0731519361887416e-05   -3.699625194102346e-05
-2.8128301632317917e-05   1.1765823570125244e-06   -8.23459936695936e-06
-2.8128301632317917e-05   1.1765823570125244e-06   -8.23459936695936e-06
-2.8128301632317917e-05   1.1765823570125244e-06   -8.23459936695936e-06
-2.8128301632317917e-05   1.1765823570125244e-06   -8.23459936695936e-06
-1.1695776588488925e-05   -1.07859763805963e-05   -2.8444605864109073e-05
-1.1695776588488925e-05   -1.07859763805963e-05   -2.8444605864109073e-05
-1.1695776588488925e-05   -1.07859763805963e-05   -2.8444605864109073e-05
-1.1695776588488925e-05   -1.07859763805963e-05   -2.8444605864109073e-05
-1.9901163204783507e-05   -4.8601572654442425e-06   -1.8324452972709264e-05
-1.9901163204783507e-05   -4.8601572654442425e-06   -1.8324452972709264e-05
-1.9901163204783507e-05   -4.8601572654442425e-06   -1.8324452972709264e-05
-1.9901163204783507e-05   -4.8601572654442425e-06   -1.8324452972709264e-05
-1.1695776588488925e-05   1.1765823570125244e-06   -1.057064124394095e-06
-1.1695776588488925e-05   1.1765823570125244e-06   -1.057064124394095e-06
-1.1695776588488925e-05   1.1765823570125244e-06   -1.057064124394095e-06
-1.1695776588488925e-05   1.1765823570125244e-06   -1.057064124394095e-06
-2.8128301632317965e-05   -1.07859763805963e-05   -3.5622141106674324e-05
-2.8128301632317965e-05   -1.07859763805963e-05   -3.5622141106674324e-05
-2.8128301632317965e-05   -1.07859763805963e-05   -3.5622141106674324e-05
-2.8128301632317965e-05   -1.07859763805963e-05   -3.5622141106674324e-05
-2.6711630047130735e-05   1.4470693459167194e-06   -7.204428329771412e-06
-2.6711630047130735e-05   1.4470693459167194e-06   -7.204428329771412e-06
-2.6711630047130735e-05   1.4470693459167194e-06   -7.204428329771412e-06
-2.6711630047130735e-05   1.4470693459167194e-06   -7.204428329771412e-06
-1.0578978571221667e-05   -9.81109819530126e-06   -2.7337280264889095e-05
-1.0578978571221667e-05   -9.81109819530126e-06   -2.7337280264889095e-05
-1.0578978571221667e-05   -9.81109819530126e-06   -2.7337280264889095e-05
-1.0578978571221667e-05   -9.81109819530126e-06   -2.7337280264889095e-05
-1.9038600216836858e-05   -4.2695973779413804e-06   -1.656281134594634e-05
-1.9038600216836858e-05   -4.2695973779413804e-06   -1.656281134594634e-05
-1.9038600216836858e-05   -4.2695973779413804e-06   -1.656281134594634e-05
-1.9038600216836858e-05   -4.2695973779413804e-06   -1.656281134594634e-05
-2.9890555054567734e-05   4.301178693340247e-06   -6.259508658345618e-06
-2.9890555054567734e-05   4.301178693340247e-06   -6.259508658345618e-06
-2.9890555054567734e-05   4.301178693340247e-06   -6.259508658345618e-06
-2.9890555054567734e-05   4.301178693340247e-06   -6.259508658345618e-06
-5.134009794571561e-05   0.0   -4.4589454026263244e-05
-5.134009794571561e-05   0.0   -4.4589454026263244e-05
-5.134009794571561e-05   0.0   -4.4589454026263244e-05
-5.134009794571561e-05   0.0   -4.4589454026263244e-05
-5.002723988690816e-05   5.425298037466759e-06   -4.765690273940979e-06
-5.002723988690816e-05   5.425298037466759e-06   -4.765690273940979e-06
-5.002723988690816e-05   5.425298037466759e-06   -4.765690273940979e-06
-5.002723988690816e-05   5.425298037466759e-06   -4.765690273940979e-06
-2.8990552231052392e-05   0.0   -3.6571657544553745e-05
-2.8990552231052392e-05   0.0   -3.6571657544553745e-05
-2.8990552231052392e-05   0.0   -3.6571657544553745e-05
-2.8990552231052392e-05   0.0   -3.6571657544553745e-05
-3.836103232034044e-05   1.6695727124143179e-06   -2.1955934356522372e-05
-3.836103232034044e-05   1.6695727124143179e-06   -2.1955934356522372e-05
-3.836103232034044e-05   1.6695727124143179e-06   -2.1955934356522372e-05
-3.836103232034044e-05   1.6695727124143179e-06   -2.1955934356522372e-05
-2.8990552231052416e-05   5.425298037466759e-06   -1.5105114514608921e-06
-2.8990552231052416e-05   5.425298037466759e-06   -1.5105114514608921e-06
-2.8990552231052416e-05   5.425298037466759e-06   -1.5105114514608921e-06
-2.8990552231052416e-05   5.425298037466759e-06   -1.5105114514608921e-06
-5.0027239886908075e-05   0.0   -3.9826836367033865e-05
-5.0027239886908075e-05   0.0   -3.9826836367033865e-05
-5.0027239886908075e-05   0.0   -3.9826836367033865e-05
-5.0027239886908075e-05   0.0   -3.9826836367033865e-05
-4.891404615374601e-05   5.678824674092966e-06   -1.778511887523277e-06
-4.891404615374601e-05   5.678824674092966e-06   -1.778511887523277e-06
-4.891404615374601e-05   5.678824674092966e-06   -1.778511887523277e-06
-4.891404615374601e-05   5.678824674092966e-06   -1.778511887523277e-06
-2.8128301632317965e-05   0.0   -3.301412461878105e-05
-2.8128301632317965e-05   0.0   -3.301412461878105e-05
-2.8128301632317965e-05   0.0   -3.301412461878105e-05
-2.8128301632317965e-05   0.0   -3.301412461878105e-05
-3.79807429271987e-05   2.629960255726583e-06   -1.817136528074856e-05
-3.79807429271987e-05   2.629960255726583e-06   -1.817136528074856e-05
-3.79807429271987e-05   2.629960255726583e-06   -1.817136528074856e-05
-3.79807429271987e-05   2.629960255726583e-06   -1.817136528074856e-05
-2.8128301632317965e-05   5.678824674093183e-06   1.6287829169325365e-06
-2.8128301632317965e-05   5.678824674093183e-06   1.6287829169325365e-06
-2.8128301632317965e-05   5.678824674093183e-06   1.6287829169325365e-06
-2.8128301632317965e-05   5.678824674093183e-06   1.6287829169325365e-06
-4.891404615374592e-05   0.0   -3.642141942323683e-05
-4.891404615374592e-05   0.0   -3.642141942323683e-05
-4.891404615374592e-05   0.0   -3.642141942323683e-05
-4.891404615374592e-05   0.0   -3.642141942323683e-05
-4.669036304614271e-05   6.1083419261381226e-06   3.0386382397005855e-06
-4.669036304614271e-05   6.1083419261381226e-06   3.0386382397005855e-06
-4.669036304614271e-05   6.1083419261381226e-06   3.0386382397005855e-06
-4.669036304614271e-05   6.1083419261381226e-06   3.0386382397005855e-06
-2.6711630047130762e-05   0.0   -2.6594244936303238e-05
-2.6711630047130762e-05   0.0   -2.6594244936303238e-05
-2.6711630047130762e-05   0.0   -2.6594244936303238e-05
-2.6711630047130762e-05   0.0   -2.6594244936303238e-05
-3.603082240587845e-05   3.239268476444893e-06   -1.3005818757590875e-05
-3.603082240587845e-05   3.239268476444893e-06   -1.3005818757590875e-05
-3.603082240587845e-05   3.239268476444893e-06   -1.3005818757590875e-05
-3.603082240587845e-05   3.239268476444893e-06   -1.3005818757590875e-05
3.794825317849364e-05   -6.491726638846278e-06   2.260710778902213e-05
3.794825317849364e-05   -6.491726638846278e-06   2.260710778902213e-05
3.794825317849364e-05   -6.491726638846278e-06   2.260710778902213e-05
3.794825317849364e-05   -6.491726638846278e-06   2.260710778902213e-05
1.965989476213668e-05   -5.02477767250209e-06   -6.993320191766282e-06
1.965989476213668e-05   -5.02477767250209e-06   -6.993320191766282e-06
1.965989476213668e-05   -5.02477767250209e-06   -6.993320191766282e-06
1.965989476213668e-05   -5.02477767250209e-06   -6.993320191766282e-06
1.9171206519246802e-05   -6.654199720368317e-06   1.9940151007447515e-05
1.9171206519246802e-05   -6.654199720368317e-06   1.9940151007447515e-05
1.9171206519246802e-05   -6.654199720368317e-06   1.9940151007447515e-05
1.9171206519246802e-05   -6.654199720368317e-06   1.9940151007447515e-05
3.755056824800073e-05   -5.520372217628208e-06   -1.1372415042119974e-05
3.755056824800073e-05   -5.520372217628208e-06   -1.1372415042119974e-05
3.755056824800073e-05   -5.520372217628208e-06   -1.1372415042119974e-05
3.755056824800073e-05   -5.520372217628208e-06   -1.1372415042119974e-05
2.74114633538972e-05   -5.605798011549959e-06   5.577348591072394e-06
2.74114633538972e-05   -5.605798011549959e-06   5.577348591072394e-06
2.74114633538972e-05   -5.605798011549959e-06   5.577348591072394e-06
2.74114633538972e-05   -5.605798011549959e-06   5.577348591072394e-06
3.755056824800073e-05   -6.654199720368317e-06   1.925985450580318e-05
3.755056824800073e-05   -6.654199720368317e-06   1.925985450580318e-05
3.755056824800073e-05   -6.654199720368317e-06   1.925985450580318e-05
3.755056824800073e-05   -6.654199720368317e-06   1.925985450580318e-05
1.9171206519246802e-05   -5.520372217628208e-06   -1.0692118540475692e-05
1.9171206519246802e-05   -5.520372217628208e-06   -1.0692118540475692e-05
1.9171206519246802e-05   -5.520372217628208e-06   -1.0692118540475692e-05
1.9171206519246802e-05   -5.520372217628208e-06   -1.0692118540475692e-05
1.8728572882252353e-05   -6.592473793999836e-06   1.7889687115672402e-05
1.8728572882252353e-05   -6.592473793999836e-06   1.7889687115672402e-05
1.8728572882252353e-05   -6.592473793999836e-06   1.7889687115672402e-05
1.8728572882252353e-05   -6.592473793999836e-06   1.7889687115672402e-05
3.708850307494472e-05   -5.564270776681028e-06   -1.3327118349206022e-05
3.708850307494472e-05   -5.564270776681028e-06   -1.3327118349206022e-05
3.708850307494472e-05   -5.564270776681028e-06   -1.3327118349206022e-05
3.708850307494472e-05   -5.564270776681028e-06   -1.3327118349206022e-05
2.7397621055937318e-05   -5.704172056767527e-06   2.9082924505248226e-06
2.7397621055937318e-05   -5.704172056767527e-06   2.9082924505248226e-06
2.7397621055937318e-05   -5.704172056767527e-06   2.9082924505248226e-06
2.7397621055937318e-05   -5.704172056767527e-06   2.9082924505248226e-06
3.70885030749448e-05   -6.592473793999836e-06   1.7272765305281285e-05
3.70885030749448e-05   -6.592473793999836e-06   1.7272765305281285e-05
3.70885030749448e-05   -6.592473793999836e-06   1.7272765305281285e-05
3.70885030749448e-05   -6.592473793999836e-06   1.7272765305281285e-05
1.8728572882252353e-05   -5.564270776681028e-06   -1.2710196538814932e-05
1.8728572882252353e-05   -5.564270776681028e-06   -1.2710196538814932e-05
1.8728572882252353e-05   -5.564270776681028e-06   -1.2710196538814932e-05
1.8728572882252353e-05   -5.564270776681028e-06   -1.2710196538814932e-05
1.8188248434831656e-05   -6.221535753371619e-06   1.4553696648095596e-05
1.8188248434831656e-05   -6.221535753371619e-06   1.4553696648095596e-05
1.8188248434831656e-05   -6.221535753371619e-06   1.4553696648095596e-05
1.8188248434831656e-05   -6.221535753371619e-06   1.4553696648095596e-05
3.636433275430234e-05   -5.442370951689538e-06   -1.6207276098697903e-05
3.636433275430234e-05   -5.442370951689538e-06   -1.6207276098697903e-05
3.636433275430234e-05   -5.442370951689538e-06   -1.6207276098697903e-05
3.636433275430234e-05   -5.442370951689538e-06   -1.6207276098697903e-05
2.6468586280156223e-05   -5.423480113751658e-06   2.74300188782663e-07
2.6468586280156223e-05   -5.423480113751658e-06   2.74300188782663e-07
2.6468586280156223e-05   -5.423480113751658e-06   2.74300188782663e-07
2.6468586280156223e-05   -5.423480113751658e-06   2.74300188782663e-07
1.965989476213668e-05   -6.459487753721202e-06   1.6853289719966438e-05
1.965989476213668e-05   -6.459487753721202e-06   1.6853289719966438e-05
1.965989476213668e-05   -6.459487753721202e-06   1.6853289719966438e-05
1.965989476213668e-05   -6.459487753721202e-06   1.6853289719966438e-05
4.105725298537418e-06   -3.0812536775692324e-06   -7.043385607007893e-06
4.105725298537418e-06   -3.0812536775692324e-06   -7.043385607007893e-06
4.105725298537418e-06   -3.0812536775692324e-06   -7.043385607007893e-06
4.105725298537418e-06   -3.0812536775692324e-06   -7.043385607007893e-06
3.3324413187414264e-06   -6.4234330234113745e-06   1.9207476575164675e-05
3.3324413187414264e-06   -6.4234330234113745e-06   1.9207476575164675e-05
3.3324413187414264e-06   -6.4234330234113745e-06   1.9207476575164675e-05
3.3324413187414264e-06   -6.4234330234113745e-06   1.9207476575164675e-05
1.9171206519246802e-05   -3.2663108931200915e-06   -9.084738703852126e-06
1.9171206519246802e-05   -3.2663108931200915e-06   -9.084738703852126e-06
1.9171206519246802e-05   -3.2663108931200915e-06   -9.084738703852126e-06
1.9171206519246802e-05   -3.2663108931200915e-06   -9.084738703852126e-06
1.1550013466987463e-05   -4.629208638535403e-06   4.434988363829085e-06
1.1550013466987463e-05   -4.629208638535403e-06   4.434988363829085e-06
1.1550013466987463e-05   -4.629208638535403e-06   4.434988363829085e-06
1.1550013466987463e-05   -4.629208638535403e-06   4.434988363829085e-06
1.9171206519246782e-05   -6.4234330234113745e-06   1.7313203296990043e-05
1.9171206519246782e-05   -6.4234330234113745e-06   1.7313203296990043e-05
1.9171206519246782e-05   -6.4234330234113745e-06   1.7313203296990043e-05
1.9171206519246782e-05   -6.4234330234113745e-06   1.7313203296990043e-05
3.33244131874144e-06   -3.2663108931200915e-06   -7.190465425677508e-06
3.33244131874144e-06   -3.2663108931200915e-06   -7.190465425677508e-06
3.33244131874144e-06   -3.2663108931200915e-06   -7.190465425677508e-06
3.33244131874144e-06   -3.2663108931200915e-06   -7.190465425677508e-06
2.7801004887036726e-06   -6.333279895485338e-06   1.9225880747394822e-05
2.7801004887036726e-06   -6.333279895485338e-06   1.9225880747394822e-05
2.7801004887036726e-06   -6.333279895485338e-06   1.9225880747394822e-05
2.7801004887036726e-06   -6.333279895485338e-06   1.9225880747394822e-05
1.8728572882252353e-05   -3.3463190026966454e-06   -9.147083110859705e-06
1.8728572882252353e-05   -3.3463190026966454e-06   -9.147083110859705e-06
1.8728572882252353e-05   -3.3463190026966454e-06   -9.147083110859705e-06
1.8728572882252353e-05   -3.3463190026966454e-06   -9.147083110859705e-06
1.0884993436737996e-05   -4.532625064007515e-06   4.637332935117941e-06
1.0884993436737996e-05   -4.532625064007515e-06   4.637332935117941e-06
1.0884993436737996e-05   -4.532625064007515e-06   4.637332935117941e-06
1.0884993436737996e-05   -4.532625064007515e-06   4.637332935117941e-06
1.8728572882252386e-05   -6.333279895485338e-06   1.743370421172155e-05
1.8728572882252386e-05   -6.333279895485338e-06   1.743370421172155e-05
1.8728572882252386e-05   -6.333279895485338e-06   1.743370421172155e-05
1.8728572882252386e-05   -6.333279895485338e-06   1.743370421172155e-05
2.7801004887036726e-06   -3.3463190026966454e-06   -7.35490657518623e-06
2.7801004887036726e-06   -3.3463190026966454e-06   -7.35490657518623e-06
2.7801004887036726e-06   -3.3463190026966454e-06   -7.35490657518623e-06
2.7801004887036726e-06   -3.3463190026966454e-06   -7.35490657518623e-06
2.1660468310766474e-06   -6.155715944241918e-06   1.9839594353585023e-05
2.1660468310766474e-06   -6.155715944241918e-06   1.9839594353585023e-05
2.1660468310766474e-06   -6.155715944241918e-06   1.9839594353585023e-05
2.1660468310766474e-06   -6.155715944241918e-06   1.9839594353585023e-05
1.818824843483165e-05   -3.2668038137343564e-06   -8.597422264311244e-06
1.818824843483165e-05   -3.2668038137343564e-06   -8.597422264311244e-06
1.818824843483165e-05   -3.2668038137343564e-06   -8.597422264311244e-06
1.818824843483165e-05   -3.2668038137343564e-06   -8.597422264311244e-06
1.0480080381273274e-05   -4.330618703335073e-06   4.887813425379919e-06
1.0480080381273274e-05   -4.330618703335073e-06   4.887813425379919e-06
1.0480080381273274e-05   -4.330618703335073e-06   4.887813425379919e-06
1.0480080381273274e-05   -4.330618703335073e-06   4.887813425379919e-06
4.105725298537418e-06   -7.736110766895813e-06   1.730722621743113e-05
4.105725298537418e-06   -7.736110766895813e-06   1.730722621743113e-05
4.105725298537418e-06   -7.736110766895813e-06   1.730722621743113e-05
4.105725298537418e-06   -7.736110766895813e-06   1.730722621743113e-05
-1.0841884166176153e-05   -1.256033347922774e-06   -3.7174097723744306e-06
-1.0841884166176153e-05   -1.256033347922774e-06   -3.7174097723744306e-06
-1.0841884166176153e-05   -1.256033347922774e-06   -3.7174097723744306e-06
-1.0841884166176153e-05   -1.256033347922774e-06   -3.7174097723744306e-06
-1.204413892131636e-05   -7.902758382032473e-06   2.219747717177058e-05
-1.204413892131636e-05   -7.902758382032473e-06   2.219747717177058e-05
-1.204413892131636e-05   -7.902758382032473e-06   2.219747717177058e-05
-1.204413892131636e-05   -7.902758382032473e-06   2.219747717177058e-05
3.33244131874144e-06   -1.3250432556372906e-06   -7.376785637496159e-06
3.33244131874144e-06   -1.3250432556372906e-06   -7.376785637496159e-06
3.33244131874144e-06   -1.3250432556372906e-06   -7.376785637496159e-06
3.33244131874144e-06   -1.3250432556372906e-06   -7.376785637496159e-06
-3.730448744142519e-06   -4.407442299311651e-06   6.24413722684835e-06
-3.730448744142519e-06   -4.407442299311651e-06   6.24413722684835e-06
-3.730448744142519e-06   -4.407442299311651e-06   6.24413722684835e-06
-3.730448744142519e-06   -4.407442299311651e-06   6.24413722684835e-06
3.3324413187414264e-06   -7.902758382032473e-06   1.825084809593335e-05
3.3324413187414264e-06   -7.902758382032473e-06   1.825084809593335e-05
3.3324413187414264e-06   -7.902758382032473e-06   1.825084809593335e-05
3.3324413187414264e-06   -7.902758382032473e-06   1.825084809593335e-05
-1.2044138921316333e-05   -1.3250432556372906e-06   -3.4301565616591577e-06
-1.2044138921316333e-05   -1.3250432556372906e-06   -3.4301565616591577e-06
-1.2044138921316333e-05   -1.3250432556372906e-06   -3.4301565616591577e-06
-1.2044138921316333e-05   -1.3250432556372906e-06   -3.4301565616591577e-06
-1.2780465755860017e-05   -7.860432764300682e-06   2.3037969132851718e-05
-1.2780465755860017e-05   -7.860432764300682e-06   2.3037969132851718e-05
-1.2780465755860017e-05   -7.860432764300682e-06   2.3037969132851718e-05
-1.2780465755860017e-05   -7.860432764300682e-06   2.3037969132851718e-05
2.7801004887036726e-06   -1.410183232513013e-06   -6.7664576604935505e-06
2.7801004887036726e-06   -1.410183232513013e-06   -6.7664576604935505e-06
2.7801004887036726e-06   -1.410183232513013e-06   -6.7664576604935505e-06
2.7801004887036726e-06   -1.410183232513013e-06   -6.7664576604935505e-06
-4.545102142111858e-06   -4.389300476977543e-06   7.2296837375442654e-06
-4.545102142111858e-06   -4.389300476977543e-06   7.2296837375442654e-06
-4.545102142111858e-06   -4.389300476977543e-06   7.2296837375442654e-06
-4.545102142111858e-06   -4.389300476977543e-06   7.2296837375442654e-06
2.7801004887036726e-06   -7.860432764300682e-06   1.9167819413779113e-05
2.7801004887036726e-06   -7.860432764300682e-06   1.9167819413779113e-05
2.7801004887036726e-06   -7.860432764300682e-06   1.9167819413779113e-05
2.7801004887036726e-06   -7.860432764300682e-06   1.9167819413779113e-05
-1.278046575585999e-05   -1.410183232513013e-06   -2.896307941421014e-06
-1.278046575585999e-05   -1.410183232513013e-06   -2.896307941421014e-06
-1.278046575585999e-05   -1.410183232513013e-06   -2.896307941421014e-06
-1.278046575585999e-05   -1.410183232513013e-06   -2.896307941421014e-06
-1.3644704911830662e-05   -7.578531972779034e-06   2.412376825112843e-05
-1.3644704911830662e-05   -7.578531972779034e-06   2.412376825112843e-05
-1.3644704911830662e-05   -7.578531972779034e-06   2.412376825112843e-05
-1.3644704911830662e-05   -7.578531972779034e-06   2.412376825112843e-05
2.166046831076654e-06   -1.398597603511709e-06   -5.9354452752774685e-06
2.166046831076654e-06   -1.398597603511709e-06   -5.9354452752774685e-06
2.166046831076654e-06   -1.398597603511709e-06   -5.9354452752774685e-06
2.166046831076654e-06   -1.398597603511709e-06   -5.9354452752774685e-06
-5.209249304075075e-06   -4.209116413772095e-06   8.04302623613176e-06
-5.209249304075075e-06   -4.209116413772095e-06   8.04302623613176e-06
-5.209249304075075e-06   -4.209116413772095e-06   8.04302623613176e-06
-5.209249304075075e-06   -4.209116413772095e-06   8.04302623613176e-06
-1.0841884166176173e-05   -9.590790267008159e-06   2.092952817770321e-05
-1.0841884166176173e-05   -9.590790267008159e-06   2.092952817770321e-05
-1.0841884166176173e-05   -9.590790267008159e-06   2.092952817770321e-05
-1.0841884166176173e-05   -9.590790267008159e-06   2.092952817770321e-05
-2.78186805670542e-05   1.4639775755957186e-06   -7.322717848645037e-07
-2.78186805670542e-05   1.4639775755957186e-06   -7.322717848645037e-07
-2.78186805670542e-05   1.4639775755957186e-06   -7.322717848645037e-07
-2.78186805670542e-05   1.4639775755957186e-06   -7.322717848645037e-07
-2.92690065856309e-05   -1.0731519361887416e-05   2.953294634666366e-05
-2.92690065856309e-05   -1.0731519361887416e-05   2.953294634666366e-05
-2.92690065856309e-05   -1.0731519361887416e-05   2.953294634666366e-05
-2.92690065856309e-05   -1.0731519361887416e-05   2.953294634666366e-05
-1.2044138921316333e-05   1.386861644667647e-06   -6.446195031127111e-06
-1.2044138921316333e-05   1.386861644667647e-06   -6.446195031127111e-06
-1.2044138921316333e-05   1.386861644667647e-06   -6.446195031127111e-06
-1.2044138921316333e-05   1.386861644667647e-06   -6.446195031127111e-06
-1.9717631790035098e-05   -3.930010745504284e-06   9.533083184174059e-06
-1.9717631790035098e-05   -3.930010745504284e-06   9.533083184174059e-06
-1.9717631790035098e-05   -3.930010745504284e-06   9.533083184174059e-06
-1.9717631790035098e-05   -3.930010745504284e-06   9.533083184174059e-06
-1.2044138921316333e-05   -1.0731519361887416e-05   2.226191774273044e-05
-1.2044138921316333e-05   -1.0731519361887416e-05   2.226191774273044e-05
-1.2044138921316333e-05   -1.0731519361887416e-05   2.226191774273044e-05
-1.2044138921316333e-05   -1.0731519361887416e-05   2.226191774273044e-05
-2.9269006585630845e-05   1.386861644667647e-06   8.248335728059048e-07
-2.9269006585630845e-05   1.386861644667647e-06   8.248335728059048e-07
-2.9269006585630845e-05   1.386861644667647e-06   8.248335728059048e-07
-2.9269006585630845e-05   1.386861644667647e-06   8.248335728059048e-07
-3.015188274201523e-05   -1.07859763805963e-05   3.119350762220219e-05
-3.015188274201523e-05   -1.07859763805963e-05   3.119350762220219e-05
-3.015188274201523e-05   -1.07859763805963e-05   3.119350762220219e-05
-3.015188274201523e-05   -1.07859763805963e-05   3.119350762220219e-05
-1.278046575585999e-05   1.2375694359448644e-06   -4.972981511314504e-06
-1.278046575585999e-05   1.2375694359448644e-06   -4.972981511314504e-06
-1.278046575585999e-05   1.2375694359448644e-06   -4.972981511314504e-06
-1.278046575585999e-05   1.2375694359448644e-06   -4.972981511314504e-06
-2.0656009626678605e-05   -4.543537429979832e-06   1.1621589059604605e-05
-2.0656009626678605e-05   -4.543537429979832e-06   1.1621589059604605e-05
-2.0656009626678605e-05   -4.543537429979832e-06   1.1621589059604605e-05
-2.0656009626678605e-05   -4.543537429979832e-06   1.1621589059604605e-05
-1.278046575585999e-05   -1.07859763805963e-05   2.3979380132277457e-05
-1.278046575585999e-05   -1.07859763805963e-05   2.3979380132277457e-05
-1.278046575585999e-05   -1.07859763805963e-05   2.3979380132277457e-05
-1.278046575585999e-05   -1.07859763805963e-05   2.3979380132277457e-05
-3.0151882742015183e-05   1.2375694359448644e-06   2.241145978610108e-06
-3.0151882742015183e-05   1.2375694359448644e-06   2.241145978610108e-06
-3.0151882742015183e-05   1.2375694359448644e-06   2.241145978610108e-06
-3.0151882742015183e-05   1.2375694359448644e-06   2.241145978610108e-06
-3.11044269622195e-05   -9.81109819530126e-06   3.1899027533963445e-05
-3.11044269622195e-05   -9.81109819530126e-06   3.1899027533963445e-05
-3.11044269622195e-05   -9.81109819530126e-06   3.1899027533963445e-05
-3.11044269622195e-05   -9.81109819530126e-06   3.1899027533963445e-05
-1.3644704911830662e-05   1.0676101801334117e-06   -3.7277342419454827e-06
-1.3644704911830662e-05   1.0676101801334117e-06   -3.7277342419454827e-06
-1.3644704911830662e-05   1.0676101801334117e-06   -3.7277342419454827e-06
-1.3644704911830662e-05   1.0676101801334117e-06   -3.7277342419454827e-06
-2.162740647410679e-05   -4.573941911357516e-06   1.2961699616742767e-05
-2.162740647410679e-05   -4.573941911357516e-06   1.2961699616742767e-05
-2.162740647410679e-05   -4.573941911357516e-06   1.2961699616742767e-05
-2.162740647410679e-05   -4.573941911357516e-06   1.2961699616742767e-05
-2.781868056705411e-05   0.0   2.3098719339151248e-05
-2.781868056705411e-05   0.0   2.3098719339151248e-05
-2.781868056705411e-05   0.0   2.3098719339151248e-05
-2.781868056705411e-05   0.0   2.3098719339151248e-05
-4.886232907992289e-05   6.422053690122295e-06   -8.120795968223431e-06
-4.886232907992289e-05   6.422053690122295e-06   -8.120795968223431e-06
-4.886232907992289e-05   6.422053690122295e-06   -8.120795968223431e-06
-4.886232907992289e-05   6.422053690122295e-06   -8.120795968223431e-06
-5.0851927044689805e-05   0.0   3.368410371928357e-05
-5.0851927044689805e-05   0.0   3.368410371928357e-05
-5.0851927044689805e-05   0.0   3.368410371928357e-05
-5.0851927044689805e-05   0.0   3.368410371928357e-05
-2.9269006585630845e-05   6.2109382935840885e-06   -6.01399335529865e-06
-2.9269006585630845e-05   6.2109382935840885e-06   -6.01399335529865e-06
-2.9269006585630845e-05   6.2109382935840885e-06   -6.01399335529865e-06
-2.9269006585630845e-05   6.2109382935840885e-06   -6.01399335529865e-06
-3.7531011037828404e-05   3.8092292944336094e-06   9.197039464520966e-06
-3.7531011037828404e-05   3.8092292944336094e-06   9.197039464520966e-06
-3.7531011037828404e-05   3.8092292944336094e-06   9.197039464520966e-06
-3.7531011037828404e-05   3.8092292944336094e-06   9.197039464520966e-06
-2.9269006585630818e-05   0.0   2.9957540743133123e-05
-2.9269006585630818e-05   0.0   2.9957540743133123e-05
-2.9269006585630818e-05   0.0   2.9957540743133123e-05
-2.9269006585630818e-05   0.0   2.9957540743133123e-05
-5.085192704468989e-05   6.2109382935840885e-06   -2.287430379148132e-06
-5.085192704468989e-05   6.2109382935840885e-06   -2.287430379148132e-06
-5.085192704468989e-05   6.2109382935840885e-06   -2.287430379148132e-06
-5.085192704468989e-05   6.2109382935840885e-06   -2.287430379148132e-06
-5.185265499985979e-05   0.0   3.743533347057575e-05
-5.185265499985979e-05   0.0   3.743533347057575e-05
-5.185265499985979e-05   0.0   3.743533347057575e-05
-5.185265499985979e-05   0.0   3.743533347057575e-05
-3.0151882742015183e-05   6.0563489341337005e-06   -2.36642965297895e-06
-3.0151882742015183e-05   6.0563489341337005e-06   -2.36642965297895e-06
-3.0151882742015183e-05   6.0563489341337005e-06   -2.36642965297895e-06
-3.0151882742015183e-05   6.0563489341337005e-06   -2.36642965297895e-06
-3.946380296033101e-05   3.1841944050513445e-06   1.4876730094997247e-05
-3.946380296033101e-05   3.1841944050513445e-06   1.4876730094997247e-05
-3.946380296033101e-05   3.1841944050513445e-06   1.4876730094997247e-05
-3.946380296033101e-05   3.1841944050513445e-06   1.4876730094997247e-05
-3.0151882742015183e-05   0.0   3.380152411009548e-05
-3.0151882742015183e-05   0.0   3.380152411009548e-05
-3.0151882742015183e-05   0.0   3.380152411009548e-05
-3.0151882742015183e-05   0.0   3.380152411009548e-05
-5.185265499985988e-05   6.0563489341337005e-06   1.2673797075013352e-06
-5.185265499985988e-05   6.0563489341337005e-06   1.2673797075013352e-06
-5.185265499985988e-05   6.0563489341337005e-06   1.2673797075013352e-06
-5.185265499985988e-05   6.0563489341337005e-06   1.2673797075013352e-06
-5.296205991686312e-05   0.0   4.2434933241704124e-05
-5.296205991686312e-05   0.0   4.2434933241704124e-05
-5.296205991686312e-05   0.0   4.2434933241704124e-05
-5.296205991686312e-05   0.0   4.2434933241704124e-05
-3.1104426962219465e-05   5.063283090706722e-06   2.967575129540442e-06
-3.1104426962219465e-05   5.063283090706722e-06   2.967575129540442e-06
-3.1104426962219465e-05   5.063283090706722e-06   2.967575129540442e-06
-3.1104426962219465e-05   5.063283090706722e-06   2.967575129540442e-06
-3.9774955634879297e-05   2.2444640136740426e-06   1.9109747696859406e-05
-3.9774955634879297e-05   2.2444640136740426e-06   1.9109747696859406e-05
-3.9774955634879297e-05   2.2444640136740426e-06   1.9109747696859406e-05
-3.9774955634879297e-05   2.2444640136740426e-06   1.9109747696859406e-05
3.347513207388615e-05   -5.02477767250209e-06   2.368032872311499e-05
3.347513207388615e-05   -5.02477767250209e-06   2.368032872311499e-05
3.347513207388615e-05   -5.02477767250209e-06   2.368032872311499e-05
3.347513207388615e-05   -5.02477767250209e-06   2.368032872311499e-05
1.6909990172657548e-05   -3.808083317938596e-06   -3.1982244995278465e-06
1.6909990172657548e-05   -3.808083317938596e-06   -3.1982244995278465e-06
1.6909990172657548e-05   -3.808083317938596e-06   -3.1982244995278465e-06
1.6909990172657548e-05   -3.808083317938596e-06   -3.1982244995278465e-06
1.646943617952093e-05   -5.520372217628208e-06   2.065094338569225e-05
1.646943617952093e-05   -5.520372217628208e-06   2.065094338569225e-05
1.646943617952093e-05   -5.520372217628208e-06   2.065094338569225e-05
1.646943617952093e-05   -5.520372217628208e-06   2.065094338569225e-05
3.2691078415553e-05   -4.311101948296708e-06   -7.110689169293307e-06
3.2691078415553e-05   -4.311101948296708e-06   -7.110689169293307e-06
3.2691078415553e-05   -4.311101948296708e-06   -7.110689169293307e-06
3.2691078415553e-05   -4.311101948296708e-06   -7.110689169293307e-06
2.3778515975532037e-05   -4.481040084107772e-06   7.845544445561473e-06
2.3778515975532037e-05   -4.481040084107772e-06   7.845544445561473e-06
2.3778515975532037e-05   -4.481040084107772e-06   7.845544445561473e-06
2.3778515975532037e-05   -4.481040084107772e-06   7.845544445561473e-06
3.269107841555294e-05   -5.520372217628208e-06   1.9925381224093414e-05
3.269107841555294e-05   -5.520372217628208e-06   1.9925381224093414e-05
3.269107841555294e-05   -5.520372217628208e-06   1.9925381224093414e-05
3.269107841555294e-05   -5.520372217628208e-06   1.9925381224093414e-05
1.6469436179520956e-05   -4.311101948296708e-06   -6.385127007694537e-06
1.6469436179520956e-05   -4.311101948296708e-06   -6.385127007694537e-06
1.6469436179520956e-05   -4.311101948296708e-06   -6.385127007694537e-06
1.6469436179520956e-05   -4.311101948296708e-06   -6.385127007694537e-06
1.5901866831182302e-05   -5.564270776681028e-06   1.8524721026739522e-05
1.5901866831182302e-05   -5.564270776681028e-06   1.8524721026739522e-05
1.5901866831182302e-05   -5.564270776681028e-06   1.8524721026739522e-05
1.5901866831182302e-05   -5.564270776681028e-06   1.8524721026739522e-05
3.1896946286509066e-05   -4.38468967567298e-06   -8.841493392743429e-06
3.1896946286509066e-05   -4.38468967567298e-06   -8.841493392743429e-06
3.1896946286509066e-05   -4.38468967567298e-06   -8.841493392743429e-06
3.1896946286509066e-05   -4.38468967567298e-06   -8.841493392743429e-06
2.3564238882209173e-05   -4.675555713954012e-06   5.2208719040581835e-06
2.3564238882209173e-05   -4.675555713954012e-06   5.2208719040581835e-06
2.3564238882209173e-05   -4.675555713954012e-06   5.2208719040581835e-06
2.3564238882209173e-05   -4.675555713954012e-06   5.2208719040581835e-06
3.1896946286509066e-05   -5.564270776681028e-06   1.7816972366134585e-05
3.1896946286509066e-05   -5.564270776681028e-06   1.7816972366134585e-05
3.1896946286509066e-05   -5.564270776681028e-06   1.7816972366134585e-05
3.1896946286509066e-05   -5.564270776681028e-06   1.7816972366134585e-05
1.5901866831182302e-05   -4.38468967567298e-06   -8.133744732138491e-06
1.5901866831182302e-05   -4.38468967567298e-06   -8.133744732138491e-06
1.5901866831182302e-05   -4.38468967567298e-06   -8.133744732138491e-06
1.5901866831182302e-05   -4.38468967567298e-06   -8.133744732138491e-06
1.5305954153296233e-05   -5.442370951689755e-06   1.536638021928027e-05
1.5305954153296233e-05   -5.442370951689755e-06   1.536638021928027e-05
1.5305954153296233e-05   -5.442370951689755e-06   1.536638021928027e-05
1.5305954153296233e-05   -5.442370951689755e-06   1.536638021928027e-05
3.0902504135822806e-05   -4.351707911677506e-06   -1.1282267575604622e-05
3.0902504135822806e-05   -4.351707911677506e-06   -1.1282267575604622e-05
3.0902504135822806e-05   -4.351707911677506e-06   -1.1282267575604622e-05
3.0902504135822806e-05   -4.351707911677506e-06   -1.1282267575604622e-05
2.2523583681781572e-05   -4.551407269560298e-06   2.802419462527529e-06
2.2523583681781572e-05   -4.551407269560298e-06   2.802419462527529e-06
2.2523583681781572e-05   -4.551407269560298e-06   2.802419462527529e-06
2.2523583681781572e-05   -4.551407269560298e-06   2.802419462527529e-06
1.6909990172657548e-05   -3.0812536775692324e-06   2.2333339474920428e-05
1.6909990172657548e-05   -3.0812536775692324e-06   2.2333339474920428e-05
1.6909990172657548e-05   -3.0812536775692324e-06   2.2333339474920428e-05
1.6909990172657548e-05   -3.0812536775692324e-06   2.2333339474920428e-05
1.8046612914560545e-06   -1.337240886658403e-06   -1.7958009858688511e-06
1.8046612914560545e-06   -1.337240886658403e-06   -1.7958009858688511e-06
1.8046612914560545e-06   -1.337240886658403e-06   -1.7958009858688511e-06
1.8046612914560545e-06   -1.337240886658403e-06   -1.7958009858688511e-06
1.3664429155519725e-06   -3.2663108931200915e-06   2.325427375239695e-05
1.3664429155519725e-06   -3.2663108931200915e-06   2.325427375239695e-05
1.3664429155519725e-06   -3.2663108931200915e-06   2.325427375239695e-05
1.3664429155519725e-06   -3.2663108931200915e-06   2.325427375239695e-05
1.6469436179520956e-05   -1.606393342984836e-06   -2.913332217632531e-06
1.6469436179520956e-05   -1.606393342984836e-06   -2.913332217632531e-06
1.6469436179520956e-05   -1.606393342984836e-06   -2.913332217632531e-06
1.6469436179520956e-05   -1.606393342984836e-06   -2.913332217632531e-06
9.049764102200113e-06   -2.1606358266014047e-06   9.785333401405552e-06
9.049764102200113e-06   -2.1606358266014047e-06   9.785333401405552e-06
9.049764102200113e-06   -2.1606358266014047e-06   9.785333401405552e-06
9.049764102200113e-06   -2.1606358266014047e-06   9.785333401405552e-06
1.646943617952095e-05   -3.2663108931200915e-06   2.2258323222315723e-05
1.646943617952095e-05   -3.2663108931200915e-06   2.2258323222315723e-05
1.646943617952095e-05   -3.2663108931200915e-06   2.2258323222315723e-05
1.646943617952095e-05   -3.2663108931200915e-06   2.2258323222315723e-05
1.3664429155519725e-06   -1.606393342984836e-06   -1.917381687551291e-06
1.3664429155519725e-06   -1.606393342984836e-06   -1.917381687551291e-06
1.3664429155519725e-06   -1.606393342984836e-06   -1.917381687551291e-06
1.3664429155519725e-06   -1.606393342984836e-06   -1.917381687551291e-06
8.076657632625069e-07   -3.3463190026966454e-06   2.30268484611556e-05
8.076657632625069e-07   -3.3463190026966454e-06   2.30268484611556e-05
8.076657632625069e-07   -3.3463190026966454e-06   2.30268484611556e-05
8.076657632625069e-07   -3.3463190026966454e-06   2.30268484611556e-05
1.5901866831182302e-05   -1.781295658595007e-06   -3.0691673251715887e-06
1.5901866831182302e-05   -1.781295658595007e-06   -3.0691673251715887e-06
1.5901866831182302e-05   -1.781295658595007e-06   -3.0691673251715887e-06
1.5901866831182302e-05   -1.781295658595007e-06   -3.0691673251715887e-06
8.493037307632842e-06   -2.2616726273225847e-06   9.56710806198106e-06
8.493037307632842e-06   -2.2616726273225847e-06   9.56710806198106e-06
8.493037307632842e-06   -2.2616726273225847e-06   9.56710806198106e-06
8.493037307632842e-06   -2.2616726273225847e-06   9.56710806198106e-06
1.5901866831182275e-05   -3.3463190026966454e-06   2.2087834454694627e-05
1.5901866831182275e-05   -3.3463190026966454e-06   2.2087834454694627e-05
1.5901866831182275e-05   -3.3463190026966454e-06   2.2087834454694627e-05
1.5901866831182275e-05   -3.3463190026966454e-06   2.2087834454694627e-05
8.076657632625069e-07   -1.781295658595007e-06   -2.130153318710736e-06
8.076657632625069e-07   -1.781295658595007e-06   -2.130153318710736e-06
8.076657632625069e-07   -1.781295658595007e-06   -2.130153318710736e-06
8.076657632625069e-07   -1.781295658595007e-06   -2.130153318710736e-06
1.904626565115344e-07   -3.2668038137341395e-06   2.335647339890784e-05
1.904626565115344e-07   -3.2668038137341395e-06   2.335647339890784e-05
1.904626565115344e-07   -3.2668038137341395e-06   2.335647339890784e-05
1.904626565115344e-07   -3.2668038137341395e-06   2.335647339890784e-05
1.530595415329622e-05   -1.8539067699844137e-06   -2.6837506553165124e-06
1.530595415329622e-05   -1.8539067699844137e-06   -2.6837506553165124e-06
1.530595415329622e-05   -1.8539067699844137e-06   -2.6837506553165124e-06
1.530595415329622e-05   -1.8539067699844137e-06   -2.6837506553165124e-06
8.042070663352511e-06   -2.2379898422195685e-06   9.653171671264427e-06
8.042070663352511e-06   -2.2379898422195685e-06   9.653171671264427e-06
8.042070663352511e-06   -2.2379898422195685e-06   9.653171671264427e-06
8.042070663352511e-06   -2.2379898422195685e-06   9.653171671264427e-06
1.804661291456068e-06   -1.2560333479225572e-06   2.281767653271686e-05
1.804661291456068e-06   -1.2560333479225572e-06   2.281767653271686e-05
1.804661291456068e-06   -1.2560333479225572e-06   2.281767653271686e-05
1.804661291456068e-06   -1.2560333479225572e-06   2.281767653271686e-05
-1.2833855178583998e-05   1.2024107957004683e-06   -1.047844311760594e-07
-1.2833855178583998e-05   1.2024107957004683e-06   -1.047844311760594e-07
-1.2833855178583998e-05   1.2024107957004683e-06   -1.047844311760594e-07
-1.2833855178583998e-05   1.2024107957004683e-06   -1.047844311760594e-07
-1.3327839589253294e-05   -1.3250432556372906e-06   2.4462096474588027e-05
-1.3327839589253294e-05   -1.3250432556372906e-06   2.4462096474588027e-05
-1.3327839589253294e-05   -1.3250432556372906e-06   2.4462096474588027e-05
-1.3327839589253294e-05   -1.3250432556372906e-06   2.4462096474588027e-05
1.3664429155519725e-06   9.985283010458066e-07   -1.4225173007638035e-06
1.3664429155519725e-06   9.985283010458066e-07   -1.4225173007638035e-06
1.3664429155519725e-06   9.985283010458066e-07   -1.4225173007638035e-06
1.3664429155519725e-06   9.985283010458066e-07   -1.4225173007638035e-06
-5.737316469323772e-06   1.238753984935878e-08   1.1008766130746965e-05
-5.737316469323772e-06   1.238753984935878e-08   1.1008766130746965e-05
-5.737316469323772e-06   1.238753984935878e-08   1.1008766130746965e-05
-5.737316469323772e-06   1.238753984935878e-08   1.1008766130746965e-05
1.3664429155519725e-06   -1.3250432556372906e-06   2.306795354057834e-05
1.3664429155519725e-06   -1.3250432556372906e-06   2.306795354057834e-05
1.3664429155519725e-06   -1.3250432556372906e-06   2.306795354057834e-05
1.3664429155519725e-06   -1.3250432556372906e-06   2.306795354057834e-05
-1.3327839589253294e-05   9.985283010458066e-07   -2.8374366754075307e-08
-1.3327839589253294e-05   9.985283010458066e-07   -2.8374366754075307e-08
-1.3327839589253294e-05   9.985283010458066e-07   -2.8374366754075307e-08
-1.3327839589253294e-05   9.985283010458066e-07   -2.8374366754075307e-08
-1.3988687494045283e-05   -1.410183232513013e-06   2.4946659912975042e-05
-1.3988687494045283e-05   -1.410183232513013e-06   2.4946659912975042e-05
-1.3988687494045283e-05   -1.410183232513013e-06   2.4946659912975042e-05
-1.3988687494045283e-05   -1.410183232513013e-06   2.4946659912975042e-05
8.076657632625069e-07   8.08754329364959e-07   -1.0452913863313786e-06
8.076657632625069e-07   8.08754329364959e-07   -1.0452913863313786e-06
8.076657632625069e-07   8.08754329364959e-07   -1.0452913863313786e-06
8.076657632625069e-07   8.08754329364959e-07   -1.0452913863313786e-06
-6.224205215052186e-06   -4.346091761800973e-08   1.1185822725716203e-05
-6.224205215052186e-06   -4.346091761800973e-08   1.1185822725716203e-05
-6.224205215052186e-06   -4.346091761800973e-08   1.1185822725716203e-05
-6.224205215052186e-06   -4.346091761800973e-08   1.1185822725716203e-05
8.076657632625069e-07   -1.410183232513013e-06   2.361529737584828e-05
8.076657632625069e-07   -1.410183232513013e-06   2.361529737584828e-05
8.076657632625069e-07   -1.410183232513013e-06   2.361529737584828e-05
8.076657632625069e-07   -1.410183232513013e-06   2.361529737584828e-05
-1.3988687494045283e-05   8.08754329364959e-07   2.8607115079538285e-07
-1.3988687494045283e-05   8.08754329364959e-07   2.8607115079538285e-07
-1.3988687494045283e-05   8.08754329364959e-07   2.8607115079538285e-07
-1.3988687494045283e-05   8.08754329364959e-07   2.8607115079538285e-07
-1.469273744298229e-05   -1.398597603511709e-06   2.552781467049601e-05
-1.469273744298229e-05   -1.398597603511709e-06   2.552781467049601e-05
-1.469273744298229e-05   -1.398597603511709e-06   2.552781467049601e-05
-1.469273744298229e-05   -1.398597603511709e-06   2.552781467049601e-05
1.904626565115344e-07   6.725883312532453e-07   -5.202303895191504e-07
1.904626565115344e-07   6.725883312532453e-07   -5.202303895191504e-07
1.904626565115344e-07   6.725883312532453e-07   -5.202303895191504e-07
1.904626565115344e-07   6.725883312532453e-07   -5.202303895191504e-07
-6.844575681543279e-06   -8.273755668477059e-08   1.1658029040001905e-05
-6.844575681543279e-06   -8.273755668477059e-08   1.1658029040001905e-05
-6.844575681543279e-06   -8.273755668477059e-08   1.1658029040001905e-05
-6.844575681543279e-06   -8.273755668477059e-08   1.1658029040001905e-05
-1.2833855178583957e-05   1.4639775755959355e-06   2.064502030083815e-05
-1.2833855178583957e-05   1.4639775755959355e-06   2.064502030083815e-05
-1.2833855178583957e-05   1.4639775755959355e-06   2.064502030083815e-05
-1.2833855178583957e-05   1.4639775755959355e-06   2.064502030083815e-05
-2.7191102649816928e-05   3.898869788613972e-06   -1.822790156739149e-06
-2.7191102649816928e-05   3.898869788613972e-06   -1.822790156739149e-06
-2.7191102649816928e-05   3.898869788613972e-06   -1.822790156739149e-06
-2.7191102649816928e-05   3.898869788613972e-06   -1.822790156739149e-06
-2.7907549067736456e-05   1.386861644667647e-06   2.2831333868531412e-05
-2.7907549067736456e-05   1.386861644667647e-06   2.2831333868531412e-05
-2.7907549067736456e-05   1.386861644667647e-06   2.2831333868531412e-05
-2.7907549067736456e-05   1.386861644667647e-06   2.2831333868531412e-05
-1.332783958925328e-05   3.6956547503528506e-06   -2.853457792351805e-06
-1.332783958925328e-05   3.6956547503528506e-06   -2.853457792351805e-06
-1.332783958925328e-05   3.6956547503528506e-06   -2.853457792351805e-06
-1.332783958925328e-05   3.6956547503528506e-06   -2.853457792351805e-06
-2.015692416901001e-05   2.6535199327920546e-06   9.153630731112601e-06
-2.015692416901001e-05   2.6535199327920546e-06   9.153630731112601e-06
-2.015692416901001e-05   2.6535199327920546e-06   9.153630731112601e-06
-2.015692416901001e-05   2.6535199327920546e-06   9.153630731112601e-06
-1.3327839589253294e-05   1.386861644667647e-06   2.1446058005120127e-05
-1.3327839589253294e-05   1.386861644667647e-06   2.1446058005120127e-05
-1.3327839589253294e-05   1.386861644667647e-06   2.1446058005120127e-05
-1.3327839589253294e-05   1.386861644667647e-06   2.1446058005120127e-05
-2.7907549067736416e-05   3.6956547503528506e-06   -1.4681819289405745e-06
-2.7907549067736416e-05   3.6956547503528506e-06   -1.4681819289405745e-06
-2.7907549067736416e-05   3.6956547503528506e-06   -1.4681819289405745e-06
-2.7907549067736416e-05   3.6956547503528506e-06   -1.4681819289405745e-06
-2.8786590446137558e-05   1.2375694359450812e-06   2.4231421089482286e-05
-2.8786590446137558e-05   1.2375694359450812e-06   2.4231421089482286e-05
-2.8786590446137558e-05   1.2375694359450812e-06   2.4231421089482286e-05
-2.8786590446137558e-05   1.2375694359450812e-06   2.4231421089482286e-05
-1.3988687494045283e-05   3.506627346612501e-06   -1.7931852437387931e-06
-1.3988687494045283e-05   3.506627346612501e-06   -1.7931852437387931e-06
-1.3988687494045283e-05   3.506627346612501e-06   -1.7931852437387931e-06
-1.3988687494045283e-05   3.506627346612501e-06   -1.7931852437387931e-06
-2.0688488473628614e-05   2.609111043755776e-06   9.911659503947527e-06
-2.0688488473628614e-05   2.609111043755776e-06   9.911659503947527e-06
-2.0688488473628614e-05   2.609111043755776e-06   9.911659503947527e-06
-2.0688488473628614e-05   2.609111043755776e-06   9.911659503947527e-06
-1.3988687494045283e-05   1.2375694359448644e-06   2.2869986343081552e-05
-1.3988687494045283e-05   1.2375694359448644e-06   2.2869986343081552e-05
-1.3988687494045283e-05   1.2375694359448644e-06   2.2869986343081552e-05
-1.3988687494045283e-05   1.2375694359448644e-06   2.2869986343081552e-05
-2.878659044613749e-05   3.506627346612501e-06   -4.317504973381679e-07
-2.878659044613749e-05   3.506627346612501e-06   -4.317504973381679e-07
-2.878659044613749e-05   3.506627346612501e-06   -4.317504973381679e-07
-2.878659044613749e-05   3.506627346612501e-06   -4.317504973381679e-07
-2.9715528070529845e-05   1.0676101801334117e-06   2.533776642226512e-05
-2.9715528070529845e-05   1.0676101801334117e-06   2.533776642226512e-05
-2.9715528070529845e-05   1.0676101801334117e-06   2.533776642226512e-05
-2.9715528070529845e-05   1.0676101801334117e-06   2.533776642226512e-05
-1.4692737442982263e-05   3.251279080129354e-06   -1.0104192969782877e-06
-1.4692737442982263e-05   3.251279080129354e-06   -1.0104192969782877e-06
-1.4692737442982263e-05   3.251279080129354e-06   -1.0104192969782877e-06
-1.4692737442982263e-05   3.251279080129354e-06   -1.0104192969782877e-06
-2.1581220429471424e-05   2.456608338425605e-06   1.09471881255262e-05
-2.1581220429471424e-05   2.456608338425605e-06   1.09471881255262e-05
-2.1581220429471424e-05   2.456608338425605e-06   1.09471881255262e-05
-2.1581220429471424e-05   2.456608338425605e-06   1.09471881255262e-05
-2.7191102649816928e-05   6.422053690122295e-06   1.0864199231216699e-05
-2.7191102649816928e-05   6.422053690122295e-06   1.0864199231216699e-05
-2.7191102649816928e-05   6.422053690122295e-06   1.0864199231216699e-05
-2.7191102649816928e-05   6.422053690122295e-06   1.0864199231216699e-05
-4.096132466437755e-05   6.340876892155321e-06   -1.2134876871831238e-05
-4.096132466437755e-05   6.340876892155321e-06   -1.2134876871831238e-05
-4.096132466437755e-05   6.340876892155321e-06   -1.2134876871831238e-05
-4.096132466437755e-05   6.340876892155321e-06   -1.2134876871831238e-05
-4.224915702927319e-05   6.2109382935840885e-06   1.6146740361071255e-05
-4.224915702927319e-05   6.2109382935840885e-06   1.6146740361071255e-05
-4.224915702927319e-05   6.2109382935840885e-06   1.6146740361071255e-05
-4.224915702927319e-05   6.2109382935840885e-06   1.6146740361071255e-05
-2.7907549067736416e-05   6.467993994658519e-06   -7.910172995468073e-06
-2.7907549067736416e-05   6.467993994658519e-06   -7.910172995468073e-06
-2.7907549067736416e-05   6.467993994658519e-06   -7.910172995468073e-06
-2.7907549067736416e-05   6.467993994658519e-06   -7.910172995468073e-06
-3.318547304459662e-05   6.455678058541652e-06   8.937565276356959e-07
-3.318547304459662e-05   6.455678058541652e-06   8.937565276356959e-07
-3.318547304459662e-05   6.455678058541652e-06   8.937565276356959e-07
-3.318547304459662e-05   6.455678058541652e-06   8.937565276356959e-07
-2.7907549067736402e-05   6.2109382935840885e-06   1.5992506940426586e-05
-2.7907549067736402e-05   6.2109382935840885e-06   1.5992506940426586e-05
-2.7907549067736402e-05   6.2109382935840885e-06   1.5992506940426586e-05
-2.7907549067736402e-05   6.2109382935840885e-06   1.5992506940426586e-05
-4.224915702927319e-05   6.467993994658519e-06   -7.755939574823458e-06
-4.224915702927319e-05   6.467993994658519e-06   -7.755939574823458e-06
-4.224915702927319e-05   6.467993994658519e-06   -7.755939574823458e-06
-4.224915702927319e-05   6.467993994658519e-06   -7.755939574823458e-06
-4.351194731387041e-05   6.056348934133917e-06   1.9843953076059554e-05
-4.351194731387041e-05   6.056348934133917e-06   1.9843953076059554e-05
-4.351194731387041e-05   6.056348934133917e-06   1.9843953076059554e-05
-4.351194731387041e-05   6.056348934133917e-06   1.9843953076059554e-05
-2.878659044613749e-05   6.4231949644111275e-06   -4.918415988328659e-06
-2.878659044613749e-05   6.4231949644111275e-06   -4.918415988328659e-06
-2.878659044613749e-05   6.4231949644111275e-06   -4.918415988328659e-06
-2.878659044613749e-05   6.4231949644111275e-06   -4.918415988328659e-06
-3.467164625778189e-05   6.459565579604418e-06   4.868187995296571e-06
-3.467164625778189e-05   6.459565579604418e-06   4.868187995296571e-06
-3.467164625778189e-05   6.459565579604418e-06   4.868187995296571e-06
-3.467164625778189e-05   6.459565579604418e-06   4.868187995296571e-06
-2.878659044613749e-05   6.0563489341337005e-06   1.9623845457893065e-05
-2.878659044613749e-05   6.0563489341337005e-06   1.9623845457893065e-05
-2.878659044613749e-05   6.0563489341337005e-06   1.9623845457893065e-05
-2.878659044613749e-05   6.0563489341337005e-06   1.9623845457893065e-05
-4.351194731387048e-05   6.4231949644111275e-06   -4.698308370162225e-06
-4.351194731387048e-05   6.4231949644111275e-06   -4.698308370162225e-06
-4.351194731387048e-05   6.4231949644111275e-06   -4.698308370162225e-06
-4.351194731387048e-05   6.4231949644111275e-06   -4.698308370162225e-06
-4.500214356626116e-05   5.063283090706722e-06   2.6018958359618274e-05
-4.500214356626116e-05   5.063283090706722e-06   2.6018958359618274e-05
-4.500214356626116e-05   5.063283090706722e-06   2.6018958359618274e-05
-4.500214356626116e-05   5.063283090706722e-06   2.6018958359618274e-05
-2.9715528070529832e-05   5.918462409253622e-06   2.8158275604543877e-08
-2.9715528070529832e-05   5.918462409253622e-06   2.8158275604543877e-08
-2.9715528070529832e-05   5.918462409253622e-06   2.8158275604543877e-08
-2.9715528070529832e-05   5.918462409253622e-06   2.8158275604543877e-08
-3.5190781660039016e-05   6.15689524674631e-06   9.010521222290856e-06
-3.5190781660039016e-05   6.15689524674631e-06   9.010521222290856e-06
-3.5190781660039016e-05   6.15689524674631e-06   9.010521222290856e-06
-3.5190781660039016e-05   6.15689524674631e-06   9.010521222290856e-06
2.7256393537088606e-05   -3.808083317938596e-06   2.09443722310257e-05
2.7256393537088606e-05   -3.808083317938596e-06   2.09443722310257e-05
2.7256393537088606e-05   -3.808083317938596e-06   2.09443722310257e-05
2.7256393537088606e-05   -3.808083317938596e-06   2.09443722310257e-05
1.3477896889463966e-05   -2.806206289350348e-06   -1.4186626311957825e-06
1.3477896889463966e-05   -2.806206289350348e-06   -1.4186626311957825e-06
1.3477896889463966e-05   -2.806206289350348e-06   -1.4186626311957825e-06
1.3477896889463966e-05   -2.806206289350348e-06   -1.4186626311957825e-06
1.2970106605991273e-05   -4.311101948296708e-06   1.8199974416591028e-05
1.2970106605991273e-05   -4.311101948296708e-06   1.8199974416591028e-05
1.2970106605991273e-05   -4.311101948296708e-06   1.8199974416591028e-05
1.2970106605991273e-05   -4.311101948296708e-06   1.8199974416591028e-05
2.632330123250006e-05   -3.251569045587899e-06   -4.691069702548773e-06
2.632330123250006e-05   -3.251569045587899e-06   -4.691069702548773e-06
2.632330123250006e-05   -3.251569045587899e-06   -4.691069702548773e-06
2.632330123250006e-05   -3.251569045587899e-06   -4.691069702548773e-06
1.9091231752966692e-05   -3.5076510379985007e-06   7.516028625453191e-06
1.9091231752966692e-05   -3.5076510379985007e-06   7.516028625453191e-06
1.9091231752966692e-05   -3.5076510379985007e-06   7.516028625453191e-06
1.9091231752966692e-05   -3.5076510379985007e-06   7.516028625453191e-06
2.6323301232500012e-05   -4.311101948296708e-06   1.7564254674965873e-05
2.6323301232500012e-05   -4.311101948296708e-06   1.7564254674965873e-05
2.6323301232500012e-05   -4.311101948296708e-06   1.7564254674965873e-05
2.6323301232500012e-05   -4.311101948296708e-06   1.7564254674965873e-05
1.297010660599132e-05   -3.251569045587899e-06   -4.055349960923509e-06
1.297010660599132e-05   -3.251569045587899e-06   -4.055349960923509e-06
1.297010660599132e-05   -3.251569045587899e-06   -4.055349960923509e-06
1.297010660599132e-05   -3.251569045587899e-06   -4.055349960923509e-06
1.2405375805445821e-05   -4.38468967567298e-06   1.6301816421947007e-05
1.2405375805445821e-05   -4.38468967567298e-06   1.6301816421947007e-05
1.2405375805445821e-05   -4.38468967567298e-06   1.6301816421947007e-05
1.2405375805445821e-05   -4.38468967567298e-06   1.6301816421947007e-05
2.5477357168810095e-05   -3.340241348182872e-06   -6.111488180154121e-06
2.5477357168810095e-05   -3.340241348182872e-06   -6.111488180154121e-06
2.5477357168810095e-05   -3.340241348182872e-06   -6.111488180154121e-06
2.5477357168810095e-05   -3.340241348182872e-06   -6.111488180154121e-06
1.874538616816712e-05   -3.6806156039288817e-06   5.312688041031639e-06
1.874538616816712e-05   -3.6806156039288817e-06   5.312688041031639e-06
1.874538616816712e-05   -3.6806156039288817e-06   5.312688041031639e-06
1.874538616816712e-05   -3.6806156039288817e-06   5.312688041031639e-06
2.5477357168810007e-05   -4.384689675672763e-06   1.567514742545291e-05
2.5477357168810007e-05   -4.384689675672763e-06   1.567514742545291e-05
2.5477357168810007e-05   -4.384689675672763e-06   1.567514742545291e-05
2.5477357168810007e-05   -4.384689675672763e-06   1.567514742545291e-05
1.2405375805445845e-05   -3.340241348182872e-06   -5.484819183660078e-06
1.2405375805445845e-05   -3.340241348182872e-06   -5.484819183660078e-06
1.2405375805445845e-05   -3.340241348182872e-06   -5.484819183660078e-06
1.2405375805445845e-05   -3.340241348182872e-06   -5.484819183660078e-06
1.1861770450944041e-05   -4.351707911677506e-06   1.3648209261778589e-05
1.1861770450944041e-05   -4.351707911677506e-06   1.3648209261778589e-05
1.1861770450944041e-05   -4.351707911677506e-06   1.3648209261778589e-05
1.1861770450944041e-05   -4.351707911677506e-06   1.3648209261778589e-05
2.4518312706102824e-05   -3.3720118942977967e-06   -8.033845440580563e-06
2.4518312706102824e-05   -3.3720118942977967e-06   -8.033845440580563e-06
2.4518312706102824e-05   -3.3720118942977967e-06   -8.033845440580563e-06
2.4518312706102824e-05   -3.3720118942977967e-06   -8.033845440580563e-06
1.7790962008156052e-05   -3.6167533697337986e-06   3.325250607926107e-06
1.7790962008156052e-05   -3.6167533697337986e-06   3.325250607926107e-06
1.7790962008156052e-05   -3.6167533697337986e-06   3.325250607926107e-06
1.7790962008156052e-05   -3.6167533697337986e-06   3.325250607926107e-06
1.3477896889463966e-05   -1.337240886658403e-06   2.1901514287291118e-05
1.3477896889463966e-05   -1.337240886658403e-06   2.1901514287291118e-05
1.3477896889463966e-05   -1.337240886658403e-06   2.1901514287291118e-05
1.3477896889463966e-05   -1.337240886658403e-06   2.1901514287291118e-05
5.438723403583128e-07   -5.383478685649142e-07   8.241425163043855e-07
5.438723403583128e-07   -5.383478685649142e-07   8.241425163043855e-07
5.438723403583128e-07   -5.383478685649142e-07   8.241425163043855e-07
5.438723403583128e-07   -5.383478685649142e-07   8.241425163043855e-07
5.590249741147825e-08   -1.606393342984836e-06   2.2123728733180765e-05
5.590249741147825e-08   -1.606393342984836e-06   2.2123728733180765e-05
5.590249741147825e-08   -1.606393342984836e-06   2.2123728733180765e-05
5.590249741147825e-08   -1.606393342984836e-06   2.2123728733180765e-05
1.297010660599132e-05   -8.531274654386897e-07   1.480956923534003e-07
1.297010660599132e-05   -8.531274654386897e-07   1.480956923534003e-07
1.297010660599132e-05   -8.531274654386897e-07   1.480956923534003e-07
1.297010660599132e-05   -8.531274654386897e-07   1.480956923534003e-07
6.679615060149325e-06   -1.044181095223519e-06   1.074688044662756e-05
6.679615060149325e-06   -1.044181095223519e-06   1.074688044662756e-05
6.679615060149325e-06   -1.044181095223519e-06   1.074688044662756e-05
6.679615060149325e-06   -1.044181095223519e-06   1.074688044662756e-05
1.2970106605991304e-05   -1.606393342985053e-06   2.1671769206652952e-05
1.2970106605991304e-05   -1.606393342985053e-06   2.1671769206652952e-05
1.2970106605991304e-05   -1.606393342985053e-06   2.1671769206652952e-05
1.2970106605991304e-05   -1.606393342985053e-06   2.1671769206652952e-05
5.590249741147825e-08   -8.531274654386897e-07   6.000552188811315e-07
5.590249741147825e-08   -8.531274654386897e-07   6.000552188811315e-07
5.590249741147825e-08   -8.531274654386897e-07   6.000552188811315e-07
5.590249741147825e-08   -8.531274654386897e-07   6.000552188811315e-07
-4.513485962276214e-07   -1.781295658595007e-06   2.1783769794931187e-05
-4.513485962276214e-07   -1.781295658595007e-06   2.1783769794931187e-05
-4.513485962276214e-07   -1.781295658595007e-06   2.1783769794931187e-05
-4.513485962276214e-07   -1.781295658595007e-06   2.1783769794931187e-05
1.2405375805445845e-05   -1.0856690485661763e-06   -6.148017387525538e-08
1.2405375805445845e-05   -1.0856690485661763e-06   -6.148017387525538e-08
1.2405375805445845e-05   -1.0856690485661763e-06   -6.148017387525538e-08
1.2405375805445845e-05   -1.0856690485661763e-06   -6.148017387525538e-08
6.118261439147544e-06   -1.2085174390739483e-06   1.049075280426027e-05
6.118261439147544e-06   -1.2085174390739483e-06   1.049075280426027e-05
6.118261439147544e-06   -1.2085174390739483e-06   1.049075280426027e-05
6.118261439147544e-06   -1.2085174390739483e-06   1.049075280426027e-05
1.2405375805445821e-05   -1.781295658595007e-06   2.136639382891391e-05
1.2405375805445821e-05   -1.781295658595007e-06   2.136639382891391e-05
1.2405375805445821e-05   -1.781295658595007e-06   2.136639382891391e-05
1.2405375805445821e-05   -1.781295658595007e-06   2.136639382891391e-05
-4.513485962276214e-07   -1.0856690485661763e-06   3.5589579214223826e-07
-4.513485962276214e-07   -1.0856690485661763e-06   3.5589579214223826e-07
-4.513485962276214e-07   -1.0856690485661763e-06   3.5589579214223826e-07
-4.513485962276214e-07   -1.0856690485661763e-06   3.5589579214223826e-07
-9.794467638891947e-07   -1.8539067699841968e-06   2.1944138567022743e-05
-9.794467638891947e-07   -1.8539067699841968e-06   2.1944138567022743e-05
-9.794467638891947e-07   -1.8539067699841968e-06   2.1944138567022743e-05
-9.794467638891947e-07   -1.8539067699841968e-06   2.1944138567022743e-05
1.1861770450944075e-05   -1.2675564217117657e-06   1.9029966667044856e-07
1.1861770450944075e-05   -1.2675564217117657e-06   1.9029966667044856e-07
1.1861770450944075e-05   -1.2675564217117657e-06   1.9029966667044856e-07
1.1861770450944075e-05   -1.2675564217117657e-06   1.9029966667044856e-07
5.698225225851436e-06   -1.2952047799571044e-06   1.0479464056772371e-05
5.698225225851436e-06   -1.2952047799571044e-06   1.0479464056772371e-05
5.698225225851436e-06   -1.2952047799571044e-06   1.0479464056772371e-05
5.698225225851436e-06   -1.2952047799571044e-06   1.0479464056772371e-05
5.438723403583128e-07   1.2024107957002515e-06   2.2596800166665835e-05
5.438723403583128e-07   1.2024107957002515e-06   2.2596800166665835e-05
5.438723403583128e-07   1.2024107957002515e-06   2.2596800166665835e-05
5.438723403583128e-07   1.2024107957002515e-06   2.2596800166665835e-05
-1.2015881860254457e-05   1.7349187394120023e-06   1.9833812652048435e-06
-1.2015881860254457e-05   1.7349187394120023e-06   1.9833812652048435e-06
-1.2015881860254457e-05   1.7349187394120023e-06   1.9833812652048435e-06
-1.2015881860254457e-05   1.7349187394120023e-06   1.9833812652048435e-06
-1.2526031514474985e-05   9.985283010458066e-07   2.2904160692223006e-05
-1.2526031514474985e-05   9.985283010458066e-07   2.2904160692223006e-05
-1.2526031514474985e-05   9.985283010458066e-07   2.2904160692223006e-05
-1.2526031514474985e-05   9.985283010458066e-07   2.2904160692223006e-05
5.590249741147825e-08   1.4744742548036208e-06   1.6487031001574497e-06
5.590249741147825e-08   1.4744742548036208e-06   1.6487031001574497e-06
5.590249741147825e-08   1.4744742548036208e-06   1.6487031001574497e-06
5.590249741147825e-08   1.4744742548036208e-06   1.6487031001574497e-06
-5.994689924866109e-06   1.3666320358034006e-06   1.179772913535368e-05
-5.994689924866109e-06   1.3666320358034006e-06   1.179772913535368e-05
-5.994689924866109e-06   1.3666320358034006e-06   1.179772913535368e-05
-5.994689924866109e-06   1.3666320358034006e-06   1.179772913535368e-05
5.590249741147825e-08   9.985283010458066e-07   2.2618593119968253e-05
5.590249741147825e-08   9.985283010458066e-07   2.2618593119968253e-05
5.590249741147825e-08   9.985283010458066e-07   2.2618593119968253e-05
5.590249741147825e-08   9.985283010458066e-07   2.2618593119968253e-05
-1.2526031514474985e-05   1.4744742548036208e-06   1.9342706724123117e-06
-1.2526031514474985e-05   1.4744742548036208e-06   1.9342706724123117e-06
-1.2526031514474985e-05   1.4744742548036208e-06   1.9342706724123117e-06
-1.2526031514474985e-05   1.4744742548036208e-06   1.9342706724123117e-06
-1.306434011422885e-05   8.08754329364959e-07   2.31163693309649e-05
-1.306434011422885e-05   8.08754329364959e-07   2.31163693309649e-05
-1.306434011422885e-05   8.08754329364959e-07   2.31163693309649e-05
-1.306434011422885e-05   8.08754329364959e-07   2.31163693309649e-05
-4.513485962276214e-07   1.2216503354554441e-06   1.8469791973085327e-06
-4.513485962276214e-07   1.2216503354554441e-06   1.8469791973085327e-06
-4.513485962276214e-07   1.2216503354554441e-06   1.8469791973085327e-06
-4.513485962276214e-07   1.2216503354554441e-06   1.8469791973085327e-06
-6.468337110465471e-06   1.2187834411935255e-06   1.1877013524262041e-05
-6.468337110465471e-06   1.2187834411935255e-06   1.1877013524262041e-05
-6.468337110465471e-06   1.2187834411935255e-06   1.1877013524262041e-05
-6.468337110465471e-06   1.2187834411935255e-06   1.1877013524262041e-05
-4.513485962276214e-07   8.08754329364959e-07   2.286863172731057e-05
-4.513485962276214e-07   8.08754329364959e-07   2.286863172731057e-05
-4.513485962276214e-07   8.08754329364959e-07   2.286863172731057e-05
-4.513485962276214e-07   8.08754329364959e-07   2.286863172731057e-05
-1.306434011422885e-05   1.2216503354554441e-06   2.0947168009627804e-06
-1.306434011422885e-05   1.2216503354554441e-06   2.0947168009627804e-06
-1.306434011422885e-05   1.2216503354554441e-06   2.0947168009627804e-06
-1.306434011422885e-05   1.2216503354554441e-06   2.0947168009627804e-06
-1.3619603476902747e-05   6.725883312530285e-07   2.3454387972307936e-05
-1.3619603476902747e-05   6.725883312530285e-07   2.3454387972307936e-05
-1.3619603476902747e-05   6.725883312530285e-07   2.3454387972307936e-05
-1.3619603476902747e-05   6.725883312530285e-07   2.3454387972307936e-05
-9.794467638891947e-07   9.96700607482472e-07   2.1929927515475624e-06
-9.794467638891947e-07   9.96700607482472e-07   2.1929927515475624e-06
-9.794467638891947e-07   9.96700607482472e-07   2.1929927515475624e-06
-9.794467638891947e-07   9.96700607482472e-07   2.1929927515475624e-06
-6.980939299341599e-06   1.077310597741906e-06   1.2147114316479843e-05
-6.980939299341599e-06   1.077310597741906e-06   1.2147114316479843e-05
-6.980939299341599e-06   1.077310597741906e-06   1.2147114316479843e-05
-6.980939299341599e-06   1.077310597741906e-06   1.2147114316479843e-05
-1.2015881860254497e-05   3.898869788614189e-06   1.9737363879518806e-05
-1.2015881860254497e-05   3.898869788614189e-06   1.9737363879518806e-05
-1.2015881860254497e-05   3.898869788614189e-06   1.9737363879518806e-05
-1.2015881860254497e-05   3.898869788614189e-06   1.9737363879518806e-05
-2.4195286684907402e-05   3.9485733993773874e-06   -5.318219951113128e-07
-2.4195286684907402e-05   3.9485733993773874e-06   -5.318219951113128e-07
-2.4195286684907402e-05   3.9485733993773874e-06   -5.318219951113128e-07
-2.4195286684907402e-05   3.9485733993773874e-06   -5.318219951113128e-07
-2.4787341521290786e-05   3.6956547503528506e-06   2.008240045854419e-05
-2.4787341521290786e-05   3.6956547503528506e-06   2.008240045854419e-05
-2.4787341521290786e-05   3.6956547503528506e-06   2.008240045854419e-05
-2.4787341521290786e-05   3.6956547503528506e-06   2.008240045854419e-05
-1.2526031514474998e-05   3.7011934035510383e-06   -3.5643941140100447e-07
-1.2526031514474998e-05   3.7011934035510383e-06   -3.5643941140100447e-07
-1.2526031514474998e-05   3.7011934035510383e-06   -3.5643941140100447e-07
-1.2526031514474998e-05   3.7011934035510383e-06   -3.5643941140100447e-07
-1.82990647402475e-05   3.7999401116570013e-06   9.206034606689631e-06
-1.82990647402475e-05   3.7999401116570013e-06   9.206034606689631e-06
-1.82990647402475e-05   3.7999401116570013e-06   9.206034606689631e-06
-1.82990647402475e-05   3.7999401116570013e-06   9.206034606689631e-06
-1.2526031514474998e-05   3.6956547503528506e-06   2.0079077266625358e-05
-1.2526031514474998e-05   3.6956547503528506e-06   2.0079077266625358e-05
-1.2526031514474998e-05   3.6956547503528506e-06   2.0079077266625358e-05
-1.2526031514474998e-05   3.6956547503528506e-06   2.0079077266625358e-05
-2.4787341521290786e-05   3.7011934035510383e-06   -3.531162194820919e-07
-2.4787341521290786e-05   3.7011934035510383e-06   -3.531162194820919e-07
-2.4787341521290786e-05   3.7011934035510383e-06   -3.531162194820919e-07
-2.4787341521290786e-05   3.7011934035510383e-06   -3.531162194820919e-07
-2.5442788390557663e-05   3.506627346612501e-06   2.1016334895430943e-05
-2.5442788390557663e-05   3.506627346612501e-06   2.1016334895430943e-05
-2.5442788390557663e-05   3.506627346612501e-06   2.1016334895430943e-05
-2.5442788390557663e-05   3.506627346612501e-06   2.1016334895430943e-05
-1.3064340114228877e-05   3.471997278279822e-06   4.063658092161391e-07
-1.3064340114228877e-05   3.471997278279822e-06   4.063658092161391e-07
-1.3064340114228877e-05   3.471997278279822e-06   4.063658092161391e-07
-1.3064340114228877e-05   3.471997278279822e-06   4.063658092161391e-07
-1.8724780145254054e-05   3.660995163425572e-06   9.7270337965038e-06
-1.8724780145254054e-05   3.660995163425572e-06   9.7270337965038e-06
-1.8724780145254054e-05   3.660995163425572e-06   9.7270337965038e-06
-1.8724780145254054e-05   3.660995163425572e-06   9.7270337965038e-06
-1.3064340114228877e-05   3.506627346612501e-06   2.1037112936430832e-05
-1.3064340114228877e-05   3.506627346612501e-06   2.1037112936430832e-05
-1.3064340114228877e-05   3.506627346612501e-06   2.1037112936430832e-05
-1.3064340114228877e-05   3.506627346612501e-06   2.1037112936430832e-05
-2.5442788390557663e-05   3.471997278279822e-06   3.855877682163583e-07
-2.5442788390557663e-05   3.471997278279822e-06   3.855877682163583e-07
-2.5442788390557663e-05   3.471997278279822e-06   3.855877682163583e-07
-2.5442788390557663e-05   3.471997278279822e-06   3.855877682163583e-07
-2.606701747133824e-05   3.251279080129354e-06   2.1685356890079467e-05
-2.606701747133824e-05   3.251279080129354e-06   2.1685356890079467e-05
-2.606701747133824e-05   3.251279080129354e-06   2.1685356890079467e-05
-2.606701747133824e-05   3.251279080129354e-06   2.1685356890079467e-05
-1.3619603476902747e-05   3.191061390278322e-06   9.757975132642597e-07
-1.3619603476902747e-05   3.191061390278322e-06   9.757975132642597e-07
-1.3619603476902747e-05   3.191061390278322e-06   9.757975132642597e-07
-1.3619603476902747e-05   3.191061390278322e-06   9.757975132642597e-07
-1.94072352776951e-05   3.479035632833081e-06   1.0449065969052426e-05
-1.94072352776951e-05   3.479035632833081e-06   1.0449065969052426e-05
-1.94072352776951e-05   3.479035632833081e-06   1.0449065969052426e-05
-1.94072352776951e-05   3.479035632833081e-06   1.0449065969052426e-05
-2.4195286684907335e-05   6.340876892155321e-06   9.503805409664994e-06
-2.4195286684907335e-05   6.340876892155321e-06   9.503805409664994e-06
-2.4195286684907335e-05   6.340876892155321e-06   9.503805409664994e-06
-2.4195286684907335e-05   6.340876892155321e-06   9.503805409664994e-06
-3.579508807046705e-05   5.697937988335478e-06   -1.0214960241893142e-05
-3.579508807046705e-05   5.697937988335478e-06   -1.0214960241893142e-05
-3.579508807046705e-05   5.697937988335478e-06   -1.0214960241893142e-05
-3.579508807046705e-05   5.697937988335478e-06   -1.0214960241893142e-05
-3.672775775331061e-05   6.467993994658519e-06   1.3217132569406345e-05
-3.672775775331061e-05   6.467993994658519e-06   1.3217132569406345e-05
-3.672775775331061e-05   6.467993994658519e-06   1.3217132569406345e-05
-3.672775775331061e-05   6.467993994658519e-06   1.3217132569406345e-05
-2.4787341521290786e-05   5.76253262364124e-06   -6.260284328016654e-06
-2.4787341521290786e-05   5.76253262364124e-06   -6.260284328016654e-06
-2.4787341521290786e-05   5.76253262364124e-06   -6.260284328016654e-06
-2.4787341521290786e-05   5.76253262364124e-06   -6.260284328016654e-06
-2.9212558397648627e-05   6.029530794690163e-06   9.548782299506273e-07
-2.9212558397648627e-05   6.029530794690163e-06   9.548782299506273e-07
-2.9212558397648627e-05   6.029530794690163e-06   9.548782299506273e-07
-2.9212558397648627e-05   6.029530794690163e-06   9.548782299506273e-07
-2.4787341521290718e-05   6.467993994658519e-06   1.364040939201661e-05
-2.4787341521290718e-05   6.467993994658519e-06   1.364040939201661e-05
-2.4787341521290718e-05   6.467993994658519e-06   1.364040939201661e-05
-2.4787341521290718e-05   6.467993994658519e-06   1.364040939201661e-05
-3.672775775331069e-05   5.76253262364124e-06   -6.683561150626891e-06
-3.672775775331069e-05   5.76253262364124e-06   -6.683561150626891e-06
-3.672775775331069e-05   5.76253262364124e-06   -6.683561150626891e-06
-3.672775775331069e-05   5.76253262364124e-06   -6.683561150626891e-06
-3.7637364600685776e-05   6.4231949644111275e-06   1.6095917385615215e-05
-3.7637364600685776e-05   6.4231949644111275e-06   1.6095917385615215e-05
-3.7637364600685776e-05   6.4231949644111275e-06   1.6095917385615215e-05
-3.7637364600685776e-05   6.4231949644111275e-06   1.6095917385615215e-05
-2.5442788390557663e-05   5.700274933035732e-06   -3.7946242791064887e-06
-2.5442788390557663e-05   5.700274933035732e-06   -3.7946242791064887e-06
-2.5442788390557663e-05   5.700274933035732e-06   -3.7946242791064887e-06
-2.5442788390557663e-05   5.700274933035732e-06   -3.7946242791064887e-06
-3.0366125581064767e-05   6.141219252190928e-06   4.146371113579494e-06
-3.0366125581064767e-05   6.141219252190928e-06   4.146371113579494e-06
-3.0366125581064767e-05   6.141219252190928e-06   4.146371113579494e-06
-3.0366125581064767e-05   6.141219252190928e-06   4.146371113579494e-06
-2.5442788390557663e-05   6.4231949644111275e-06   1.6529669404440615e-05
-2.5442788390557663e-05   6.4231949644111275e-06   1.6529669404440615e-05
-2.5442788390557663e-05   6.4231949644111275e-06   1.6529669404440615e-05
-2.5442788390557663e-05   6.4231949644111275e-06   1.6529669404440615e-05
-3.763736460068583e-05   5.700274933035732e-06   -4.228376297931726e-06
-3.763736460068583e-05   5.700274933035732e-06   -4.228376297931726e-06
-3.763736460068583e-05   5.700274933035732e-06   -4.228376297931726e-06
-3.763736460068583e-05   5.700274933035732e-06   -4.228376297931726e-06
-3.8698571808470664e-05   5.918462409253622e-06   2.1020876347387844e-05
-3.8698571808470664e-05   5.918462409253622e-06   2.1020876347387844e-05
-3.8698571808470664e-05   5.918462409253622e-06   2.1020876347387844e-05
-3.8698571808470664e-05   5.918462409253622e-06   2.1020876347387844e-05
-2.6067017471338212e-05   5.263701117125654e-06   3.611425607769232e-07
-2.6067017471338212e-05   5.263701117125654e-06   3.611425607769232e-07
-2.6067017471338212e-05   5.263701117125654e-06   3.611425607769232e-07
-2.6067017471338212e-05   5.263701117125654e-06   3.611425607769232e-07
-3.0647724067353025e-05   5.960845494396884e-06   7.577366927772494e-06
-3.0647724067353025e-05   5.960845494396884e-06   7.577366927772494e-06
-3.0647724067353025e-05   5.960845494396884e-06   7.577366927772494e-06
-3.0647724067353025e-05   5.960845494396884e-06   7.577366927772494e-06
2.079231098318928e-05   -2.806206289350348e-06   1.755936033187826e-05
2.079231098318928e-05   -2.806206289350348e-06   1.755936033187826e-05
2.079231098318928e-05   -2.806206289350348e-06   1.755936033187826e-05
2.079231098318928e-05   -2.806206289350348e-06   1.755936033187826e-05
9.779484691905727e-06   -1.8669875289246268e-06   -2.3181889733910402e-07
9.779484691905727e-06   -1.8669875289246268e-06   -2.3181889733910402e-07
9.779484691905727e-06   -1.8669875289246268e-06   -2.3181889733910402e-07
9.779484691905727e-06   -1.8669875289246268e-06   -2.3181889733910402e-07
9.32510936797231e-06   -3.251569045587899e-06   1.5418030208412385e-05
9.32510936797231e-06   -3.251569045587899e-06   1.5418030208412385e-05
9.32510936797231e-06   -3.251569045587899e-06   1.5418030208412385e-05
9.32510936797231e-06   -3.251569045587899e-06   1.5418030208412385e-05
1.9912496707540314e-05   -2.2614878834620756e-06   -2.821664054809803e-06
1.9912496707540314e-05   -2.2614878834620756e-06   -2.821664054809803e-06
1.9912496707540314e-05   -2.2614878834620756e-06   -2.821664054809803e-06
1.9912496707540314e-05   -2.2614878834620756e-06   -2.821664054809803e-06
1.4249342867565523e-05   -2.565086914759298e-06   6.7990850972599005e-06
1.4249342867565523e-05   -2.565086914759298e-06   6.7990850972599005e-06
1.4249342867565523e-05   -2.565086914759298e-06   6.7990850972599005e-06
1.4249342867565523e-05   -2.565086914759298e-06   6.7990850972599005e-06
1.991249670754028e-05   -3.251569045587899e-06   1.4823981511136937e-05
1.991249670754028e-05   -3.251569045587899e-06   1.4823981511136937e-05
1.991249670754028e-05   -3.251569045587899e-06   1.4823981511136937e-05
1.991249670754028e-05   -3.251569045587899e-06   1.4823981511136937e-05
9.325109367972327e-06   -2.2614878834620756e-06   -2.227615357534179e-06
9.325109367972327e-06   -2.2614878834620756e-06   -2.227615357534179e-06
9.325109367972327e-06   -2.2614878834620756e-06   -2.227615357534179e-06
9.325109367972327e-06   -2.2614878834620756e-06   -2.227615357534179e-06
8.822921005044377e-06   -3.340241348182872e-06   1.391395578605821e-05
8.822921005044377e-06   -3.340241348182872e-06   1.391395578605821e-05
8.822921005044377e-06   -3.340241348182872e-06   1.391395578605821e-05
8.822921005044377e-06   -3.340241348182872e-06   1.391395578605821e-05
1.914058353139634e-05   -2.3662040784075584e-06   -3.866570786393675e-06
1.914058353139634e-05   -2.3662040784075584e-06   -3.866570786393675e-06
1.914058353139634e-05   -2.3662040784075584e-06   -3.866570786393675e-06
1.914058353139634e-05   -2.3662040784075584e-06   -3.866570786393675e-06
1.3889363137058776e-05   -2.7255218588016945e-06   5.101053872405754e-06
1.3889363137058776e-05   -2.7255218588016945e-06   5.101053872405754e-06
1.3889363137058776e-05   -2.7255218588016945e-06   5.101053872405754e-06
1.3889363137058776e-05   -2.7255218588016945e-06   5.101053872405754e-06
1.914058353139631e-05   -3.340241348182872e-06   1.3329533424192953e-05
1.914058353139631e-05   -3.340241348182872e-06   1.3329533424192953e-05
1.914058353139631e-05   -3.340241348182872e-06   1.3329533424192953e-05
1.914058353139631e-05   -3.340241348182872e-06   1.3329533424192953e-05
8.82292100504439e-06   -2.3662040784075584e-06   -3.282148424528378e-06
8.82292100504439e-06   -2.3662040784075584e-06   -3.282148424528378e-06
8.82292100504439e-06   -2.3662040784075584e-06   -3.282148424528378e-06
8.82292100504439e-06   -2.3662040784075584e-06   -3.282148424528378e-06
8.358840509459741e-06   -3.3720118942977967e-06   1.1870607633404835e-05
8.358840509459741e-06   -3.3720118942977967e-06   1.1870607633404835e-05
8.358840509459741e-06   -3.3720118942977967e-06   1.1870607633404835e-05
8.358840509459741e-06   -3.3720118942977967e-06   1.1870607633404835e-05
1.8276887985421135e-05   -2.4609398375848458e-06   -5.20611472722512e-06
1.8276887985421135e-05   -2.4609398375848458e-06   -5.20611472722512e-06
1.8276887985421135e-05   -2.4609398375848458e-06   -5.20611472722512e-06
1.8276887985421135e-05   -2.4609398375848458e-06   -5.20611472722512e-06
1.3078829772809776e-05   -2.7083363146242906e-06   3.605753513350623e-06
1.3078829772809776e-05   -2.7083363146242906e-06   3.605753513350623e-06
1.3078829772809776e-05   -2.7083363146242906e-06   3.605753513350623e-06
1.3078829772809776e-05   -2.7083363146242906e-06   3.605753513350623e-06
9.779484691905693e-06   -5.383478685649142e-07   1.9886360924777565e-05
9.779484691905693e-06   -5.383478685649142e-07   1.9886360924777565e-05
9.779484691905693e-06   -5.383478685649142e-07   1.9886360924777565e-05
9.779484691905693e-06   -5.383478685649142e-07   1.9886360924777565e-05
-6.392409537233013e-07   -1.6100973169747707e-08   2.8351663192997725e-06
-6.392409537233013e-07   -1.6100973169747707e-08   2.8351663192997725e-06
-6.392409537233013e-07   -1.6100973169747707e-08   2.8351663192997725e-06
-6.392409537233013e-07   -1.6100973169747707e-08   2.8351663192997725e-06
-1.0667910544079112e-06   -8.531274654386897e-07   1.9918511872572603e-05
-1.0667910544079112e-06   -8.531274654386897e-07   1.9918511872572603e-05
-1.0667910544079112e-06   -8.531274654386897e-07   1.9918511872572603e-05
-1.0667910544079112e-06   -8.531274654386897e-07   1.9918511872572603e-05
9.325109367972327e-06   -3.580674472996974e-07   2.301641824388901e-06
9.325109367972327e-06   -3.580674472996974e-07   2.301641824388901e-06
9.325109367972327e-06   -3.580674472996974e-07   2.301641824388901e-06
9.325109367972327e-06   -3.580674472996974e-07   2.301641824388901e-06
4.278972405723416e-06   -4.5401628543534096e-07   1.076943939768495e-05
4.278972405723416e-06   -4.5401628543534096e-07   1.076943939768495e-05
4.278972405723416e-06   -4.5401628543534096e-07   1.076943939768495e-05
4.278972405723416e-06   -4.5401628543534096e-07   1.076943939768495e-05
9.325109367972286e-06   -8.531274654386897e-07   1.9621475861689185e-05
9.325109367972286e-06   -8.531274654386897e-07   1.9621475861689185e-05
9.325109367972286e-06   -8.531274654386897e-07   1.9621475861689185e-05
9.325109367972286e-06   -8.531274654386897e-07   1.9621475861689185e-05
-1.0667910544079112e-06   -3.580674472996974e-07   2.5986778352722097e-06
-1.0667910544079112e-06   -3.580674472996974e-07   2.5986778352722097e-06
-1.0667910544079112e-06   -3.580674472996974e-07   2.5986778352722097e-06
-1.0667910544079112e-06   -3.580674472996974e-07   2.5986778352722097e-06
-1.5035906415765844e-06   -1.0856690485661763e-06   1.9612796047373325e-05
-1.5035906415765844e-06   -1.0856690485661763e-06   1.9612796047373325e-05
-1.5035906415765844e-06   -1.0856690485661763e-06   1.9612796047373325e-05
-1.5035906415765844e-06   -1.0856690485661763e-06   1.9612796047373325e-05
8.82292100504439e-06   -6.265002960158684e-07   2.1264420514748245e-06
8.82292100504439e-06   -6.265002960158684e-07   2.1264420514748245e-06
8.82292100504439e-06   -6.265002960158684e-07   2.1264420514748245e-06
8.82292100504439e-06   -6.265002960158684e-07   2.1264420514748245e-06
3.7983816509167616e-06   -6.644711237064997e-07   1.0523456804969252e-05
3.7983816509167616e-06   -6.644711237064997e-07   1.0523456804969252e-05
3.7983816509167616e-06   -6.644711237064997e-07   1.0523456804969252e-05
3.7983816509167616e-06   -6.644711237064997e-07   1.0523456804969252e-05
8.822921005044377e-06   -1.0856690485661763e-06   1.9337294795843086e-05
8.822921005044377e-06   -1.0856690485661763e-06   1.9337294795843086e-05
8.822921005044377e-06   -1.0856690485661763e-06   1.9337294795843086e-05
8.822921005044377e-06   -1.0856690485661763e-06   1.9337294795843086e-05
-1.5035906415765844e-06   -6.265002960158684e-07   2.4019433030050092e-06
-1.5035906415765844e-06   -6.265002960158684e-07   2.4019433030050092e-06
-1.5035906415765844e-06   -6.265002960158684e-07   2.4019433030050092e-06
-1.5035906415765844e-06   -6.265002960158684e-07   2.4019433030050092e-06
-1.9428535369457822e-06   -1.2675564217117657e-06   1.9743237961308553e-05
-1.9428535369457822e-06   -1.2675564217117657e-06   1.9743237961308553e-05
-1.9428535369457822e-06   -1.2675564217117657e-06   1.9743237961308553e-05
-1.9428535369457822e-06   -1.2675564217117657e-06   1.9743237961308553e-05
8.358840509459751e-06   -8.737183699106255e-07   2.3374450528852123e-06
8.358840509459751e-06   -8.737183699106255e-07   2.3374450528852123e-06
8.358840509459751e-06   -8.737183699106255e-07   2.3374450528852123e-06
8.358840509459751e-06   -8.737183699106255e-07   2.3374450528852123e-06
3.4330480325425083e-06   -8.189220375100139e-07   1.051422138164033e-05
3.4330480325425083e-06   -8.189220375100139e-07   1.051422138164033e-05
3.4330480325425083e-06   -8.189220375100139e-07   1.051422138164033e-05
3.4330480325425083e-06   -8.189220375100139e-07   1.051422138164033e-05
-6.392409537233013e-07   1.7349187394120023e-06   2.103944304468827e-05
-6.392409537233013e-07   1.7349187394120023e-06   2.103944304468827e-05
-6.392409537233013e-07   1.7349187394120023e-06   2.103944304468827e-05
-6.392409537233013e-07   1.7349187394120023e-06   2.103944304468827e-05
-1.0839226333094067e-05   1.7882659822997336e-06   4.07147575813636e-06
-1.0839226333094067e-05   1.7882659822997336e-06   4.07147575813636e-06
-1.0839226333094067e-05   1.7882659822997336e-06   4.07147575813636e-06
-1.0839226333094067e-05   1.7882659822997336e-06   4.07147575813636e-06
-1.1269455351841875e-05   1.4744742548036208e-06   2.0975899927717424e-05
-1.1269455351841875e-05   1.4744742548036208e-06   2.0975899927717424e-05
-1.1269455351841875e-05   1.4744742548036208e-06   2.0975899927717424e-05
-1.1269455351841875e-05   1.4744742548036208e-06   2.0975899927717424e-05
-1.0667910544079112e-06   1.489041211250909e-06   3.9627192581256476e-06
-1.0667910544079112e-06   1.489041211250909e-06   3.9627192581256476e-06
-1.0667910544079112e-06   1.489041211250909e-06   3.9627192581256476e-06
-1.0667910544079112e-06   1.489041211250909e-06   3.9627192581256476e-06
-5.969048396227194e-06   1.592577909200442e-06   1.2071026142388222e-05
-5.969048396227194e-06   1.592577909200442e-06   1.2071026142388222e-05
-5.969048396227194e-06   1.592577909200442e-06   1.2071026142388222e-05
-5.969048396227194e-06   1.592577909200442e-06   1.2071026142388222e-05
-1.0667910544079112e-06   1.4744742548038377e-06   2.096715975384903e-05
-1.0667910544079112e-06   1.4744742548038377e-06   2.096715975384903e-05
-1.0667910544079112e-06   1.4744742548038377e-06   2.096715975384903e-05
-1.0667910544079112e-06   1.4744742548038377e-06   2.096715975384903e-05
-1.1269455351841875e-05   1.489041211250909e-06   3.971459431994151e-06
-1.1269455351841875e-05   1.489041211250909e-06   3.971459431994151e-06
-1.1269455351841875e-05   1.489041211250909e-06   3.971459431994151e-06
-1.1269455351841875e-05   1.489041211250909e-06   3.971459431994151e-06
-1.1710222809565443e-05   1.2216503354554441e-06   2.1087663732692217e-05
-1.1710222809565443e-05   1.2216503354554441e-06   2.1087663732692217e-05
-1.1710222809565443e-05   1.2216503354554441e-06   2.1087663732692217e-05
-1.1710222809565443e-05   1.2216503354554441e-06   2.1087663732692217e-05
-1.5035906415765844e-06   1.194624135710063e-06   4.0928258392248324e-06
-1.5035906415765844e-06   1.194624135710063e-06   4.0928258392248324e-06
-1.5035906415765844e-06   1.194624135710063e-06   4.0928258392248324e-06
-1.5035906415765844e-06   1.194624135710063e-06   4.0928258392248324e-06
-6.368153987100825e-06   1.391946319483279e-06   1.2082038104835053e-05
-6.368153987100825e-06   1.391946319483279e-06   1.2082038104835053e-05
-6.368153987100825e-06   1.391946319483279e-06   1.2082038104835053e-05
-6.368153987100825e-06   1.391946319483279e-06   1.2082038104835053e-05
-1.5035906415765844e-06   1.2216503354554441e-06   2.1103879452539592e-05
-1.5035906415765844e-06   1.2216503354554441e-06   2.1103879452539592e-05
-1.5035906415765844e-06   1.2216503354554441e-06   2.1103879452539592e-05
-1.5035906415765844e-06   1.2216503354554441e-06   2.1103879452539592e-05
-1.1710222809565443e-05   1.194624135710063e-06   4.076610119377539e-06
-1.1710222809565443e-05   1.194624135710063e-06   4.076610119377539e-06
-1.1710222809565443e-05   1.194624135710063e-06   4.076610119377539e-06
-1.1710222809565443e-05   1.194624135710063e-06   4.076610119377539e-06
-1.2150627242418389e-05   9.96700607482472e-07   2.1345306796043627e-05
-1.2150627242418389e-05   9.96700607482472e-07   2.1345306796043627e-05
-1.2150627242418389e-05   9.96700607482472e-07   2.1345306796043627e-05
-1.2150627242418389e-05   9.96700607482472e-07   2.1345306796043627e-05
-1.9428535369457822e-06   9.153438721848373e-07   4.3811646614346856e-06
-1.9428535369457822e-06   9.153438721848373e-07   4.3811646614346856e-06
-1.9428535369457822e-06   9.153438721848373e-07   4.3811646614346856e-06
-1.9428535369457822e-06   9.153438721848373e-07   4.3811646614346856e-06
-6.786154802280057e-06   1.1966034251739439e-06   1.2284577705198234e-05
-6.786154802280057e-06   1.1966034251739439e-06   1.2284577705198234e-05
-6.786154802280057e-06   1.1966034251739439e-06   1.2284577705198234e-05
-6.786154802280057e-06   1.1966034251739439e-06   1.2284577705198234e-05
-1.083922633309404e-05   3.9485733993773874e-06   1.8526425963646752e-05
-1.083922633309404e-05   3.9485733993773874e-06   1.8526425963646752e-05
-1.083922633309404e-05   3.9485733993773874e-06   1.8526425963646752e-05
-1.083922633309404e-05   3.9485733993773874e-06   1.8526425963646752e-05
-2.0824601690498602e-05   3.526449598342937e-06   1.6308594206852485e-06
-2.0824601690498602e-05   3.526449598342937e-06   1.6308594206852485e-06
-2.0824601690498602e-05   3.526449598342937e-06   1.6308594206852485e-06
-2.0824601690498602e-05   3.526449598342937e-06   1.6308594206852485e-06
-2.128785644984224e-05   3.7011934035510383e-06   1.8409053347719193e-05
-2.128785644984224e-05   3.7011934035510383e-06   1.8409053347719193e-05
-2.128785644984224e-05   3.7011934035510383e-06   1.8409053347719193e-05
-2.128785644984224e-05   3.7011934035510383e-06   1.8409053347719193e-05
-1.1269455351841889e-05   3.240965909909188e-06   1.9878546805703013e-06
-1.1269455351841889e-05   3.240965909909188e-06   1.9878546805703013e-06
-1.1269455351841889e-05   3.240965909909188e-06   1.9878546805703013e-06
-1.1269455351841889e-05   3.240965909909188e-06   1.9878546805703013e-06
-1.600194703202444e-05   3.5559774452920525e-06   9.686333892978277e-06
-1.600194703202444e-05   3.5559774452920525e-06   9.686333892978277e-06
-1.600194703202444e-05   3.5559774452920525e-06   9.686333892978277e-06
-1.600194703202444e-05   3.5559774452920525e-06   9.686333892978277e-06
-1.1269455351841875e-05   3.7011934035508214e-06   1.8685189843904243e-05
-1.1269455351841875e-05   3.7011934035508214e-06   1.8685189843904243e-05
-1.1269455351841875e-05   3.7011934035508214e-06   1.8685189843904243e-05
-1.1269455351841875e-05   3.7011934035508214e-06   1.8685189843904243e-05
-2.1287856449842186e-05   3.240965909909188e-06   1.7117181843853322e-06
-2.1287856449842186e-05   3.240965909909188e-06   1.7117181843853322e-06
-2.1287856449842186e-05   3.240965909909188e-06   1.7117181843853322e-06
-2.1287856449842186e-05   3.240965909909188e-06   1.7117181843853322e-06
-2.1797318280098425e-05   3.471997278279822e-06   1.9100487699082592e-05
-2.1797318280098425e-05   3.471997278279822e-06   1.9100487699082592e-05
-2.1797318280098425e-05   3.471997278279822e-06   1.9100487699082592e-05
-2.1797318280098425e-05   3.471997278279822e-06   1.9100487699082592e-05
-1.1710222809565443e-05   2.973955541841263e-06   2.5874869567239344e-06
-1.1710222809565443e-05   2.973955541841263e-06   2.5874869567239344e-06
-1.1710222809565443e-05   2.973955541841263e-06   2.5874869567239344e-06
-1.1710222809565443e-05   2.973955541841263e-06   2.5874869567239344e-06
-1.6332326143464373e-05   3.374175018826253e-06   1.0050860827031646e-05
-1.6332326143464373e-05   3.374175018826253e-06   1.0050860827031646e-05
-1.6332326143464373e-05   3.374175018826253e-06   1.0050860827031646e-05
-1.6332326143464373e-05   3.374175018826253e-06   1.0050860827031646e-05
-1.1710222809565443e-05   3.471997278279822e-06   1.939931274094552e-05
-1.1710222809565443e-05   3.471997278279822e-06   1.939931274094552e-05
-1.1710222809565443e-05   3.471997278279822e-06   1.939931274094552e-05
-1.1710222809565443e-05   3.471997278279822e-06   1.939931274094552e-05
-2.1797318280098398e-05   2.973955541841263e-06   2.288661914860951e-06
-2.1797318280098398e-05   2.973955541841263e-06   2.288661914860951e-06
-2.1797318280098398e-05   2.973955541841263e-06   2.288661914860951e-06
-2.1797318280098398e-05   2.973955541841263e-06   2.288661914860951e-06
-2.2262544108982287e-05   3.191061390278322e-06   1.961626232539174e-05
-2.2262544108982287e-05   3.191061390278322e-06   1.961626232539174e-05
-2.2262544108982287e-05   3.191061390278322e-06   1.961626232539174e-05
-2.2262544108982287e-05   3.191061390278322e-06   1.961626232539174e-05
-1.2150627242418416e-05   2.6620916125604834e-06   3.0804494144160864e-06
-1.2150627242418416e-05   2.6620916125604834e-06   3.0804494144160864e-06
-1.2150627242418416e-05   2.6620916125604834e-06   3.0804494144160864e-06
-1.2150627242418416e-05   2.6620916125604834e-06   3.0804494144160864e-06
-1.6862422803238725e-05   3.167985498997829e-06   1.0629905683920909e-05
-1.6862422803238725e-05   3.167985498997829e-06   1.0629905683920909e-05
-1.6862422803238725e-05   3.167985498997829e-06   1.0629905683920909e-05
-1.6862422803238725e-05   3.167985498997829e-06   1.0629905683920909e-05
-2.0824601690498602e-05   5.697937988335478e-06   8.97577677853623e-06
-2.0824601690498602e-05   5.697937988335478e-06   8.97577677853623e-06
-2.0824601690498602e-05   5.697937988335478e-06   8.97577677853623e-06
-2.0824601690498602e-05   5.697937988335478e-06   8.97577677853623e-06
-3.033124966967711e-05   4.8732417585761224e-06   -7.363454257950297e-06
-3.033124966967711e-05   4.8732417585761224e-06   -7.363454257950297e-06
-3.033124966967711e-05   4.8732417585761224e-06   -7.363454257950297e-06
-3.033124966967711e-05   4.8732417585761224e-06   -7.363454257950297e-06
-3.116500446240006e-05   5.76253262364124e-06   1.1956021602642342e-05
-3.116500446240006e-05   5.76253262364124e-06   1.1956021602642342e-05
-3.116500446240006e-05   5.76253262364124e-06   1.1956021602642342e-05
-3.116500446240006e-05   5.76253262364124e-06   1.1956021602642342e-05
-2.128785644984224e-05   4.852759896071049e-06   -3.960028115078526e-06
-2.128785644984224e-05   4.852759896071049e-06   -3.960028115078526e-06
-2.128785644984224e-05   4.852759896071049e-06   -3.960028115078526e-06
-2.128785644984224e-05   4.852759896071049e-06   -3.960028115078526e-06
-2.4916146678219067e-05   5.217504886548328e-06   1.868275271263225e-06
-2.4916146678219067e-05   5.217504886548328e-06   1.868275271263225e-06
-2.4916146678219067e-05   5.217504886548328e-06   1.868275271263225e-06
-2.4916146678219067e-05   5.217504886548328e-06   1.868275271263225e-06
-2.1287856449842132e-05   5.762532623641457e-06   1.2501885239184576e-05
-2.1287856449842132e-05   5.762532623641457e-06   1.2501885239184576e-05
-2.1287856449842132e-05   5.762532623641457e-06   1.2501885239184576e-05
-2.1287856449842132e-05   5.762532623641457e-06   1.2501885239184576e-05
-3.1165004462400085e-05   4.852759896071049e-06   -4.505891751620868e-06
-3.1165004462400085e-05   4.852759896071049e-06   -4.505891751620868e-06
-3.1165004462400085e-05   4.852759896071049e-06   -4.505891751620868e-06
-3.1165004462400085e-05   4.852759896071049e-06   -4.505891751620868e-06
-3.191039153390394e-05   5.700274933035732e-06   1.4353207619814505e-05
-3.191039153390394e-05   5.700274933035732e-06   1.4353207619814505e-05
-3.191039153390394e-05   5.700274933035732e-06   1.4353207619814505e-05
-3.191039153390394e-05   5.700274933035732e-06   1.4353207619814505e-05
-2.1797318280098425e-05   4.755161546460404e-06   -1.9348464379162706e-06
-2.1797318280098425e-05   4.755161546460404e-06   -1.9348464379162706e-06
-2.1797318280098425e-05   4.755161546460404e-06   -1.9348464379162706e-06
-2.1797318280098425e-05   4.755161546460404e-06   -1.9348464379162706e-06
-2.5879976501003702e-05   5.27654050978257e-06   4.556756552266786e-06
-2.5879976501003702e-05   5.27654050978257e-06   4.556756552266786e-06
-2.5879976501003702e-05   5.27654050978257e-06   4.556756552266786e-06
-2.5879976501003702e-05   5.27654050978257e-06   4.556756552266786e-06
-2.1797318280098425e-05   5.700274933035732e-06   1.49202756517598e-05
-2.1797318280098425e-05   5.700274933035732e-06   1.49202756517598e-05
-2.1797318280098425e-05   5.700274933035732e-06   1.49202756517598e-05
-2.1797318280098425e-05   5.700274933035732e-06   1.49202756517598e-05
-3.1910391533904e-05   4.755161546460404e-06   -2.5019144698614566e-06
-3.1910391533904e-05   4.755161546460404e-06   -2.5019144698614566e-06
-3.1910391533904e-05   4.755161546460404e-06   -2.5019144698614566e-06
-3.1910391533904e-05   4.755161546460404e-06   -2.5019144698614566e-06
-3.276580810577769e-05   5.263701117125654e-06   1.8472438258901346e-05
-3.276580810577769e-05   5.263701117125654e-06   1.8472438258901346e-05
-3.276580810577769e-05   5.263701117125654e-06   1.8472438258901346e-05
-3.276580810577769e-05   5.263701117125654e-06   1.8472438258901346e-05
-2.226254410898226e-05   4.321534903935871e-06   1.53229799215596e-06
-2.226254410898226e-05   4.321534903935871e-06   1.53229799215596e-06
-2.226254410898226e-05   4.321534903935871e-06   1.53229799215596e-06
-2.226254410898226e-05   4.321534903935871e-06   1.53229799215596e-06
-2.607709622427917e-05   5.096381951423838e-06   7.424976622491091e-06
-2.607709622427917e-05   5.096381951423838e-06   7.424976622491091e-06
-2.607709622427917e-05   5.096381951423838e-06   7.424976622491091e-06
-2.607709622427917e-05   5.096381951423838e-06   7.424976622491091e-06
1.4420799046765929e-05   -1.8669875289246268e-06   1.4359833204456814e-05
1.4420799046765929e-05   -1.8669875289246268e-06   1.4359833204456814e-05
1.4420799046765929e-05   -1.8669875289246268e-06   1.4359833204456814e-05
1.4420799046765929e-05   -1.8669875289246268e-06   1.4359833204456814e-05
5.989747070466404e-06   -9.314541064862686e-07   8.693999640872621e-07
5.989747070466404e-06   -9.314541064862686e-07   8.693999640872621e-07
5.989747070466404e-06   -9.314541064862686e-07   8.693999640872621e-07
5.989747070466404e-06   -9.314541064862686e-07   8.693999640872621e-07
5.62309211508294e-06   -2.2614878834620756e-06   1.289970416540559e-05
5.62309211508294e-06   -2.2614878834620756e-06   1.289970416540559e-05
5.62309211508294e-06   -2.2614878834620756e-06   1.289970416540559e-05
5.62309211508294e-06   -2.2614878834620756e-06   1.289970416540559e-05
1.3638782045706013e-05   -1.2858039447286723e-06   -1.0451894155395422e-06
1.3638782045706013e-05   -1.2858039447286723e-06   -1.0451894155395422e-06
1.3638782045706013e-05   -1.2858039447286723e-06   -1.0451894155395422e-06
1.3638782045706013e-05   -1.2858039447286723e-06   -1.0451894155395422e-06
9.425297748766947e-06   -1.6236568160757792e-06   6.179996135500837e-06
9.425297748766947e-06   -1.6236568160757792e-06   6.179996135500837e-06
9.425297748766947e-06   -1.6236568160757792e-06   6.179996135500837e-06
9.425297748766947e-06   -1.6236568160757792e-06   6.179996135500837e-06
1.3638782045706036e-05   -2.2614878834620756e-06   1.2314293802165679e-05
1.3638782045706036e-05   -2.2614878834620756e-06   1.2314293802165679e-05
1.3638782045706036e-05   -2.2614878834620756e-06   1.2314293802165679e-05
1.3638782045706036e-05   -2.2614878834620756e-06   1.2314293802165679e-05
5.623092115082921e-06   -1.2858039447286723e-06   -4.5977905229963034e-07
5.623092115082921e-06   -1.2858039447286723e-06   -4.5977905229963034e-07
5.623092115082921e-06   -1.2858039447286723e-06   -4.5977905229963034e-07
5.623092115082921e-06   -1.2858039447286723e-06   -4.5977905229963034e-07
5.2105265517822135e-06   -2.3662040784075584e-06   1.1816876791739578e-05
5.2105265517822135e-06   -2.3662040784075584e-06   1.1816876791739578e-05
5.2105265517822135e-06   -2.3662040784075584e-06   1.1816876791739578e-05
5.2105265517822135e-06   -2.3662040784075584e-06   1.1816876791739578e-05
1.2966695841796056e-05   -1.4069989921800148e-06   -1.685595076686571e-06
1.2966695841796056e-05   -1.4069989921800148e-06   -1.685595076686571e-06
1.2966695841796056e-05   -1.4069989921800148e-06   -1.685595076686571e-06
1.2966695841796056e-05   -1.4069989921800148e-06   -1.685595076686571e-06
9.081170986118591e-06   -1.7742398434406948e-06   5.010624193532427e-06
9.081170986118591e-06   -1.7742398434406948e-06   5.010624193532427e-06
9.081170986118591e-06   -1.7742398434406948e-06   5.010624193532427e-06
9.081170986118591e-06   -1.7742398434406948e-06   5.010624193532427e-06
1.2966695841796077e-05   -2.3662040784075584e-06   1.1241353740003045e-05
1.2966695841796077e-05   -2.3662040784075584e-06   1.1241353740003045e-05
1.2966695841796077e-05   -2.3662040784075584e-06   1.1241353740003045e-05
1.2966695841796077e-05   -2.3662040784075584e-06   1.1241353740003045e-05
5.210526551782207e-06   -1.4069989921800148e-06   -1.1100720249501532e-06
5.210526551782207e-06   -1.4069989921800148e-06   -1.1100720249501532e-06
5.210526551782207e-06   -1.4069989921800148e-06   -1.1100720249501532e-06
5.210526551782207e-06   -1.4069989921800148e-06   -1.1100720249501532e-06
4.840383387435996e-06   -2.4609398375848458e-06   1.0404976559272674e-05
4.840383387435996e-06   -2.4609398375848458e-06   1.0404976559272674e-05
4.840383387435996e-06   -2.4609398375848458e-06   1.0404976559272674e-05
4.840383387435996e-06   -2.4609398375848458e-06   1.0404976559272674e-05
1.2203085583798225e-05   -1.5646721752856068e-06   -2.403954365377196e-06
1.2203085583798225e-05   -1.5646721752856068e-06   -2.403954365377196e-06
1.2203085583798225e-05   -1.5646721752856068e-06   -2.403954365377196e-06
1.2203085583798225e-05   -1.5646721752856068e-06   -2.403954365377196e-06
8.432464892193069e-06   -1.802012046319204e-06   4.022817376584558e-06
8.432464892193069e-06   -1.802012046319204e-06   4.022817376584558e-06
8.432464892193069e-06   -1.802012046319204e-06   4.022817376584558e-06
8.432464892193069e-06   -1.802012046319204e-06   4.022817376584558e-06
5.989747070466424e-06   -1.6100973169964547e-08   1.7674790337321515e-05
5.989747070466424e-06   -1.6100973169964547e-08   1.7674790337321515e-05
5.989747070466424e-06   -1.6100973169964547e-08   1.7674790337321515e-05
5.989747070466424e-06   -1.6100973169964547e-08   1.7674790337321515e-05
-1.914810518235965e-06   4.6101831962651763e-07   4.786799265162089e-06
-1.914810518235965e-06   4.6101831962651763e-07   4.786799265162089e-06
-1.914810518235965e-06   4.6101831962651763e-07   4.786799265162089e-06
-1.914810518235965e-06   4.6101831962651763e-07   4.786799265162089e-06
-2.2520467406806396e-06   -3.580674472996974e-07   1.770601380439603e-05
-2.2520467406806396e-06   -3.580674472996974e-07   1.770601380439603e-05
-2.2520467406806396e-06   -3.580674472996974e-07   1.770601380439603e-05
-2.2520467406806396e-06   -3.580674472996974e-07   1.770601380439603e-05
5.623092115082921e-06   1.036866478129313e-07   4.303729921056095e-06
5.623092115082921e-06   1.036866478129313e-07   4.303729921056095e-06
5.623092115082921e-06   1.036866478129313e-07   4.303729921056095e-06
5.623092115082921e-06   1.036866478129313e-07   4.303729921056095e-06
1.8048883634917963e-06   1.6607016219984637e-08   1.0719650619330672e-05
1.8048883634917963e-06   1.6607016219984637e-08   1.0719650619330672e-05
1.8048883634917963e-06   1.6607016219984637e-08   1.0719650619330672e-05
1.8048883634917963e-06   1.6607016219984637e-08   1.0719650619330672e-05
5.623092115082936e-06   -3.580674472996974e-07   1.742896134732863e-05
5.623092115082936e-06   -3.580674472996974e-07   1.742896134732863e-05
5.623092115082936e-06   -3.580674472996974e-07   1.742896134732863e-05
5.623092115082936e-06   -3.580674472996974e-07   1.742896134732863e-05
-2.252046740680653e-06   1.036866478129313e-07   4.580782378123672e-06
-2.252046740680653e-06   1.036866478129313e-07   4.580782378123672e-06
-2.252046740680653e-06   1.036866478129313e-07   4.580782378123672e-06
-2.252046740680653e-06   1.036866478129313e-07   4.580782378123672e-06
-2.5970164531008606e-06   -6.265002960158684e-07   1.7488775518271853e-05
-2.5970164531008606e-06   -6.265002960158684e-07   1.7488775518271853e-05
-2.5970164531008606e-06   -6.265002960158684e-07   1.7488775518271853e-05
-2.5970164531008606e-06   -6.265002960158684e-07   1.7488775518271853e-05
5.210526551782207e-06   -1.8765321180042212e-07   4.21289559293745e-06
5.210526551782207e-06   -1.8765321180042212e-07   4.21289559293745e-06
5.210526551782207e-06   -1.8765321180042212e-07   4.21289559293745e-06
5.210526551782207e-06   -1.8765321180042212e-07   4.21289559293745e-06
1.4333545065895617e-06   -2.21096161422585e-07   1.052824810469932e-05
1.4333545065895617e-06   -2.21096161422585e-07   1.052824810469932e-05
1.4333545065895617e-06   -2.21096161422585e-07   1.052824810469932e-05
1.4333545065895617e-06   -2.21096161422585e-07   1.052824810469932e-05
5.210526551782225e-06   -6.265002960158684e-07   1.722546726774266e-05
5.210526551782225e-06   -6.265002960158684e-07   1.722546726774266e-05
5.210526551782225e-06   -6.265002960158684e-07   1.722546726774266e-05
5.210526551782225e-06   -6.265002960158684e-07   1.722546726774266e-05
-2.597016453100874e-06   -1.8765321180042212e-07   4.476203843466848e-06
-2.597016453100874e-06   -1.8765321180042212e-07   4.476203843466848e-06
-2.597016453100874e-06   -1.8765321180042212e-07   4.476203843466848e-06
-2.597016453100874e-06   -1.8765321180042212e-07   4.476203843466848e-06
-2.939217284482582e-06   -8.737183699106255e-07   1.7642072428407352e-05
-2.939217284482582e-06   -8.737183699106255e-07   1.7642072428407352e-05
-2.939217284482582e-06   -8.737183699106255e-07   1.7642072428407352e-05
-2.939217284482582e-06   -8.737183699106255e-07   1.7642072428407352e-05
4.840383387435976e-06   -4.734194981574234e-07   4.435891985491119e-06
4.840383387435976e-06   -4.734194981574234e-07   4.435891985491119e-06
4.840383387435976e-06   -4.734194981574234e-07   4.435891985491119e-06
4.840383387435976e-06   -4.734194981574234e-07   4.435891985491119e-06
1.1410777322507388e-06   -4.180025285233655e-07   1.0568151229019187e-05
1.1410777322507388e-06   -4.180025285233655e-07   1.0568151229019187e-05
1.1410777322507388e-06   -4.180025285233655e-07   1.0568151229019187e-05
1.1410777322507388e-06   -4.180025285233655e-07   1.0568151229019187e-05
-1.914810518235965e-06   1.7882659822995167e-06   1.9165363006103337e-05
-1.914810518235965e-06   1.7882659822995167e-06   1.9165363006103337e-05
-1.914810518235965e-06   1.7882659822995167e-06   1.9165363006103337e-05
-1.914810518235965e-06   1.7882659822995167e-06   1.9165363006103337e-05
-9.686500089841894e-06   1.763396162348589e-06   6.1976251614561805e-06
-9.686500089841894e-06   1.763396162348589e-06   6.1976251614561805e-06
-9.686500089841894e-06   1.763396162348589e-06   6.1976251614561805e-06
-9.686500089841894e-06   1.763396162348589e-06   6.1976251614561805e-06
-1.0019582031828576e-05   1.489041211250909e-06   1.904054857602554e-05
-1.0019582031828576e-05   1.489041211250909e-06   1.904054857602554e-05
-1.0019582031828576e-05   1.489041211250909e-06   1.904054857602554e-05
-1.0019582031828576e-05   1.489041211250909e-06   1.904054857602554e-05
-2.252046740680653e-06   1.4398634592103794e-06   6.124163075336476e-06
-2.252046740680653e-06   1.4398634592103794e-06   6.124163075336476e-06
-2.252046740680653e-06   1.4398634592103794e-06   6.124163075336476e-06
-2.252046740680653e-06   1.4398634592103794e-06   6.124163075336476e-06
-5.983235977508489e-06   1.5791963008115768e-06   1.225921209842268e-05
-5.983235977508489e-06   1.5791963008115768e-06   1.225921209842268e-05
-5.983235977508489e-06   1.5791963008115768e-06   1.225921209842268e-05
-5.983235977508489e-06   1.5791963008115768e-06   1.225921209842268e-05
-2.2520467406806396e-06   1.489041211250909e-06   1.9070055227249686e-05
-2.2520467406806396e-06   1.489041211250909e-06   1.9070055227249686e-05
-2.2520467406806396e-06   1.489041211250909e-06   1.9070055227249686e-05
-2.2520467406806396e-06   1.489041211250909e-06   1.9070055227249686e-05
-1.0019582031828604e-05   1.4398634592104878e-06   6.094656424112277e-06
-1.0019582031828604e-05   1.4398634592104878e-06   6.094656424112277e-06
-1.0019582031828604e-05   1.4398634592104878e-06   6.094656424112277e-06
-1.0019582031828604e-05   1.4398634592104878e-06   6.094656424112277e-06
-1.0360525613515645e-05   1.194624135710063e-06   1.9134931019514382e-05
-1.0360525613515645e-05   1.194624135710063e-06   1.9134931019514382e-05
-1.0360525613515645e-05   1.194624135710063e-06   1.9134931019514382e-05
-1.0360525613515645e-05   1.194624135710063e-06   1.9134931019514382e-05
-2.5970164531008606e-06   1.120079077414609e-06   6.240476120467184e-06
-2.5970164531008606e-06   1.120079077414609e-06   6.240476120467184e-06
-2.5970164531008606e-06   1.120079077414609e-06   6.240476120467184e-06
-2.5970164531008606e-06   1.120079077414609e-06   6.240476120467184e-06
-6.287917167489758e-06   1.3448708070115884e-06   1.2257102273357428e-05
-6.287917167489758e-06   1.3448708070115884e-06   1.2257102273357428e-05
-6.287917167489758e-06   1.3448708070115884e-06   1.2257102273357428e-05
-6.287917167489758e-06   1.3448708070115884e-06   1.2257102273357428e-05
-2.597016453100874e-06   1.194624135710063e-06   1.9179658054491785e-05
-2.597016453100874e-06   1.194624135710063e-06   1.9179658054491785e-05
-2.597016453100874e-06   1.194624135710063e-06   1.9179658054491785e-05
-2.597016453100874e-06   1.194624135710063e-06   1.9179658054491785e-05
-1.0360525613515673e-05   1.120079077414609e-06   6.19574908548989e-06
-1.0360525613515673e-05   1.120079077414609e-06   6.19574908548989e-06
-1.0360525613515673e-05   1.120079077414609e-06   6.19574908548989e-06
-1.0360525613515673e-05   1.120079077414609e-06   6.19574908548989e-06
-1.0697351157549649e-05   9.153438721848373e-07   1.9387711754102104e-05
-1.0697351157549649e-05   9.153438721848373e-07   1.9387711754102104e-05
-1.0697351157549649e-05   9.153438721848373e-07   1.9387711754102104e-05
-1.0697351157549649e-05   9.153438721848373e-07   1.9387711754102104e-05
-2.9392172844825684e-06   8.123814525614779e-07   6.51926608409765e-06
-2.9392172844825684e-06   8.123814525614779e-07   6.51926608409765e-06
-2.9392172844825684e-06   8.123814525614779e-07   6.51926608409765e-06
-2.9392172844825684e-06   8.123814525614779e-07   6.51926608409765e-06
-6.606800434349699e-06   1.1161860564678746e-06   1.244962190486524e-05
-6.606800434349699e-06   1.1161860564678746e-06   1.244962190486524e-05
-6.606800434349699e-06   1.1161860564678746e-06   1.244962190486524e-05
-6.606800434349699e-06   1.1161860564678746e-06   1.244962190486524e-05
-9.686500089841894e-06   3.526449598342937e-06   1.696309905730223e-05
-9.686500089841894e-06   3.526449598342937e-06   1.696309905730223e-05
-9.686500089841894e-06   3.526449598342937e-06   1.696309905730223e-05
-9.686500089841894e-06   3.526449598342937e-06   1.696309905730223e-05
-1.73353207192412e-05   3.0312975494789984e-06   3.917973445651543e-06
-1.73353207192412e-05   3.0312975494789984e-06   3.917973445651543e-06
-1.73353207192412e-05   3.0312975494789984e-06   3.917973445651543e-06
-1.73353207192412e-05   3.0312975494789984e-06   3.917973445651543e-06
-1.7693048326166875e-05   3.240965909909188e-06   1.6741997619594594e-05
-1.7693048326166875e-05   3.240965909909188e-06   1.6741997619594594e-05
-1.7693048326166875e-05   3.240965909909188e-06   1.6741997619594594e-05
-1.7693048326166875e-05   3.240965909909188e-06   1.6741997619594594e-05
-1.0019582031828563e-05   2.7160555682307274e-06   4.267833334037916e-06
-1.0019582031828563e-05   2.7160555682307274e-06   4.267833334037916e-06
-1.0019582031828563e-05   2.7160555682307274e-06   4.267833334037916e-06
-1.0019582031828563e-05   2.7160555682307274e-06   4.267833334037916e-06
-1.3644692718858587e-05   3.0742301972986057e-06   1.0094779701647636e-05
-1.3644692718858587e-05   3.0742301972986057e-06   1.0094779701647636e-05
-1.3644692718858587e-05   3.0742301972986057e-06   1.0094779701647636e-05
-1.3644692718858587e-05   3.0742301972986057e-06   1.0094779701647636e-05
-1.0019582031828604e-05   3.240965909909188e-06   1.70569438246018e-05
-1.0019582031828604e-05   3.240965909909188e-06   1.70569438246018e-05
-1.0019582031828604e-05   3.240965909909188e-06   1.70569438246018e-05
-1.0019582031828604e-05   3.240965909909188e-06   1.70569438246018e-05
-1.7693048326166875e-05   2.7160555682307274e-06   3.952887129030926e-06
-1.7693048326166875e-05   2.7160555682307274e-06   3.952887129030926e-06
-1.7693048326166875e-05   2.7160555682307274e-06   3.952887129030926e-06
-1.7693048326166875e-05   2.7160555682307274e-06   3.952887129030926e-06
-1.8095242021666253e-05   2.973955541841263e-06   1.7315535138155962e-05
-1.8095242021666253e-05   2.973955541841263e-06   1.7315535138155962e-05
-1.8095242021666253e-05   2.973955541841263e-06   1.7315535138155962e-05
-1.8095242021666253e-05   2.973955541841263e-06   1.7315535138155962e-05
-1.0360525613515632e-05   2.423501010666426e-06   4.754613843276599e-06
-1.0360525613515632e-05   2.423501010666426e-06   4.754613843276599e-06
-1.0360525613515632e-05   2.423501010666426e-06   4.754613843276599e-06
-1.0360525613515632e-05   2.423501010666426e-06   4.754613843276599e-06
-1.3890698540507953e-05   2.85986046983912e-06   1.0376419712760542e-05
-1.3890698540507953e-05   2.85986046983912e-06   1.0376419712760542e-05
-1.3890698540507953e-05   2.85986046983912e-06   1.0376419712760542e-05
-1.3890698540507953e-05   2.85986046983912e-06   1.0376419712760542e-05
-1.0360525613515673e-05   2.973955541841263e-06   1.7645807856860886e-05
-1.0360525613515673e-05   2.973955541841263e-06   1.7645807856860886e-05
-1.0360525613515673e-05   2.973955541841263e-06   1.7645807856860886e-05
-1.0360525613515673e-05   2.973955541841263e-06   1.7645807856860886e-05
-1.8095242021666226e-05   2.423501010666426e-06   4.424341124571621e-06
-1.8095242021666226e-05   2.423501010666426e-06   4.424341124571621e-06
-1.8095242021666226e-05   2.423501010666426e-06   4.424341124571621e-06
-1.8095242021666226e-05   2.423501010666426e-06   4.424341124571621e-06
-1.8452186073921264e-05   2.6620916125604834e-06   1.779592319040154e-05
-1.8452186073921264e-05   2.6620916125604834e-06   1.779592319040154e-05
-1.8452186073921264e-05   2.6620916125604834e-06   1.779592319040154e-05
-1.8452186073921264e-05   2.6620916125604834e-06   1.779592319040154e-05
-1.0697351157549608e-05   2.0956126827927643e-06   5.211085687642828e-06
-1.0697351157549608e-05   2.0956126827927643e-06   5.211085687642828e-06
-1.0697351157549608e-05   2.0956126827927643e-06   5.211085687642828e-06
-1.0697351157549608e-05   2.0956126827927643e-06   5.211085687642828e-06
-1.4294805885698786e-05   2.6332586939852194e-06   1.0884255961175472e-05
-1.4294805885698786e-05   2.6332586939852194e-06   1.0884255961175472e-05
-1.4294805885698786e-05   2.6332586939852194e-06   1.0884255961175472e-05
-1.4294805885698786e-05   2.6332586939852194e-06   1.0884255961175472e-05
-1.73353207192412e-05   4.8732417585761224e-06   8.166511887203892e-06
-1.73353207192412e-05   4.8732417585761224e-06   8.166511887203892e-06
-1.73353207192412e-05   4.8732417585761224e-06   8.166511887203892e-06
-1.73353207192412e-05   4.8732417585761224e-06   8.166511887203892e-06
-2.4530093430918747e-05   3.98873137670867e-06   -4.355482194712322e-06
-2.4530093430918747e-05   3.98873137670867e-06   -4.355482194712322e-06
-2.4530093430918747e-05   3.98873137670867e-06   -4.355482194712322e-06
-2.4530093430918747e-05   3.98873137670867e-06   -4.355482194712322e-06
-2.5279700808903923e-05   4.852759896071049e-06   1.0492469233675428e-05
-2.5279700808903923e-05   4.852759896071049e-06   1.0492469233675428e-05
-2.5279700808903923e-05   4.852759896071049e-06   1.0492469233675428e-05
-2.5279700808903923e-05   4.852759896071049e-06   1.0492469233675428e-05
-1.769304832616682e-05   3.889789751978742e-06   -1.5741694844308932e-06
-1.769304832616682e-05   3.889789751978742e-06   -1.5741694844308932e-06
-1.769304832616682e-05   3.889789751978742e-06   -1.5741694844308932e-06
-1.769304832616682e-05   3.889789751978742e-06   -1.5741694844308932e-06
-2.0414104382531926e-05   4.3196142228819445e-06   2.7030292603027898e-06
-2.0414104382531926e-05   4.3196142228819445e-06   2.7030292603027898e-06
-2.0414104382531926e-05   4.3196142228819445e-06   2.7030292603027898e-06
-2.0414104382531926e-05   4.3196142228819445e-06   2.7030292603027898e-06
-1.7693048326166875e-05   4.852759896071049e-06   1.1070251320130736e-05
-1.7693048326166875e-05   4.852759896071049e-06   1.1070251320130736e-05
-1.7693048326166875e-05   4.852759896071049e-06   1.1070251320130736e-05
-1.7693048326166875e-05   4.852759896071049e-06   1.1070251320130736e-05
-2.5279700808903896e-05   3.889789751978633e-06   -2.1519515708862016e-06
-2.5279700808903896e-05   3.889789751978633e-06   -2.1519515708862016e-06
-2.5279700808903896e-05   3.889789751978633e-06   -2.1519515708862016e-06
-2.5279700808903896e-05   3.889789751978633e-06   -2.1519515708862016e-06
-2.5932623053473474e-05   4.755161546460404e-06   1.249827455569914e-05
-2.5932623053473474e-05   4.755161546460404e-06   1.249827455569914e-05
-2.5932623053473474e-05   4.755161546460404e-06   1.249827455569914e-05
-2.5932623053473474e-05   4.755161546460404e-06   1.249827455569914e-05
-1.80952420216662e-05   3.7655744969944394e-06   2.9725065700102887e-08
-1.80952420216662e-05   3.7655744969944394e-06   2.9725065700102887e-08
-1.80952420216662e-05   3.7655744969944394e-06   2.9725065700102887e-08
-1.80952420216662e-05   3.7655744969944394e-06   2.9725065700102887e-08
-2.121165081957462e-05   4.324022111335869e-06   4.888671160276808e-06
-2.121165081957462e-05   4.324022111335869e-06   4.888671160276808e-06
-2.121165081957462e-05   4.324022111335869e-06   4.888671160276808e-06
-2.121165081957462e-05   4.324022111335869e-06   4.888671160276808e-06
-1.8095242021666226e-05   4.755161546460404e-06   1.3092026785378687e-05
-1.8095242021666226e-05   4.755161546460404e-06   1.3092026785378687e-05
-1.8095242021666226e-05   4.755161546460404e-06   1.3092026785378687e-05
-1.8095242021666226e-05   4.755161546460404e-06   1.3092026785378687e-05
-2.5932623053473447e-05   3.7655744969944394e-06   -5.64027163979389e-07
-2.5932623053473447e-05   3.7655744969944394e-06   -5.64027163979389e-07
-2.5932623053473447e-05   3.7655744969944394e-06   -5.64027163979389e-07
-2.5932623053473447e-05   3.7655744969944394e-06   -5.64027163979389e-07
-2.668905458569999e-05   4.321534903935871e-06   1.597994348862832e-05
-2.668905458569999e-05   4.321534903935871e-06   1.597994348862832e-05
-2.668905458569999e-05   4.321534903935871e-06   1.597994348862832e-05
-2.668905458569999e-05   4.321534903935871e-06   1.597994348862832e-05
-1.845218607392121e-05   3.3461846603626217e-06   2.837039448474435e-06
-1.845218607392121e-05   3.3461846603626217e-06   2.837039448474435e-06
-1.845218607392121e-05   3.3461846603626217e-06   2.837039448474435e-06
-1.845218607392121e-05   3.3461846603626217e-06   2.837039448474435e-06
-2.1382776706519135e-05   4.1411354857832775e-06   7.244386674217656e-06
-2.1382776706519135e-05   4.1411354857832775e-06   7.244386674217656e-06
-2.1382776706519135e-05   4.1411354857832775e-06   7.244386674217656e-06
-2.1382776706519135e-05   4.1411354857832775e-06   7.244386674217656e-06
8.110094230131634e-06   -9.314541064862686e-07   1.1356219791236441e-05
8.110094230131634e-06   -9.314541064862686e-07   1.1356219791236441e-05
8.110094230131634e-06   -9.314541064862686e-07   1.1356219791236441e-05
8.110094230131634e-06   -9.314541064862686e-07   1.1356219791236441e-05
2.1600767424091597e-06   -1.091152072884606e-09   1.9977417510138023e-06
2.1600767424091597e-06   -1.091152072884606e-09   1.9977417510138023e-06
2.1600767424091597e-06   -1.091152072884606e-09   1.9977417510138023e-06
2.1600767424091597e-06   -1.091152072884606e-09   1.9977417510138023e-06
1.8841999973993748e-06   -1.2858039447286723e-06   1.0574561403508057e-05
1.8841999973993748e-06   -1.2858039447286723e-06   1.0574561403508057e-05
1.8841999973993748e-06   -1.2858039447286723e-06   1.0574561403508057e-05
1.8841999973993748e-06   -1.2858039447286723e-06   1.0574561403508057e-05
7.427016953486956e-06   -3.1959373680227193e-07   7.568070186064323e-07
7.427016953486956e-06   -3.1959373680227193e-07   7.568070186064323e-07
7.427016953486956e-06   -3.1959373680227193e-07   7.568070186064323e-07
7.427016953486956e-06   -3.1959373680227193e-07   7.568070186064323e-07
4.608180304446231e-06   -6.795476561601249e-07   5.670840451956123e-06
4.608180304446231e-06   -6.795476561601249e-07   5.670840451956123e-06
4.608180304446231e-06   -6.795476561601249e-07   5.670840451956123e-06
4.608180304446231e-06   -6.795476561601249e-07   5.670840451956123e-06
7.42701695348697e-06   -1.2858039447286723e-06   9.994835278752326e-06
7.42701695348697e-06   -1.2858039447286723e-06   9.994835278752326e-06
7.42701695348697e-06   -1.2858039447286723e-06   9.994835278752326e-06
7.42701695348697e-06   -1.2858039447286723e-06   9.994835278752326e-06
1.8841999973993714e-06   -3.1959373680227193e-07   1.3365331433622509e-06
1.8841999973993714e-06   -3.1959373680227193e-07   1.3365331433622509e-06
1.8841999973993714e-06   -3.1959373680227193e-07   1.3365331433622509e-06
1.8841999973993714e-06   -3.1959373680227193e-07   1.3365331433622509e-06
1.5619891511107264e-06   -1.4069989921800148e-06   9.915684794061018e-06
1.5619891511107264e-06   -1.4069989921800148e-06   9.915684794061018e-06
1.5619891511107264e-06   -1.4069989921800148e-06   9.915684794061018e-06
1.5619891511107264e-06   -1.4069989921800148e-06   9.915684794061018e-06
6.847859052729238e-06   -4.55802513786986e-07   5.35183737661012e-07
6.847859052729238e-06   -4.55802513786986e-07   5.35183737661012e-07
6.847859052729238e-06   -4.55802513786986e-07   5.35183737661012e-07
6.847859052729238e-06   -4.55802513786986e-07   5.35183737661012e-07
4.280780059977934e-06   -8.186852270279286e-07   5.031378353524468e-06
4.280780059977934e-06   -8.186852270279286e-07   5.031378353524468e-06
4.280780059977934e-06   -8.186852270279286e-07   5.031378353524468e-06
4.280780059977934e-06   -8.186852270279286e-07   5.031378353524468e-06
6.8478590527292516e-06   -1.4069989921800148e-06   9.344966907025252e-06
6.8478590527292516e-06   -1.4069989921800148e-06   9.344966907025252e-06
6.8478590527292516e-06   -1.4069989921800148e-06   9.344966907025252e-06
6.8478590527292516e-06   -1.4069989921800148e-06   9.344966907025252e-06
1.5619891511107197e-06   -4.55802513786986e-07   1.1059016246968293e-06
1.5619891511107197e-06   -4.55802513786986e-07   1.1059016246968293e-06
1.5619891511107197e-06   -4.55802513786986e-07   1.1059016246968293e-06
1.5619891511107197e-06   -4.55802513786986e-07   1.1059016246968293e-06
1.282457002628266e-06   -1.5646721752856068e-06   9.14739156406344e-06
1.282457002628266e-06   -1.5646721752856068e-06   9.14739156406344e-06
1.282457002628266e-06   -1.5646721752856068e-06   9.14739156406344e-06
1.282457002628266e-06   -1.5646721752856068e-06   9.14739156406344e-06
6.168511946131096e-06   -6.80575645487522e-07   4.7350874034658274e-07
6.168511946131096e-06   -6.80575645487522e-07   4.7350874034658274e-07
6.168511946131096e-06   -6.80575645487522e-07   4.7350874034658274e-07
6.168511946131096e-06   -6.80575645487522e-07   4.7350874034658274e-07
3.790816852081597e-06   -8.884228817643779e-07   4.561042238861808e-06
3.790816852081597e-06   -8.884228817643779e-07   4.561042238861808e-06
3.790816852081597e-06   -8.884228817643779e-07   4.561042238861808e-06
3.790816852081597e-06   -8.884228817643779e-07   4.561042238861808e-06
2.160076742409163e-06   4.6101831962662605e-07   1.5545565289281436e-05
2.160076742409163e-06   4.6101831962662605e-07   1.5545565289281436e-05
2.160076742409163e-06   4.6101831962662605e-07   1.5545565289281436e-05
2.160076742409163e-06   4.6101831962662605e-07   1.5545565289281436e-05
-3.2540065274208222e-06   8.845740211884789e-07   6.7762265938353335e-06
-3.2540065274208222e-06   8.845740211884789e-07   6.7762265938353335e-06
-3.2540065274208222e-06   8.845740211884789e-07   6.7762265938353335e-06
-3.2540065274208222e-06   8.845740211884789e-07   6.7762265938353335e-06
-3.496737951372449e-06   1.036866478129313e-07   1.5591548690811557e-05
-3.496737951372449e-06   1.036866478129313e-07   1.5591548690811557e-05
-3.496737951372449e-06   1.036866478129313e-07   1.5591548690811557e-05
-3.496737951372449e-06   1.036866478129313e-07   1.5591548690811557e-05
1.8841999973993714e-06   5.261505043926279e-07   6.3698404622441725e-06
1.8841999973993714e-06   5.261505043926279e-07   6.3698404622441725e-06
1.8841999973993714e-06   5.261505043926279e-07   6.3698404622441725e-06
1.8841999973993714e-06   5.261505043926279e-07   6.3698404622441725e-06
-7.175830394133255e-07   4.5748430425028054e-07   1.0747345243684468e-05
-7.175830394133255e-07   4.5748430425028054e-07   1.0747345243684468e-05
-7.175830394133255e-07   4.5748430425028054e-07   1.0747345243684468e-05
-7.175830394133255e-07   4.5748430425028054e-07   1.0747345243684468e-05
1.884199997399373e-06   1.036866478129313e-07   1.533807037686366e-05
1.884199997399373e-06   1.036866478129313e-07   1.533807037686366e-05
1.884199997399373e-06   1.036866478129313e-07   1.533807037686366e-05
1.884199997399373e-06   1.036866478129313e-07   1.533807037686366e-05
-3.496737951372449e-06   5.261505043926279e-07   6.623318776192001e-06
-3.496737951372449e-06   5.261505043926279e-07   6.623318776192001e-06
-3.496737951372449e-06   5.261505043926279e-07   6.623318776192001e-06
-3.496737951372449e-06   5.261505043926279e-07   6.623318776192001e-06
-3.746717164392543e-06   -1.8765321180042212e-07   1.548533824848985e-05
-3.746717164392543e-06   -1.8765321180042212e-07   1.548533824848985e-05
-3.746717164392543e-06   -1.8765321180042212e-07   1.548533824848985e-05
-3.746717164392543e-06   -1.8765321180042212e-07   1.548533824848985e-05
1.5619891511107197e-06   2.2348984910121068e-07   6.390808552776705e-06
1.5619891511107197e-06   2.2348984910121068e-07   6.390808552776705e-06
1.5619891511107197e-06   2.2348984910121068e-07   6.390808552776705e-06
1.5619891511107197e-06   2.2348984910121068e-07   6.390808552776705e-06
-9.77143982457807e-07   2.0819938592034e-07   1.0631871386633111e-05
-9.77143982457807e-07   2.0819938592034e-07   1.0631871386633111e-05
-9.77143982457807e-07   2.0819938592034e-07   1.0631871386633111e-05
-9.77143982457807e-07   2.0819938592034e-07   1.0631871386633111e-05
1.5619891511107264e-06   -1.8765321180042212e-07   1.5238652411948811e-05
1.5619891511107264e-06   -1.8765321180042212e-07   1.5238652411948811e-05
1.5619891511107264e-06   -1.8765321180042212e-07   1.5238652411948811e-05
1.5619891511107264e-06   -1.8765321180042212e-07   1.5238652411948811e-05
-3.746717164392543e-06   2.2348984910121068e-07   6.637494389317717e-06
-3.746717164392543e-06   2.2348984910121068e-07   6.637494389317717e-06
-3.746717164392543e-06   2.2348984910121068e-07   6.637494389317717e-06
-3.746717164392543e-06   2.2348984910121068e-07   6.637494389317717e-06
-3.993149331642606e-06   -4.734194981574234e-07   1.5682855004964334e-05
-3.993149331642606e-06   -4.734194981574234e-07   1.5682855004964334e-05
-3.993149331642606e-06   -4.734194981574234e-07   1.5682855004964334e-05
-3.993149331642606e-06   -4.734194981574234e-07   1.5682855004964334e-05
1.2824570026282593e-06   -8.445668580421214e-08   6.6568000937676725e-06
1.2824570026282593e-06   -8.445668580421214e-08   6.6568000937676725e-06
1.2824570026282593e-06   -8.445668580421214e-08   6.6568000937676725e-06
1.2824570026282593e-06   -8.445668580421214e-08   6.6568000937676725e-06
-1.1961858251827628e-06   -1.4240486030344442e-08   1.0745741753588286e-05
-1.1961858251827628e-06   -1.4240486030344442e-08   1.0745741753588286e-05
-1.1961858251827628e-06   -1.4240486030344442e-08   1.0745741753588286e-05
-1.1961858251827628e-06   -1.4240486030344442e-08   1.0745741753588286e-05
-3.2540065274208222e-06   1.763396162348589e-06   1.7225446498483367e-05
-3.2540065274208222e-06   1.763396162348589e-06   1.7225446498483367e-05
-3.2540065274208222e-06   1.763396162348589e-06   1.7225446498483367e-05
-3.2540065274208222e-06   1.763396162348589e-06   1.7225446498483367e-05
-8.57203306747695e-06   1.6658146164748398e-06   8.303520004198858e-06
-8.57203306747695e-06   1.6658146164748398e-06   8.303520004198858e-06
-8.57203306747695e-06   1.6658146164748398e-06   8.303520004198858e-06
-8.57203306747695e-06   1.6658146164748398e-06   8.303520004198858e-06
-8.80527021350902e-06   1.4398634592104878e-06   1.7072911035556485e-05
-8.80527021350902e-06   1.4398634592104878e-06   1.7072911035556485e-05
-8.80527021350902e-06   1.4398634592104878e-06   1.7072911035556485e-05
-8.80527021350902e-06   1.4398634592104878e-06   1.7072911035556485e-05
-3.4967379513724353e-06   1.3364995384304796e-06   8.287375617797008e-06
-3.4967379513724353e-06   1.3364995384304796e-06   8.287375617797008e-06
-3.4967379513724353e-06   1.3364995384304796e-06   8.287375617797008e-06
-3.4967379513724353e-06   1.3364995384304796e-06   8.287375617797008e-06
-6.04360093271213e-06   1.5133018201390555e-06   1.2426065884338518e-05
-6.04360093271213e-06   1.5133018201390555e-06   1.2426065884338518e-05
-6.04360093271213e-06   1.5133018201390555e-06   1.2426065884338518e-05
-6.04360093271213e-06   1.5133018201390555e-06   1.2426065884338518e-05
-3.496737951372449e-06   1.4398634592104878e-06   1.713492938802455e-05
-3.496737951372449e-06   1.4398634592104878e-06   1.713492938802455e-05
-3.496737951372449e-06   1.4398634592104878e-06   1.713492938802455e-05
-3.496737951372449e-06   1.4398634592104878e-06   1.713492938802455e-05
-8.80527021350902e-06   1.3364995384304796e-06   8.225357265329025e-06
-8.80527021350902e-06   1.3364995384304796e-06   8.225357265329025e-06
-8.80527021350902e-06   1.3364995384304796e-06   8.225357265329025e-06
-8.80527021350902e-06   1.3364995384304796e-06   8.225357265329025e-06
-9.046023646965565e-06   1.120079077414609e-06   1.7182905382901272e-05
-9.046023646965565e-06   1.120079077414609e-06   1.7182905382901272e-05
-9.046023646965565e-06   1.120079077414609e-06   1.7182905382901272e-05
-9.046023646965565e-06   1.120079077414609e-06   1.7182905382901272e-05
-3.7467171643925295e-06   1.0089038397665274e-06   8.417433054535195e-06
-3.7467171643925295e-06   1.0089038397665274e-06   8.417433054535195e-06
-3.7467171643925295e-06   1.0089038397665274e-06   8.417433054535195e-06
-3.7467171643925295e-06   1.0089038397665274e-06   8.417433054535195e-06
-6.250998724194047e-06   1.2633343891126905e-06   1.2438577324596582e-05
-6.250998724194047e-06   1.2633343891126905e-06   1.2438577324596582e-05
-6.250998724194047e-06   1.2633343891126905e-06   1.2438577324596582e-05
-6.250998724194047e-06   1.2633343891126905e-06   1.2438577324596582e-05
-3.746717164392543e-06   1.120079077414609e-06   1.7249610525490105e-05
-3.746717164392543e-06   1.120079077414609e-06   1.7249610525490105e-05
-3.746717164392543e-06   1.120079077414609e-06   1.7249610525490105e-05
-3.746717164392543e-06   1.120079077414609e-06   1.7249610525490105e-05
-9.046023646965565e-06   1.0089038397665274e-06   8.350727911946335e-06
-9.046023646965565e-06   1.0089038397665274e-06   8.350727911946335e-06
-9.046023646965565e-06   1.0089038397665274e-06   8.350727911946335e-06
-9.046023646965565e-06   1.0089038397665274e-06   8.350727911946335e-06
-9.282927694517082e-06   8.123814525614779e-07   1.745592985315464e-05
-9.282927694517082e-06   8.123814525614779e-07   1.745592985315464e-05
-9.282927694517082e-06   8.123814525614779e-07   1.745592985315464e-05
-9.282927694517082e-06   8.123814525614779e-07   1.745592985315464e-05
-3.993149331642606e-06   6.955149069545231e-07   8.70975250906133e-06
-3.993149331642606e-06   6.955149069545231e-07   8.70975250906133e-06
-3.993149331642606e-06   6.955149069545231e-07   8.70975250906133e-06
-3.993149331642606e-06   6.955149069545231e-07   8.70975250906133e-06
-6.471751414805377e-06   1.0185213306822738e-06   1.2646952126762687e-05
-6.471751414805377e-06   1.0185213306822738e-06   1.2646952126762687e-05
-6.471751414805377e-06   1.0185213306822738e-06   1.2646952126762687e-05
-6.471751414805377e-06   1.0185213306822738e-06   1.2646952126762687e-05
-8.57203306747695e-06   3.0312975494789984e-06   1.518433708447292e-05
-8.57203306747695e-06   3.0312975494789984e-06   1.518433708447292e-05
-8.57203306747695e-06   3.0312975494789984e-06   1.518433708447292e-05
-8.57203306747695e-06   3.0312975494789984e-06   1.518433708447292e-05
-1.3799383111814321e-05   2.482180135077584e-06   6.1426165619365394e-06
-1.3799383111814321e-05   2.482180135077584e-06   6.1426165619365394e-06
-1.3799383111814321e-05   2.482180135077584e-06   6.1426165619365394e-06
-1.3799383111814321e-05   2.482180135077584e-06   6.1426165619365394e-06
-1.4053978682321446e-05   2.716055568230836e-06   1.4906803872547598e-05
-1.4053978682321446e-05   2.716055568230836e-06   1.4906803872547598e-05
-1.4053978682321446e-05   2.716055568230836e-06   1.4906803872547598e-05
-1.4053978682321446e-05   2.716055568230836e-06   1.4906803872547598e-05
-8.805270213509006e-06   2.1505821133398694e-06   6.4982404974616445e-06
-8.805270213509006e-06   2.1505821133398694e-06   6.4982404974616445e-06
-8.805270213509006e-06   2.1505821133398694e-06   6.4982404974616445e-06
-8.805270213509006e-06   2.1505821133398694e-06   6.4982404974616445e-06
-1.128024721822285e-05   2.5514026137058257e-06   1.0382709871765695e-05
-1.128024721822285e-05   2.5514026137058257e-06   1.0382709871765695e-05
-1.128024721822285e-05   2.5514026137058257e-06   1.0382709871765695e-05
-1.128024721822285e-05   2.5514026137058257e-06   1.0382709871765695e-05
-8.805270213509033e-06   2.7160555682307274e-06   1.5246087945482286e-05
-8.805270213509033e-06   2.7160555682307274e-06   1.5246087945482286e-05
-8.805270213509033e-06   2.7160555682307274e-06   1.5246087945482286e-05
-8.805270213509033e-06   2.7160555682307274e-06   1.5246087945482286e-05
-1.4053978682321391e-05   2.1505821133398694e-06   6.158956424527092e-06
-1.4053978682321391e-05   2.1505821133398694e-06   6.158956424527092e-06
-1.4053978682321391e-05   2.1505821133398694e-06   6.158956424527092e-06
-1.4053978682321391e-05   2.1505821133398694e-06   6.158956424527092e-06
-1.4355046217233078e-05   2.423501010666426e-06   1.5396699590851815e-05
-1.4355046217233078e-05   2.423501010666426e-06   1.5396699590851815e-05
-1.4355046217233078e-05   2.423501010666426e-06   1.5396699590851815e-05
-1.4355046217233078e-05   2.423501010666426e-06   1.5396699590851815e-05
-9.046023646965551e-06   1.8483834276061123e-06   6.8933991902421715e-06
-9.046023646965551e-06   1.8483834276061123e-06   6.8933991902421715e-06
-9.046023646965551e-06   1.8483834276061123e-06   6.8933991902421715e-06
-9.046023646965551e-06   1.8483834276061123e-06   6.8933991902421715e-06
-1.1444069786037728e-05   2.3172645791086203e-06   1.0608814064461027e-05
-1.1444069786037728e-05   2.3172645791086203e-06   1.0608814064461027e-05
-1.1444069786037728e-05   2.3172645791086203e-06   1.0608814064461027e-05
-1.1444069786037728e-05   2.3172645791086203e-06   1.0608814064461027e-05
-9.046023646965565e-06   2.423501010666426e-06   1.574177014068798e-05
-9.046023646965565e-06   2.423501010666426e-06   1.574177014068798e-05
-9.046023646965565e-06   2.423501010666426e-06   1.574177014068798e-05
-9.046023646965565e-06   2.423501010666426e-06   1.574177014068798e-05
-1.4355046217233051e-05   1.8483834276061123e-06   6.548328640406086e-06
-1.4355046217233051e-05   1.8483834276061123e-06   6.548328640406086e-06
-1.4355046217233051e-05   1.8483834276061123e-06   6.548328640406086e-06
-1.4355046217233051e-05   1.8483834276061123e-06   6.548328640406086e-06
-1.4612837571463901e-05   2.0956126827927643e-06   1.5866963582314322e-05
-1.4612837571463901e-05   2.0956126827927643e-06   1.5866963582314322e-05
-1.4612837571463901e-05   2.0956126827927643e-06   1.5866963582314322e-05
-1.4612837571463901e-05   2.0956126827927643e-06   1.5866963582314322e-05
-9.282927694517055e-06   1.5246738058603175e-06   7.326343780229209e-06
-9.282927694517055e-06   1.5246738058603175e-06   7.326343780229209e-06
-9.282927694517055e-06   1.5246738058603175e-06   7.326343780229209e-06
-9.282927694517055e-06   1.5246738058603175e-06   7.326343780229209e-06
-1.1727939905305582e-05   2.081966092781643e-06   1.106698875939049e-05
-1.1727939905305582e-05   2.081966092781643e-06   1.106698875939049e-05
-1.1727939905305582e-05   2.081966092781643e-06   1.106698875939049e-05
-1.1727939905305582e-05   2.081966092781643e-06   1.106698875939049e-05
-1.3799383111814348e-05   3.9887313767087785e-06   7.1121172245886335e-06
-1.3799383111814348e-05   3.9887313767087785e-06   7.1121172245886335e-06
-1.3799383111814348e-05   3.9887313767087785e-06   7.1121172245886335e-06
-1.3799383111814348e-05   3.9887313767087785e-06   7.1121172245886335e-06
-1.853666676195236e-05   3.0656610666567226e-06   -1.3371977116726267e-06
-1.853666676195236e-05   3.0656610666567226e-06   -1.3371977116726267e-06
-1.853666676195236e-05   3.0656610666567226e-06   -1.3371977116726267e-06
-1.853666676195236e-05   3.0656610666567226e-06   -1.3371977116726267e-06
-1.9190342463572187e-05   3.889789751978633e-06   8.783990458652866e-06
-1.9190342463572187e-05   3.889789751978633e-06   8.783990458652866e-06
-1.9190342463572187e-05   3.889789751978633e-06   8.783990458652866e-06
-1.9190342463572187e-05   3.889789751978633e-06   8.783990458652866e-06
-1.4053978682321391e-05   2.89686175125722e-06   8.191409570012728e-07
-1.4053978682321391e-05   2.89686175125722e-06   8.191409570012728e-07
-1.4053978682321391e-05   2.89686175125722e-06   8.191409570012728e-07
-1.4053978682321391e-05   2.89686175125722e-06   8.191409570012728e-07
-1.5797396291682397e-05   3.395081326034669e-06   3.425905227737199e-06
-1.5797396291682397e-05   3.395081326034669e-06   3.425905227737199e-06
-1.5797396291682397e-05   3.395081326034669e-06   3.425905227737199e-06
-1.5797396291682397e-05   3.395081326034669e-06   3.425905227737199e-06
-1.4053978682321419e-05   3.889789751978742e-06   9.379747259085887e-06
-1.4053978682321419e-05   3.889789751978742e-06   9.379747259085887e-06
-1.4053978682321419e-05   3.889789751978742e-06   9.379747259085887e-06
-1.4053978682321419e-05   3.889789751978742e-06   9.379747259085887e-06
-1.9190342463572214e-05   2.89686175125722e-06   2.2338415656835992e-07
-1.9190342463572214e-05   2.89686175125722e-06   2.2338415656835992e-07
-1.9190342463572214e-05   2.89686175125722e-06   2.2338415656835992e-07
-1.9190342463572214e-05   2.89686175125722e-06   2.2338415656835992e-07
-1.9752126128189568e-05   3.7655744969944394e-06   1.0395353276036854e-05
-1.9752126128189568e-05   3.7655744969944394e-06   1.0395353276036854e-05
-1.9752126128189568e-05   3.7655744969944394e-06   1.0395353276036854e-05
-1.9752126128189568e-05   3.7655744969944394e-06   1.0395353276036854e-05
-1.4355046217233024e-05   2.7543574037555653e-06   2.0069503470526067e-06
-1.4355046217233024e-05   2.7543574037555653e-06   2.0069503470526067e-06
-1.4355046217233024e-05   2.7543574037555653e-06   2.0069503470526067e-06
-1.4355046217233024e-05   2.7543574037555653e-06   2.0069503470526067e-06
-1.642723180954504e-05   3.352296594972572e-06   5.101829486176188e-06
-1.642723180954504e-05   3.352296594972572e-06   5.101829486176188e-06
-1.642723180954504e-05   3.352296594972572e-06   5.101829486176188e-06
-1.642723180954504e-05   3.352296594972572e-06   5.101829486176188e-06
-1.4355046217233051e-05   3.7655744969944394e-06   1.1002083531980243e-05
-1.4355046217233051e-05   3.7655744969944394e-06   1.1002083531980243e-05
-1.4355046217233051e-05   3.7655744969944394e-06   1.1002083531980243e-05
-1.4355046217233051e-05   3.7655744969944394e-06   1.1002083531980243e-05
-1.9752126128189622e-05   2.7543574037555653e-06   1.4002200911093798e-06
-1.9752126128189622e-05   2.7543574037555653e-06   1.4002200911093798e-06
-1.9752126128189622e-05   2.7543574037555653e-06   1.4002200911093798e-06
-1.9752126128189622e-05   2.7543574037555653e-06   1.4002200911093798e-06
-2.042335637030305e-05   3.3461846603626217e-06   1.3243715187411052e-05
-2.042335637030305e-05   3.3461846603626217e-06   1.3243715187411052e-05
-2.042335637030305e-05   3.3461846603626217e-06   1.3243715187411052e-05
-2.042335637030305e-05   3.3461846603626217e-06   1.3243715187411052e-05
-1.461283757146382e-05   2.3643688043703233e-06   4.148606702941075e-06
-1.461283757146382e-05   2.3643688043703233e-06   4.148606702941075e-06
-1.461283757146382e-05   2.3643688043703233e-06   4.148606702941075e-06
-1.461283757146382e-05   2.3643688043703233e-06   4.148606702941075e-06
-1.6579573436589898e-05   3.174939688264586e-06   6.940157281147563e-06
-1.6579573436589898e-05   3.174939688264586e-06   6.940157281147563e-06
-1.6579573436589898e-05   3.174939688264586e-06   6.940157281147563e-06
-1.6579573436589898e-05   3.174939688264586e-06   6.940157281147563e-06
1.771346429558265e-06   -1.091152072884606e-09   8.526719342188527e-06
1.771346429558265e-06   -1.091152072884606e-09   8.526719342188527e-06
1.771346429558265e-06   -1.091152072884606e-09   8.526719342188527e-06
1.771346429558265e-06   -1.091152072884606e-09   8.526719342188527e-06
-1.6771270699268813e-06   8.957942232899968e-07   3.317394734931071e-06
-1.6771270699268813e-06   8.957942232899968e-07   3.317394734931071e-06
-1.6771270699268813e-06   8.957942232899968e-07   3.317394734931071e-06
-1.6771270699268813e-06   8.957942232899968e-07   3.317394734931071e-06
-1.8747451297786585e-06   -3.1959373680227193e-07   8.391607949703175e-06
-1.8747451297786585e-06   -3.1959373680227193e-07   8.391607949703175e-06
-1.8747451297786585e-06   -3.1959373680227193e-07   8.391607949703175e-06
-1.8747451297786585e-06   -3.1959373680227193e-07   8.391607949703175e-06
1.1717496274324678e-06   5.985192303095558e-07   2.7632489074175455e-06
1.1717496274324678e-06   5.985192303095558e-07   2.7632489074175455e-06
1.1717496274324678e-06   5.985192303095558e-07   2.7632489074175455e-06
1.1717496274324678e-06   5.985192303095558e-07   2.7632489074175455e-06
-2.3706589361203008e-07   2.419717937741407e-07   5.325203237746301e-06
-2.3706589361203008e-07   2.419717937741407e-07   5.325203237746301e-06
-2.3706589361203008e-07   2.419717937741407e-07   5.325203237746301e-06
-2.3706589361203008e-07   2.419717937741407e-07   5.325203237746301e-06
1.1717496274324678e-06   -3.1959373680227193e-07   7.840740169436094e-06
1.1717496274324678e-06   -3.1959373680227193e-07   7.840740169436094e-06
1.1717496274324678e-06   -3.1959373680227193e-07   7.840740169436094e-06
1.1717496274324678e-06   -3.1959373680227193e-07   7.840740169436094e-06
-1.8747451297786585e-06   5.985192303095558e-07   3.3141166876846095e-06
-1.8747451297786585e-06   5.985192303095558e-07   3.3141166876846095e-06
-1.8747451297786585e-06   5.985192303095558e-07   3.3141166876846095e-06
-1.8747451297786585e-06   5.985192303095558e-07   3.3141166876846095e-06
-2.1192413272497532e-06   -4.5580251378687757e-07   8.16031989303264e-06
-2.1192413272497532e-06   -4.5580251378687757e-07   8.16031989303264e-06
-2.1192413272497532e-06   -4.5580251378687757e-07   8.16031989303264e-06
-2.1192413272497532e-06   -4.5580251378687757e-07   8.16031989303264e-06
6.504732142516539e-07   4.3646117947908e-07   3.0087707745706156e-06
6.504732142516539e-07   4.3646117947908e-07   3.0087707745706156e-06
6.504732142516539e-07   4.3646117947908e-07   3.0087707745706156e-06
6.504732142516539e-07   4.3646117947908e-07   3.0087707745706156e-06
-5.589953149950213e-07   1.1542238072026522e-07   5.217174935903722e-06
-5.589953149950213e-07   1.1542238072026522e-07   5.217174935903722e-06
-5.589953149950213e-07   1.1542238072026522e-07   5.217174935903722e-06
-5.589953149950213e-07   1.1542238072026522e-07   5.217174935903722e-06
6.504732142516539e-07   -4.55802513786986e-07   7.624961677072892e-06
6.504732142516539e-07   -4.55802513786986e-07   7.624961677072892e-06
6.504732142516539e-07   -4.55802513786986e-07   7.624961677072892e-06
6.504732142516539e-07   -4.55802513786986e-07   7.624961677072892e-06
-2.119241327249748e-06   4.3646117947908e-07   3.5441289905302443e-06
-2.119241327249748e-06   4.3646117947908e-07   3.5441289905302443e-06
-2.119241327249748e-06   4.3646117947908e-07   3.5441289905302443e-06
-2.119241327249748e-06   4.3646117947908e-07   3.5441289905302443e-06
-2.3242154327265474e-06   -6.80575645487522e-07   8.060762393077652e-06
-2.3242154327265474e-06   -6.80575645487522e-07   8.060762393077652e-06
-2.3242154327265474e-06   -6.80575645487522e-07   8.060762393077652e-06
-2.3242154327265474e-06   -6.80575645487522e-07   8.060762393077652e-06
-4.274752385036618e-09   9.427344507058517e-08   3.729285138173602e-06
-4.274752385036618e-09   9.427344507058517e-08   3.729285138173602e-06
-4.274752385036618e-09   9.427344507058517e-08   3.729285138173602e-06
-4.274752385036618e-09   9.427344507058517e-08   3.729285138173602e-06
-9.113048057767729e-07   1.7384518648309692e-09   5.2965228897499566e-06
-9.113048057767729e-07   1.7384518648309692e-09   5.2965228897499566e-06
-9.113048057767729e-07   1.7384518648309692e-09   5.2965228897499566e-06
-9.113048057767729e-07   1.7384518648309692e-09   5.2965228897499566e-06
-1.6771270699268813e-06   8.845740211884789e-07   1.3589201989290685e-05
-1.6771270699268813e-06   8.845740211884789e-07   1.3589201989290685e-05
-1.6771270699268813e-06   8.845740211884789e-07   1.3589201989290685e-05
-1.6771270699268813e-06   8.845740211884789e-07   1.3589201989290685e-05
-4.56041436196783e-06   1.0645422399466848e-06   8.891704100477324e-06
-4.56041436196783e-06   1.0645422399466848e-06   8.891704100477324e-06
-4.56041436196783e-06   1.0645422399466848e-06   8.891704100477324e-06
-4.56041436196783e-06   1.0645422399466848e-06   8.891704100477324e-06
-4.710235358548339e-06   5.261505043926279e-07   1.3549274195104517e-05
-4.710235358548339e-06   5.261505043926279e-07   1.3549274195104517e-05
-4.710235358548339e-06   5.261505043926279e-07   1.3549274195104517e-05
-4.710235358548339e-06   5.261505043926279e-07   1.3549274195104517e-05
-1.8747451297786585e-06   7.33415381925194e-07   8.699098220635543e-06
-1.8747451297786585e-06   7.33415381925194e-07   8.699098220635543e-06
-1.8747451297786585e-06   7.33415381925194e-07   8.699098220635543e-06
-1.8747451297786585e-06   7.33415381925194e-07   8.699098220635543e-06
-3.2263609886402177e-06   7.628662520871147e-07   1.0934120796640906e-05
-3.2263609886402177e-06   7.628662520871147e-07   1.0934120796640906e-05
-3.2263609886402177e-06   7.628662520871147e-07   1.0934120796640906e-05
-3.2263609886402177e-06   7.628662520871147e-07   1.0934120796640906e-05
-1.8747451297786534e-06   5.261505043926279e-07   1.342491526858488e-05
-1.8747451297786534e-06   5.261505043926279e-07   1.342491526858488e-05
-1.8747451297786534e-06   5.261505043926279e-07   1.342491526858488e-05
-1.8747451297786534e-06   5.261505043926279e-07   1.342491526858488e-05
-4.710235358548339e-06   7.33415381925194e-07   8.823457147155017e-06
-4.710235358548339e-06   7.33415381925194e-07   8.823457147155017e-06
-4.710235358548339e-06   7.33415381925194e-07   8.823457147155017e-06
-4.710235358548339e-06   7.33415381925194e-07   8.823457147155017e-06
-4.864880012962701e-06   2.2348984910121068e-07   1.356863571418739e-05
-4.864880012962701e-06   2.2348984910121068e-07   1.356863571418739e-05
-4.864880012962701e-06   2.2348984910121068e-07   1.356863571418739e-05
-4.864880012962701e-06   2.2348984910121068e-07   1.356863571418739e-05
-2.119241327249748e-06   4.291713375595158e-07   8.869162344924179e-06
-2.119241327249748e-06   4.291713375595158e-07   8.869162344924179e-06
-2.119241327249748e-06   4.291713375595158e-07   8.869162344924179e-06
-2.119241327249748e-06   4.291713375595158e-07   8.869162344924179e-06
-3.3795821536976262e-06   5.21724943434998e-07   1.0914198225478916e-05
-3.3795821536976262e-06   5.21724943434998e-07   1.0914198225478916e-05
-3.3795821536976262e-06   5.21724943434998e-07   1.0914198225478916e-05
-3.3795821536976262e-06   5.21724943434998e-07   1.0914198225478916e-05
-2.119241327249748e-06   2.2348984910121068e-07   1.344522682111238e-05
-2.119241327249748e-06   2.2348984910121068e-07   1.344522682111238e-05
-2.119241327249748e-06   2.2348984910121068e-07   1.344522682111238e-05
-2.119241327249748e-06   2.2348984910121068e-07   1.344522682111238e-05
-4.864880012962701e-06   4.291713375595158e-07   8.992571237999162e-06
-4.864880012962701e-06   4.291713375595158e-07   8.992571237999162e-06
-4.864880012962701e-06   4.291713375595158e-07   8.992571237999162e-06
-4.864880012962701e-06   4.291713375595158e-07   8.992571237999162e-06
-5.016875473917219e-06   -8.445668580421214e-08   1.3824907708314554e-05
-5.016875473917219e-06   -8.445668580421214e-08   1.3824907708314554e-05
-5.016875473917219e-06   -8.445668580421214e-08   1.3824907708314554e-05
-5.016875473917219e-06   -8.445668580421214e-08   1.3824907708314554e-05
-2.3242154327265474e-06   1.0106311368709205e-07   9.225829093302117e-06
-2.3242154327265474e-06   1.0106311368709205e-07   9.225829093302117e-06
-2.3242154327265474e-06   1.0106311368709205e-07   9.225829093302117e-06
-2.3242154327265474e-06   1.0106311368709205e-07   9.225829093302117e-06
-3.532114144884096e-06   2.8607216626314914e-07   1.112798818201895e-05
-3.532114144884096e-06   2.8607216626314914e-07   1.112798818201895e-05
-3.532114144884096e-06   2.8607216626314914e-07   1.112798818201895e-05
-3.532114144884096e-06   2.8607216626314914e-07   1.112798818201895e-05
-4.56041436196783e-06   1.6658146164748398e-06   1.528302525843339e-05
-4.56041436196783e-06   1.6658146164748398e-06   1.528302525843339e-05
-4.56041436196783e-06   1.6658146164748398e-06   1.528302525843339e-05
-4.56041436196783e-06   1.6658146164748398e-06   1.528302525843339e-05
-7.425906196023064e-06   1.2859623759233765e-06   1.0279294190677164e-05
-7.425906196023064e-06   1.2859623759233765e-06   1.0279294190677164e-05
-7.425906196023064e-06   1.2859623759233765e-06   1.0279294190677164e-05
-7.425906196023064e-06   1.2859623759233765e-06   1.0279294190677164e-05
-7.553225850072978e-06   1.3364995384304796e-06   1.4999569855874968e-05
-7.553225850072978e-06   1.3364995384304796e-06   1.4999569855874968e-05
-7.553225850072978e-06   1.3364995384304796e-06   1.4999569855874968e-05
-7.553225850072978e-06   1.3364995384304796e-06   1.4999569855874968e-05
-4.710235358548339e-06   9.802309037061294e-07   1.047501355083512e-05
-4.710235358548339e-06   9.802309037061294e-07   1.047501355083512e-05
-4.710235358548339e-06   9.802309037061294e-07   1.047501355083512e-05
-4.710235358548339e-06   9.802309037061294e-07   1.047501355083512e-05
-6.066035529307855e-06   1.290542640007943e-06   1.2548493460319944e-05
-6.066035529307855e-06   1.290542640007943e-06   1.2548493460319944e-05
-6.066035529307855e-06   1.290542640007943e-06   1.2548493460319944e-05
-6.066035529307855e-06   1.290542640007943e-06   1.2548493460319944e-05
-4.710235358548339e-06   1.3364995384304796e-06   1.5213331036709524e-05
-4.710235358548339e-06   1.3364995384304796e-06   1.5213331036709524e-05
-4.710235358548339e-06   1.3364995384304796e-06   1.5213331036709524e-05
-4.710235358548339e-06   1.3364995384304796e-06   1.5213331036709524e-05
-7.553225850072978e-06   9.802309037061294e-07   1.026125237000051e-05
-7.553225850072978e-06   9.802309037061294e-07   1.026125237000051e-05
-7.553225850072978e-06   9.802309037061294e-07   1.026125237000051e-05
-7.553225850072978e-06   9.802309037061294e-07   1.026125237000051e-05
-7.689456192047503e-06   1.0089038397665274e-06   1.5145003271256792e-05
-7.689456192047503e-06   1.0089038397665274e-06   1.5145003271256792e-05
-7.689456192047503e-06   1.0089038397665274e-06   1.5145003271256792e-05
-7.689456192047503e-06   1.0089038397665274e-06   1.5145003271256792e-05
-4.864880012962701e-06   6.696186595198973e-07   1.064094741426349e-05
-4.864880012962701e-06   6.696186595198973e-07   1.064094741426349e-05
-4.864880012962701e-06   6.696186595198973e-07   1.064094741426349e-05
-4.864880012962701e-06   6.696186595198973e-07   1.064094741426349e-05
-6.174850810541173e-06   1.046331426896984e-06   1.259820441646801e-05
-6.174850810541173e-06   1.046331426896984e-06   1.259820441646801e-05
-6.174850810541173e-06   1.046331426896984e-06   1.259820441646801e-05
-6.174850810541173e-06   1.046331426896984e-06   1.259820441646801e-05
-4.864880012962701e-06   1.0089038397665274e-06   1.534857437940476e-05
-4.864880012962701e-06   1.0089038397665274e-06   1.534857437940476e-05
-4.864880012962701e-06   1.0089038397665274e-06   1.534857437940476e-05
-4.864880012962701e-06   1.0089038397665274e-06   1.534857437940476e-05
-7.689456192047503e-06   6.696186595198973e-07   1.0437376306115495e-05
-7.689456192047503e-06   6.696186595198973e-07   1.0437376306115495e-05
-7.689456192047503e-06   6.696186595198973e-07   1.0437376306115495e-05
-7.689456192047503e-06   6.696186595198973e-07   1.0437376306115495e-05
-7.822886122008907e-06   6.955149069546316e-07   1.5452604631396817e-05
-7.822886122008907e-06   6.955149069546316e-07   1.5452604631396817e-05
-7.822886122008907e-06   6.955149069546316e-07   1.5452604631396817e-05
-7.822886122008907e-06   6.955149069546316e-07   1.5452604631396817e-05
-5.016875473917205e-06   3.757185656219847e-07   1.096779802271027e-05
-5.016875473917205e-06   3.757185656219847e-07   1.096779802271027e-05
-5.016875473917205e-06   3.757185656219847e-07   1.096779802271027e-05
-5.016875473917205e-06   3.757185656219847e-07   1.096779802271027e-05
-6.296047992987089e-06   8.060260430797534e-07   1.284156773468539e-05
-6.296047992987089e-06   8.060260430797534e-07   1.284156773468539e-05
-6.296047992987089e-06   8.060260430797534e-07   1.284156773468539e-05
-6.296047992987089e-06   8.060260430797534e-07   1.284156773468539e-05
-7.425906196023064e-06   2.482180135077584e-06   1.3223680920481002e-05
-7.425906196023064e-06   2.482180135077584e-06   1.3223680920481002e-05
-7.425906196023064e-06   2.482180135077584e-06   1.3223680920481002e-05
-7.425906196023064e-06   2.482180135077584e-06   1.3223680920481002e-05
-1.0247966374134508e-05   1.7445690827285615e-06   8.0776806588859e-06
-1.0247966374134508e-05   1.7445690827285615e-06   8.0776806588859e-06
-1.0247966374134508e-05   1.7445690827285615e-06   8.0776806588859e-06
-1.0247966374134508e-05   1.7445690827285615e-06   8.0776806588859e-06
-1.0388039677636484e-05   2.1505821133398694e-06   1.2835934082174993e-05
-1.0388039677636484e-05   2.1505821133398694e-06   1.2835934082174993e-05
-1.0388039677636484e-05   2.1505821133398694e-06   1.2835934082174993e-05
-1.0388039677636484e-05   2.1505821133398694e-06   1.2835934082174993e-05
-7.553225850072978e-06   1.4230504369522117e-06   8.547763375401762e-06
-7.553225850072978e-06   1.4230504369522117e-06   8.547763375401762e-06
-7.553225850072978e-06   1.4230504369522117e-06   8.547763375401762e-06
-7.553225850072978e-06   1.4230504369522117e-06   8.547763375401762e-06
-8.88489349239096e-06   1.931926968845913e-06   1.0461883526795481e-05
-8.88489349239096e-06   1.931926968845913e-06   1.0461883526795481e-05
-8.88489349239096e-06   1.931926968845913e-06   1.0461883526795481e-05
-8.88489349239096e-06   1.931926968845913e-06   1.0461883526795481e-05
-7.553225850072978e-06   2.1505821133398694e-06   1.3272453088007587e-05
-7.553225850072978e-06   2.1505821133398694e-06   1.3272453088007587e-05
-7.553225850072978e-06   2.1505821133398694e-06   1.3272453088007587e-05
-7.553225850072978e-06   2.1505821133398694e-06   1.3272453088007587e-05
-1.0388039677636457e-05   1.4230504369521033e-06   8.11124436956914e-06
-1.0388039677636457e-05   1.4230504369521033e-06   8.11124436956914e-06
-1.0388039677636457e-05   1.4230504369521033e-06   8.11124436956914e-06
-1.0388039677636457e-05   1.4230504369521033e-06   8.11124436956914e-06
-1.0580545869977011e-05   1.8483834276061123e-06   1.3260519845962465e-05
-1.0580545869977011e-05   1.8483834276061123e-06   1.3260519845962465e-05
-1.0580545869977011e-05   1.8483834276061123e-06   1.3260519845962465e-05
-1.0580545869977011e-05   1.8483834276061123e-06   1.3260519845962465e-05
-7.689456192047503e-06   1.136458921621947e-06   8.86919175300372e-06
-7.689456192047503e-06   1.136458921621947e-06   8.86919175300372e-06
-7.689456192047503e-06   1.136458921621947e-06   8.86919175300372e-06
-7.689456192047503e-06   1.136458921621947e-06   8.86919175300372e-06
-8.960954481419245e-06   1.695284572641564e-06   1.0653060178011501e-05
-8.960954481419245e-06   1.695284572641564e-06   1.0653060178011501e-05
-8.960954481419245e-06   1.695284572641564e-06   1.0653060178011501e-05
-8.960954481419245e-06   1.695284572641564e-06   1.0653060178011501e-05
-7.689456192047503e-06   1.8483834276061123e-06   1.3687674549552737e-05
-7.689456192047503e-06   1.8483834276061123e-06   1.3687674549552737e-05
-7.689456192047503e-06   1.8483834276061123e-06   1.3687674549552737e-05
-7.689456192047503e-06   1.8483834276061123e-06   1.3687674549552737e-05
-1.0580545869976984e-05   1.136458921621947e-06   8.442037049413232e-06
-1.0580545869976984e-05   1.136458921621947e-06   8.442037049413232e-06
-1.0580545869976984e-05   1.136458921621947e-06   8.442037049413232e-06
-1.0580545869976984e-05   1.136458921621947e-06   8.442037049413232e-06
-1.0734624170283908e-05   1.5246738058603175e-06   1.3730858089474251e-05
-1.0734624170283908e-05   1.5246738058603175e-06   1.3730858089474251e-05
-1.0734624170283908e-05   1.5246738058603175e-06   1.3730858089474251e-05
-1.0734624170283908e-05   1.5246738058603175e-06   1.3730858089474251e-05
-7.822886122008907e-06   8.439109051026948e-07   9.286419082803893e-06
-7.822886122008907e-06   8.439109051026948e-07   9.286419082803893e-06
-7.822886122008907e-06   8.439109051026948e-07   9.286419082803893e-06
-7.822886122008907e-06   8.439109051026948e-07   9.286419082803893e-06
-9.120993130596228e-06   1.4696064261969467e-06   1.1074513451126196e-05
-9.120993130596228e-06   1.4696064261969467e-06   1.1074513451126196e-05
-9.120993130596228e-06   1.4696064261969467e-06   1.1074513451126196e-05
-9.120993130596228e-06   1.4696064261969467e-06   1.1074513451126196e-05
-1.0247966374134508e-05   3.0656610666567226e-06   5.855142201493667e-06
-1.0247966374134508e-05   3.0656610666567226e-06   5.855142201493667e-06
-1.0247966374134508e-05   3.0656610666567226e-06   5.855142201493667e-06
-1.0247966374134508e-05   3.0656610666567226e-06   5.855142201493667e-06
-1.2491078569968266e-05   2.0716976839550705e-06   1.5202438454830298e-06
-1.2491078569968266e-05   2.0716976839550705e-06   1.5202438454830298e-06
-1.2491078569968266e-05   2.0716976839550705e-06   1.5202438454830298e-06
-1.2491078569968266e-05   2.0716976839550705e-06   1.5202438454830298e-06
-1.3019043167497563e-05   2.8968617512571118e-06   6.872746855610774e-06
-1.3019043167497563e-05   2.8968617512571118e-06   6.872746855610774e-06
-1.3019043167497563e-05   2.8968617512571118e-06   6.872746855610774e-06
-1.3019043167497563e-05   2.8968617512571118e-06   6.872746855610774e-06
-1.0388039677636484e-05   1.8579088195265448e-06   3.1111127982139434e-06
-1.0388039677636484e-05   1.8579088195265448e-06   3.1111127982139434e-06
-1.0388039677636484e-05   1.8579088195265448e-06   3.1111127982139434e-06
-1.0388039677636484e-05   1.8579088195265448e-06   3.1111127982139434e-06
-1.1135578340361611e-05   2.446136313903331e-06   4.004074072796485e-06
-1.1135578340361611e-05   2.446136313903331e-06   4.004074072796485e-06
-1.1135578340361611e-05   2.446136313903331e-06   4.004074072796485e-06
-1.1135578340361611e-05   2.446136313903331e-06   4.004074072796485e-06
-1.0388039677636457e-05   2.89686175125722e-06   7.496118614649038e-06
-1.0388039677636457e-05   2.89686175125722e-06   7.496118614649038e-06
-1.0388039677636457e-05   2.89686175125722e-06   7.496118614649038e-06
-1.0388039677636457e-05   2.89686175125722e-06   7.496118614649038e-06
-1.301904316749759e-05   1.8579088195265448e-06   2.4877410391756774e-06
-1.301904316749759e-05   1.8579088195265448e-06   2.4877410391756774e-06
-1.301904316749759e-05   1.8579088195265448e-06   2.4877410391756774e-06
-1.301904316749759e-05   1.8579088195265448e-06   2.4877410391756774e-06
-1.3471516042107544e-05   2.7543574037556737e-06   8.092878956096291e-06
-1.3471516042107544e-05   2.7543574037556737e-06   8.092878956096291e-06
-1.3471516042107544e-05   2.7543574037556737e-06   8.092878956096291e-06
-1.3471516042107544e-05   2.7543574037556737e-06   8.092878956096291e-06
-1.0580545869976984e-05   1.710586409567642e-06   3.9008579323914026e-06
-1.0580545869976984e-05   1.710586409567642e-06   3.9008579323914026e-06
-1.0580545869976984e-05   1.710586409567642e-06   3.9008579323914026e-06
-1.0580545869976984e-05   1.710586409567642e-06   3.9008579323914026e-06
-1.1584315329014449e-05   2.363291720774833e-06   5.182183844063166e-06
-1.1584315329014449e-05   2.363291720774833e-06   5.182183844063166e-06
-1.1584315329014449e-05   2.363291720774833e-06   5.182183844063166e-06
-1.1584315329014449e-05   2.363291720774833e-06   5.182183844063166e-06
-1.0580545869976984e-05   2.7543574037556737e-06   8.719141552608904e-06
-1.0580545869976984e-05   2.7543574037556737e-06   8.719141552608904e-06
-1.0580545869976984e-05   2.7543574037556737e-06   8.719141552608904e-06
-1.0580545869976984e-05   2.7543574037556737e-06   8.719141552608904e-06
-1.3471516042107572e-05   1.7105864095677504e-06   3.2745953358785973e-06
-1.3471516042107572e-05   1.7105864095677504e-06   3.2745953358785973e-06
-1.3471516042107572e-05   1.7105864095677504e-06   3.2745953358785973e-06
-1.3471516042107572e-05   1.7105864095677504e-06   3.2745953358785973e-06
-1.4045882368907288e-05   2.3643688043703233e-06   1.029896442960275e-05
-1.4045882368907288e-05   2.3643688043703233e-06   1.029896442960275e-05
-1.4045882368907288e-05   2.3643688043703233e-06   1.029896442960275e-05
-1.4045882368907288e-05   2.3643688043703233e-06   1.029896442960275e-05
-1.0734624170283854e-05   1.3698356231321923e-06   5.376920673973336e-06
-1.0734624170283854e-05   1.3698356231321923e-06   5.376920673973336e-06
-1.0734624170283854e-05   1.3698356231321923e-06   5.376920673973336e-06
-1.0734624170283854e-05   1.3698356231321923e-06   5.376920673973336e-06
-1.1710305706205286e-05   2.2011365758997474e-06   6.504275995514863e-06
-1.1710305706205286e-05   2.2011365758997474e-06   6.504275995514863e-06
-1.1710305706205286e-05   2.2011365758997474e-06   6.504275995514863e-06
-1.1710305706205286e-05   2.2011365758997474e-06   6.504275995514863e-06
-4.86822821572918e-06   8.957942232899968e-07   6.132633079515113e-06
-4.86822821572918e-06   8.957942232899968e-07   6.132633079515113e-06
-4.86822821572918e-06   8.957942232899968e-07   6.132633079515113e-06
-4.86822821572918e-06   8.957942232899968e-07   6.132633079515113e-06
-5.430929609287071e-06   1.7114491749358504e-06   5.684190394572878e-06
-5.430929609287071e-06   1.7114491749358504e-06   5.684190394572878e-06
-5.430929609287071e-06   1.7114491749358504e-06   5.684190394572878e-06
-5.430929609287071e-06   1.7114491749358504e-06   5.684190394572878e-06
-5.575988416371233e-06   5.985192303095558e-07   6.5584803071223495e-06
-5.575988416371233e-06   5.985192303095558e-07   6.5584803071223495e-06
-5.575988416371233e-06   5.985192303095558e-07   6.5584803071223495e-06
-5.575988416371233e-06   5.985192303095558e-07   6.5584803071223495e-06
-5.4681000995981415e-06   1.3332124829212953e-06   5.937850494266831e-06
-5.4681000995981415e-06   1.3332124829212953e-06   5.937850494266831e-06
-5.4681000995981415e-06   1.3332124829212953e-06   5.937850494266831e-06
-5.4681000995981415e-06   1.3332124829212953e-06   5.937850494266831e-06
-5.206485488415029e-06   1.0586326730414137e-06   5.666574028222914e-06
-5.206485488415029e-06   1.0586326730414137e-06   5.666574028222914e-06
-5.206485488415029e-06   1.0586326730414137e-06   5.666574028222914e-06
-5.206485488415029e-06   1.0586326730414137e-06   5.666574028222914e-06
-5.468100099598148e-06   5.985192303095558e-07   6.117664355555384e-06
-5.468100099598148e-06   5.985192303095558e-07   6.117664355555384e-06
-5.468100099598148e-06   5.985192303095558e-07   6.117664355555384e-06
-5.468100099598148e-06   5.985192303095558e-07   6.117664355555384e-06
-5.575988416371233e-06   1.3332124829212953e-06   6.378666445833875e-06
-5.575988416371233e-06   1.3332124829212953e-06   6.378666445833875e-06
-5.575988416371233e-06   1.3332124829212953e-06   6.378666445833875e-06
-5.575988416371233e-06   1.3332124829212953e-06   6.378666445833875e-06
-5.764053389648389e-06   4.3646117947908e-07   6.748950595709079e-06
-5.764053389648389e-06   4.3646117947908e-07   6.748950595709079e-06
-5.764053389648389e-06   4.3646117947908e-07   6.748950595709079e-06
-5.764053389648389e-06   4.3646117947908e-07   6.748950595709079e-06
-6.052774705571031e-06   1.0732738414207118e-06   6.848065191748429e-06
-6.052774705571031e-06   1.0732738414207118e-06   6.848065191748429e-06
-6.052774705571031e-06   1.0732738414207118e-06   6.848065191748429e-06
-6.052774705571031e-06   1.0732738414207118e-06   6.848065191748429e-06
-5.562936101854793e-06   8.959491751099537e-07   6.138062318674487e-06
-5.562936101854793e-06   8.959491751099537e-07   6.138062318674487e-06
-5.562936101854793e-06   8.959491751099537e-07   6.138062318674487e-06
-5.562936101854793e-06   8.959491751099537e-07   6.138062318674487e-06
-6.052774705571038e-06   4.3646117947908e-07   6.366862998543985e-06
-6.052774705571038e-06   4.3646117947908e-07   6.366862998543985e-06
-6.052774705571038e-06   4.3646117947908e-07   6.366862998543985e-06
-6.052774705571038e-06   4.3646117947908e-07   6.366862998543985e-06
-5.764053389648389e-06   1.0732738414207118e-06   7.2301527889134624e-06
-5.764053389648389e-06   1.0732738414207118e-06   7.2301527889134624e-06
-5.764053389648389e-06   1.0732738414207118e-06   7.2301527889134624e-06
-5.764053389648389e-06   1.0732738414207118e-06   7.2301527889134624e-06
-5.88570392375576e-06   9.427344507058517e-08   7.387800867743788e-06
-5.88570392375576e-06   9.427344507058517e-08   7.387800867743788e-06
-5.88570392375576e-06   9.427344507058517e-08   7.387800867743788e-06
-5.88570392375576e-06   9.427344507058517e-08   7.387800867743788e-06
-6.676078405478956e-06   4.3478053119973487e-07   8.500787418938202e-06
-6.676078405478956e-06   4.3478053119973487e-07   8.500787418938202e-06
-6.676078405478956e-06   4.3478053119973487e-07   8.500787418938202e-06
-6.676078405478956e-06   4.3478053119973487e-07   8.500787418938202e-06
-5.818786080622765e-06   6.982232198279967e-07   6.913901264334044e-06
-5.818786080622765e-06   6.982232198279967e-07   6.913901264334044e-06
-5.818786080622765e-06   6.982232198279967e-07   6.913901264334044e-06
-5.818786080622765e-06   6.982232198279967e-07   6.913901264334044e-06
-5.430929609287071e-06   1.0645422399466848e-06   1.2088354484794081e-05
-5.430929609287071e-06   1.0645422399466848e-06   1.2088354484794081e-05
-5.430929609287071e-06   1.0645422399466848e-06   1.2088354484794081e-05
-5.430929609287071e-06   1.0645422399466848e-06   1.2088354484794081e-05
-5.570509247539702e-06   4.4398401055352303e-07   1.14833868167371e-05
-5.570509247539702e-06   4.4398401055352303e-07   1.14833868167371e-05
-5.570509247539702e-06   4.4398401055352303e-07   1.14833868167371e-05
-5.570509247539702e-06   4.4398401055352303e-07   1.14833868167371e-05
-5.6182429018884625e-06   7.33415381925194e-07   1.1629309186717604e-05
-5.6182429018884625e-06   7.33415381925194e-07   1.1629309186717604e-05
-5.6182429018884625e-06   7.33415381925194e-07   1.1629309186717604e-05
-5.6182429018884625e-06   7.33415381925194e-07   1.1629309186717604e-05
-5.575988416371233e-06   2.0982762633225136e-07   1.1873037697544549e-05
-5.575988416371233e-06   2.0982762633225136e-07   1.1873037697544549e-05
-5.575988416371233e-06   2.0982762633225136e-07   1.1873037697544549e-05
-5.575988416371233e-06   2.0982762633225136e-07   1.1873037697544549e-05
-5.5333674983547415e-06   5.408334035581787e-07   1.160339936784823e-05
-5.5333674983547415e-06   5.408334035581787e-07   1.160339936784823e-05
-5.5333674983547415e-06   5.408334035581787e-07   1.160339936784823e-05
-5.5333674983547415e-06   5.408334035581787e-07   1.160339936784823e-05
-5.575988416371237e-06   7.334153819250856e-07   1.1943461840073228e-05
-5.575988416371237e-06   7.334153819250856e-07   1.1943461840073228e-05
-5.575988416371237e-06   7.334153819250856e-07   1.1943461840073228e-05
-5.575988416371237e-06   7.334153819250856e-07   1.1943461840073228e-05
-5.6182429018884625e-06   2.0982762633225136e-07   1.1558885044188897e-05
-5.6182429018884625e-06   2.0982762633225136e-07   1.1558885044188897e-05
-5.6182429018884625e-06   2.0982762633225136e-07   1.1558885044188897e-05
-5.6182429018884625e-06   2.0982762633225136e-07   1.1558885044188897e-05
-5.6768227524648084e-06   4.2917133755962424e-07   1.1781126369388899e-05
-5.6768227524648084e-06   4.2917133755962424e-07   1.1781126369388899e-05
-5.6768227524648084e-06   4.2917133755962424e-07   1.1781126369388899e-05
-5.6768227524648084e-06   4.2917133755962424e-07   1.1781126369388899e-05
-5.764053389648389e-06   -5.8924630297178295e-08   1.221936834540897e-05
-5.764053389648389e-06   -5.8924630297178295e-08   1.221936834540897e-05
-5.764053389648389e-06   -5.8924630297178295e-08   1.221936834540897e-05
-5.764053389648389e-06   -5.8924630297178295e-08   1.221936834540897e-05
-5.5912493952165834e-06   3.4835771972371973e-07   1.168699227801023e-05
-5.5912493952165834e-06   3.4835771972371973e-07   1.168699227801023e-05
-5.5912493952165834e-06   3.4835771972371973e-07   1.168699227801023e-05
-5.5912493952165834e-06   3.4835771972371973e-07   1.168699227801023e-05
-5.764053389648389e-06   4.2917133755962424e-07   1.2073983950102932e-05
-5.764053389648389e-06   4.2917133755962424e-07   1.2073983950102932e-05
-5.764053389648389e-06   4.2917133755962424e-07   1.2073983950102932e-05
-5.764053389648389e-06   4.2917133755962424e-07   1.2073983950102932e-05
-5.676822752464781e-06   -5.8924630297178295e-08   1.192651076469491e-05
-5.676822752464781e-06   -5.8924630297178295e-08   1.192651076469491e-05
-5.676822752464781e-06   -5.8924630297178295e-08   1.192651076469491e-05
-5.676822752464781e-06   -5.8924630297178295e-08   1.192651076469491e-05
-5.721080492265544e-06   1.0106311368698363e-07   1.2112567022232602e-05
-5.721080492265544e-06   1.0106311368698363e-07   1.2112567022232602e-05
-5.721080492265544e-06   1.0106311368698363e-07   1.2112567022232602e-05
-5.721080492265544e-06   1.0106311368698363e-07   1.2112567022232602e-05
-5.885703923755747e-06   -4.1038413015417625e-07   1.2693807754354217e-05
-5.885703923755747e-06   -4.1038413015417625e-07   1.2693807754354217e-05
-5.885703923755747e-06   -4.1038413015417625e-07   1.2693807754354217e-05
-5.885703923755747e-06   -4.1038413015417625e-07   1.2693807754354217e-05
-5.680133362996454e-06   1.2384318028499093e-07   1.203065376682497e-05
-5.680133362996454e-06   1.2384318028499093e-07   1.203065376682497e-05
-5.680133362996454e-06   1.2384318028499093e-07   1.203065376682497e-05
-5.680133362996454e-06   1.2384318028499093e-07   1.203065376682497e-05
-5.570509247539702e-06   1.2859623759233765e-06   1.3331520981688859e-05
-5.570509247539702e-06   1.2859623759233765e-06   1.3331520981688859e-05
-5.570509247539702e-06   1.2859623759233765e-06   1.3331520981688859e-05
-5.570509247539702e-06   1.2859623759233765e-06   1.3331520981688859e-05
-6.051836627263805e-06   1.2494138722078142e-07   1.1832696088927158e-05
-6.051836627263805e-06   1.2494138722078142e-07   1.1832696088927158e-05
-6.051836627263805e-06   1.2494138722078142e-07   1.1832696088927158e-05
-6.051836627263805e-06   1.2494138722078142e-07   1.1832696088927158e-05
-6.070716063917499e-06   9.802309037061294e-07   1.2650044493021202e-05
-6.070716063917499e-06   9.802309037061294e-07   1.2650044493021202e-05
-6.070716063917499e-06   9.802309037061294e-07   1.2650044493021202e-05
-6.070716063917499e-06   9.802309037061294e-07   1.2650044493021202e-05
-5.6182429018884625e-06   -7.113759192118024e-08   1.2526743653682587e-05
-5.6182429018884625e-06   -7.113759192118024e-08   1.2526743653682587e-05
-5.6182429018884625e-06   -7.113759192118024e-08   1.2526743653682587e-05
-5.6182429018884625e-06   -7.113759192118024e-08   1.2526743653682587e-05
-5.818577407750754e-06   5.595460993199184e-07   1.2482224282041757e-05
-5.818577407750754e-06   5.595460993199184e-07   1.2482224282041757e-05
-5.818577407750754e-06   5.595460993199184e-07   1.2482224282041757e-05
-5.818577407750754e-06   5.595460993199184e-07   1.2482224282041757e-05
-5.6182429018884625e-06   9.802309037061294e-07   1.3280865590397625e-05
-5.6182429018884625e-06   9.802309037061294e-07   1.3280865590397625e-05
-5.6182429018884625e-06   9.802309037061294e-07   1.3280865590397625e-05
-5.6182429018884625e-06   9.802309037061294e-07   1.3280865590397625e-05
-6.070716063917472e-06   -7.113759192118024e-08   1.189592255630619e-05
-6.070716063917472e-06   -7.113759192118024e-08   1.189592255630619e-05
-6.070716063917472e-06   -7.113759192118024e-08   1.189592255630619e-05
-6.070716063917472e-06   -7.113759192118024e-08   1.189592255630619e-05
-6.1017586405718595e-06   6.696186595198973e-07   1.284424740648221e-05
-6.1017586405718595e-06   6.696186595198973e-07   1.284424740648221e-05
-6.1017586405718595e-06   6.696186595198973e-07   1.284424740648221e-05
-6.1017586405718595e-06   6.696186595198973e-07   1.284424740648221e-05
-5.676822752464781e-06   -3.0580657243186845e-07   1.2721276065474777e-05
-5.676822752464781e-06   -3.0580657243186845e-07   1.2721276065474777e-05
-5.676822752464781e-06   -3.0580657243186845e-07   1.2721276065474777e-05
-5.676822752464781e-06   -3.0580657243186845e-07   1.2721276065474777e-05
-5.825798650253508e-06   3.660704034149937e-07   1.2566443042947884e-05
-5.825798650253508e-06   3.660704034149937e-07   1.2566443042947884e-05
-5.825798650253508e-06   3.660704034149937e-07   1.2566443042947884e-05
-5.825798650253508e-06   3.660704034149937e-07   1.2566443042947884e-05
-5.676822752464781e-06   6.696186595197889e-07   1.3429502545653118e-05
-5.676822752464781e-06   6.696186595197889e-07   1.3429502545653118e-05
-5.676822752464781e-06   6.696186595197889e-07   1.3429502545653118e-05
-5.676822752464781e-06   6.696186595197889e-07   1.3429502545653118e-05
-6.1017586405718595e-06   -3.0580657243186845e-07   1.2136020926303747e-05
-6.1017586405718595e-06   -3.0580657243186845e-07   1.2136020926303747e-05
-6.1017586405718595e-06   -3.0580657243186845e-07   1.2136020926303747e-05
-6.1017586405718595e-06   -3.0580657243186845e-07   1.2136020926303747e-05
-6.123260357293608e-06   3.7571856562209315e-07   1.3193567737447218e-05
-6.123260357293608e-06   3.7571856562209315e-07   1.3193567737447218e-05
-6.123260357293608e-06   3.7571856562209315e-07   1.3193567737447218e-05
-6.123260357293608e-06   3.7571856562209315e-07   1.3193567737447218e-05
-5.721080492265544e-06   -5.403753252092715e-07   1.307292429689915e-05
-5.721080492265544e-06   -5.403753252092715e-07   1.307292429689915e-05
-5.721080492265544e-06   -5.403753252092715e-07   1.307292429689915e-05
-5.721080492265544e-06   -5.403753252092715e-07   1.307292429689915e-05
-5.84292371488395e-06   1.6739560574537409e-07   1.2851333776023343e-05
-5.84292371488395e-06   1.6739560574537409e-07   1.2851333776023343e-05
-5.84292371488395e-06   1.6739560574537409e-07   1.2851333776023343e-05
-5.84292371488395e-06   1.6739560574537409e-07   1.2851333776023343e-05
-6.051836627263805e-06   1.7445690827285615e-06   1.0875861488085492e-05
-6.051836627263805e-06   1.7445690827285615e-06   1.0875861488085492e-05
-6.051836627263805e-06   1.7445690827285615e-06   1.0875861488085492e-05
-6.051836627263805e-06   1.7445690827285615e-06   1.0875861488085492e-05
-6.7241041833343215e-06   5.758200363386928e-07   9.054166133467374e-06
-6.7241041833343215e-06   5.758200363386928e-07   9.054166133467374e-06
-6.7241041833343215e-06   5.758200363386928e-07   9.054166133467374e-06
-6.7241041833343215e-06   5.758200363386928e-07   9.054166133467374e-06
-6.739413260215888e-06   1.4230504369521033e-06   1.0272868510587097e-05
-6.739413260215888e-06   1.4230504369521033e-06   1.0272868510587097e-05
-6.739413260215888e-06   1.4230504369521033e-06   1.0272868510587097e-05
-6.739413260215888e-06   1.4230504369521033e-06   1.0272868510587097e-05
-6.070716063917499e-06   3.169054572265458e-07   9.82206017125848e-06
-6.070716063917499e-06   3.169054572265458e-07   9.82206017125848e-06
-6.070716063917499e-06   3.169054572265458e-07   9.82206017125848e-06
-6.070716063917499e-06   3.169054572265458e-07   9.82206017125848e-06
-6.379922324027063e-06   1.0376972238340166e-06   9.90492887814329e-06
-6.379922324027063e-06   1.0376972238340166e-06   9.90492887814329e-06
-6.379922324027063e-06   1.0376972238340166e-06   9.90492887814329e-06
-6.379922324027063e-06   1.0376972238340166e-06   9.90492887814329e-06
-6.070716063917499e-06   1.4230504369522117e-06   1.0936555498422453e-05
-6.070716063917499e-06   1.4230504369522117e-06   1.0936555498422453e-05
-6.070716063917499e-06   1.4230504369522117e-06   1.0936555498422453e-05
-6.070716063917499e-06   1.4230504369522117e-06   1.0936555498422453e-05
-6.739413260215861e-06   3.169054572265458e-07   9.158373183423107e-06
-6.739413260215861e-06   3.169054572265458e-07   9.158373183423107e-06
-6.739413260215861e-06   3.169054572265458e-07   9.158373183423107e-06
-6.739413260215861e-06   3.169054572265458e-07   9.158373183423107e-06
-6.815952146566393e-06   1.136458921621947e-06   1.065111362199406e-05
-6.815952146566393e-06   1.136458921621947e-06   1.065111362199406e-05
-6.815952146566393e-06   1.136458921621947e-06   1.065111362199406e-05
-6.815952146566393e-06   1.136458921621947e-06   1.065111362199406e-05
-6.1017586405718595e-06   9.487686932808676e-08   1.0085740343379547e-05
-6.1017586405718595e-06   9.487686932808676e-08   1.0085740343379547e-05
-6.1017586405718595e-06   9.487686932808676e-08   1.0085740343379547e-05
-6.1017586405718595e-06   9.487686932808676e-08   1.0085740343379547e-05
-6.3655406518191694e-06   8.257935227557573e-07   1.0086827036735143e-05
-6.3655406518191694e-06   8.257935227557573e-07   1.0086827036735143e-05
-6.3655406518191694e-06   8.257935227557573e-07   1.0086827036735143e-05
-6.3655406518191694e-06   8.257935227557573e-07   1.0086827036735143e-05
-6.1017586405718595e-06   1.136458921621947e-06   1.12760628533703e-05
-6.1017586405718595e-06   1.136458921621947e-06   1.12760628533703e-05
-6.1017586405718595e-06   1.136458921621947e-06   1.12760628533703e-05
-6.1017586405718595e-06   1.136458921621947e-06   1.12760628533703e-05
-6.815952146566393e-06   9.487686932808676e-08   9.460791112003222e-06
-6.815952146566393e-06   9.487686932808676e-08   9.460791112003222e-06
-6.815952146566393e-06   9.487686932808676e-08   9.460791112003222e-06
-6.815952146566393e-06   9.487686932808676e-08   9.460791112003222e-06
-6.8627481610210675e-06   8.439109051026948e-07   1.1120226989530025e-05
-6.8627481610210675e-06   8.439109051026948e-07   1.1120226989530025e-05
-6.8627481610210675e-06   8.439109051026948e-07   1.1120226989530025e-05
-6.8627481610210675e-06   8.439109051026948e-07   1.1120226989530025e-05
-6.123260357293608e-06   -1.2915511624810505e-07   1.0471586929461211e-05
-6.123260357293608e-06   -1.2915511624810505e-07   1.0471586929461211e-05
-6.123260357293608e-06   -1.2915511624810505e-07   1.0471586929461211e-05
-6.123260357293608e-06   -1.2915511624810505e-07   1.0471586929461211e-05
-6.401530535399692e-06   6.360915118371556e-07   1.0476222582786396e-05
-6.401530535399692e-06   6.360915118371556e-07   1.0476222582786396e-05
-6.401530535399692e-06   6.360915118371556e-07   1.0476222582786396e-05
-6.401530535399692e-06   6.360915118371556e-07   1.0476222582786396e-05
-6.7241041833343215e-06   2.0716976839550705e-06   4.213553276469651e-06
-6.7241041833343215e-06   2.0716976839550705e-06   4.213553276469651e-06
-6.7241041833343215e-06   2.0716976839550705e-06   4.213553276469651e-06
-6.7241041833343215e-06   2.0716976839550705e-06   4.213553276469651e-06
-6.701303120923018e-06   9.562274573932886e-07   3.5822729112181136e-06
-6.701303120923018e-06   9.562274573932886e-07   3.5822729112181136e-06
-6.701303120923018e-06   9.562274573932886e-07   3.5822729112181136e-06
-6.701303120923018e-06   9.562274573932886e-07   3.5822729112181136e-06
-7.046197171899061e-06   1.8579088195265448e-06   4.621243192166392e-06
-7.046197171899061e-06   1.8579088195265448e-06   4.621243192166392e-06
-7.046197171899061e-06   1.8579088195265448e-06   4.621243192166392e-06
-7.046197171899061e-06   1.8579088195265448e-06   4.621243192166392e-06
-6.739413260215861e-06   7.72085907750652e-07   4.761430419759883e-06
-6.739413260215861e-06   7.72085907750652e-07   4.761430419759883e-06
-6.739413260215861e-06   7.72085907750652e-07   4.761430419759883e-06
-6.739413260215861e-06   7.72085907750652e-07   4.761430419759883e-06
-6.5811698941759e-06   1.4601537830414256e-06   4.084850751185588e-06
-6.5811698941759e-06   1.4601537830414256e-06   4.084850751185588e-06
-6.5811698941759e-06   1.4601537830414256e-06   4.084850751185588e-06
-6.5811698941759e-06   1.4601537830414256e-06   4.084850751185588e-06
-6.739413260215834e-06   1.8579088195265448e-06   5.272736939231873e-06
-6.739413260215834e-06   1.8579088195265448e-06   5.272736939231873e-06
-6.739413260215834e-06   1.8579088195265448e-06   5.272736939231873e-06
-6.739413260215834e-06   1.8579088195265448e-06   5.272736939231873e-06
-7.046197171899061e-06   7.72085907750652e-07   4.109936672694374e-06
-7.046197171899061e-06   7.72085907750652e-07   4.109936672694374e-06
-7.046197171899061e-06   7.72085907750652e-07   4.109936672694374e-06
-7.046197171899061e-06   7.72085907750652e-07   4.109936672694374e-06
-7.348584768290009e-06   1.710586409567642e-06   5.474727906023538e-06
-7.348584768290009e-06   1.710586409567642e-06   5.474727906023538e-06
-7.348584768290009e-06   1.710586409567642e-06   5.474727906023538e-06
-7.348584768290009e-06   1.710586409567642e-06   5.474727906023538e-06
-6.8159521465663655e-06   6.519087446532623e-07   5.222213468766086e-06
-6.8159521465663655e-06   6.519087446532623e-07   5.222213468766086e-06
-6.8159521465663655e-06   6.519087446532623e-07   5.222213468766086e-06
-6.8159521465663655e-06   6.519087446532623e-07   5.222213468766086e-06
-6.828519824530083e-06   1.3540201154214144e-06   4.821892776245049e-06
-6.828519824530083e-06   1.3540201154214144e-06   4.821892776245049e-06
-6.828519824530083e-06   1.3540201154214144e-06   4.821892776245049e-06
-6.828519824530083e-06   1.3540201154214144e-06   4.821892776245049e-06
-6.8159521465663655e-06   1.7105864095677504e-06   6.1099345049721765e-06
-6.8159521465663655e-06   1.7105864095677504e-06   6.1099345049721765e-06
-6.8159521465663655e-06   1.7105864095677504e-06   6.1099345049721765e-06
-6.8159521465663655e-06   1.7105864095677504e-06   6.1099345049721765e-06
-7.348584768290063e-06   6.519087446532623e-07   4.587006869817434e-06
-7.348584768290063e-06   6.519087446532623e-07   4.587006869817434e-06
-7.348584768290063e-06   6.519087446532623e-07   4.587006869817434e-06
-7.348584768290063e-06   6.519087446532623e-07   4.587006869817434e-06
-7.794579774700024e-06   1.369835623132084e-06   7.041814349362523e-06
-7.794579774700024e-06   1.369835623132084e-06   7.041814349362523e-06
-7.794579774700024e-06   1.369835623132084e-06   7.041814349362523e-06
-7.794579774700024e-06   1.369835623132084e-06   7.041814349362523e-06
-6.8627481610210675e-06   4.075490034796789e-07   6.066133631688932e-06
-6.8627481610210675e-06   4.075490034796789e-07   6.066133631688932e-06
-6.8627481610210675e-06   4.075490034796789e-07   6.066133631688932e-06
-6.8627481610210675e-06   4.075490034796789e-07   6.066133631688932e-06
-6.912501560642768e-06   1.2257653311454795e-06   5.658126167791518e-06
-6.912501560642768e-06   1.2257653311454795e-06   5.658126167791518e-06
-6.912501560642768e-06   1.2257653311454795e-06   5.658126167791518e-06
-6.912501560642768e-06   1.2257653311454795e-06   5.658126167791518e-06
-1.2915063177916966e-05   1.7114491749358504e-06   5.168665560759089e-06
-1.2915063177916966e-05   1.7114491749358504e-06   5.168665560759089e-06
-1.2915063177916966e-05   1.7114491749358504e-06   5.168665560759089e-06
-1.2915063177916966e-05   1.7114491749358504e-06   5.168665560759089e-06
-8.767398237890692e-06   2.3638961562745314e-06   1.2472908649606104e-05
-8.767398237890692e-06   2.3638961562745314e-06   1.2472908649606104e-05
-8.767398237890692e-06   2.3638961562745314e-06   1.2472908649606104e-05
-8.767398237890692e-06   2.3638961562745314e-06   1.2472908649606104e-05
-8.766546515807409e-06   1.333212482921241e-06   5.826326048167775e-06
-8.766546515807409e-06   1.333212482921241e-06   5.826326048167775e-06
-8.766546515807409e-06   1.333212482921241e-06   5.826326048167775e-06
-8.766546515807409e-06   1.333212482921241e-06   5.826326048167775e-06
-1.4252849830745433e-05   9.339044979942974e-07   1.5209749697354025e-05
-1.4252849830745433e-05   9.339044979942974e-07   1.5209749697354025e-05
-1.4252849830745433e-05   9.339044979942974e-07   1.5209749697354025e-05
-1.4252849830745433e-05   9.339044979942974e-07   1.5209749697354025e-05
-1.0597775480834626e-05   1.3952996628036274e-06   8.84112201528372e-06
-1.0597775480834626e-05   1.3952996628036274e-06   8.84112201528372e-06
-1.0597775480834626e-05   1.3952996628036274e-06   8.84112201528372e-06
-1.0597775480834626e-05   1.3952996628036274e-06   8.84112201528372e-06
-1.425284983074546e-05   1.333212482921241e-06   6.0659108391238615e-06
-1.425284983074546e-05   1.333212482921241e-06   6.0659108391238615e-06
-1.425284983074546e-05   1.333212482921241e-06   6.0659108391238615e-06
-1.425284983074546e-05   1.333212482921241e-06   6.0659108391238615e-06
-8.766546515807395e-06   9.339044979942974e-07   1.4970164906397837e-05
-8.766546515807395e-06   9.339044979942974e-07   1.4970164906397837e-05
-8.766546515807395e-06   9.339044979942974e-07   1.4970164906397837e-05
-8.766546515807395e-06   9.339044979942974e-07   1.4970164906397837e-05
-8.89460792420425e-06   1.0732738414207118e-06   6.495740254558089e-06
-8.89460792420425e-06   1.0732738414207118e-06   6.495740254558089e-06
-8.89460792420425e-06   1.0732738414207118e-06   6.495740254558089e-06
-8.89460792420425e-06   1.0732738414207118e-06   6.495740254558089e-06
-1.4310696465884483e-05   6.617285313822204e-07   1.576948167671493e-05
-1.4310696465884483e-05   6.617285313822204e-07   1.576948167671493e-05
-1.4310696465884483e-05   6.617285313822204e-07   1.576948167671493e-05
-1.4310696465884483e-05   6.617285313822204e-07   1.576948167671493e-05
-1.1322283418358506e-05   8.629747330428351e-07   1.0668045543175175e-05
-1.1322283418358506e-05   8.629747330428351e-07   1.0668045543175175e-05
-1.1322283418358506e-05   8.629747330428351e-07   1.0668045543175175e-05
-1.1322283418358506e-05   8.629747330428351e-07   1.0668045543175175e-05
-1.4310696465884507e-05   1.0732738414207118e-06   6.742667440581276e-06
-1.4310696465884507e-05   1.0732738414207118e-06   6.742667440581276e-06
-1.4310696465884507e-05   1.0732738414207118e-06   6.742667440581276e-06
-1.4310696465884507e-05   1.0732738414207118e-06   6.742667440581276e-06
-8.894607924204236e-06   6.617285313822204e-07   1.5522554490691824e-05
-8.894607924204236e-06   6.617285313822204e-07   1.5522554490691824e-05
-8.894607924204236e-06   6.617285313822204e-07   1.5522554490691824e-05
-8.894607924204236e-06   6.617285313822204e-07   1.5522554490691824e-05
-8.808009168969956e-06   4.3478053119973487e-07   7.664964993256282e-06
-8.808009168969956e-06   4.3478053119973487e-07   7.664964993256282e-06
-8.808009168969956e-06   4.3478053119973487e-07   7.664964993256282e-06
-8.808009168969956e-06   4.3478053119973487e-07   7.664964993256282e-06
-1.4478830384517796e-05   -5.007107688356728e-07   1.7677628465857223e-05
-1.4478830384517796e-05   -5.007107688356728e-07   1.7677628465857223e-05
-1.4478830384517796e-05   -5.007107688356728e-07   1.7677628465857223e-05
-1.4478830384517796e-05   -5.007107688356728e-07   1.7677628465857223e-05
-1.1158073000486324e-05   4.0794232203691363e-07   1.1597840971281251e-05
-1.1158073000486324e-05   4.0794232203691363e-07   1.1597840971281251e-05
-1.1158073000486324e-05   4.0794232203691363e-07   1.1597840971281251e-05
-1.1158073000486324e-05   4.0794232203691363e-07   1.1597840971281251e-05
-8.767398237890706e-06   4.4398401055352303e-07   1.1731665109362456e-05
-8.767398237890706e-06   4.4398401055352303e-07   1.1731665109362456e-05
-8.767398237890706e-06   4.4398401055352303e-07   1.1731665109362456e-05
-8.767398237890706e-06   4.4398401055352303e-07   1.1731665109362456e-05
-5.40277798084343e-06   -2.7456519981070493e-06   1.5425583932578244e-05
-5.40277798084343e-06   -2.7456519981070493e-06   1.5425583932578244e-05
-5.40277798084343e-06   -2.7456519981070493e-06   1.5425583932578244e-05
-5.40277798084343e-06   -2.7456519981070493e-06   1.5425583932578244e-05
-5.419174456318637e-06   2.0982762633225136e-07   9.841093583570082e-06
-5.419174456318637e-06   2.0982762633225136e-07   9.841093583570082e-06
-5.419174456318637e-06   2.0982762633225136e-07   9.841093583570082e-06
-5.419174456318637e-06   2.0982762633225136e-07   9.841093583570082e-06
-8.766546515807395e-06   -2.2561785675150362e-06   1.689965073235975e-05
-8.766546515807395e-06   -2.2561785675150362e-06   1.689965073235975e-05
-8.766546515807395e-06   -2.2561785675150362e-06   1.689965073235975e-05
-8.766546515807395e-06   -2.2561785675150362e-06   1.689965073235975e-05
-7.053405013503931e-06   -1.3593519352750154e-06   1.3506318915843314e-05
-7.053405013503931e-06   -1.3593519352750154e-06   1.3506318915843314e-05
-7.053405013503931e-06   -1.3593519352750154e-06   1.3506318915843314e-05
-7.053405013503931e-06   -1.3593519352750154e-06   1.3506318915843314e-05
-8.766546515807405e-06   2.0982762633225136e-07   1.1320697299878313e-05
-8.766546515807405e-06   2.0982762633225136e-07   1.1320697299878313e-05
-8.766546515807405e-06   2.0982762633225136e-07   1.1320697299878313e-05
-8.766546515807405e-06   2.0982762633225136e-07   1.1320697299878313e-05
-5.419174456318637e-06   -2.2561785675150362e-06   1.5420047016051383e-05
-5.419174456318637e-06   -2.2561785675150362e-06   1.5420047016051383e-05
-5.419174456318637e-06   -2.2561785675150362e-06   1.5420047016051383e-05
-5.419174456318637e-06   -2.2561785675150362e-06   1.5420047016051383e-05
-5.44823677709063e-06   -5.8924630297232505e-08   1.013750824555964e-05
-5.44823677709063e-06   -5.8924630297232505e-08   1.013750824555964e-05
-5.44823677709063e-06   -5.8924630297232505e-08   1.013750824555964e-05
-5.44823677709063e-06   -5.8924630297232505e-08   1.013750824555964e-05
-8.894607924204236e-06   -2.30467057278725e-06   1.722890772290966e-05
-8.894607924204236e-06   -2.30467057278725e-06   1.722890772290966e-05
-8.894607924204236e-06   -2.30467057278725e-06   1.722890772290966e-05
-8.894607924204236e-06   -2.30467057278725e-06   1.722890772290966e-05
-7.007492895897175e-06   -1.1880359098921688e-06   1.3413735211327523e-05
-7.007492895897175e-06   -1.1880359098921688e-06   1.3413735211327523e-05
-7.007492895897175e-06   -1.1880359098921688e-06   1.3413735211327523e-05
-7.007492895897175e-06   -1.1880359098921688e-06   1.3413735211327523e-05
-8.89460792420425e-06   -5.8924630297178295e-08   1.1484955811053732e-05
-8.89460792420425e-06   -5.8924630297178295e-08   1.1484955811053732e-05
-8.89460792420425e-06   -5.8924630297178295e-08   1.1484955811053732e-05
-8.89460792420425e-06   -5.8924630297178295e-08   1.1484955811053732e-05
-5.448236777090616e-06   -2.30467057278725e-06   1.5881460157415663e-05
-5.448236777090616e-06   -2.30467057278725e-06   1.5881460157415663e-05
-5.448236777090616e-06   -2.30467057278725e-06   1.5881460157415663e-05
-5.448236777090616e-06   -2.30467057278725e-06   1.5881460157415663e-05
-5.4043840657766364e-06   -4.1038413015417625e-07   1.0509040391160215e-05
-5.4043840657766364e-06   -4.1038413015417625e-07   1.0509040391160215e-05
-5.4043840657766364e-06   -4.1038413015417625e-07   1.0509040391160215e-05
-5.4043840657766364e-06   -4.1038413015417625e-07   1.0509040391160215e-05
-8.808009168969933e-06   -2.3181186065452536e-06   1.7326389582316998e-05
-8.808009168969933e-06   -2.3181186065452536e-06   1.7326389582316998e-05
-8.808009168969933e-06   -2.3181186065452536e-06   1.7326389582316998e-05
-8.808009168969933e-06   -2.3181186065452536e-06   1.7326389582316998e-05
-7.048366019876616e-06   -1.3288338276753477e-06   1.3800080133172853e-05
-7.048366019876616e-06   -1.3288338276753477e-06   1.3800080133172853e-05
-7.048366019876616e-06   -1.3288338276753477e-06   1.3800080133172853e-05
-7.048366019876616e-06   -1.3288338276753477e-06   1.3800080133172853e-05
-5.40277798084343e-06   1.2494138722078142e-07   1.086380536957773e-05
-5.40277798084343e-06   1.2494138722078142e-07   1.086380536957773e-05
-5.40277798084343e-06   1.2494138722078142e-07   1.086380536957773e-05
-5.40277798084343e-06   1.2494138722078142e-07   1.086380536957773e-05
-4.00368325782286e-06   -2.1457658412144746e-06   1.1833205570884212e-05
-4.00368325782286e-06   -2.1457658412144746e-06   1.1833205570884212e-05
-4.00368325782286e-06   -2.1457658412144746e-06   1.1833205570884212e-05
-4.00368325782286e-06   -2.1457658412144746e-06   1.1833205570884212e-05
-3.974236901960383e-06   -7.113759192118024e-08   9.587177066655312e-06
-3.974236901960383e-06   -7.113759192118024e-08   9.587177066655312e-06
-3.974236901960383e-06   -7.113759192118024e-08   9.587177066655312e-06
-3.974236901960383e-06   -7.113759192118024e-08   9.587177066655312e-06
-5.419174456318637e-06   -2.1074294692687674e-06   1.3217181450327602e-05
-5.419174456318637e-06   -2.1074294692687674e-06   1.3217181450327602e-05
-5.419174456318637e-06   -2.1074294692687674e-06   1.3217181450327602e-05
-5.419174456318637e-06   -2.1074294692687674e-06   1.3217181450327602e-05
-4.672045084576519e-06   -1.0826837904116094e-06   1.1357118423443147e-05
-4.672045084576519e-06   -1.0826837904116094e-06   1.1357118423443147e-05
-4.672045084576519e-06   -1.0826837904116094e-06   1.1357118423443147e-05
-4.672045084576519e-06   -1.0826837904116094e-06   1.1357118423443147e-05
-5.419174456318637e-06   -7.113759192118024e-08   1.0808952193063718e-05
-5.419174456318637e-06   -7.113759192118024e-08   1.0808952193063718e-05
-5.419174456318637e-06   -7.113759192118024e-08   1.0808952193063718e-05
-5.419174456318637e-06   -7.113759192118024e-08   1.0808952193063718e-05
-3.974236901960383e-06   -2.1074294692687674e-06   1.1995406323919047e-05
-3.974236901960383e-06   -2.1074294692687674e-06   1.1995406323919047e-05
-3.974236901960383e-06   -2.1074294692687674e-06   1.1995406323919047e-05
-3.974236901960383e-06   -2.1074294692687674e-06   1.1995406323919047e-05
-3.951110212205197e-06   -3.0580657243186845e-07   9.813617276304299e-06
-3.951110212205197e-06   -3.0580657243186845e-07   9.813617276304299e-06
-3.951110212205197e-06   -3.0580657243186845e-07   9.813617276304299e-06
-3.951110212205197e-06   -3.0580657243186845e-07   9.813617276304299e-06
-5.448236777090616e-06   -2.1702336891572327e-06   1.3427484487815228e-05
-5.448236777090616e-06   -2.1702336891572327e-06   1.3427484487815228e-05
-5.448236777090616e-06   -2.1702336891572327e-06   1.3427484487815228e-05
-5.448236777090616e-06   -2.1702336891572327e-06   1.3427484487815228e-05
-4.637171576324278e-06   -1.151169951525241e-06   1.1464270910625282e-05
-4.637171576324278e-06   -1.151169951525241e-06   1.1464270910625282e-05
-4.637171576324278e-06   -1.151169951525241e-06   1.1464270910625282e-05
-4.637171576324278e-06   -1.151169951525241e-06   1.1464270910625282e-05
-5.448236777090616e-06   -3.0580657243186845e-07   1.0932273546339588e-05
-5.448236777090616e-06   -3.0580657243186845e-07   1.0932273546339588e-05
-5.448236777090616e-06   -3.0580657243186845e-07   1.0932273546339588e-05
-5.448236777090616e-06   -3.0580657243186845e-07   1.0932273546339588e-05
-3.951110212205197e-06   -2.1702336891572327e-06   1.2308828217779987e-05
-3.951110212205197e-06   -2.1702336891572327e-06   1.2308828217779987e-05
-3.951110212205197e-06   -2.1702336891572327e-06   1.2308828217779987e-05
-3.951110212205197e-06   -2.1702336891572327e-06   1.2308828217779987e-05
-3.882519277848776e-06   -5.403753252092715e-07   1.0165242544695938e-05
-3.882519277848776e-06   -5.403753252092715e-07   1.0165242544695938e-05
-3.882519277848776e-06   -5.403753252092715e-07   1.0165242544695938e-05
-3.882519277848776e-06   -5.403753252092715e-07   1.0165242544695938e-05
-5.4043840657766364e-06   -2.256679884065835e-06   1.3731466593222915e-05
-5.4043840657766364e-06   -2.256679884065835e-06   1.3731466593222915e-05
-5.4043840657766364e-06   -2.256679884065835e-06   1.3731466593222915e-05
-5.4043840657766364e-06   -2.256679884065835e-06   1.3731466593222915e-05
-4.596882175934944e-06   -1.2525497044534864e-06   1.1783152002386014e-05
-4.596882175934944e-06   -1.2525497044534864e-06   1.1783152002386014e-05
-4.596882175934944e-06   -1.2525497044534864e-06   1.1783152002386014e-05
-4.596882175934944e-06   -1.2525497044534864e-06   1.1783152002386014e-05
-4.00368325782286e-06   5.75820036338747e-07   7.424100504890667e-06
-4.00368325782286e-06   5.75820036338747e-07   7.424100504890667e-06
-4.00368325782286e-06   5.75820036338747e-07   7.424100504890667e-06
-4.00368325782286e-06   5.75820036338747e-07   7.424100504890667e-06
-3.3720168890956934e-06   -8.833950560688296e-07   7.60134873065805e-06
-3.3720168890956934e-06   -8.833950560688296e-07   7.60134873065805e-06
-3.3720168890956934e-06   -8.833950560688296e-07   7.60134873065805e-06
-3.3720168890956934e-06   -8.833950560688296e-07   7.60134873065805e-06
-3.3068715871377072e-06   3.169054572265458e-07   6.704349548991486e-06
-3.3068715871377072e-06   3.169054572265458e-07   6.704349548991486e-06
-3.3068715871377072e-06   3.169054572265458e-07   6.704349548991486e-06
-3.3068715871377072e-06   3.169054572265458e-07   6.704349548991486e-06
-3.974236901960383e-06   -1.0313697638003323e-06   8.62559020631208e-06
-3.974236901960383e-06   -1.0313697638003323e-06   8.62559020631208e-06
-3.974236901960383e-06   -1.0313697638003323e-06   8.62559020631208e-06
-3.974236901960383e-06   -1.0313697638003323e-06   8.62559020631208e-06
-3.6377896228814504e-06   -2.0200693757457464e-07   7.567227045445071e-06
-3.6377896228814504e-06   -2.0200693757457464e-07   7.567227045445071e-06
-3.6377896228814504e-06   -2.0200693757457464e-07   7.567227045445071e-06
-3.6377896228814504e-06   -2.0200693757457464e-07   7.567227045445071e-06
-3.974236901960383e-06   3.169054572265458e-07   7.513314681607494e-06
-3.974236901960383e-06   3.169054572265458e-07   7.513314681607494e-06
-3.974236901960383e-06   3.169054572265458e-07   7.513314681607494e-06
-3.974236901960383e-06   3.169054572265458e-07   7.513314681607494e-06
-3.3068715871377072e-06   -1.0313697638003323e-06   7.816625073695923e-06
-3.3068715871377072e-06   -1.0313697638003323e-06   7.816625073695923e-06
-3.3068715871377072e-06   -1.0313697638003323e-06   7.816625073695923e-06
-3.3068715871377072e-06   -1.0313697638003323e-06   7.816625073695923e-06
-3.2817555619202375e-06   9.487686932808676e-08   7.019308767708973e-06
-3.2817555619202375e-06   9.487686932808676e-08   7.019308767708973e-06
-3.2817555619202375e-06   9.487686932808676e-08   7.019308767708973e-06
-3.2817555619202375e-06   9.487686932808676e-08   7.019308767708973e-06
-3.951110212205197e-06   -1.1451696734569557e-06   8.878927777188306e-06
-3.951110212205197e-06   -1.1451696734569557e-06   8.878927777188306e-06
-3.951110212205197e-06   -1.1451696734569557e-06   8.878927777188306e-06
-3.951110212205197e-06   -1.1451696734569557e-06   8.878927777188306e-06
-3.57295093336566e-06   -3.586840387901415e-07   7.776770931655436e-06
-3.57295093336566e-06   -3.586840387901415e-07   7.776770931655436e-06
-3.57295093336566e-06   -3.586840387901415e-07   7.776770931655436e-06
-3.57295093336566e-06   -3.586840387901415e-07   7.776770931655436e-06
-3.951110212205197e-06   9.487686932808676e-08   7.76333669338014e-06
-3.951110212205197e-06   9.487686932808676e-08   7.76333669338014e-06
-3.951110212205197e-06   9.487686932808676e-08   7.76333669338014e-06
-3.951110212205197e-06   9.487686932808676e-08   7.76333669338014e-06
-3.2817555619202375e-06   -1.1451696734569557e-06   8.134899851517261e-06
-3.2817555619202375e-06   -1.1451696734569557e-06   8.134899851517261e-06
-3.2817555619202375e-06   -1.1451696734569557e-06   8.134899851517261e-06
-3.2817555619202375e-06   -1.1451696734569557e-06   8.134899851517261e-06
-3.235646080477074e-06   -1.2915511624810505e-07   7.414813424457586e-06
-3.235646080477074e-06   -1.2915511624810505e-07   7.414813424457586e-06
-3.235646080477074e-06   -1.2915511624810505e-07   7.414813424457586e-06
-3.235646080477074e-06   -1.2915511624810505e-07   7.414813424457586e-06
-3.882519277848776e-06   -1.2937352617466993e-06   9.19168350737616e-06
-3.882519277848776e-06   -1.2937352617466993e-06   9.19168350737616e-06
-3.882519277848776e-06   -1.2937352617466993e-06   9.19168350737616e-06
-3.882519277848776e-06   -1.2937352617466993e-06   9.19168350737616e-06
-3.5253024298108945e-06   -4.966743934795405e-07   8.118085573019393e-06
-3.5253024298108945e-06   -4.966743934795405e-07   8.118085573019393e-06
-3.5253024298108945e-06   -4.966743934795405e-07   8.118085573019393e-06
-3.5253024298108945e-06   -4.966743934795405e-07   8.118085573019393e-06
-3.3720168890956934e-06   9.562274573932886e-07   1.745960363134006e-06
-3.3720168890956934e-06   9.562274573932886e-07   1.745960363134006e-06
-3.3720168890956934e-06   9.562274573932886e-07   1.745960363134006e-06
-3.3720168890956934e-06   9.562274573932886e-07   1.745960363134006e-06
-2.0027331293399225e-06   -9.414407214453037e-08   3.3978770450042027e-06
-2.0027331293399225e-06   -9.414407214453037e-08   3.3978770450042027e-06
-2.0027331293399225e-06   -9.414407214453037e-08   3.3978770450042027e-06
-2.0027331293399225e-06   -9.414407214453037e-08   3.3978770450042027e-06
-2.122204173627513e-06   7.72085907750652e-07   1.7642160332810184e-06
-2.122204173627513e-06   7.72085907750652e-07   1.7642160332810184e-06
-2.122204173627513e-06   7.72085907750652e-07   1.7642160332810184e-06
-2.122204173627513e-06   7.72085907750652e-07   1.7642160332810184e-06
-3.3068715871377072e-06   -1.332320123280037e-07   4.281852474511929e-06
-3.3068715871377072e-06   -1.332320123280037e-07   4.281852474511929e-06
-3.3068715871377072e-06   -1.332320123280037e-07   4.281852474511929e-06
-3.3068715871377072e-06   -1.332320123280037e-07   4.281852474511929e-06
-2.607922234968091e-06   4.927355843792097e-07   2.7413563295381886e-06
-2.607922234968091e-06   4.927355843792097e-07   2.7413563295381886e-06
-2.607922234968091e-06   4.927355843792097e-07   2.7413563295381886e-06
-2.607922234968091e-06   4.927355843792097e-07   2.7413563295381886e-06
-3.3068715871377072e-06   7.720859077507062e-07   2.3074067853280818e-06
-3.3068715871377072e-06   7.720859077507062e-07   2.3074067853280818e-06
-3.3068715871377072e-06   7.720859077507062e-07   2.3074067853280818e-06
-3.3068715871377072e-06   7.720859077507062e-07   2.3074067853280818e-06
-2.122204173627567e-06   -1.332320123280037e-07   3.7386617224646757e-06
-2.122204173627567e-06   -1.332320123280037e-07   3.7386617224646757e-06
-2.122204173627567e-06   -1.332320123280037e-07   3.7386617224646757e-06
-2.122204173627567e-06   -1.332320123280037e-07   3.7386617224646757e-06
-2.2212049954835377e-06   6.519087446532623e-07   2.278290782819028e-06
-2.2212049954835377e-06   6.519087446532623e-07   2.278290782819028e-06
-2.2212049954835377e-06   6.519087446532623e-07   2.278290782819028e-06
-2.2212049954835377e-06   6.519087446532623e-07   2.278290782819028e-06
-3.2817555619202375e-06   -1.8549182476820737e-07   4.548315401866406e-06
-3.2817555619202375e-06   -1.8549182476820737e-07   4.548315401866406e-06
-3.2817555619202375e-06   -1.8549182476820737e-07   4.548315401866406e-06
-3.2817555619202375e-06   -1.8549182476820737e-07   4.548315401866406e-06
-2.6614834566079926e-06   4.028594499372307e-07   3.161517794856043e-06
-2.6614834566079926e-06   4.028594499372307e-07   3.161517794856043e-06
-2.6614834566079926e-06   4.028594499372307e-07   3.161517794856043e-06
-2.6614834566079926e-06   4.028594499372307e-07   3.161517794856043e-06
-3.2817555619202375e-06   6.519087446532623e-07   2.7807311244719695e-06
-3.2817555619202375e-06   6.519087446532623e-07   2.7807311244719695e-06
-3.2817555619202375e-06   6.519087446532623e-07   2.7807311244719695e-06
-3.2817555619202375e-06   6.519087446532623e-07   2.7807311244719695e-06
-2.2212049954835377e-06   -1.8549182476820737e-07   4.0458750602134915e-06
-2.2212049954835377e-06   -1.8549182476820737e-07   4.0458750602134915e-06
-2.2212049954835377e-06   -1.8549182476820737e-07   4.0458750602134915e-06
-2.2212049954835377e-06   -1.8549182476820737e-07   4.0458750602134915e-06
-2.4523394731909955e-06   4.075490034796247e-07   3.1979919841836285e-06
-2.4523394731909955e-06   4.075490034796247e-07   3.1979919841836285e-06
-2.4523394731909955e-06   4.075490034796247e-07   3.1979919841836285e-06
-2.4523394731909955e-06   4.075490034796247e-07   3.1979919841836285e-06
-3.235646080477074e-06   -2.5113058870735003e-07   4.898710751639082e-06
-3.235646080477074e-06   -2.5113058870735003e-07   4.898710751639082e-06
-3.235646080477074e-06   -2.5113058870735003e-07   4.898710751639082e-06
-3.235646080477074e-06   -2.5113058870735003e-07   4.898710751639082e-06
-2.6738826135429e-06   3.408770793459731e-07   3.6072337059166063e-06
-2.6738826135429e-06   3.408770793459731e-07   3.6072337059166063e-06
-2.6738826135429e-06   3.408770793459731e-07   3.6072337059166063e-06
-2.6738826135429e-06   3.408770793459731e-07   3.6072337059166063e-06
-3.052097683304145e-05   2.3638961562745314e-06   1.3389542854863766e-05
-3.052097683304145e-05   2.3638961562745314e-06   1.3389542854863766e-05
-3.052097683304145e-05   2.3638961562745314e-06   1.3389542854863766e-05
-3.052097683304145e-05   2.3638961562745314e-06   1.3389542854863766e-05
-7.139392473984976e-06   -1.5294732708021934e-05   4.176367280138005e-05
-7.139392473984976e-06   -1.5294732708021934e-05   4.176367280138005e-05
-7.139392473984976e-06   -1.5294732708021934e-05   4.176367280138005e-05
-7.139392473984976e-06   -1.5294732708021934e-05   4.176367280138005e-05
-8.404291337182822e-06   9.339044979942974e-07   7.318730233611406e-06
-8.404291337182822e-06   9.339044979942974e-07   7.318730233611406e-06
-8.404291337182822e-06   9.339044979942974e-07   7.318730233611406e-06
-8.404291337182822e-06   9.339044979942974e-07   7.318730233611406e-06
-2.783626441488782e-05   -1.1945301459997183e-05   4.743287560458125e-05
-2.783626441488782e-05   -1.1945301459997183e-05   4.743287560458125e-05
-2.783626441488782e-05   -1.1945301459997183e-05   4.743287560458125e-05
-2.783626441488782e-05   -1.1945301459997183e-05   4.743287560458125e-05
-1.8550285531628652e-05   -5.944411728029975e-06   2.8355710293302296e-05
-1.8550285531628652e-05   -5.944411728029975e-06   2.8355710293302296e-05
-1.8550285531628652e-05   -5.944411728029975e-06   2.8355710293302296e-05
-1.8550285531628652e-05   -5.944411728029975e-06   2.8355710293302296e-05
-2.7836264414887774e-05   9.339044979942974e-07   1.5046253808406276e-05
-2.7836264414887774e-05   9.339044979942974e-07   1.5046253808406276e-05
-2.7836264414887774e-05   9.339044979942974e-07   1.5046253808406276e-05
-2.7836264414887774e-05   9.339044979942974e-07   1.5046253808406276e-05
-8.404291337182832e-06   -1.1945301459997183e-05   3.970535202978635e-05
-8.404291337182832e-06   -1.1945301459997183e-05   3.970535202978635e-05
-8.404291337182832e-06   -1.1945301459997183e-05   3.970535202978635e-05
-8.404291337182832e-06   -1.1945301459997183e-05   3.970535202978635e-05
-8.60655906388735e-06   6.617285313822204e-07   8.04462388038177e-06
-8.60655906388735e-06   6.617285313822204e-07   8.04462388038177e-06
-8.60655906388735e-06   6.617285313822204e-07   8.04462388038177e-06
-8.60655906388735e-06   6.617285313822204e-07   8.04462388038177e-06
-2.626698232930022e-05   -1.0339027929619647e-05   4.407911653267093e-05
-2.626698232930022e-05   -1.0339027929619647e-05   4.407911653267093e-05
-2.626698232930022e-05   -1.0339027929619647e-05   4.407911653267093e-05
-2.626698232930022e-05   -1.0339027929619647e-05   4.407911653267093e-05
-1.800507366690011e-05   -5.637814182241768e-06   2.7488540513577376e-05
-1.800507366690011e-05   -5.637814182241768e-06   2.7488540513577376e-05
-1.800507366690011e-05   -5.637814182241768e-06   2.7488540513577376e-05
-1.800507366690011e-05   -5.637814182241768e-06   2.7488540513577376e-05
-2.6266982329300174e-05   6.617285313822204e-07   1.4645077756982866e-05
-2.6266982329300174e-05   6.617285313822204e-07   1.4645077756982866e-05
-2.6266982329300174e-05   6.617285313822204e-07   1.4645077756982866e-05
-2.6266982329300174e-05   6.617285313822204e-07   1.4645077756982866e-05
-8.606559063887363e-06   -1.0339027929619647e-05   3.747866265606981e-05
-8.606559063887363e-06   -1.0339027929619647e-05   3.747866265606981e-05
-8.606559063887363e-06   -1.0339027929619647e-05   3.747866265606981e-05
-8.606559063887363e-06   -1.0339027929619647e-05   3.747866265606981e-05
-9.452484844642323e-06   -5.007107688356728e-07   1.0062313585415257e-05
-9.452484844642323e-06   -5.007107688356728e-07   1.0062313585415257e-05
-9.452484844642323e-06   -5.007107688356728e-07   1.0062313585415257e-05
-9.452484844642323e-06   -5.007107688356728e-07   1.0062313585415257e-05
-2.4251322237582858e-05   -8.20098973800088e-06   3.934720995514855e-05
-2.4251322237582858e-05   -8.20098973800088e-06   3.934720995514855e-05
-2.4251322237582858e-05   -8.20098973800088e-06   3.934720995514855e-05
-2.4251322237582858e-05   -8.20098973800088e-06   3.934720995514855e-05
-1.7331087433096527e-05   -5.206922800240617e-06   2.6017045118348543e-05
-1.7331087433096527e-05   -5.206922800240617e-06   2.6017045118348543e-05
-1.7331087433096527e-05   -5.206922800240617e-06   2.6017045118348543e-05
-1.7331087433096527e-05   -5.206922800240617e-06   2.6017045118348543e-05
-7.1393924739849595e-06   -2.7456519981070493e-06   7.660822424454376e-06
-7.1393924739849595e-06   -2.7456519981070493e-06   7.660822424454376e-06
-7.1393924739849595e-06   -2.7456519981070493e-06   7.660822424454376e-06
-7.1393924739849595e-06   -2.7456519981070493e-06   7.660822424454376e-06
-2.476483185678434e-06   -4.846465503000686e-06   1.4171849802029063e-05
-2.476483185678434e-06   -4.846465503000686e-06   1.4171849802029063e-05
-2.476483185678434e-06   -4.846465503000686e-06   1.4171849802029063e-05
-2.476483185678434e-06   -4.846465503000686e-06   1.4171849802029063e-05
-2.780870534797118e-06   -2.2561785675150362e-06   6.772934875349032e-06
-2.780870534797118e-06   -2.2561785675150362e-06   6.772934875349032e-06
-2.780870534797118e-06   -2.2561785675150362e-06   6.772934875349032e-06
-2.780870534797118e-06   -2.2561785675150362e-06   6.772934875349032e-06
-8.404291337182832e-06   -6.381647207888865e-06   1.862058406354946e-05
-8.404291337182832e-06   -6.381647207888865e-06   1.862058406354946e-05
-8.404291337182832e-06   -6.381647207888865e-06   1.862058406354946e-05
-8.404291337182832e-06   -6.381647207888865e-06   1.862058406354946e-05
-4.928874269569552e-06   -3.3276472260141337e-06   1.0995822295069108e-05
-4.928874269569552e-06   -3.3276472260141337e-06   1.0995822295069108e-05
-4.928874269569552e-06   -3.3276472260141337e-06   1.0995822295069108e-05
-4.928874269569552e-06   -3.3276472260141337e-06   1.0995822295069108e-05
-8.404291337182812e-06   -2.2561785675150362e-06   9.248216059573231e-06
-8.404291337182812e-06   -2.2561785675150362e-06   9.248216059573231e-06
-8.404291337182812e-06   -2.2561785675150362e-06   9.248216059573231e-06
-8.404291337182812e-06   -2.2561785675150362e-06   9.248216059573231e-06
-2.780870534797118e-06   -6.381647207888865e-06   1.6145302879325172e-05
-2.780870534797118e-06   -6.381647207888865e-06   1.6145302879325172e-05
-2.780870534797118e-06   -6.381647207888865e-06   1.6145302879325172e-05
-2.780870534797118e-06   -6.381647207888865e-06   1.6145302879325172e-05
-3.0427593060216386e-06   -2.30467057278725e-06   7.617279314468546e-06
-3.0427593060216386e-06   -2.30467057278725e-06   7.617279314468546e-06
-3.0427593060216386e-06   -2.30467057278725e-06   7.617279314468546e-06
-3.0427593060216386e-06   -2.30467057278725e-06   7.617279314468546e-06
-8.606559063887363e-06   -5.860833569672422e-06   1.902397670904243e-05
-8.606559063887363e-06   -5.860833569672422e-06   1.902397670904243e-05
-8.606559063887363e-06   -5.860833569672422e-06   1.902397670904243e-05
-8.606559063887363e-06   -5.860833569672422e-06   1.902397670904243e-05
-5.5741270272379625e-06   -4.054533786528012e-06   1.2886143444740205e-05
-5.5741270272379625e-06   -4.054533786528012e-06   1.2886143444740205e-05
-5.5741270272379625e-06   -4.054533786528012e-06   1.2886143444740205e-05
-5.5741270272379625e-06   -4.054533786528012e-06   1.2886143444740205e-05
-8.60655906388735e-06   -2.30467057278725e-06   9.750977112599592e-06
-8.60655906388735e-06   -2.30467057278725e-06   9.750977112599592e-06
-8.60655906388735e-06   -2.30467057278725e-06   9.750977112599592e-06
-8.60655906388735e-06   -2.30467057278725e-06   9.750977112599592e-06
-3.0427593060216386e-06   -5.860833569672422e-06   1.6890278910911323e-05
-3.0427593060216386e-06   -5.860833569672422e-06   1.6890278910911323e-05
-3.0427593060216386e-06   -5.860833569672422e-06   1.6890278910911323e-05
-3.0427593060216386e-06   -5.860833569672422e-06   1.6890278910911323e-05
-3.471172534864306e-06   -2.3181186065452536e-06   8.345387906877262e-06
-3.471172534864306e-06   -2.3181186065452536e-06   8.345387906877262e-06
-3.471172534864306e-06   -2.3181186065452536e-06   8.345387906877262e-06
-3.471172534864306e-06   -2.3181186065452536e-06   8.345387906877262e-06
-9.45248484464231e-06   -5.529754564910291e-06   2.0241223331526217e-05
-9.45248484464231e-06   -5.529754564910291e-06   2.0241223331526217e-05
-9.45248484464231e-06   -5.529754564910291e-06   2.0241223331526217e-05
-9.45248484464231e-06   -5.529754564910291e-06   2.0241223331526217e-05
-5.959108846222158e-06   -3.704266019861728e-06   1.3323636873796851e-05
-5.959108846222158e-06   -3.704266019861728e-06   1.3323636873796851e-05
-5.959108846222158e-06   -3.704266019861728e-06   1.3323636873796851e-05
-5.959108846222158e-06   -3.704266019861728e-06   1.3323636873796851e-05
-2.476483185678434e-06   -2.1457658412144746e-06   4.170380296885301e-06
-2.476483185678434e-06   -2.1457658412144746e-06   4.170380296885301e-06
-2.476483185678434e-06   -2.1457658412144746e-06   4.170380296885301e-06
-2.476483185678434e-06   -2.1457658412144746e-06   4.170380296885301e-06
-1.3881650938995236e-06   -1.4134651304289693e-06   6.423624209654806e-06
-1.3881650938995236e-06   -1.4134651304289693e-06   6.423624209654806e-06
-1.3881650938995236e-06   -1.4134651304289693e-06   6.423624209654806e-06
-1.3881650938995236e-06   -1.4134651304289693e-06   6.423624209654806e-06
-1.341792472671035e-06   -2.1074294692687674e-06   4.736140957742308e-06
-1.341792472671035e-06   -2.1074294692687674e-06   4.736140957742308e-06
-1.341792472671035e-06   -2.1074294692687674e-06   4.736140957742308e-06
-1.341792472671035e-06   -2.1074294692687674e-06   4.736140957742308e-06
-2.780870534797118e-06   -1.8306433890737728e-06   6.968532746501961e-06
-2.780870534797118e-06   -1.8306433890737728e-06   6.968532746501961e-06
-2.780870534797118e-06   -1.8306433890737728e-06   6.968532746501961e-06
-2.780870534797118e-06   -1.8306433890737728e-06   6.968532746501961e-06
-1.8697540566805186e-06   -1.7645298059003963e-06   5.410337133070203e-06
-1.8697540566805186e-06   -1.7645298059003963e-06   5.410337133070203e-06
-1.8697540566805186e-06   -1.7645298059003963e-06   5.410337133070203e-06
-1.8697540566805186e-06   -1.7645298059003963e-06   5.410337133070203e-06
-2.7808705347971046e-06   -2.1074294692687945e-06   4.570069309625278e-06
-2.7808705347971046e-06   -2.1074294692687945e-06   4.570069309625278e-06
-2.7808705347971046e-06   -2.1074294692687945e-06   4.570069309625278e-06
-2.7808705347971046e-06   -2.1074294692687945e-06   4.570069309625278e-06
-1.341792472671035e-06   -1.8306433890737694e-06   7.134604394618964e-06
-1.341792472671035e-06   -1.8306433890737694e-06   7.134604394618964e-06
-1.341792472671035e-06   -1.8306433890737694e-06   7.134604394618964e-06
-1.341792472671035e-06   -1.8306433890737694e-06   7.134604394618964e-06
-1.3519218617827594e-06   -2.1702336891572327e-06   5.068986509542133e-06
-1.3519218617827594e-06   -2.1702336891572327e-06   5.068986509542133e-06
-1.3519218617827594e-06   -2.1702336891572327e-06   5.068986509542133e-06
-1.3519218617827594e-06   -2.1702336891572327e-06   5.068986509542133e-06
-3.0427593060216386e-06   -2.327428914700445e-06   7.981366051932842e-06
-3.0427593060216386e-06   -2.327428914700445e-06   7.981366051932842e-06
-3.0427593060216386e-06   -2.327428914700445e-06   7.981366051932842e-06
-3.0427593060216386e-06   -2.327428914700445e-06   7.981366051932842e-06
-1.9923309350887035e-06   -1.9288040881745698e-06   5.9914772044624055e-06
-1.9923309350887035e-06   -1.9288040881745698e-06   5.9914772044624055e-06
-1.9923309350887035e-06   -1.9288040881745698e-06   5.9914772044624055e-06
-1.9923309350887035e-06   -1.9288040881745698e-06   5.9914772044624055e-06
-3.0427593060216386e-06   -2.1702336891572327e-06   5.163303644868043e-06
-3.0427593060216386e-06   -2.1702336891572327e-06   5.163303644868043e-06
-3.0427593060216386e-06   -2.1702336891572327e-06   5.163303644868043e-06
-3.0427593060216386e-06   -2.1702336891572327e-06   5.163303644868043e-06
-1.3519218617827594e-06   -2.327428914700445e-06   7.887048916606918e-06
-1.3519218617827594e-06   -2.327428914700445e-06   7.887048916606918e-06
-1.3519218617827594e-06   -2.327428914700445e-06   7.887048916606918e-06
-1.3519218617827594e-06   -2.327428914700445e-06   7.887048916606918e-06
-1.3866780848704563e-06   -2.256679884065862e-06   5.5700901428499335e-06
-1.3866780848704563e-06   -2.256679884065862e-06   5.5700901428499335e-06
-1.3866780848704563e-06   -2.256679884065862e-06   5.5700901428499335e-06
-1.3866780848704563e-06   -2.256679884065862e-06   5.5700901428499335e-06
-3.471172534864306e-06   -2.7983723186790044e-06   9.369263020274192e-06
-3.471172534864306e-06   -2.7983723186790044e-06   9.369263020274192e-06
-3.471172534864306e-06   -2.7983723186790044e-06   9.369263020274192e-06
-3.471172534864306e-06   -2.7983723186790044e-06   9.369263020274192e-06
-2.1338537323900683e-06   -2.0990929356710215e-06   6.720830719679017e-06
-2.1338537323900683e-06   -2.0990929356710215e-06   6.720830719679017e-06
-2.1338537323900683e-06   -2.0990929356710215e-06   6.720830719679017e-06
-2.1338537323900683e-06   -2.0990929356710215e-06   6.720830719679017e-06
-1.3881650938995236e-06   -8.833950560688567e-07   1.2534329385750147e-06
-1.3881650938995236e-06   -8.833950560688567e-07   1.2534329385750147e-06
-1.3881650938995236e-06   -8.833950560688567e-07   1.2534329385750147e-06
-1.3881650938995236e-06   -8.833950560688567e-07   1.2534329385750147e-06
-1.0457651590722254e-06   1.7533801164846361e-07   2.459339337250883e-06
-1.0457651590722254e-06   1.7533801164846361e-07   2.459339337250883e-06
-1.0457651590722254e-06   1.7533801164846361e-07   2.459339337250883e-06
-1.0457651590722254e-06   1.7533801164846361e-07   2.459339337250883e-06
-8.528161150544674e-07   -1.0313697638003052e-06   1.9974485279443876e-06
-8.528161150544674e-07   -1.0313697638003052e-06   1.9974485279443876e-06
-8.528161150544674e-07   -1.0313697638003052e-06   1.9974485279443876e-06
-8.528161150544674e-07   -1.0313697638003052e-06   1.9974485279443876e-06
-1.341792472671035e-06   2.0503049214896918e-08   2.1812854361627954e-06
-1.341792472671035e-06   2.0503049214896918e-08   2.1812854361627954e-06
-1.341792472671035e-06   2.0503049214896918e-08   2.1812854361627954e-06
-1.341792472671035e-06   2.0503049214896918e-08   2.1812854361627954e-06
-1.0851533318304214e-06   -4.3552850947850953e-07   2.0271724699776435e-06
-1.0851533318304214e-06   -4.3552850947850953e-07   2.0271724699776435e-06
-1.0851533318304214e-06   -4.3552850947850953e-07   2.0271724699776435e-06
-1.0851533318304214e-06   -4.3552850947850953e-07   2.0271724699776435e-06
-1.341792472671035e-06   -1.0313697638003052e-06   1.3663248401353002e-06
-1.341792472671035e-06   -1.0313697638003052e-06   1.3663248401353002e-06
-1.341792472671035e-06   -1.0313697638003052e-06   1.3663248401353002e-06
-1.341792472671035e-06   -1.0313697638003052e-06   1.3663248401353002e-06
-8.528161150544674e-07   2.0503049214896918e-08   2.812409123971937e-06
-8.528161150544674e-07   2.0503049214896918e-08   2.812409123971937e-06
-8.528161150544674e-07   2.0503049214896918e-08   2.812409123971937e-06
-8.528161150544674e-07   2.0503049214896918e-08   2.812409123971937e-06
-7.497976093501788e-07   -1.1451696734569557e-06   2.194997437118373e-06
-7.497976093501788e-07   -1.1451696734569557e-06   2.194997437118373e-06
-7.497976093501788e-07   -1.1451696734569557e-06   2.194997437118373e-06
-7.497976093501788e-07   -1.1451696734569557e-06   2.194997437118373e-06
-1.3519218617827594e-06   -2.1865072651041983e-07   2.642626489671331e-06
-1.3519218617827594e-06   -2.1865072651041983e-07   2.642626489671331e-06
-1.3519218617827594e-06   -2.1865072651041983e-07   2.642626489671331e-06
-1.3519218617827594e-06   -2.1865072651041983e-07   2.642626489671331e-06
-9.897550747047879e-07   -5.533757942144244e-07   2.239850218497145e-06
-9.897550747047879e-07   -5.533757942144244e-07   2.239850218497145e-06
-9.897550747047879e-07   -5.533757942144244e-07   2.239850218497145e-06
-9.897550747047879e-07   -5.533757942144244e-07   2.239850218497145e-06
-1.3519218617827594e-06   -1.1451696734569828e-06   1.6390860689504717e-06
-1.3519218617827594e-06   -1.1451696734569828e-06   1.6390860689504717e-06
-1.3519218617827594e-06   -1.1451696734569828e-06   1.6390860689504717e-06
-1.3519218617827594e-06   -1.1451696734569828e-06   1.6390860689504717e-06
-7.497976093502059e-07   -2.1865072651041983e-07   3.1985378578392593e-06
-7.497976093502059e-07   -2.1865072651041983e-07   3.1985378578392593e-06
-7.497976093502059e-07   -2.1865072651041983e-07   3.1985378578392593e-06
-7.497976093502059e-07   -2.1865072651041983e-07   3.1985378578392593e-06
-5.921917762742742e-07   -1.2937352617466993e-06   2.4151581118006396e-06
-5.921917762742742e-07   -1.2937352617466993e-06   2.4151581118006396e-06
-5.921917762742742e-07   -1.2937352617466993e-06   2.4151581118006396e-06
-5.921917762742742e-07   -1.2937352617466993e-06   2.4151581118006396e-06
-1.3866780848704563e-06   -7.019547292742513e-07   3.3842336399773535e-06
-1.3866780848704563e-06   -7.019547292742513e-07   3.3842336399773535e-06
-1.3866780848704563e-06   -7.019547292742513e-07   3.3842336399773535e-06
-1.3866780848704563e-06   -7.019547292742513e-07   3.3842336399773535e-06
-9.152218289548773e-07   -7.306007376534849e-07   2.6156608184789448e-06
-9.152218289548773e-07   -7.306007376534849e-07   2.6156608184789448e-06
-9.152218289548773e-07   -7.306007376534849e-07   2.6156608184789448e-06
-9.152218289548773e-07   -7.306007376534849e-07   2.6156608184789448e-06
-1.0457651590722254e-06   -9.414407214453037e-08   -1.6845759887257426e-06
-1.0457651590722254e-06   -9.414407214453037e-08   -1.6845759887257426e-06
-1.0457651590722254e-06   -9.414407214453037e-08   -1.6845759887257426e-06
-1.0457651590722254e-06   -9.414407214453037e-08   -1.6845759887257426e-06
-2.1028893558281596e-07   1.4340106794302204e-07   -1.4958853219087858e-07
-2.1028893558281596e-07   1.4340106794302204e-07   -1.4958853219087858e-07
-2.1028893558281596e-07   1.4340106794302204e-07   -1.4958853219087858e-07
-2.1028893558281596e-07   1.4340106794302204e-07   -1.4958853219087858e-07
-2.139831299413815e-08   -1.332320123280037e-07   -1.3100347037304757e-06
-2.139831299413815e-08   -1.332320123280037e-07   -1.3100347037304757e-06
-2.139831299413815e-08   -1.332320123280037e-07   -1.3100347037304757e-06
-2.139831299413815e-08   -1.332320123280037e-07   -1.3100347037304757e-06
-8.528161150544674e-07   2.455836001873904e-07   -1.5162773447257617e-07
-8.528161150544674e-07   2.455836001873904e-07   -1.5162773447257617e-07
-8.528161150544674e-07   2.455836001873904e-07   -1.5162773447257617e-07
-8.528161150544674e-07   2.455836001873904e-07   -1.5162773447257617e-07
-4.867016127624714e-07   6.82071306188633e-08   -6.553926898849357e-07
-4.867016127624714e-07   6.82071306188633e-08   -6.553926898849357e-07
-4.867016127624714e-07   6.82071306188633e-08   -6.553926898849357e-07
-4.867016127624714e-07   6.82071306188633e-08   -6.553926898849357e-07
-8.528161150544674e-07   -1.332320123280037e-07   -1.5373240712397555e-06
-8.528161150544674e-07   -1.332320123280037e-07   -1.5373240712397555e-06
-8.528161150544674e-07   -1.332320123280037e-07   -1.5373240712397555e-06
-8.528161150544674e-07   -1.332320123280037e-07   -1.5373240712397555e-06
-2.139831299419236e-08   2.455836001873904e-07   7.566163303664945e-08
-2.139831299419236e-08   2.455836001873904e-07   7.566163303664945e-08
-2.139831299419236e-08   2.455836001873904e-07   7.566163303664945e-08
-2.139831299419236e-08   2.455836001873904e-07   7.566163303664945e-08
7.455221285283678e-08   -1.8549182476820737e-07   -1.1583323858610408e-06
7.455221285283678e-08   -1.8549182476820737e-07   -1.1583323858610408e-06
7.455221285283678e-08   -1.8549182476820737e-07   -1.1583323858610408e-06
7.455221285283678e-08   -1.8549182476820737e-07   -1.1583323858610408e-06
-7.497976093502059e-07   2.0326588635092866e-07   -1.7670642194254167e-08
-7.497976093502059e-07   2.0326588635092866e-07   -1.7670642194254167e-08
-7.497976093502059e-07   2.0326588635092866e-07   -1.7670642194254167e-08
-7.497976093502059e-07   2.0326588635092866e-07   -1.7670642194254167e-08
-3.486355399349192e-07   4.3974454918069153e-08   -5.906992323596687e-07
-3.486355399349192e-07   4.3974454918069153e-08   -5.906992323596687e-07
-3.486355399349192e-07   4.3974454918069153e-08   -5.906992323596687e-07
-3.486355399349192e-07   4.3974454918069153e-08   -5.906992323596687e-07
-7.497976093502059e-07   -1.8549182476820737e-07   -1.391587012532496e-06
-7.497976093502059e-07   -1.8549182476820737e-07   -1.391587012532496e-06
-7.497976093502059e-07   -1.8549182476820737e-07   -1.391587012532496e-06
-7.497976093502059e-07   -1.8549182476820737e-07   -1.391587012532496e-06
7.455221285283678e-08   2.0326588635092866e-07   2.1558398447728234e-07
7.455221285283678e-08   2.0326588635092866e-07   2.1558398447728234e-07
7.455221285283678e-08   2.0326588635092866e-07   2.1558398447728234e-07
7.455221285283678e-08   2.0326588635092866e-07   2.1558398447728234e-07
1.919765788577373e-07   -2.511305887073229e-07   -9.318455692205671e-07
1.919765788577373e-07   -2.511305887073229e-07   -9.318455692205671e-07
1.919765788577373e-07   -2.511305887073229e-07   -9.318455692205671e-07
1.919765788577373e-07   -2.511305887073229e-07   -9.318455692205671e-07
-5.921917762743013e-07   1.609043903203763e-07   1.2788070191603845e-07
-5.921917762743013e-07   1.609043903203763e-07   1.2788070191603845e-07
-5.921917762743013e-07   1.609043903203763e-07   1.2788070191603845e-07
-5.921917762743013e-07   1.609043903203763e-07   1.2788070191603845e-07
-2.243675908087609e-07   1.3298539251142133e-08   -3.965960965517589e-07
-2.243675908087609e-07   1.3298539251142133e-08   -3.965960965517589e-07
-2.243675908087609e-07   1.3298539251142133e-08   -3.965960965517589e-07
-2.243675908087609e-07   1.3298539251142133e-08   -3.965960965517589e-07
              </DataArray>   
             <DataArray type="Float64" NumberOfComponents="3" Name="Stress" format="ascii">   
-1.5899297929681817   -0.3974824482420454   -0.3974824482420454
-1.5899297929681817   -0.3974824482420454   -0.3974824482420454
-1.5899297929681817   -0.3974824482420454   -0.3974824482420454
-1.5899297929681817   -0.3974824482420454   -0.3974824482420454
-0.9198453352214725   -0.029633153454251035   -0.018634735687193482
-0.9198453352214725   -0.029633153454251035   -0.018634735687193482
-0.9198453352214725   -0.029633153454251035   -0.018634735687193482
-0.9198453352214725   -0.029633153454251035   -0.018634735687193482
-0.9910641818186408   -0.2477660454546602   -0.2477660454546602
-0.9910641818186408   -0.2477660454546602   -0.2477660454546602
-0.9910641818186408   -0.2477660454546602   -0.2477660454546602
-0.9910641818186408   -0.2477660454546602   -0.2477660454546602
-1.5321743000674672   -0.12621071421426827   -0.04838808834176367
-1.5321743000674672   -0.12621071421426827   -0.04838808834176367
-1.5321743000674672   -0.12621071421426827   -0.04838808834176367
-1.5321743000674672   -0.12621071421426827   -0.04838808834176367
-1.2015597223450192   -0.1972175297663058   -0.003344638688449031
-1.2015597223450192   -0.1972175297663058   -0.003344638688449031
-1.2015597223450192   -0.1972175297663058   -0.003344638688449031
-1.2015597223450192   -0.1972175297663058   -0.003344638688449031
-1.663616155062515   -0.41590403876562876   -0.41590403876562876
-1.663616155062515   -0.41590403876562876   -0.41590403876562876
-1.663616155062515   -0.41590403876562876   -0.41590403876562876
-1.663616155062515   -0.41590403876562876   -0.41590403876562876
-0.8908337028217415   0.010715903098554184   -0.005095599023378056
-0.8908337028217415   0.010715903098554184   -0.005095599023378056
-0.8908337028217415   0.010715903098554184   -0.005095599023378056
-0.8908337028217415   0.010715903098554184   -0.005095599023378056
-0.9935787982482183   -0.24839469956205457   -0.24839469956205457
-0.9935787982482183   -0.24839469956205457   -0.24839469956205457
-0.9935787982482183   -0.24839469956205457   -0.24839469956205457
-0.9935787982482183   -0.24839469956205457   -0.24839469956205457
-1.5833528825957852   -0.12733325114076027   -0.07086620315292552
-1.5833528825957852   -0.12733325114076027   -0.07086620315292552
-1.5833528825957852   -0.12733325114076027   -0.07086620315292552
-1.5833528825957852   -0.12733325114076027   -0.07086620315292552
-1.2460743568110355   -0.18558216890082113   -0.06610097020521744
-1.2460743568110355   -0.18558216890082113   -0.06610097020521744
-1.2460743568110355   -0.18558216890082113   -0.06610097020521744
-1.2460743568110355   -0.18558216890082113   -0.06610097020521744
-1.7152366574856117   -0.42880916437140293   -0.42880916437140293
-1.7152366574856117   -0.42880916437140293   -0.42880916437140293
-1.7152366574856117   -0.42880916437140293   -0.42880916437140293
-1.7152366574856117   -0.42880916437140293   -0.42880916437140293
-0.8879830414990035   0.02679319552797703   0.004396189093979291
-0.8879830414990035   0.02679319552797703   0.004396189093979291
-0.8879830414990035   0.02679319552797703   0.004396189093979291
-0.8879830414990035   0.02679319552797703   0.004396189093979291
-0.9927405073342319   -0.24818512683355798   -0.24818512683355798
-0.9927405073342319   -0.24818512683355798   -0.24818512683355798
-0.9927405073342319   -0.24818512683355798   -0.24818512683355798
-0.9927405073342319   -0.24818512683355798   -0.24818512683355798
-1.6748773654025215   -0.11148271216884163   -0.0426656116176769
-1.6748773654025215   -0.11148271216884163   -0.0426656116176769
-1.6748773654025215   -0.11148271216884163   -0.0426656116176769
-1.6748773654025215   -0.11148271216884163   -0.0426656116176769
-1.278993146989421   -0.18260865582386412   -0.11940845827860261
-1.278993146989421   -0.18260865582386412   -0.11940845827860261
-1.278993146989421   -0.18260865582386412   -0.11940845827860261
-1.278993146989421   -0.18260865582386412   -0.11940845827860261
-1.0113241748813169   -0.2528310437203292   -0.2528310437203292
-1.0113241748813169   -0.2528310437203292   -0.2528310437203292
-1.0113241748813169   -0.2528310437203292   -0.2528310437203292
-1.0113241748813169   -0.2528310437203292   -0.2528310437203292
-0.4223242823064369   -0.02842343776279177   -0.009207761262599923
-0.4223242823064369   -0.02842343776279177   -0.009207761262599923
-0.4223242823064369   -0.02842343776279177   -0.009207761262599923
-0.4223242823064369   -0.02842343776279177   -0.009207761262599923
-0.44300107159599106   -0.11075026789899776   -0.11075026789899776
-0.44300107159599106   -0.11075026789899776   -0.11075026789899776
-0.44300107159599106   -0.11075026789899776   -0.11075026789899776
-0.44300107159599106   -0.11075026789899776   -0.11075026789899776
-0.9205588778014961   -0.10846229775937433   -0.034543273064222696
-0.9205588778014961   -0.10846229775937433   -0.034543273064222696
-0.9205588778014961   -0.10846229775937433   -0.034543273064222696
-0.9205588778014961   -0.10846229775937433   -0.034543273064222696
-0.6791477045685739   -0.12876658856997458   0.005259870301044189
-0.6791477045685739   -0.12876658856997458   0.005259870301044189
-0.6791477045685739   -0.12876658856997458   0.005259870301044189
-0.6791477045685739   -0.12876658856997458   0.005259870301044189
-0.9910641818186399   -0.24776604545465997   -0.24776604545465997
-0.9910641818186399   -0.24776604545465997   -0.24776604545465997
-0.9910641818186399   -0.24776604545465997   -0.24776604545465997
-0.9910641818186399   -0.24776604545465997   -0.24776604545465997
-0.39819519747554544   0.00285404989958888   -0.00032521509535639315
-0.39819519747554544   0.00285404989958888   -0.00032521509535639315
-0.39819519747554544   0.00285404989958888   -0.00032521509535639315
-0.39819519747554544   0.00285404989958888   -0.00032521509535639315
-0.43284134009970243   -0.10821033502492561   -0.10821033502492561
-0.43284134009970243   -0.10821033502492561   -0.10821033502492561
-0.43284134009970243   -0.10821033502492561   -0.10821033502492561
-0.43284134009970243   -0.10821033502492561   -0.10821033502492561
-0.9179720465954259   -0.08840766038526751   -0.030347980474879244
-0.9179720465954259   -0.08840766038526751   -0.030347980474879244
-0.9179720465954259   -0.08840766038526751   -0.030347980474879244
-0.9179720465954259   -0.08840766038526751   -0.030347980474879244
-0.6694211102931337   -0.10834805017122484   -0.034970076978175973
-0.6694211102931337   -0.10834805017122484   -0.034970076978175973
-0.6694211102931337   -0.10834805017122484   -0.034970076978175973
-0.6694211102931337   -0.10834805017122484   -0.034970076978175973
-0.9935787982482183   -0.24839469956205457   -0.24839469956205457
-0.9935787982482183   -0.24839469956205457   -0.24839469956205457
-0.9935787982482183   -0.24839469956205457   -0.24839469956205457
-0.9935787982482183   -0.24839469956205457   -0.24839469956205457
-0.382126434257208   0.02688485834156401   0.010269000821060581
-0.382126434257208   0.02688485834156401   0.010269000821060581
-0.382126434257208   0.02688485834156401   0.010269000821060581
-0.382126434257208   0.02688485834156401   0.010269000821060581
-0.42354379489386146   -0.10588594872346536   -0.10588594872346536
-0.42354379489386146   -0.10588594872346536   -0.10588594872346536
-0.42354379489386146   -0.10588594872346536   -0.10588594872346536
-0.42354379489386146   -0.10588594872346536   -0.10588594872346536
-0.9109300672417628   -0.06813849837051177   -0.019179554834270307
-0.9109300672417628   -0.06813849837051177   -0.019179554834270307
-0.9109300672417628   -0.06813849837051177   -0.019179554834270307
-0.9109300672417628   -0.06813849837051177   -0.019179554834270307
-0.6724400388199957   -0.09580398701871853   -0.0778703725115818
-0.6724400388199957   -0.09580398701871853   -0.0778703725115818
-0.6724400388199957   -0.09580398701871853   -0.0778703725115818
-0.6724400388199957   -0.09580398701871853   -0.0778703725115818
-0.46088671389039915   -0.11522167847259979   -0.11522167847259979
-0.46088671389039915   -0.11522167847259979   -0.11522167847259979
-0.46088671389039915   -0.11522167847259979   -0.11522167847259979
-0.46088671389039915   -0.11522167847259979   -0.11522167847259979
0.0538049047512169   0.003369565210441774   0.0004534029002306629
0.0538049047512169   0.003369565210441774   0.0004534029002306629
0.0538049047512169   0.003369565210441774   0.0004534029002306629
0.0538049047512169   0.003369565210441774   0.0004534029002306629
0.07048001752392596   0.01762000438098149   0.01762000438098149
0.07048001752392596   0.01762000438098149   0.01762000438098149
0.07048001752392596   0.01762000438098149   0.01762000438098149
0.07048001752392596   0.01762000438098149   0.01762000438098149
-0.4164434814338922   -0.07197139287664056   -0.016741192110860545
-0.4164434814338922   -0.07197139287664056   -0.016741192110860545
-0.4164434814338922   -0.07197139287664056   -0.016741192110860545
-0.4164434814338922   -0.07197139287664056   -0.016741192110860545
-0.17872404609351167   -0.04531964851926912   0.03011448487627333
-0.17872404609351167   -0.04531964851926912   0.03011448487627333
-0.17872404609351167   -0.04531964851926912   0.03011448487627333
-0.17872404609351167   -0.04531964851926912   0.03011448487627333
-0.4430010715959919   -0.11075026789899797   -0.11075026789899797
-0.4430010715959919   -0.11075026789899797   -0.11075026789899797
-0.4430010715959919   -0.11075026789899797   -0.11075026789899797
-0.4430010715959919   -0.11075026789899797   -0.11075026789899797
0.07177799702354559   0.031139268740859358   0.010590637519201232
0.07177799702354559   0.031139268740859358   0.010590637519201232
0.07177799702354559   0.031139268740859358   0.010590637519201232
0.07177799702354559   0.031139268740859358   0.010590637519201232
0.0796301761549389   0.019907544038734726   0.019907544038734726
0.0796301761549389   0.019907544038734726   0.019907544038734726
0.0796301761549389   0.019907544038734726   0.019907544038734726
0.0796301761549389   0.019907544038734726   0.019907544038734726
-0.40147417717256273   -0.04836086199956526   -0.011223993414590669
-0.40147417717256273   -0.04836086199956526   -0.011223993414590669
-0.40147417717256273   -0.04836086199956526   -0.011223993414590669
-0.40147417717256273   -0.04836086199956526   -0.011223993414590669
-0.1711864389034561   -0.027971930500490606   -0.010375749274422738
-0.1711864389034561   -0.027971930500490606   -0.010375749274422738
-0.1711864389034561   -0.027971930500490606   -0.010375749274422738
-0.1711864389034561   -0.027971930500490606   -0.010375749274422738
-0.4328413400997032   -0.1082103350249258   -0.1082103350249258
-0.4328413400997032   -0.1082103350249258   -0.1082103350249258
-0.4328413400997032   -0.1082103350249258   -0.1082103350249258
-0.4328413400997032   -0.1082103350249258   -0.1082103350249258
0.08624677899193364   0.05500645697395055   0.01789164528849202
0.08624677899193364   0.05500645697395055   0.01789164528849202
0.08624677899193364   0.05500645697395055   0.01789164528849202
0.08624677899193364   0.05500645697395055   0.01789164528849202
0.0918486911172548   0.0229621727793137   0.0229621727793137
0.0918486911172548   0.0229621727793137   0.0229621727793137
0.0918486911172548   0.0229621727793137   0.0229621727793137
0.0918486911172548   0.0229621727793137   0.0229621727793137
-0.38518757831884504   -0.020225512426892106   0.00023469785504193208
-0.38518757831884504   -0.020225512426892106   0.00023469785504193208
-0.38518757831884504   -0.020225512426892106   0.00023469785504193208
-0.38518757831884504   -0.020225512426892106   0.00023469785504193208
-0.1657970547661568   -0.011247765925960131   -0.05050404769431675
-0.1657970547661568   -0.011247765925960131   -0.05050404769431675
-0.1657970547661568   -0.011247765925960131   -0.05050404769431675
-0.1657970547661568   -0.011247765925960131   -0.05050404769431675
0.0589336790323139   0.014733419758078474   0.014733419758078474
0.0589336790323139   0.014733419758078474   0.014733419758078474
0.0589336790323139   0.014733419758078474   0.014733419758078474
0.0589336790323139   0.014733419758078474   0.014733419758078474
0.5752284603006759   0.05281389890652692   0.017896221614769878
0.5752284603006759   0.05281389890652692   0.017896221614769878
0.5752284603006759   0.05281389890652692   0.017896221614769878
0.5752284603006759   0.05281389890652692   0.017896221614769878
0.6248805939122197   0.15622014847805493   0.15622014847805493
0.6248805939122197   0.15622014847805493   0.15622014847805493
0.6248805939122197   0.15622014847805493   0.15622014847805493
0.6248805939122197   0.15622014847805493   0.15622014847805493
0.05366802262679554   -0.04047673263078978   -0.008343233092899919
0.05366802262679554   -0.04047673263078978   -0.008343233092899919
0.05366802262679554   -0.04047673263078978   -0.008343233092899919
0.05366802262679554   -0.04047673263078978   -0.008343233092899919
0.3277777404286816   0.04082444358724641   0.059482144430960636
0.3277777404286816   0.04082444358724641   0.059482144430960636
0.3277777404286816   0.04082444358724641   0.059482144430960636
0.3277777404286816   0.04082444358724641   0.059482144430960636
0.07048001752392623   0.017620004380981557   0.017620004380981557
0.07048001752392623   0.017620004380981557   0.017620004380981557
0.07048001752392623   0.017620004380981557   0.017620004380981557
0.07048001752392623   0.017620004380981557   0.017620004380981557
0.5823857954829164   0.07244060793411147   0.027525696875485603
0.5823857954829164   0.07244060793411147   0.027525696875485603
0.5823857954829164   0.07244060793411147   0.027525696875485603
0.5823857954829164   0.07244060793411147   0.027525696875485603
0.6224996171477202   0.15562490428693004   0.15562490428693004
0.6224996171477202   0.15562490428693004   0.15562490428693004
0.6224996171477202   0.15562490428693004   0.15562490428693004
0.6224996171477202   0.15562490428693004   0.15562490428693004
0.06822692177587333   -0.01737812711612815   0.00017694329826918424
0.06822692177587333   -0.01737812711612815   0.00017694329826918424
0.06822692177587333   -0.01737812711612815   0.00017694329826918424
0.06822692177587333   -0.01737812711612815   0.00017694329826918424
0.32565952495341133   0.053690733746087044   0.015402713009765173
0.32565952495341133   0.053690733746087044   0.015402713009765173
0.32565952495341133   0.053690733746087044   0.015402713009765173
0.32565952495341133   0.053690733746087044   0.015402713009765173
0.07963017615493903   0.019907544038734758   0.019907544038734758
0.07963017615493903   0.019907544038734758   0.019907544038734758
0.07963017615493903   0.019907544038734758   0.019907544038734758
0.07963017615493903   0.019907544038734758   0.019907544038734758
0.5856620548461688   0.09290492520958238   0.034157071856526264
0.5856620548461688   0.09290492520958238   0.034157071856526264
0.5856620548461688   0.09290492520958238   0.034157071856526264
0.5856620548461688   0.09290492520958238   0.034157071856526264
0.6348393020371574   0.15870982550928936   0.15870982550928936
0.6348393020371574   0.15870982550928936   0.15870982550928936
0.6348393020371574   0.15870982550928936   0.15870982550928936
0.6348393020371574   0.15870982550928936   0.15870982550928936
0.08723831501044177   0.013153169939298333   0.009719295085263204
0.08723831501044177   0.013153169939298333   0.009719295085263204
0.08723831501044177   0.013153169939298333   0.009719295085263204
0.08723831501044177   0.013153169939298333   0.009719295085263204
0.33099996117290204   0.07291048390693303   -0.025467003974639635
0.33099996117290204   0.07291048390693303   -0.025467003974639635
0.33099996117290204   0.07291048390693303   -0.025467003974639635
0.33099996117290204   0.07291048390693303   -0.025467003974639635
0.6234293735515761   0.15585734338789403   0.15585734338789403
0.6234293735515761   0.15585734338789403   0.15585734338789403
0.6234293735515761   0.15585734338789403   0.15585734338789403
0.6234293735515761   0.15585734338789403   0.15585734338789403
1.2949732345062135   0.09880533071613391   0.03424413664042392
1.2949732345062135   0.09880533071613391   0.03424413664042392
1.2949732345062135   0.09880533071613391   0.03424413664042392
1.2949732345062135   0.09880533071613391   0.03424413664042392
1.3239982699966946   0.33099956749917364   0.33099956749917364
1.3239982699966946   0.33099956749917364   0.33099956749917364
1.3239982699966946   0.33099956749917364   0.33099956749917364
1.3239982699966946   0.33099956749917364   0.33099956749917364
0.5555271924281345   -0.031433248936056535   -0.0028934615282551895
0.5555271924281345   -0.031433248936056535   -0.0028934615282551895
0.5555271924281345   -0.031433248936056535   -0.0028934615282551895
0.5555271924281345   -0.031433248936056535   -0.0028934615282551895
0.9233217729029732   0.13078472973535732   0.10411193679589985
0.9233217729029732   0.13078472973535732   0.10411193679589985
0.9233217729029732   0.13078472973535732   0.10411193679589985
0.9233217729029732   0.13078472973535732   0.10411193679589985
0.6248805939122193   0.15622014847805482   0.15622014847805482
0.6248805939122193   0.15622014847805482   0.15622014847805482
0.6248805939122193   0.15622014847805482   0.15622014847805482
0.6248805939122193   0.15622014847805482   0.15622014847805482
1.227105953988884   0.11580725556133584   0.06173029939795896
1.227105953988884   0.11580725556133584   0.06173029939795896
1.227105953988884   0.11580725556133584   0.06173029939795896
1.227105953988884   0.11580725556133584   0.06173029939795896
1.2847990257542228   0.3211997564385557   0.3211997564385557
1.2847990257542228   0.3211997564385557   0.3211997564385557
1.2847990257542228   0.3211997564385557   0.3211997564385557
1.2847990257542228   0.3211997564385557   0.3211997564385557
0.5577492626224779   -0.017176860640768243   0.004674896588422003
0.5577492626224779   -0.017176860640768243   0.004674896588422003
0.5577492626224779   -0.017176860640768243   0.004674896588422003
0.5577492626224779   -0.017176860640768243   0.004674896588422003
0.8962672751960786   0.13465265547179814   0.04990457625910208
0.8962672751960786   0.13465265547179814   0.04990457625910208
0.8962672751960786   0.13465265547179814   0.04990457625910208
0.8962672751960786   0.13465265547179814   0.04990457625910208
0.6224996171477202   0.15562490428693004   0.15562490428693004
0.6224996171477202   0.15562490428693004   0.15562490428693004
0.6224996171477202   0.15562490428693004   0.15562490428693004
0.6224996171477202   0.15562490428693004   0.15562490428693004
1.1879247123237333   0.11627403260561114   0.04175391311906354
1.1879247123237333   0.11627403260561114   0.04175391311906354
1.1879247123237333   0.11627403260561114   0.04175391311906354
1.1879247123237333   0.11627403260561114   0.04175391311906354
1.2262359816875648   0.3065589954218912   0.3065589954218912
1.2262359816875648   0.3065589954218912   0.3065589954218912
1.2262359816875648   0.3065589954218912   0.3065589954218912
1.2262359816875648   0.3065589954218912   0.3065589954218912
0.5786890071272877   0.018738915998669555   0.017929260470567518
0.5786890071272877   0.018738915998669555   0.017929260470567518
0.5786890071272877   0.018738915998669555   0.017929260470567518
0.5786890071272877   0.018738915998669555   0.017929260470567518
0.8585173654921942   0.14610899407255362   -0.013177263990966248
0.8585173654921942   0.14610899407255362   -0.013177263990966248
0.8585173654921942   0.14610899407255362   -0.013177263990966248
0.8585173654921942   0.14610899407255362   -0.013177263990966248
-1.25405624875033   -0.08984672507258414   0.014508319750000276
-1.25405624875033   -0.08984672507258414   0.014508319750000276
-1.25405624875033   -0.08984672507258414   0.014508319750000276
-1.25405624875033   -0.08984672507258414   0.014508319750000276
-0.798610689161791   -0.018793802688582058   -0.005301727087681785
-0.798610689161791   -0.018793802688582058   -0.005301727087681785
-0.798610689161791   -0.018793802688582058   -0.005301727087681785
-0.798610689161791   -0.018793802688582058   -0.005301727087681785
-0.8037106585549407   0.032566039399981414   0.01703203821695934
-0.8037106585549407   0.032566039399981414   0.01703203821695934
-0.8037106585549407   0.032566039399981414   0.01703203821695934
-0.8037106585549407   0.032566039399981414   0.01703203821695934
-1.272570172267902   -0.08700300726296156   -0.01524143340023082
-1.272570172267902   -0.08700300726296156   -0.01524143340023082
-1.272570172267902   -0.08700300726296156   -0.01524143340023082
-1.272570172267902   -0.08700300726296156   -0.01524143340023082
-0.9916565533786241   -0.03398324905532664   -0.004131712530699938
-0.9916565533786241   -0.03398324905532664   -0.004131712530699938
-0.9916565533786241   -0.03398324905532664   -0.004131712530699938
-0.9916565533786241   -0.03398324905532664   -0.004131712530699938
-1.263142319299748   -0.061456446297380424   0.006351270474957316
-1.263142319299748   -0.061456446297380424   0.006351270474957316
-1.263142319299748   -0.061456446297380424   0.006351270474957316
-1.263142319299748   -0.061456446297380424   0.006351270474957316
-0.8144549955396034   0.005702994417893806   -0.00982660172425237
-0.8144549955396034   0.005702994417893806   -0.00982660172425237
-0.8144549955396034   0.005702994417893806   -0.00982660172425237
-0.8144549955396034   0.005702994417893806   -0.00982660172425237
-0.8044842707910308   0.046479097086860655   0.019326926180424697
-0.8044842707910308   0.046479097086860655   0.019326926180424697
-0.8044842707910308   0.046479097086860655   0.019326926180424697
-0.8044842707910308   0.046479097086860655   0.019326926180424697
-1.2800255967193102   -0.07656601124739207   -0.02010178197606799
-1.2800255967193102   -0.07656601124739207   -0.02010178197606799
-1.2800255967193102   -0.07656601124739207   -0.02010178197606799
-1.2800255967193102   -0.07656601124739207   -0.02010178197606799
-1.0192734317681655   -0.022675328124671365   -0.009763175252187617
-1.0192734317681655   -0.022675328124671365   -0.009763175252187617
-1.0192734317681655   -0.022675328124671365   -0.009763175252187617
-1.0192734317681655   -0.022675328124671365   -0.009763175252187617
-1.256847550664691   -0.036678713928359294   0.05590115097798504
-1.256847550664691   -0.036678713928359294   0.05590115097798504
-1.256847550664691   -0.036678713928359294   0.05590115097798504
-1.256847550664691   -0.036678713928359294   0.05590115097798504
-0.8180545518061879   0.016199564807288923   -0.018244946615781493
-0.8180545518061879   0.016199564807288923   -0.018244946615781493
-0.8180545518061879   0.016199564807288923   -0.018244946615781493
-0.8180545518061879   0.016199564807288923   -0.018244946615781493
-0.7896438706332065   0.08108144368840144   0.03492167289922349
-0.7896438706332065   0.08108144368840144   0.03492167289922349
-0.7896438706332065   0.08108144368840144   0.03492167289922349
-0.7896438706332065   0.08108144368840144   0.03492167289922349
-1.2442633138732935   -0.06161856273005008   -0.03279327845470431
-1.2442633138732935   -0.06161856273005008   -0.03279327845470431
-1.2442633138732935   -0.06161856273005008   -0.03279327845470431
-1.2442633138732935   -0.06161856273005008   -0.03279327845470431
-0.9800047067814897   0.009312714073270174   0.021782155255767044
-0.9800047067814897   0.009312714073270174   0.021782155255767044
-0.9800047067814897   0.009312714073270174   0.021782155255767044
-0.9800047067814897   0.009312714073270174   0.021782155255767044
-0.8183395555075518   -0.1086107603762571   -0.014129101128810578
-0.8183395555075518   -0.1086107603762571   -0.014129101128810578
-0.8183395555075518   -0.1086107603762571   -0.014129101128810578
-0.8183395555075518   -0.1086107603762571   -0.014129101128810578
-0.37749003228040096   -0.008633852266974221   0.0039489220863261065
-0.37749003228040096   -0.008633852266974221   0.0039489220863261065
-0.37749003228040096   -0.008633852266974221   0.0039489220863261065
-0.37749003228040096   -0.008633852266974221   0.0039489220863261065
-0.3828138831027952   0.007157455228487097   0.005810497176384391
-0.3828138831027952   0.007157455228487097   0.005810497176384391
-0.3828138831027952   0.007157455228487097   0.005810497176384391
-0.3828138831027952   0.007157455228487097   0.005810497176384391
-0.8344439751175142   -0.07946573454568083   -0.024602770650245798
-0.8344439751175142   -0.07946573454568083   -0.024602770650245798
-0.8344439751175142   -0.07946573454568083   -0.024602770650245798
-0.8344439751175142   -0.07946573454568083   -0.024602770650245798
-0.6032731813799652   -0.04909779710295533   -0.013928178592494178
-0.6032731813799652   -0.04909779710295533   -0.013928178592494178
-0.6032731813799652   -0.04909779710295533   -0.013928178592494178
-0.6032731813799652   -0.04909779710295533   -0.013928178592494178
-0.8336208341606346   -0.08679716208388702   -0.013155638327645602
-0.8336208341606346   -0.08679716208388702   -0.013155638327645602
-0.8336208341606346   -0.08679716208388702   -0.013155638327645602
-0.8336208341606346   -0.08679716208388702   -0.013155638327645602
-0.3821539689121726   0.015971937914194625   0.0002955854437860367
-0.3821539689121726   0.015971937914194625   0.0002955854437860367
-0.3821539689121726   0.015971937914194625   0.0002955854437860367
-0.3821539689121726   0.015971937914194625   0.0002955854437860367
-0.3812071597317997   0.026578364142842058   0.007817255302043497
-0.3812071597317997   0.026578364142842058   0.007817255302043497
-0.3812071597317997   0.026578364142842058   0.007817255302043497
-0.3812071597317997   0.026578364142842058   0.007817255302043497
-0.8345982006113528   -0.05813982017678577   -0.02662380565753872
-0.8345982006113528   -0.05813982017678577   -0.02662380565753872
-0.8345982006113528   -0.05813982017678577   -0.02662380565753872
-0.8345982006113528   -0.05813982017678577   -0.02662380565753872
-0.6019376007436408   -0.027284907103749437   -0.006628985199887222
-0.6019376007436408   -0.027284907103749437   -0.006628985199887222
-0.6019376007436408   -0.027284907103749437   -0.006628985199887222
-0.6019376007436408   -0.027284907103749437   -0.006628985199887222
-0.8313031662391595   -0.06555164917809195   -0.0027368047952657792
-0.8313031662391595   -0.06555164917809195   -0.0027368047952657792
-0.8313031662391595   -0.06555164917809195   -0.0027368047952657792
-0.8313031662391595   -0.06555164917809195   -0.0027368047952657792
-0.3817460467872213   0.03674634046092043   -0.005045156293139286
-0.3817460467872213   0.03674634046092043   -0.005045156293139286
-0.3817460467872213   0.03674634046092043   -0.005045156293139286
-0.3817460467872213   0.03674634046092043   -0.005045156293139286
-0.3746667150766236   0.04606966419494071   0.015597905827852795
-0.3746667150766236   0.04606966419494071   0.015597905827852795
-0.3746667150766236   0.04606966419494071   0.015597905827852795
-0.3746667150766236   0.04606966419494071   0.015597905827852795
-0.8254775107166094   -0.03349636039171811   -0.02966872343766716
-0.8254775107166094   -0.03349636039171811   -0.02966872343766716
-0.8254775107166094   -0.03349636039171811   -0.02966872343766716
-0.8254775107166094   -0.03349636039171811   -0.02966872343766716
-0.5992441676492448   -0.006639705915544941   0.00299980682682352
-0.5992441676492448   -0.006639705915544941   0.00299980682682352
-0.5992441676492448   -0.006639705915544941   0.00299980682682352
-0.5992441676492448   -0.006639705915544941   0.00299980682682352
-0.3979868051515791   -0.09042768021455998   -0.016741114321982095
-0.3979868051515791   -0.09042768021455998   -0.016741114321982095
-0.3979868051515791   -0.09042768021455998   -0.016741114321982095
-0.3979868051515791   -0.09042768021455998   -0.016741114321982095
0.04033012856089153   0.009157806282141872   0.01550299884978601
0.04033012856089153   0.009157806282141872   0.01550299884978601
0.04033012856089153   0.009157806282141872   0.01550299884978601
0.04033012856089153   0.009157806282141872   0.01550299884978601
0.038619185962170226   0.022643591921677756   0.00127106448466862
0.038619185962170226   0.022643591921677756   0.00127106448466862
0.038619185962170226   0.022643591921677756   0.00127106448466862
0.038619185962170226   0.022643591921677756   0.00127106448466862
-0.3995149613586799   -0.05984012133218375   -0.010697317542371798
-0.3995149613586799   -0.05984012133218375   -0.010697317542371798
-0.3995149613586799   -0.05984012133218375   -0.010697317542371798
-0.3995149613586799   -0.05984012133218375   -0.010697317542371798
-0.1813784191214961   -0.030047231325026597   -0.005789451817740855
-0.1813784191214961   -0.030047231325026597   -0.005789451817740855
-0.1813784191214961   -0.030047231325026597   -0.005789451817740855
-0.1813784191214961   -0.030047231325026597   -0.005789451817740855
-0.40228370502303623   -0.06888952550963723   -0.01549163168669987
-0.40228370502303623   -0.06888952550963723   -0.01549163168669987
-0.40228370502303623   -0.06888952550963723   -0.01549163168669987
-0.40228370502303623   -0.06888952550963723   -0.01549163168669987
0.042912304272223596   0.0332173707448276   0.012162877211785317
0.042912304272223596   0.0332173707448276   0.012162877211785317
0.042912304272223596   0.0332173707448276   0.012162877211785317
0.042912304272223596   0.0332173707448276   0.012162877211785317
0.04191198563211228   0.043999047440454575   0.007189390980833517
0.04191198563211228   0.043999047440454575   0.007189390980833517
0.04191198563211228   0.043999047440454575   0.007189390980833517
0.04191198563211228   0.043999047440454575   0.007189390980833517
-0.39804158763585296   -0.03641682849299623   -0.013359691582388006
-0.39804158763585296   -0.03641682849299623   -0.013359691582388006
-0.39804158763585296   -0.03641682849299623   -0.013359691582388006
-0.39804158763585296   -0.03641682849299623   -0.013359691582388006
-0.17837530970483365   -0.007363800983636813   0.0020917304961246136
-0.17837530970483365   -0.007363800983636813   0.0020917304961246136
-0.17837530970483365   -0.007363800983636813   0.0020917304961246136
-0.17837530970483365   -0.007363800983636813   0.0020917304961246136
-0.39912473510029167   -0.04723718865142369   -0.007955068746153884
-0.39912473510029167   -0.04723718865142369   -0.007955068746153884
-0.39912473510029167   -0.04723718865142369   -0.007955068746153884
-0.39912473510029167   -0.04723718865142369   -0.007955068746153884
0.04463710962459331   0.05646138412692376   0.008352674256769487
0.04463710962459331   0.05646138412692376   0.008352674256769487
0.04463710962459331   0.05646138412692376   0.008352674256769487
0.04463710962459331   0.05646138412692376   0.008352674256769487
0.04307090952505685   0.06773987663640145   0.011803155327606845
0.04307090952505685   0.06773987663640145   0.011803155327606845
0.04307090952505685   0.06773987663640145   0.011803155327606845
0.04307090952505685   0.06773987663640145   0.011803155327606845
-0.3926489053871042   -0.011390321186925588   -0.016853060342685258
-0.3926489053871042   -0.011390321186925588   -0.016853060342685258
-0.3926489053871042   -0.011390321186925588   -0.016853060342685258
-0.3926489053871042   -0.011390321186925588   -0.016853060342685258
-0.17373208897348555   0.016357193176840427   0.010720131224966317
-0.17373208897348555   0.016357193176840427   0.010720131224966317
-0.17373208897348555   0.016357193176840427   0.010720131224966317
-0.17373208897348555   0.016357193176840427   0.010720131224966317
0.017999817102600138   -0.06634102040662335   -0.020649731752905714
0.017999817102600138   -0.06634102040662335   -0.020649731752905714
0.017999817102600138   -0.06634102040662335   -0.020649731752905714
0.017999817102600138   -0.06634102040662335   -0.020649731752905714
0.47211089257922934   0.032476718601672755   0.02851276704780678
0.47211089257922934   0.032476718601672755   0.02851276704780678
0.47211089257922934   0.032476718601672755   0.02851276704780678
0.47211089257922934   0.032476718601672755   0.02851276704780678
0.47170043820803687   0.04387912977815204   -0.004596336629433095
0.47170043820803687   0.04387912977815204   -0.004596336629433095
0.47170043820803687   0.04387912977815204   -0.004596336629433095
0.47170043820803687   0.04387912977815204   -0.004596336629433095
0.02648037342612755   -0.03973407736689347   0.0029546710930261465
0.02648037342612755   -0.03973407736689347   0.0029546710930261465
0.02648037342612755   -0.03973407736689347   0.0029546710930261465
0.02648037342612755   -0.03973407736689347   0.0029546710930261465
0.24401692559070126   -0.0057632416796687125   0.00045726764585626856
0.24401692559070126   -0.0057632416796687125   0.00045726764585626856
0.24401692559070126   -0.0057632416796687125   0.00045726764585626856
0.24401692559070126   -0.0057632416796687125   0.00045726764585626856
0.02105847570898759   -0.04842314530640379   -0.015465749553162997
0.02105847570898759   -0.04842314530640379   -0.015465749553162997
0.02105847570898759   -0.04842314530640379   -0.015465749553162997
0.02105847570898759   -0.04842314530640379   -0.015465749553162997
0.47987314331466957   0.05531900510715576   0.024827313574726492
0.47987314331466957   0.05531900510715576   0.024827313574726492
0.47987314331466957   0.05531900510715576   0.024827313574726492
0.47987314331466957   0.05531900510715576   0.024827313574726492
0.47566149808833347   0.06501244025902017   0.004695203861550604
0.47566149808833347   0.06501244025902017   0.004695203861550604
0.47566149808833347   0.06501244025902017   0.004695203861550604
0.47566149808833347   0.06501244025902017   0.004695203861550604
0.02765876888943484   -0.018788617731967616   -0.0012890275601314767
0.02765876888943484   -0.018788617731967616   -0.0012890275601314767
0.02765876888943484   -0.018788617731967616   -0.0012890275601314767
0.02765876888943484   -0.018788617731967616   -0.0012890275601314767
0.24750406156958746   0.014430005121988058   0.010144797503051334
0.24750406156958746   0.014430005121988058   0.010144797503051334
0.24750406156958746   0.014430005121988058   0.010144797503051334
0.24750406156958746   0.014430005121988058   0.010144797503051334
0.02368869159882696   -0.02858897346684913   -0.011339058278289347
0.02368869159882696   -0.02858897346684913   -0.011339058278289347
0.02368869159882696   -0.02858897346684913   -0.011339058278289347
0.02368869159882696   -0.02858897346684913   -0.011339058278289347
0.481623997592886   0.07680521820784633   0.02271492343548709
0.481623997592886   0.07680521820784633   0.02271492343548709
0.481623997592886   0.07680521820784633   0.02271492343548709
0.481623997592886   0.07680521820784633   0.02271492343548709
0.46821432842577393   0.08939773115772733   0.009966087762076054
0.46821432842577393   0.08939773115772733   0.009966087762076054
0.46821432842577393   0.08939773115772733   0.009966087762076054
0.46821432842577393   0.08939773115772733   0.009966087762076054
0.027600681241769273   0.007115648993958718   -0.004923758446388329
0.027600681241769273   0.007115648993958718   -0.004923758446388329
0.027600681241769273   0.007115648993958718   -0.004923758446388329
0.027600681241769273   0.007115648993958718   -0.004923758446388329
0.2513889434911774   0.03750857983135152   0.01912384881434244
0.2513889434911774   0.03750857983135152   0.01912384881434244
0.2513889434911774   0.03750857983135152   0.01912384881434244
0.2513889434911774   0.03750857983135152   0.01912384881434244
0.4346948855715195   -0.08776439689725274   -0.03832615249181734
0.4346948855715195   -0.08776439689725274   -0.03832615249181734
0.4346948855715195   -0.08776439689725274   -0.03832615249181734
0.4346948855715195   -0.08776439689725274   -0.03832615249181734
0.8960190066482294   0.059194730676363744   0.02795771275289624
0.8960190066482294   0.059194730676363744   0.02795771275289624
0.8960190066482294   0.059194730676363744   0.02795771275289624
0.8960190066482294   0.059194730676363744   0.02795771275289624
0.9064027172842007   0.027785772657673305   -0.05767387841567126
0.9064027172842007   0.027785772657673305   -0.05767387841567126
0.9064027172842007   0.027785772657673305   -0.05767387841567126
0.9064027172842007   0.027785772657673305   -0.05767387841567126
0.4636553604662559   -0.017724093720889456   0.01678149816069964
0.4636553604662559   -0.017724093720889456   0.01678149816069964
0.4636553604662559   -0.017724093720889456   0.01678149816069964
0.4636553604662559   -0.017724093720889456   0.01678149816069964
0.6415882891423147   -0.011411045555521825   -0.016203352539594457
0.6415882891423147   -0.011411045555521825   -0.016203352539594457
0.6415882891423147   -0.011411045555521825   -0.016203352539594457
0.6415882891423147   -0.011411045555521825   -0.016203352539594457
0.44721553871922737   -0.05762102352604355   -0.025520680769283086
0.44721553871922737   -0.05762102352604355   -0.025520680769283086
0.44721553871922737   -0.05762102352604355   -0.025520680769283086
0.44721553871922737   -0.05762102352604355   -0.025520680769283086
0.9311135118538693   0.07595367528546963   0.01771219180488176
0.9311135118538693   0.07595367528546963   0.01771219180488176
0.9311135118538693   0.07595367528546963   0.01771219180488176
0.9311135118538693   0.07595367528546963   0.01771219180488176
0.9167406929696398   0.051026672215987605   -0.013298869474959563
0.9167406929696398   0.051026672215987605   -0.013298869474959563
0.9167406929696398   0.051026672215987605   -0.013298869474959563
0.9167406929696398   0.051026672215987605   -0.013298869474959563
0.4620166720733629   -0.007257253549430045   0.008740767595147816
0.4620166720733629   -0.007257253549430045   0.008740767595147816
0.4620166720733629   -0.007257253549430045   0.008740767595147816
0.4620166720733629   -0.007257253549430045   0.008740767595147816
0.6755583196032292   0.016895463414848017   0.011139706427419183
0.6755583196032292   0.016895463414848017   0.011139706427419183
0.6755583196032292   0.016895463414848017   0.011139706427419183
0.6755583196032292   0.016895463414848017   0.011139706427419183
0.44879496122758405   -0.04402309022838813   -0.020601949954784607
0.44879496122758405   -0.04402309022838813   -0.020601949954784607
0.44879496122758405   -0.04402309022838813   -0.020601949954784607
0.44879496122758405   -0.04402309022838813   -0.020601949954784607
0.928889758509412   0.08671986358894143   0.011753266850956012
0.928889758509412   0.08671986358894143   0.011753266850956012
0.928889758509412   0.08671986358894143   0.011753266850956012
0.928889758509412   0.08671986358894143   0.011753266850956012
0.9156069022099003   0.07848307482928465   -0.020267840458968678
0.9156069022099003   0.07848307482928465   -0.020267840458968678
0.9156069022099003   0.07848307482928465   -0.020267840458968678
0.9156069022099003   0.07848307482928465   -0.020267840458968678
0.45268462696331435   0.01679108828291958   0.00492422332458739
0.45268462696331435   0.01679108828291958   0.00492422332458739
0.45268462696331435   0.01679108828291958   0.00492422332458739
0.45268462696331435   0.01679108828291958   0.00492422332458739
0.6585614496201162   0.029748623795526306   0.0083802029561246
0.6585614496201162   0.029748623795526306   0.0083802029561246
0.6585614496201162   0.029748623795526306   0.0083802029561246
0.6585614496201162   0.029748623795526306   0.0083802029561246
-0.9835572643855777   -0.04451085665628922   0.05105957829756905
-0.9835572643855777   -0.04451085665628922   0.05105957829756905
-0.9835572643855777   -0.04451085665628922   0.05105957829756905
-0.9835572643855777   -0.04451085665628922   0.05105957829756905
-0.6538579763611304   -0.02511733105395722   -0.013285655937221585
-0.6538579763611304   -0.02511733105395722   -0.013285655937221585
-0.6538579763611304   -0.02511733105395722   -0.013285655937221585
-0.6538579763611304   -0.02511733105395722   -0.013285655937221585
-0.6300435714656255   0.05310905309936819   0.04279226760914159
-0.6300435714656255   0.05310905309936819   0.04279226760914159
-0.6300435714656255   0.05310905309936819   0.04279226760914159
-0.6300435714656255   0.05310905309936819   0.04279226760914159
-0.9880021742191157   -0.07063419946686345   -0.020791178840408847
-0.9880021742191157   -0.07063419946686345   -0.020791178840408847
-0.9880021742191157   -0.07063419946686345   -0.020791178840408847
-0.9880021742191157   -0.07063419946686345   -0.020791178840408847
-0.7808627003029696   -0.012068075891219984   -0.0016326778681386434
-0.7808627003029696   -0.012068075891219984   -0.0016326778681386434
-0.7808627003029696   -0.012068075891219984   -0.0016326778681386434
-0.7808627003029696   -0.012068075891219984   -0.0016326778681386434
-0.9603034835396409   -0.010073139849369167   0.05714121493947022
-0.9603034835396409   -0.010073139849369167   0.05714121493947022
-0.9603034835396409   -0.010073139849369167   0.05714121493947022
-0.9603034835396409   -0.010073139849369167   0.05714121493947022
-0.653383985493838   -0.0030937298668639868   -0.017707019565689097
-0.653383985493838   -0.0030937298668639868   -0.017707019565689097
-0.653383985493838   -0.0030937298668639868   -0.017707019565689097
-0.653383985493838   -0.0030937298668639868   -0.017707019565689097
-0.6273755056526052   0.06591052378653683   0.039630802126875336
-0.6273755056526052   0.06591052378653683   0.039630802126875336
-0.6273755056526052   0.06591052378653683   0.039630802126875336
-0.6273755056526052   0.06591052378653683   0.039630802126875336
-0.9724846077719358   -0.05901930842444706   -0.028436097611583916
-0.9724846077719358   -0.05901930842444706   -0.028436097611583916
-0.9724846077719358   -0.05901930842444706   -0.028436097611583916
-0.9724846077719358   -0.05901930842444706   -0.028436097611583916
-0.782346465967622   0.0029696971470096756   0.008923021578848556
-0.782346465967622   0.0029696971470096756   0.008923021578848556
-0.782346465967622   0.0029696971470096756   0.008923021578848556
-0.782346465967622   0.0029696971470096756   0.008923021578848556
-0.9467032069170198   0.002007618963323854   0.03944397927522503
-0.9467032069170198   0.002007618963323854   0.03944397927522503
-0.9467032069170198   0.002007618963323854   0.03944397927522503
-0.9467032069170198   0.002007618963323854   0.03944397927522503
-0.6517217583194584   0.006318744586831088   -0.022508682007678124
-0.6517217583194584   0.006318744586831088   -0.022508682007678124
-0.6517217583194584   0.006318744586831088   -0.022508682007678124
-0.6517217583194584   0.006318744586831088   -0.022508682007678124
-0.6278935565756295   0.07450365866062295   0.03144807120099685
-0.6278935565756295   0.07450365866062295   0.03144807120099685
-0.6278935565756295   0.07450365866062295   0.03144807120099685
-0.6278935565756295   0.07450365866062295   0.03144807120099685
-0.9524007728891438   -0.04662287852323934   -0.03623521996810533
-0.9524007728891438   -0.04662287852323934   -0.03623521996810533
-0.9524007728891438   -0.04662287852323934   -0.03623521996810533
-0.9524007728891438   -0.04662287852323934   -0.03623521996810533
-0.7597103424369323   0.016462197947793147   0.018732013183657942
-0.7597103424369323   0.016462197947793147   0.018732013183657942
-0.7597103424369323   0.016462197947793147   0.018732013183657942
-0.7597103424369323   0.016462197947793147   0.018732013183657942
-0.6556822152214846   -0.062139091275871826   0.014614909982921753
-0.6556822152214846   -0.062139091275871826   0.014614909982921753
-0.6556822152214846   -0.062139091275871826   0.014614909982921753
-0.6556822152214846   -0.062139091275871826   0.014614909982921753
-0.33174115230272105   -0.01215067639577103   0.0006060596097192394
-0.33174115230272105   -0.01215067639577103   0.0006060596097192394
-0.33174115230272105   -0.01215067639577103   0.0006060596097192394
-0.33174115230272105   -0.01215067639577103   0.0006060596097192394
-0.3222122512067667   0.032549389705633466   0.02324112669557428
-0.3222122512067667   0.032549389705633466   0.02324112669557428
-0.3222122512067667   0.032549389705633466   0.02324112669557428
-0.3222122512067667   0.032549389705633466   0.02324112669557428
-0.6660717847500092   -0.06127899525766889   -0.022960750455739698
-0.6660717847500092   -0.06127899525766889   -0.022960750455739698
-0.6660717847500092   -0.06127899525766889   -0.022960750455739698
-0.6660717847500092   -0.06127899525766889   -0.022960750455739698
-0.4921942927848988   -0.02415531054573288   -0.010065189356130655
-0.4921942927848988   -0.02415531054573288   -0.010065189356130655
-0.4921942927848988   -0.02415531054573288   -0.010065189356130655
-0.4921942927848988   -0.02415531054573288   -0.010065189356130655
-0.653507758144818   -0.03553488296548601   0.014115270278028197
-0.653507758144818   -0.03553488296548601   0.014115270278028197
-0.653507758144818   -0.03553488296548601   0.014115270278028197
-0.653507758144818   -0.03553488296548601   0.014115270278028197
-0.3322374528557539   0.009344102369654207   -0.0036795942133794335
-0.3322374528557539   0.009344102369654207   -0.0036795942133794335
-0.3322374528557539   0.009344102369654207   -0.0036795942133794335
-0.3322374528557539   0.009344102369654207   -0.0036795942133794335
-0.32110361620181344   0.053902199497118386   0.02009170830244264
-0.32110361620181344   0.053902199497118386   0.02009170830244264
-0.32110361620181344   0.053902199497118386   0.02009170830244264
-0.32110361620181344   0.053902199497118386   0.02009170830244264
-0.6621808774405771   -0.04136490087065264   -0.027120632155794633
-0.6621808774405771   -0.04136490087065264   -0.027120632155794633
-0.6621808774405771   -0.04136490087065264   -0.027120632155794633
-0.6621808774405771   -0.04136490087065264   -0.027120632155794633
-0.48672480987428635   -0.002580317800986758   -8.640930389271217e-05
-0.48672480987428635   -0.002580317800986758   -8.640930389271217e-05
-0.48672480987428635   -0.002580317800986758   -8.640930389271217e-05
-0.48672480987428635   -0.002580317800986758   -8.640930389271217e-05
-0.6493623476333777   -0.01387205437314426   0.009479170382693747
-0.6493623476333777   -0.01387205437314426   0.009479170382693747
-0.6493623476333777   -0.01387205437314426   0.009479170382693747
-0.6493623476333777   -0.01387205437314426   0.009479170382693747
-0.331855433512955   0.028476065495668244   -0.008241244251812309
-0.331855433512955   0.028476065495668244   -0.008241244251812309
-0.331855433512955   0.028476065495668244   -0.008241244251812309
-0.331855433512955   0.028476065495668244   -0.008241244251812309
-0.32092257130029284   0.07635669408488654   0.015041609529039622
-0.32092257130029284   0.07635669408488654   0.015041609529039622
-0.32092257130029284   0.07635669408488654   0.015041609529039622
-0.32092257130029284   0.07635669408488654   0.015041609529039622
-0.6588900735014186   -0.019853967338242802   -0.029176887429085308
-0.6588900735014186   -0.019853967338242802   -0.029176887429085308
-0.6588900735014186   -0.019853967338242802   -0.029176887429085308
-0.6588900735014186   -0.019853967338242802   -0.029176887429085308
-0.4869359529468548   0.017234774588060768   0.007554463052308211
-0.4869359529468548   0.017234774588060768   0.007554463052308211
-0.4869359529468548   0.017234774588060768   0.007554463052308211
-0.4869359529468548   0.017234774588060768   0.007554463052308211
-0.3440455655517315   -0.07119272409713437   -0.0018739589339722418
-0.3440455655517315   -0.07119272409713437   -0.0018739589339722418
-0.3440455655517315   -0.07119272409713437   -0.0018739589339722418
-0.3440455655517315   -0.07119272409713437   -0.0018739589339722418
-0.012562337293865399   0.0033171538244801814   0.014685337180350757
-0.012562337293865399   0.0033171538244801814   0.014685337180350757
-0.012562337293865399   0.0033171538244801814   0.014685337180350757
-0.012562337293865399   0.0033171538244801814   0.014685337180350757
-0.013736388249334578   0.020861128796272277   0.007030359990566871
-0.013736388249334578   0.020861128796272277   0.007030359990566871
-0.013736388249334578   0.020861128796272277   0.007030359990566871
-0.013736388249334578   0.020861128796272277   0.007030359990566871
-0.3441901207344863   -0.045537693699927495   -0.008561137537465291
-0.3441901207344863   -0.045537693699927495   -0.008561137537465291
-0.3441901207344863   -0.045537693699927495   -0.008561137537465291
-0.3441901207344863   -0.045537693699927495   -0.008561137537465291
-0.17918636324928697   -0.022379476725308316   -0.005653404799039495
-0.17918636324928697   -0.022379476725308316   -0.005653404799039495
-0.17918636324928697   -0.022379476725308316   -0.005653404799039495
-0.17918636324928697   -0.022379476725308316   -0.005653404799039495
-0.3438186366268404   -0.04750806251431204   -0.004733348184848843
-0.3438186366268404   -0.04750806251431204   -0.004733348184848843
-0.3438186366268404   -0.04750806251431204   -0.004733348184848843
-0.3438186366268404   -0.04750806251431204   -0.004733348184848843
-0.012216838321859599   0.024722531645778093   0.010766706778435945
-0.012216838321859599   0.024722531645778093   0.010766706778435945
-0.012216838321859599   0.024722531645778093   0.010766706778435945
-0.012216838321859599   0.024722531645778093   0.010766706778435945
-0.012077918313817989   0.04411678687188611   0.0033447159199887022
-0.012077918313817989   0.04411678687188611   0.0033447159199887022
-0.012077918313817989   0.04411678687188611   0.0033447159199887022
-0.012077918313817989   0.04411678687188611   0.0033447159199887022
-0.3432338376119496   -0.024091256343808664   -0.012565942907311153
-0.3432338376119496   -0.024091256343808664   -0.012565942907311153
-0.3432338376119496   -0.024091256343808664   -0.012565942907311153
-0.3432338376119496   -0.024091256343808664   -0.012565942907311153
-0.17736101391678658   -0.0008880434789188974   0.0024138129799570127
-0.17736101391678658   -0.0008880434789188974   0.0024138129799570127
-0.17736101391678658   -0.0008880434789188974   0.0024138129799570127
-0.17736101391678658   -0.0008880434789188974   0.0024138129799570127
-0.34271982742336937   -0.02458163982972136   -0.009505508478497265
-0.34271982742336937   -0.02458163982972136   -0.009505508478497265
-0.34271982742336937   -0.02458163982972136   -0.009505508478497265
-0.34271982742336937   -0.02458163982972136   -0.009505508478497265
-0.011031166458285566   0.04616793240191275   0.006527329667624183
-0.011031166458285566   0.04616793240191275   0.006527329667624183
-0.011031166458285566   0.04616793240191275   0.006527329667624183
-0.011031166458285566   0.04616793240191275   0.006527329667624183
-0.011654777454851639   0.06806200049079283   -0.0005855798863456888
-0.011654777454851639   0.06806200049079283   -0.0005855798863456888
-0.011654777454851639   0.06806200049079283   -0.0005855798863456888
-0.011654777454851639   0.06806200049079283   -0.0005855798863456888
-0.34298304147519854   -0.002285056931005095   -0.016618990329595677
-0.34298304147519854   -0.002285056931005095   -0.016618990329595677
-0.34298304147519854   -0.002285056931005095   -0.016618990329595677
-0.34298304147519854   -0.002285056931005095   -0.016618990329595677
-0.17592332179771467   0.020624290843377094   0.009813189947632618
-0.17592332179771467   0.020624290843377094   0.009813189947632618
-0.17592332179771467   0.020624290843377094   0.009813189947632618
-0.17592332179771467   0.020624290843377094   0.009813189947632618
-0.035192762061634054   -0.07809707691905372   -0.01705255591495842
-0.035192762061634054   -0.07809707691905372   -0.01705255591495842
-0.035192762061634054   -0.07809707691905372   -0.01705255591495842
-0.035192762061634054   -0.07809707691905372   -0.01705255591495842
0.30526227451680554   0.02139738336924086   0.027930910863862686
0.30526227451680554   0.02139738336924086   0.027930910863862686
0.30526227451680554   0.02139738336924086   0.027930910863862686
0.30526227451680554   0.02139738336924086   0.027930910863862686
0.29525135683442694   0.011206550345692023   -0.011113173752349659
0.29525135683442694   0.011206550345692023   -0.011113173752349659
0.29525135683442694   0.011206550345692023   -0.011113173752349659
0.29525135683442694   0.011206550345692023   -0.011113173752349659
-0.023794768018955834   -0.02847985860975331   0.006079448548486164
-0.023794768018955834   -0.02847985860975331   0.006079448548486164
-0.023794768018955834   -0.02847985860975331   0.006079448548486164
-0.023794768018955834   -0.02847985860975331   0.006079448548486164
0.13345574056328421   -0.018202417458178077   -0.003210971439450587
0.13345574056328421   -0.018202417458178077   -0.003210971439450587
0.13345574056328421   -0.018202417458178077   -0.003210971439450587
0.13345574056328421   -0.018202417458178077   -0.003210971439450587
-0.034984135580321665   -0.05690613580033919   -0.021441112067757093
-0.034984135580321665   -0.05690613580033919   -0.021441112067757093
-0.034984135580321665   -0.05690613580033919   -0.021441112067757093
-0.034984135580321665   -0.05690613580033919   -0.021441112067757093
0.3085921306329805   0.04178423377346514   0.025013011812642053
0.3085921306329805   0.04178423377346514   0.025013011812642053
0.3085921306329805   0.04178423377346514   0.025013011812642053
0.3085921306329805   0.04178423377346514   0.025013011812642053
0.3001718063915575   0.0328504628273102   -0.015606662265865018
0.3001718063915575   0.0328504628273102   -0.015606662265865018
0.3001718063915575   0.0328504628273102   -0.015606662265865018
0.3001718063915575   0.0328504628273102   -0.015606662265865018
-0.023062471953747825   -0.009261949275564046   0.001800683867789873
-0.023062471953747825   -0.009261949275564046   0.001800683867789873
-0.023062471953747825   -0.009261949275564046   0.001800683867789873
-0.023062471953747825   -0.009261949275564046   0.001800683867789873
0.1347488138691553   0.001260374430449119   0.0048127328263858
0.1347488138691553   0.001260374430449119   0.0048127328263858
0.1347488138691553   0.001260374430449119   0.0048127328263858
0.1347488138691553   0.001260374430449119   0.0048127328263858
-0.03394735166114829   -0.036024307599177734   -0.02586135634559894
-0.03394735166114829   -0.036024307599177734   -0.02586135634559894
-0.03394735166114829   -0.036024307599177734   -0.02586135634559894
-0.03394735166114829   -0.036024307599177734   -0.02586135634559894
0.31340188983814077   0.061958024890105046   0.021436192904254393
0.31340188983814077   0.061958024890105046   0.021436192904254393
0.31340188983814077   0.061958024890105046   0.021436192904254393
0.31340188983814077   0.061958024890105046   0.021436192904254393
0.30324348312168575   0.05996303795745337   -0.016329615508831566
0.30324348312168575   0.05996303795745337   -0.016329615508831566
0.30324348312168575   0.05996303795745337   -0.016329615508831566
0.30324348312168575   0.05996303795745337   -0.016329615508831566
-0.023010040591587115   0.01316844713349047   -0.0024683422127205817
-0.023010040591587115   0.01316844713349047   -0.0024683422127205817
-0.023010040591587115   0.01316844713349047   -0.0024683422127205817
-0.023010040591587115   0.01316844713349047   -0.0024683422127205817
0.13954678274273719   0.02293269837476454   0.014328158120494261
0.13954678274273719   0.02293269837476454   0.014328158120494261
0.13954678274273719   0.02293269837476454   0.014328158120494261
0.13954678274273719   0.02293269837476454   0.014328158120494261
0.27321697063569506   -0.07761405342600966   -0.03328417174643638
0.27321697063569506   -0.07761405342600966   -0.03328417174643638
0.27321697063569506   -0.07761405342600966   -0.03328417174643638
0.27321697063569506   -0.07761405342600966   -0.03328417174643638
0.6017913397890077   0.04472756105788403   0.03119277622141854
0.6017913397890077   0.04472756105788403   0.03119277622141854
0.6017913397890077   0.04472756105788403   0.03119277622141854
0.6017913397890077   0.04472756105788403   0.03119277622141854
0.5971303333721226   -0.0032470753951830134   -0.044308383116634875
0.5971303333721226   -0.0032470753951830134   -0.044308383116634875
0.5971303333721226   -0.0032470753951830134   -0.044308383116634875
0.5971303333721226   -0.0032470753951830134   -0.044308383116634875
0.29816843518251024   -0.006294914991163953   0.020973683324922658
0.29816843518251024   -0.006294914991163953   0.020973683324922658
0.29816843518251024   -0.006294914991163953   0.020973683324922658
0.29816843518251024   -0.006294914991163953   0.020973683324922658
0.4210865866542147   -0.015243553017225353   -0.013893465528383858
0.4210865866542147   -0.015243553017225353   -0.013893465528383858
0.4210865866542147   -0.015243553017225353   -0.013893465528383858
0.4210865866542147   -0.015243553017225353   -0.013893465528383858
0.27358559569642066   -0.06728452677194513   -0.040950902324743466
0.27358559569642066   -0.06728452677194513   -0.040950902324743466
0.27358559569642066   -0.06728452677194513   -0.040950902324743466
0.27358559569642066   -0.06728452677194513   -0.040950902324743466
0.6234763610613596   0.05950572458874564   0.024668955345621274
0.6234763610613596   0.05950572458874564   0.024668955345621274
0.6234763610613596   0.05950572458874564   0.024668955345621274
0.6234763610613596   0.05950572458874564   0.024668955345621274
0.6120137495614242   0.00909823884063865   -0.059478847942573854
0.6120137495614242   0.00909823884063865   -0.059478847942573854
0.6120137495614242   0.00909823884063865   -0.059478847942573854
0.6120137495614242   0.00909823884063865   -0.059478847942573854
0.3004800536262351   0.003126072565196595   0.01565896416963926
0.3004800536262351   0.003126072565196595   0.01565896416963926
0.3004800536262351   0.003126072565196595   0.01565896416963926
0.3004800536262351   0.003126072565196595   0.01565896416963926
0.44034790185334427   -0.001878148984651426   -0.0041943829163779145
0.44034790185334427   -0.001878148984651426   -0.0041943829163779145
0.44034790185334427   -0.001878148984651426   -0.0041943829163779145
0.44034790185334427   -0.001878148984651426   -0.0041943829163779145
0.2768090344192453   -0.0549674553827546   -0.04460260391736125
0.2768090344192453   -0.0549674553827546   -0.04460260391736125
0.2768090344192453   -0.0549674553827546   -0.04460260391736125
0.2768090344192453   -0.0549674553827546   -0.04460260391736125
0.639582923773085   0.0710899217932605   0.016375340163116536
0.639582923773085   0.0710899217932605   0.016375340163116536
0.639582923773085   0.0710899217932605   0.016375340163116536
0.639582923773085   0.0710899217932605   0.016375340163116536
0.6356333401490302   0.04119540452850357   -0.056002908633208504
0.6356333401490302   0.04119540452850357   -0.056002908633208504
0.6356333401490302   0.04119540452850357   -0.056002908633208504
0.6356333401490302   0.04119540452850357   -0.056002908633208504
0.301581985199334   0.02387110486532884   0.011454827971537788
0.301581985199334   0.02387110486532884   0.011454827971537788
0.301581985199334   0.02387110486532884   0.011454827971537788
0.301581985199334   0.02387110486532884   0.011454827971537788
0.4438148158770277   0.013376144897937765   0.0065665376732873815
0.4438148158770277   0.013376144897937765   0.0065665376732873815
0.4438148158770277   0.013376144897937765   0.0065665376732873815
0.4438148158770277   0.013376144897937765   0.0065665376732873815
-0.7012439399592407   -0.022708261463695   0.046145655612199826
-0.7012439399592407   -0.022708261463695   0.046145655612199826
-0.7012439399592407   -0.022708261463695   0.046145655612199826
-0.7012439399592407   -0.022708261463695   0.046145655612199826
-0.49145752116973623   -0.03303941388565286   -0.017378632967084154
-0.49145752116973623   -0.03303941388565286   -0.017378632967084154
-0.49145752116973623   -0.03303941388565286   -0.017378632967084154
-0.49145752116973623   -0.03303941388565286   -0.017378632967084154
-0.4624436572259237   0.04649986929164472   0.03932064795894012
-0.4624436572259237   0.04649986929164472   0.03932064795894012
-0.4624436572259237   0.04649986929164472   0.03932064795894012
-0.4624436572259237   0.04649986929164472   0.03932064795894012
-0.7012890667743872   -0.05777236880739897   -0.025431436452944517
-0.7012890667743872   -0.05777236880739897   -0.025431436452944517
-0.7012890667743872   -0.05777236880739897   -0.025431436452944517
-0.7012890667743872   -0.05777236880739897   -0.025431436452944517
-0.5650192712467026   -0.008957304076277775   -0.0014145495406854003
-0.5650192712467026   -0.008957304076277775   -0.0014145495406854003
-0.5650192712467026   -0.008957304076277775   -0.0014145495406854003
-0.5650192712467026   -0.008957304076277775   -0.0014145495406854003
-0.6748900183657055   0.004920629023761079   0.04387080775930377
-0.6748900183657055   0.004920629023761079   0.04387080775930377
-0.6748900183657055   0.004920629023761079   0.04387080775930377
-0.6748900183657055   0.004920629023761079   0.04387080775930377
-0.48669098257382926   -0.014041405478739579   -0.021374704010197837
-0.48669098257382926   -0.014041405478739579   -0.021374704010197837
-0.48669098257382926   -0.014041405478739579   -0.021374704010197837
-0.48669098257382926   -0.014041405478739579   -0.021374704010197837
-0.45808086878698445   0.056190759213198826   0.0332105015916942
-0.45808086878698445   0.056190759213198826   0.0332105015916942
-0.45808086878698445   0.056190759213198826   0.0332105015916942
-0.45808086878698445   0.056190759213198826   0.0332105015916942
-0.6845863215203773   -0.04696566944078818   -0.03212360796809424
-0.6845863215203773   -0.04696566944078818   -0.03212360796809424
-0.6845863215203773   -0.04696566944078818   -0.03212360796809424
-0.6845863215203773   -0.04696566944078818   -0.03212360796809424
-0.560994696947755   0.0038139978558298787   0.005817727214925447
-0.560994696947755   0.0038139978558298787   0.005817727214925447
-0.560994696947755   0.0038139978558298787   0.005817727214925447
-0.560994696947755   0.0038139978558298787   0.005817727214925447
-0.6584276447743821   0.01651677080133277   0.03518733551976147
-0.6584276447743821   0.01651677080133277   0.03518733551976147
-0.6584276447743821   0.01651677080133277   0.03518733551976147
-0.6584276447743821   0.01651677080133277   0.03518733551976147
-0.48229791004416334   -0.005350045540105361   -0.026333899940894134
-0.48229791004416334   -0.005350045540105361   -0.026333899940894134
-0.48229791004416334   -0.005350045540105361   -0.026333899940894134
-0.48229791004416334   -0.005350045540105361   -0.026333899940894134
-0.4556686653534242   0.06568565053245795   0.02857531777465372
-0.4556686653534242   0.06568565053245795   0.02857531777465372
-0.4556686653534242   0.06568565053245795   0.02857531777465372
-0.4556686653534242   0.06568565053245795   0.02857531777465372
-0.6622452193827623   -0.03265218655665351   -0.03844529950028766
-0.6622452193827623   -0.03265218655665351   -0.03844529950028766
-0.6622452193827623   -0.03265218655665351   -0.03844529950028766
-0.6622452193827623   -0.03265218655665351   -0.03844529950028766
-0.5398899874248517   0.01580514610987714   0.015931842650185934
-0.5398899874248517   0.01580514610987714   0.015931842650185934
-0.5398899874248517   0.01580514610987714   0.015931842650185934
-0.5398899874248517   0.01580514610987714   0.015931842650185934
-0.4858083054189241   -0.03959976046724299   0.017427792368562484
-0.4858083054189241   -0.03959976046724299   0.017427792368562484
-0.4858083054189241   -0.03959976046724299   0.017427792368562484
-0.4858083054189241   -0.03959976046724299   0.017427792368562484
-0.2824555657867307   -0.02140382867670465   -0.0028080211574355307
-0.2824555657867307   -0.02140382867670465   -0.0028080211574355307
-0.2824555657867307   -0.02140382867670465   -0.0028080211574355307
-0.2824555657867307   -0.02140382867670465   -0.0028080211574355307
-0.2680854380835725   0.02714988720136143   0.021197315172975253
-0.2680854380835725   0.02714988720136143   0.021197315172975253
-0.2680854380835725   0.02714988720136143   0.021197315172975253
-0.2680854380835725   0.02714988720136143   0.021197315172975253
-0.49315288027811915   -0.04717981333230192   -0.020545784678090553
-0.49315288027811915   -0.04717981333230192   -0.020545784678090553
-0.49315288027811915   -0.04717981333230192   -0.020545784678090553
-0.49315288027811915   -0.04717981333230192   -0.020545784678090553
-0.3808603233425452   -0.018520321137853974   -0.007848517040265596
-0.3808603233425452   -0.018520321137853974   -0.007848517040265596
-0.3808603233425452   -0.018520321137853974   -0.007848517040265596
-0.3808603233425452   -0.018520321137853974   -0.007848517040265596
-0.48008750205950845   -0.016641441676573845   0.014242734759234862
-0.48008750205950845   -0.016641441676573845   0.014242734759234862
-0.48008750205950845   -0.016641441676573845   0.014242734759234862
-0.48008750205950845   -0.016641441676573845   0.014242734759234862
-0.279473693254157   -0.0017113614063417291   -0.006882712072244057
-0.279473693254157   -0.0017113614063417291   -0.006882712072244057
-0.279473693254157   -0.0017113614063417291   -0.006882712072244057
-0.279473693254157   -0.0017113614063417291   -0.006882712072244057
-0.2646786097258778   0.04703369780331158   0.017370093499327256
-0.2646786097258778   0.04703369780331158   0.017370093499327256
-0.2646786097258778   0.04703369780331158   0.017370093499327256
-0.2646786097258778   0.04703369780331158   0.017370093499327256
-0.48649177399697685   -0.028438903371657727   -0.02421436187341139
-0.48649177399697685   -0.028438903371657727   -0.02421436187341139
-0.48649177399697685   -0.028438903371657727   -0.02421436187341139
-0.48649177399697685   -0.028438903371657727   -0.02421436187341139
-0.3735415010558598   0.0009951601721147653   0.000537165165513373
-0.3735415010558598   0.0009951601721147653   0.000537165165513373
-0.3735415010558598   0.0009951601721147653   0.000537165165513373
-0.3735415010558598   0.0009951601721147653   0.000537165165513373
-0.4724381005567732   0.004609001107047421   0.013006100848901803
-0.4724381005567732   0.004609001107047421   0.013006100848901803
-0.4724381005567732   0.004609001107047421   0.013006100848901803
-0.4724381005567732   0.004609001107047421   0.013006100848901803
-0.2766496731420209   0.016068403348667066   -0.011519929126743426
-0.2766496731420209   0.016068403348667066   -0.011519929126743426
-0.2766496731420209   0.016068403348667066   -0.011519929126743426
-0.2766496731420209   0.016068403348667066   -0.011519929126743426
-0.26138610403222523   0.0682434226567218   0.013806093076544367
-0.26138610403222523   0.0682434226567218   0.013806093076544367
-0.26138610403222523   0.0682434226567218   0.013806093076544367
-0.26138610403222523   0.0682434226567218   0.013806093076544367
-0.48151490682915743   -0.00821912406807046   -0.026751115003485967
-0.48151490682915743   -0.00821912406807046   -0.026751115003485967
-0.48151490682915743   -0.00821912406807046   -0.026751115003485967
-0.48151490682915743   -0.00821912406807046   -0.026751115003485967
-0.37069459129518845   0.019389085262561962   0.008534030179046304
-0.37069459129518845   0.019389085262561962   0.008534030179046304
-0.37069459129518845   0.019389085262561962   0.008534030179046304
-0.37069459129518845   0.019389085262561962   0.008534030179046304
-0.28838216780083686   -0.0546273764115982   0.0007825165069302725
-0.28838216780083686   -0.0546273764115982   0.0007825165069302725
-0.28838216780083686   -0.0546273764115982   0.0007825165069302725
-0.28838216780083686   -0.0546273764115982   0.0007825165069302725
-0.07553838437497613   -0.006549466664401475   0.011740936870926443
-0.07553838437497613   -0.006549466664401475   0.011740936870926443
-0.07553838437497613   -0.006549466664401475   0.011740936870926443
-0.07553838437497613   -0.006549466664401475   0.011740936870926443
-0.07371873049686108   0.01106972646881434   0.004004573068618646
-0.07371873049686108   0.01106972646881434   0.004004573068618646
-0.07371873049686108   0.01106972646881434   0.004004573068618646
-0.07371873049686108   0.01106972646881434   0.004004573068618646
-0.2852224271783732   -0.03188092949936983   -0.005456813600297081
-0.2852224271783732   -0.03188092949936983   -0.005456813600297081
-0.2852224271783732   -0.03188092949936983   -0.005456813600297081
-0.2852224271783732   -0.03188092949936983   -0.005456813600297081
-0.18102723707499963   -0.01961593040141694   -0.0055873296454668625
-0.18102723707499963   -0.01961593040141694   -0.0055873296454668625
-0.18102723707499963   -0.01961593040141694   -0.0055873296454668625
-0.18102723707499963   -0.01961593040141694   -0.0055873296454668625
-0.28475218899873844   -0.03244599190465244   -0.002540560296837857
-0.28475218899873844   -0.03244599190465244   -0.002540560296837857
-0.28475218899873844   -0.03244599190465244   -0.002540560296837857
-0.28475218899873844   -0.03244599190465244   -0.002540560296837857
-0.07250746787704913   0.013316289673542822   0.007814322962949798
-0.07250746787704913   0.013316289673542822   0.007814322962949798
-0.07250746787704913   0.013316289673542822   0.007814322962949798
-0.07250746787704913   0.013316289673542822   0.007814322962949798
-0.0696028362842588   0.033351179869324815   0.0010152368306654506
-0.0696028362842588   0.033351179869324815   0.0010152368306654506
-0.0696028362842588   0.033351179869324815   0.0010152368306654506
-0.0696028362842588   0.033351179869324815   0.0010152368306654506
-0.2818107975645102   -0.011874406031230533   -0.009382741859292457
-0.2818107975645102   -0.011874406031230533   -0.009382741859292457
-0.2818107975645102   -0.011874406031230533   -0.009382741859292457
-0.2818107975645102   -0.011874406031230533   -0.009382741859292457
-0.17662991608535922   0.00039501885174778907   0.0023210258421001856
-0.17662991608535922   0.00039501885174778907   0.0023210258421001856
-0.17662991608535922   0.00039501885174778907   0.0023210258421001856
-0.17662991608535922   0.00039501885174778907   0.0023210258421001856
-0.2807594841205372   -0.010236094331829615   -0.005764486338828319
-0.2807594841205372   -0.010236094331829615   -0.005764486338828319
-0.2807594841205372   -0.010236094331829615   -0.005764486338828319
-0.2807594841205372   -0.010236094331829615   -0.005764486338828319
-0.06910147797506867   0.03326553992308703   0.003607668322853818
-0.06910147797506867   0.03326553992308703   0.003607668322853818
-0.06910147797506867   0.03326553992308703   0.003607668322853818
-0.06910147797506867   0.03326553992308703   0.003607668322853818
-0.0659069241347973   0.05595591972227307   -0.002490224403606101
-0.0659069241347973   0.05595591972227307   -0.002490224403606101
-0.0659069241347973   0.05595591972227307   -0.002490224403606101
-0.0659069241347973   0.05595591972227307   -0.002490224403606101
-0.278822900264876   0.008361491492550317   -0.013495956922537425
-0.278822900264876   0.008361491492550317   -0.013495956922537425
-0.278822900264876   0.008361491492550317   -0.013495956922537425
-0.278822900264876   0.008361491492550317   -0.013495956922537425
-0.1726158648479973   0.02050214565736904   0.00994007060639026
-0.1726158648479973   0.02050214565736904   0.00994007060639026
-0.1726158648479973   0.02050214565736904   0.00994007060639026
-0.1726158648479973   0.02050214565736904   0.00994007060639026
-0.09305933152716353   -0.06694647760267337   -0.015466787951739384
-0.09305933152716353   -0.06694647760267337   -0.015466787951739384
-0.09305933152716353   -0.06694647760267337   -0.015466787951739384
-0.09305933152716353   -0.06694647760267337   -0.015466787951739384
0.1284766115288966   0.0100927283136049   0.02545099394859137
0.1284766115288966   0.0100927283136049   0.02545099394859137
0.1284766115288966   0.0100927283136049   0.02545099394859137
0.1284766115288966   0.0100927283136049   0.02545099394859137
0.11932627824967477   -0.0039361375816737   -0.014322992579746383
0.11932627824967477   -0.0039361375816737   -0.014322992579746383
0.11932627824967477   -0.0039361375816737   -0.014322992579746383
0.11932627824967477   -0.0039361375816737   -0.014322992579746383
-0.07793396735524093   -0.015477998635183616   0.009476113880716674
-0.07793396735524093   -0.015477998635183616   0.009476113880716674
-0.07793396735524093   -0.015477998635183616   0.009476113880716674
-0.07793396735524093   -0.015477998635183616   0.009476113880716674
0.018394191031272617   -0.018536071235604815   -0.003983805827571373
0.018394191031272617   -0.018536071235604815   -0.003983805827571373
0.018394191031272617   -0.018536071235604815   -0.003983805827571373
0.018394191031272617   -0.018536071235604815   -0.003983805827571373
-0.08989044117205494   -0.04672644476481471   -0.019057809073721683
-0.08989044117205494   -0.04672644476481471   -0.019057809073721683
-0.08989044117205494   -0.04672644476481471   -0.019057809073721683
-0.08989044117205494   -0.04672644476481471   -0.019057809073721683
0.133283104832362   0.02931266131383054   0.022212341438184548
0.133283104832362   0.02931266131383054   0.022212341438184548
0.133283104832362   0.02931266131383054   0.022212341438184548
0.133283104832362   0.02931266131383054   0.022212341438184548
0.12699680319010742   0.01714290509741914   -0.01623431941114177
0.12699680319010742   0.01714290509741914   -0.01623431941114177
0.12699680319010742   0.01714290509741914   -0.01623431941114177
0.12699680319010742   0.01714290509741914   -0.01623431941114177
-0.0749649695033268   0.0024134882513865783   0.005142262353263018
-0.0749649695033268   0.0024134882513865783   0.005142262353263018
-0.0749649695033268   0.0024134882513865783   0.005142262353263018
-0.0749649695033268   0.0024134882513865783   0.005142262353263018
0.022482123902212128   -0.0003746292187805133   0.004066704128552853
0.022482123902212128   -0.0003746292187805133   0.004066704128552853
0.022482123902212128   -0.0003746292187805133   0.004066704128552853
0.022482123902212128   -0.0003746292187805133   0.004066704128552853
-0.08650391491013962   -0.026948474938570572   -0.02319050149084329
-0.08650391491013962   -0.026948474938570572   -0.02319050149084329
-0.08650391491013962   -0.026948474938570572   -0.02319050149084329
-0.08650391491013962   -0.026948474938570572   -0.02319050149084329
0.14027106778886544   0.04824018747932014   0.019039721200746308
0.14027106778886544   0.04824018747932014   0.019039721200746308
0.14027106778886544   0.04824018747932014   0.019039721200746308
0.14027106778886544   0.04824018747932014   0.019039721200746308
0.13317857894173665   0.04114565065842693   -0.01877094412136205
0.13317857894173665   0.04114565065842693   -0.01877094412136205
0.13317857894173665   0.04114565065842693   -0.01877094412136205
0.13317857894173665   0.04114565065842693   -0.01877094412136205
-0.07179315357459921   0.02301526908443921   0.0010192790352181458
-0.07179315357459921   0.02301526908443921   0.0010192790352181458
-0.07179315357459921   0.02301526908443921   0.0010192790352181458
-0.07179315357459921   0.02301526908443921   0.0010192790352181458
0.028770554765585352   0.01935041054388825   0.01239297279926323
0.028770554765585352   0.01935041054388825   0.01239297279926323
0.028770554765585352   0.01935041054388825   0.01239297279926323
0.028770554765585352   0.01935041054388825   0.01239297279926323
0.10172255151341099   -0.06764172283713894   -0.030584854978091998
0.10172255151341099   -0.06764172283713894   -0.030584854978091998
0.10172255151341099   -0.06764172283713894   -0.030584854978091998
0.10172255151341099   -0.06764172283713894   -0.030584854978091998
0.3092776566883753   0.030593597127283947   0.03306641441051369
0.3092776566883753   0.030593597127283947   0.03306641441051369
0.3092776566883753   0.030593597127283947   0.03306641441051369
0.3092776566883753   0.030593597127283947   0.03306641441051369
0.3061296017199258   -0.016952536530687845   -0.040275590910112374
0.3061296017199258   -0.016952536530687845   -0.040275590910112374
0.3061296017199258   -0.016952536530687845   -0.040275590910112374
0.3061296017199258   -0.016952536530687845   -0.040275590910112374
0.12905937087684613   0.00571444401581374   0.024691888958623044
0.12905937087684613   0.00571444401581374   0.024691888958623044
0.12905937087684613   0.00571444401581374   0.024691888958623044
0.12905937087684613   0.00571444401581374   0.024691888958623044
0.20050862517874665   -0.014092583284975297   -0.010692093727070924
0.20050862517874665   -0.014092583284975297   -0.010692093727070924
0.20050862517874665   -0.014092583284975297   -0.010692093727070924
0.20050862517874665   -0.014092583284975297   -0.010692093727070924
0.10464633815737132   -0.05627153098813628   -0.03538729963480008
0.10464633815737132   -0.05627153098813628   -0.03538729963480008
0.10464633815737132   -0.05627153098813628   -0.03538729963480008
0.10464633815737132   -0.05627153098813628   -0.03538729963480008
0.3325820477147174   0.04707285174857813   0.027961250784581428
0.3325820477147174   0.04707285174857813   0.027961250784581428
0.3325820477147174   0.04707285174857813   0.027961250784581428
0.3325820477147174   0.04707285174857813   0.027961250784581428
0.32309121967675625   -0.005151386071288306   -0.048339495063306384
0.32309121967675625   -0.005151386071288306   -0.048339495063306384
0.32309121967675625   -0.005151386071288306   -0.048339495063306384
0.32309121967675625   -0.005151386071288306   -0.048339495063306384
0.1335421089448248   0.014361253718293497   0.019273860741569702
0.1335421089448248   0.014361253718293497   0.019273860741569702
0.1335421089448248   0.014361253718293497   0.019273860741569702
0.1335421089448248   0.014361253718293497   0.019273860741569702
0.2175839744184103   -0.0021768148573521086   -0.0012229262980414865
0.2175839744184103   -0.0021768148573521086   -0.0012229262980414865
0.2175839744184103   -0.0021768148573521086   -0.0012229262980414865
0.2175839744184103   -0.0021768148573521086   -0.0012229262980414865
0.10931189532667637   -0.04645211887901548   -0.0410638347518624
0.10931189532667637   -0.04645211887901548   -0.0410638347518624
0.10931189532667637   -0.04645211887901548   -0.0410638347518624
0.10931189532667637   -0.04645211887901548   -0.0410638347518624
0.3494497144949201   0.05779026772603634   0.020511325230188573
0.3494497144949201   0.05779026772603634   0.020511325230188573
0.3494497144949201   0.05779026772603634   0.020511325230188573
0.3494497144949201   0.05779026772603634   0.020511325230188573
0.34916896534347164   0.02074213346203871   -0.05177700918905051
0.34916896534347164   0.02074213346203871   -0.05177700918905051
0.34916896534347164   0.02074213346203871   -0.05177700918905051
0.34916896534347164   0.02074213346203871   -0.05177700918905051
0.13812755636133967   0.03179717684641905   0.015322416788660937
0.13812755636133967   0.03179717684641905   0.015322416788660937
0.13812755636133967   0.03179717684641905   0.015322416788660937
0.13812755636133967   0.03179717684641905   0.015322416788660937
0.22619437011418814   0.010928450387106887   0.006951112050034194
0.22619437011418814   0.010928450387106887   0.006951112050034194
0.22619437011418814   0.010928450387106887   0.006951112050034194
0.22619437011418814   0.010928450387106887   0.006951112050034194
-0.418803102106617   -0.006779955657494077   0.0412642391105905
-0.418803102106617   -0.006779955657494077   0.0412642391105905
-0.418803102106617   -0.006779955657494077   0.0412642391105905
-0.418803102106617   -0.006779955657494077   0.0412642391105905
-0.32771736376886845   -0.041770206517743706   -0.020334466455238488
-0.32771736376886845   -0.041770206517743706   -0.020334466455238488
-0.32771736376886845   -0.041770206517743706   -0.020334466455238488
-0.32771736376886845   -0.041770206517743706   -0.020334466455238488
-0.29659965219579276   0.035304131374870755   0.03526164987980964
-0.29659965219579276   0.035304131374870755   0.03526164987980964
-0.29659965219579276   0.035304131374870755   0.03526164987980964
-0.29659965219579276   0.035304131374870755   0.03526164987980964
-0.4170858630714153   -0.0454735613614652   -0.027709936945336466
-0.4170858630714153   -0.0454735613614652   -0.027709936945336466
-0.4170858630714153   -0.0454735613614652   -0.027709936945336466
-0.4170858630714153   -0.0454735613614652   -0.027709936945336466
-0.35112883518437427   -0.00961084919082976   -0.005332449808339412
-0.35112883518437427   -0.00961084919082976   -0.005332449808339412
-0.35112883518437427   -0.00961084919082976   -0.005332449808339412
-0.35112883518437427   -0.00961084919082976   -0.005332449808339412
-0.39112170321611506   0.017229042823986948   0.03940825814571286
-0.39112170321611506   0.017229042823986948   0.03940825814571286
-0.39112170321611506   0.017229042823986948   0.03940825814571286
-0.39112170321611506   0.017229042823986948   0.03940825814571286
-0.3207504301546094   -0.025585090914097077   -0.024603017625301746
-0.3207504301546094   -0.025585090914097077   -0.024603017625301746
-0.3207504301546094   -0.025585090914097077   -0.024603017625301746
-0.3207504301546094   -0.025585090914097077   -0.024603017625301746
-0.2892970779545257   0.04447851298737821   0.029808060606886046
-0.2892970779545257   0.04447851298737821   0.029808060606886046
-0.2892970779545257   0.04447851298737821   0.029808060606886046
-0.2892970779545257   0.04447851298737821   0.029808060606886046
-0.39788475358618   -0.035074847384801267   -0.034593664444687054
-0.39788475358618   -0.035074847384801267   -0.034593664444687054
-0.39788475358618   -0.035074847384801267   -0.034593664444687054
-0.39788475358618   -0.035074847384801267   -0.034593664444687054
-0.3410898036006968   0.0023857512231639164   0.002338764004866989
-0.3410898036006968   0.0023857512231639164   0.002338764004866989
-0.3410898036006968   0.0023857512231639164   0.002338764004866989
-0.3410898036006968   0.0023857512231639164   0.002338764004866989
-0.37191491853795133   0.02835788785970504   0.03182277555194585
-0.37191491853795133   0.02835788785970504   0.03182277555194585
-0.37191491853795133   0.02835788785970504   0.03182277555194585
-0.37191491853795133   0.02835788785970504   0.03182277555194585
-0.3135539934609969   -0.017241302715370676   -0.029756701222717133
-0.3135539934609969   -0.017241302715370676   -0.029756701222717133
-0.3135539934609969   -0.017241302715370676   -0.029756701222717133
-0.3135539934609969   -0.017241302715370676   -0.029756701222717133
-0.2833990563810244   0.05594716867052337   0.025705313633859014
-0.2833990563810244   0.05594716867052337   0.025705313633859014
-0.2833990563810244   0.05594716867052337   0.025705313633859014
-0.2833990563810244   0.05594716867052337   0.025705313633859014
-0.3720965085827005   -0.018418443266503444   -0.04002347028153582
-0.3720965085827005   -0.018418443266503444   -0.04002347028153582
-0.3720965085827005   -0.018418443266503444   -0.04002347028153582
-0.3720965085827005   -0.018418443266503444   -0.04002347028153582
-0.32086914711455156   0.014238827030047724   0.011836765638635977
-0.32086914711455156   0.014238827030047724   0.011836765638635977
-0.32086914711455156   0.014238827030047724   0.011836765638635977
-0.32086914711455156   0.014238827030047724   0.011836765638635977
-0.31611557609471214   -0.023661144522710398   0.01956540992050952
-0.31611557609471214   -0.023661144522710398   0.01956540992050952
-0.31611557609471214   -0.023661144522710398   0.01956540992050952
-0.31611557609471214   -0.023661144522710398   0.01956540992050952
-0.23300734442734827   -0.03165698197542437   -0.006014564432363041
-0.23300734442734827   -0.03165698197542437   -0.006014564432363041
-0.23300734442734827   -0.03165698197542437   -0.006014564432363041
-0.23300734442734827   -0.03165698197542437   -0.006014564432363041
-0.2156977682788193   0.016026277936533488   0.018029559666794363
-0.2156977682788193   0.016026277936533488   0.018029559666794363
-0.2156977682788193   0.016026277936533488   0.018029559666794363
-0.2156977682788193   0.016026277936533488   0.018029559666794363
-0.32088451696599785   -0.0335372390043544   -0.017321303591986505
-0.32088451696599785   -0.0335372390043544   -0.017321303591986505
-0.32088451696599785   -0.0335372390043544   -0.017321303591986505
-0.32088451696599785   -0.0335372390043544   -0.017321303591986505
-0.270699538604823   -0.01675734778761151   -0.007346545507360636
-0.270699538604823   -0.01675734778761151   -0.007346545507360636
-0.270699538604823   -0.01675734778761151   -0.007346545507360636
-0.270699538604823   -0.01675734778761151   -0.007346545507360636
-0.3079220945910166   -0.0026948211696274926   0.016648390448186723
-0.3079220945910166   -0.0026948211696274926   0.016648390448186723
-0.3079220945910166   -0.0026948211696274926   0.016648390448186723
-0.3079220945910166   -0.0026948211696274926   0.016648390448186723
-0.22719793161295324   -0.013353880857346947   -0.010091098209993807
-0.22719793161295324   -0.013353880857346947   -0.010091098209993807
-0.22719793161295324   -0.013353880857346947   -0.010091098209993807
-0.22719793161295324   -0.013353880857346947   -0.010091098209993807
-0.20940681383839274   0.03470369609705917   0.014413675311588978
-0.20940681383839274   0.03470369609705917   0.014413675311588978
-0.20940681383839274   0.03470369609705917   0.014413675311588978
-0.20940681383839274   0.03470369609705917   0.014413675311588978
-0.31142425037076943   -0.015607104167693526   -0.020742184319253038
-0.31142425037076943   -0.015607104167693526   -0.020742184319253038
-0.31142425037076943   -0.015607104167693526   -0.020742184319253038
-0.31142425037076943   -0.015607104167693526   -0.020742184319253038
-0.26157530771173043   0.0012243318392441051   0.0007067028701523495
-0.26157530771173043   0.0012243318392441051   0.0007067028701523495
-0.26157530771173043   0.0012243318392441051   0.0007067028701523495
-0.26157530771173043   0.0012243318392441051   0.0007067028701523495
-0.29769987658753705   0.017180720475629595   0.01509185995357773
-0.29769987658753705   0.017180720475629595   0.01509185995357773
-0.29769987658753705   0.017180720475629595   0.01509185995357773
-0.29769987658753705   0.017180720475629595   0.01509185995357773
-0.22144322557906718   0.00360383349629392   -0.014668520791018033
-0.22144322557906718   0.00360383349629392   -0.014668520791018033
-0.22144322557906718   0.00360383349629392   -0.014668520791018033
-0.22144322557906718   0.00360383349629392   -0.014668520791018033
-0.203134867169533   0.05500101785849559   0.010969554969719852
-0.203134867169533   0.05500101785849559   0.010969554969719852
-0.203134867169533   0.05500101785849559   0.010969554969719852
-0.203134867169533   0.05500101785849559   0.010969554969719852
-0.30363427726479786   0.004000729438269988   -0.023524351552749206
-0.30363427726479786   0.004000729438269988   -0.023524351552749206
-0.30363427726479786   0.004000729438269988   -0.023524351552749206
-0.30363427726479786   0.004000729438269988   -0.023524351552749206
-0.2549857240335359   0.018881029461320392   0.008594290806806813
-0.2549857240335359   0.018881029461320392   0.008594290806806813
-0.2549857240335359   0.018881029461320392   0.008594290806806813
-0.2549857240335359   0.018881029461320392   0.008594290806806813
-0.23269951666986158   -0.03963030168469744   0.0034978940643397294
-0.23269951666986158   -0.03963030168469744   0.0034978940643397294
-0.23269951666986158   -0.03963030168469744   0.0034978940643397294
-0.23269951666986158   -0.03963030168469744   0.0034978940643397294
-0.13950581429591047   -0.016834010200316385   0.008520406175606891
-0.13950581429591047   -0.016834010200316385   0.008520406175606891
-0.13950581429591047   -0.016834010200316385   0.008520406175606891
-0.13950581429591047   -0.016834010200316385   0.008520406175606891
-0.13484432116895378   -0.000495851050443568   0.0010904726349224916
-0.13484432116895378   -0.000495851050443568   0.0010904726349224916
-0.13484432116895378   -0.000495851050443568   0.0010904726349224916
-0.13484432116895378   -0.000495851050443568   0.0010904726349224916
-0.22651019146030554   -0.01801878405019434   -0.0019874942539088725
-0.22651019146030554   -0.01801878405019434   -0.0019874942539088725
-0.22651019146030554   -0.01801878405019434   -0.0019874942539088725
-0.22651019146030554   -0.01801878405019434   -0.0019874942539088725
-0.18368362673649757   -0.01786483993174156   -0.00535855928033406
-0.18368362673649757   -0.01786483993174156   -0.00535855928033406
-0.18368362673649757   -0.01786483993174156   -0.00535855928033406
-0.18368362673649757   -0.01786483993174156   -0.00535855928033406
-0.22622959046714394   -0.018926378420603313   0.00032310508230623536
-0.22622959046714394   -0.018926378420603313   0.00032310508230623536
-0.22622959046714394   -0.018926378420603313   0.00032310508230623536
-0.22622959046714394   -0.018926378420603313   0.00032310508230623536
-0.13367002166708647   0.00186664381499509   0.004599475278819213
-0.13367002166708647   0.00186664381499509   0.004599475278819213
-0.13367002166708647   0.00186664381499509   0.004599475278819213
-0.13367002166708647   0.00186664381499509   0.004599475278819213
-0.12800310273816998   0.02038965512197856   -0.0018701309195872165
-0.12800310273816998   0.02038965512197856   -0.0018701309195872165
-0.12800310273816998   0.02038965512197856   -0.0018701309195872165
-0.12800310273816998   0.02038965512197856   -0.0018701309195872165
-0.2202067479301115   0.0009498218766737249   -0.0058321209266213245
-0.2202067479301115   0.0009498218766737249   -0.0058321209266213245
-0.2202067479301115   0.0009498218766737249   -0.0058321209266213245
-0.2202067479301115   0.0009498218766737249   -0.0058321209266213245
-0.17646314711721983   0.000900022068395746   0.0024573299345984345
-0.17646314711721983   0.000900022068395746   0.0024573299345984345
-0.17646314711721983   0.000900022068395746   0.0024573299345984345
-0.17646314711721983   0.000900022068395746   0.0024573299345984345
-0.2194334793875083   0.0018953455905332782   -0.0029113019274676633
-0.2194334793875083   0.0018953455905332782   -0.0029113019274676633
-0.2194334793875083   0.0018953455905332782   -0.0029113019274676633
-0.2194334793875083   0.0018953455905332782   -0.0029113019274676633
-0.12746016440212693   0.02076033828676329   0.0004738775958419428
-0.12746016440212693   0.02076033828676329   0.0004738775958419428
-0.12746016440212693   0.02076033828676329   0.0004738775958419428
-0.12746016440212693   0.02076033828676329   0.0004738775958419428
-0.12154018188923195   0.04146936506590343   -0.005239307431415938
-0.12154018188923195   0.04146936506590343   -0.005239307431415938
-0.12154018188923195   0.04146936506590343   -0.005239307431415938
-0.12154018188923195   0.04146936506590343   -0.005239307431415938
-0.21430604617556304   0.02006377450636931   -0.009949096708302123
-0.21430604617556304   0.02006377450636931   -0.009949096708302123
-0.21430604617556304   0.02006377450636931   -0.009949096708302123
-0.21430604617556304   0.02006377450636931   -0.009949096708302123
-0.16963835486185685   0.019732663894747208   0.00995798913250387
-0.16963835486185685   0.019732663894747208   0.00995798913250387
-0.16963835486185685   0.019732663894747208   0.00995798913250387
-0.16963835486185685   0.019732663894747208   0.00995798913250387
-0.1510851832408227   -0.053459932649925226   -0.012750516099347617
-0.1510851832408227   -0.053459932649925226   -0.012750516099347617
-0.1510851832408227   -0.053459932649925226   -0.012750516099347617
-0.1510851832408227   -0.053459932649925226   -0.012750516099347617
-0.04881212355850624   -0.001099669793557136   0.02232542087591529
-0.04881212355850624   -0.001099669793557136   0.02232542087591529
-0.04881212355850624   -0.001099669793557136   0.02232542087591529
-0.04881212355850624   -0.001099669793557136   0.02232542087591529
-0.0552531724784419   -0.016145587644881887   -0.016542626044573693
-0.0552531724784419   -0.016145587644881887   -0.016542626044573693
-0.0552531724784419   -0.016145587644881887   -0.016542626044573693
-0.0552531724784419   -0.016145587644881887   -0.016542626044573693
-0.13280587006168454   -0.0020335999514092366   0.012820477072233119
-0.13280587006168454   -0.0020335999514092366   0.012820477072233119
-0.13280587006168454   -0.0020335999514092366   0.012820477072233119
-0.13280587006168454   -0.0020335999514092366   0.012820477072233119
-0.09695103025389976   -0.017394173027423875   -0.003869560702542966
-0.09695103025389976   -0.017394173027423875   -0.003869560702542966
-0.09695103025389976   -0.017394173027423875   -0.003869560702542966
-0.09695103025389976   -0.017394173027423875   -0.003869560702542966
-0.14499634757778493   -0.03401566628981091   -0.016149844169868102
-0.14499634757778493   -0.03401566628981091   -0.016149844169868102
-0.14499634757778493   -0.03401566628981091   -0.016149844169868102
-0.14499634757778493   -0.03401566628981091   -0.016149844169868102
-0.04143371829889014   0.017465455356972276   0.018943601851330923
-0.04143371829889014   0.017465455356972276   0.018943601851330923
-0.04143371829889014   0.017465455356972276   0.018943601851330923
-0.04143371829889014   0.017465455356972276   0.018943601851330923
-0.045209309815471   0.00361086767445205   -0.018626500219257745
-0.045209309815471   0.00361086767445205   -0.018626500219257745
-0.045209309815471   0.00361086767445205   -0.018626500219257745
-0.045209309815471   0.00361086767445205   -0.018626500219257745
-0.12699575321930456   0.014996059659450136   0.00856021213726699
-0.12699575321930456   0.014996059659450136   0.00856021213726699
-0.12699575321930456   0.014996059659450136   0.00856021213726699
-0.12699575321930456   0.014996059659450136   0.00856021213726699
-0.08925259035320521   9.659781712241088e-05   0.0041004394407163185
-0.08925259035320521   9.659781712241088e-05   0.0041004394407163185
-0.08925259035320521   9.659781712241088e-05   0.0041004394407163185
-0.08925259035320521   9.659781712241088e-05   0.0041004394407163185
-0.13879865130553948   -0.015394453588833523   -0.020063765045624828
-0.13879865130553948   -0.015394453588833523   -0.020063765045624828
-0.13879865130553948   -0.015394453588833523   -0.020063765045624828
-0.13879865130553948   -0.015394453588833523   -0.020063765045624828
-0.03188959468966388   0.03551819796231176   0.016064745121919105
-0.03188959468966388   0.03551819796231176   0.016064745121919105
-0.03188959468966388   0.03551819796231176   0.016064745121919105
-0.03188959468966388   0.03551819796231176   0.016064745121919105
-0.03671688755700141   0.025651546883391038   -0.020875597987612883
-0.03671688755700141   0.025651546883391038   -0.020875597987612883
-0.03671688755700141   0.025651546883391038   -0.020875597987612883
-0.03671688755700141   0.025651546883391038   -0.020875597987612883
-0.12104726833663473   0.03424186353823819   0.004452761859235366
-0.12104726833663473   0.03424186353823819   0.004452761859235366
-0.12104726833663473   0.03424186353823819   0.004452761859235366
-0.12104726833663473   0.03424186353823819   0.004452761859235366
-0.08130335820058936   0.01829820913004225   0.012060878805051337
-0.08130335820058936   0.01829820913004225   0.012060878805051337
-0.08130335820058936   0.01829820913004225   0.012060878805051337
-0.08130335820058936   0.01829820913004225   0.012060878805051337
-0.07010199617008708   -0.05745028226801723   -0.027773329707529798
-0.07010199617008708   -0.05745028226801723   -0.027773329707529798
-0.07010199617008708   -0.05745028226801723   -0.027773329707529798
-0.07010199617008708   -0.05745028226801723   -0.027773329707529798
0.019012195797415997   0.016670921276407864   0.03414609540277604
0.019012195797415997   0.016670921276407864   0.03414609540277604
0.019012195797415997   0.016670921276407864   0.03414609540277604
0.019012195797415997   0.016670921276407864   0.03414609540277604
0.019090363661842455   -0.028578841607253207   -0.03680553194170032
0.019090363661842455   -0.028578841607253207   -0.03680553194170032
0.019090363661842455   -0.028578841607253207   -0.03680553194170032
0.019090363661842455   -0.028578841607253207   -0.03680553194170032
-0.03956822788801431   0.01778531274496438   0.027951196517717977
-0.03956822788801431   0.01778531274496438   0.027951196517717977
-0.03956822788801431   0.01778531274496438   0.027951196517717977
-0.03956822788801431   0.01778531274496438   0.027951196517717977
-0.018484598550246763   -0.012299255902168975   -0.006417054589544052
-0.018484598550246763   -0.012299255902168975   -0.006417054589544052
-0.018484598550246763   -0.012299255902168975   -0.006417054589544052
-0.018484598550246763   -0.012299255902168975   -0.006417054589544052
-0.06394576075126011   -0.04421265926020137   -0.031938495793346254
-0.06394576075126011   -0.04421265926020137   -0.031938495793346254
-0.06394576075126011   -0.04421265926020137   -0.031938495793346254
-0.06394576075126011   -0.04421265926020137   -0.031938495793346254
0.04520788857568599   0.035159122448511396   0.030044128571752746
0.04520788857568599   0.035159122448511396   0.030044128571752746
0.04520788857568599   0.035159122448511396   0.030044128571752746
0.04520788857568599   0.035159122448511396   0.030044128571752746
0.03838439374107555   -0.01727461619035709   -0.043747773597933984
0.03838439374107555   -0.01727461619035709   -0.043747773597933984
0.03838439374107555   -0.01727461619035709   -0.043747773597933984
0.03838439374107555   -0.01727461619035709   -0.043747773597933984
-0.03252231290616338   0.02598880011937584   0.022430551882356604
-0.03252231290616338   0.02598880011937584   0.022430551882356604
-0.03252231290616338   0.02598880011937584   0.022430551882356604
-0.03252231290616338   0.02598880011937584   0.022430551882356604
-0.00268461222039783   -0.0006541880337335436   0.00220394194118739
-0.00268461222039783   -0.0006541880337335436   0.00220394194118739
-0.00268461222039783   -0.0006541880337335436   0.00220394194118739
-0.00268461222039783   -0.0006541880337335436   0.00220394194118739
-0.05658033424942102   -0.03491013167648397   -0.03696062303807181
-0.05658033424942102   -0.03491013167648397   -0.03696062303807181
-0.05658033424942102   -0.03491013167648397   -0.03696062303807181
-0.05658033424942102   -0.03491013167648397   -0.03696062303807181
0.06418658931043368   0.04536848983160351   0.02262009822689795
0.06418658931043368   0.04536848983160351   0.02262009822689795
0.06418658931043368   0.04536848983160351   0.02262009822689795
0.06418658931043368   0.04536848983160351   0.02262009822689795
0.06548184865639559   0.004828637136617967   -0.04687457405540041
0.06548184865639559   0.004828637136617967   -0.04687457405540041
0.06548184865639559   0.004828637136617967   -0.04687457405540041
0.06548184865639559   0.004828637136617967   -0.04687457405540041
-0.025944878563090315   0.04040495425880065   0.01823103960653198
-0.025944878563090315   0.04040495425880065   0.01823103960653198
-0.025944878563090315   0.04040495425880065   0.01823103960653198
-0.025944878563090315   0.04040495425880065   0.01823103960653198
0.011656020691096168   0.011554872996133484   0.010653394336441229
0.011656020691096168   0.011554872996133484   0.010653394336441229
0.011656020691096168   0.011554872996133484   0.010653394336441229
0.011656020691096168   0.011554872996133484   0.010653394336441229
-0.13710845246519715   0.008223458878831545   0.03902494922396651
-0.13710845246519715   0.008223458878831545   0.03902494922396651
-0.13710845246519715   0.008223458878831545   0.03902494922396651
-0.13710845246519715   0.008223458878831545   0.03902494922396651
-0.16494783114579403   -0.05077558601658945   -0.022907958953366673
-0.16494783114579403   -0.05077558601658945   -0.022907958953366673
-0.16494783114579403   -0.05077558601658945   -0.022907958953366673
-0.16494783114579403   -0.05077558601658945   -0.022907958953366673
-0.13169233839409636   0.02353338223721029   0.03193125637070673
-0.13169233839409636   0.02353338223721029   0.03193125637070673
-0.13169233839409636   0.02353338223721029   0.03193125637070673
-0.13169233839409636   0.02353338223721029   0.03193125637070673
-0.1331976783742272   -0.03313294613487536   -0.029562185545075233
-0.1331976783742272   -0.03313294613487536   -0.029562185545075233
-0.1331976783742272   -0.03313294613487536   -0.029562185545075233
-0.1331976783742272   -0.03313294613487536   -0.029562185545075233
-0.13821595140225346   -0.010620569635765147   -0.010763791410030775
-0.13821595140225346   -0.010620569635765147   -0.010763791410030775
-0.13821595140225346   -0.010620569635765147   -0.010763791410030775
-0.13821595140225346   -0.010620569635765147   -0.010763791410030775
-0.10754187604487524   0.029244999521895833   0.036338880444913305
-0.10754187604487524   0.029244999521895833   0.036338880444913305
-0.10754187604487524   0.029244999521895833   0.036338880444913305
-0.10754187604487524   0.029244999521895833   0.036338880444913305
-0.1557268001944426   -0.03722322289055454   -0.027484447503255745
-0.1557268001944426   -0.03722322289055454   -0.027484447503255745
-0.1557268001944426   -0.03722322289055454   -0.027484447503255745
-0.1557268001944426   -0.03722322289055454   -0.027484447503255745
-0.1215293448557958   0.03248605288924171   0.026855428195128345
-0.1215293448557958   0.03248605288924171   0.026855428195128345
-0.1215293448557958   0.03248605288924171   0.026855428195128345
-0.1215293448557958   0.03248605288924171   0.026855428195128345
-0.11125949087829622   -0.023015263421925104   -0.03679161536973178
-0.11125949087829622   -0.023015263421925104   -0.03679161536973178
-0.11125949087829622   -0.023015263421925104   -0.03679161536973178
-0.11125949087829622   -0.023015263421925104   -0.03679161536973178
-0.12203500076073112   0.0008039061999628059   -0.0023242931623688873
-0.12203500076073112   0.0008039061999628059   -0.0023242931623688873
-0.12203500076073112   0.0008039061999628059   -0.0023242931623688873
-0.12203500076073112   0.0008039061999628059   -0.0023242931623688873
-0.08547002893616089   0.040129097181622476   0.029011333737397272
-0.08547002893616089   0.040129097181622476   0.029011333737397272
-0.08547002893616089   0.040129097181622476   0.029011333737397272
-0.08547002893616089   0.040129097181622476   0.029011333737397272
-0.14579405518862038   -0.029133556104995118   -0.03284851447475771
-0.14579405518862038   -0.029133556104995118   -0.03284851447475771
-0.14579405518862038   -0.029133556104995118   -0.03284851447475771
-0.14579405518862038   -0.029133556104995118   -0.03284851447475771
-0.11224541568740515   0.046194921191539506   0.023192259113383632
-0.11224541568740515   0.046194921191539506   0.023192259113383632
-0.11224541568740515   0.046194921191539506   0.023192259113383632
-0.11224541568740515   0.046194921191539506   0.023192259113383632
-0.08196918454976745   -0.0037863712851843303   -0.041436372684032566
-0.08196918454976745   -0.0037863712851843303   -0.041436372684032566
-0.08196918454976745   -0.0037863712851843303   -0.041436372684032566
-0.08196918454976745   -0.0037863712851843303   -0.041436372684032566
-0.10262167894277582   0.012764092895234412   0.006694961437035841
-0.10262167894277582   0.012764092895234412   0.006694961437035841
-0.10262167894277582   0.012764092895234412   0.006694961437035841
-0.10262167894277582   0.012764092895234412   0.006694961437035841
-0.14753723366905772   -0.008905132045457472   0.0222745744591809
-0.14753723366905772   -0.008905132045457472   0.0222745744591809
-0.14753723366905772   -0.008905132045457472   0.0222745744591809
-0.14753723366905772   -0.008905132045457472   0.0222745744591809
-0.18445208382051267   -0.04142595637280759   -0.008947323941461124
-0.18445208382051267   -0.04142595637280759   -0.008947323941461124
-0.18445208382051267   -0.04142595637280759   -0.008947323941461124
-0.18445208382051267   -0.04142595637280759   -0.008947323941461124
-0.16462182632801445   0.004144111414747097   0.014822757865537627
-0.16462182632801445   0.004144111414747097   0.014822757865537627
-0.16462182632801445   0.004144111414747097   0.014822757865537627
-0.16462182632801445   0.004144111414747097   0.014822757865537627
-0.1493611182503193   -0.019369801251866464   -0.013509459421327523
-0.1493611182503193   -0.019369801251866464   -0.013509459421327523
-0.1493611182503193   -0.019369801251866464   -0.013509459421327523
-0.1493611182503193   -0.019369801251866464   -0.013509459421327523
-0.16162933838393134   -0.01512129674966179   -0.0075303985824685254
-0.16162933838393134   -0.01512129674966179   -0.0075303985824685254
-0.16162933838393134   -0.01512129674966179   -0.0075303985824685254
-0.16162933838393134   -0.01512129674966179   -0.0075303985824685254
-0.1367702924352886   0.010637366917146904   0.01943750148481082
-0.1367702924352886   0.010637366917146904   0.01943750148481082
-0.1367702924352886   0.010637366917146904   0.01943750148481082
-0.1367702924352886   0.010637366917146904   0.01943750148481082
-0.1759412107638238   -0.024591615375045554   -0.013038437523718492
-0.1759412107638238   -0.024591615375045554   -0.013038437523718492
-0.1759412107638238   -0.024591615375045554   -0.013038437523718492
-0.1759412107638238   -0.024591615375045554   -0.013038437523718492
-0.15555502649787176   0.021975863820453113   0.011303431748582508
-0.15555502649787176   0.021975863820453113   0.011303431748582508
-0.15555502649787176   0.021975863820453113   0.011303431748582508
-0.15555502649787176   0.021975863820453113   0.011303431748582508
-0.13719470566990416   -0.0022099491382788273   -0.01677537384789292
-0.13719470566990416   -0.0022099491382788273   -0.01677537384789292
-0.13719470566990416   -0.0022099491382788273   -0.01677537384789292
-0.13719470566990416   -0.0022099491382788273   -0.01677537384789292
-0.15077876464192044   0.001494365163516389   0.00025144303116619166
-0.15077876464192044   0.001494365163516389   0.00025144303116619166
-0.15077876464192044   0.001494365163516389   0.00025144303116619166
-0.15077876464192044   0.001494365163516389   0.00025144303116619166
-0.12398945097439293   0.029530402228088483   0.017510548263295872
-0.12398945097439293   0.029530402228088483   0.017510548263295872
-0.12398945097439293   0.029530402228088483   0.017510548263295872
-0.12398945097439293   0.029530402228088483   0.017510548263295872
-0.16740450481395835   -0.008408711166494859   -0.017559384844903533
-0.16740450481395835   -0.008408711166494859   -0.017559384844903533
-0.16740450481395835   -0.008408711166494859   -0.017559384844903533
-0.16740450481395835   -0.008408711166494859   -0.017559384844903533
-0.1464419659858823   0.04173568217736977   0.007958100863834115
-0.1464419659858823   0.04173568217736977   0.007958100863834115
-0.1464419659858823   0.04173568217736977   0.007958100863834115
-0.1464419659858823   0.04173568217736977   0.007958100863834115
-0.12671794035083858   0.016859281061631617   -0.019834724073875615
-0.12671794035083858   0.016859281061631617   -0.019834724073875615
-0.12671794035083858   0.016859281061631617   -0.019834724073875615
-0.12671794035083858   0.016859281061631617   -0.019834724073875615
-0.1405178604890444   0.018679830367088687   0.008181114385423027
-0.1405178604890444   0.018679830367088687   0.008181114385423027
-0.1405178604890444   0.018679830367088687   0.008181114385423027
-0.1405178604890444   0.018679830367088687   0.008181114385423027
-0.1781189829885274   -0.025001900337358357   0.006294124183013949
-0.1781189829885274   -0.025001900337358357   0.006294124183013949
-0.1781189829885274   -0.025001900337358357   0.006294124183013949
-0.1781189829885274   -0.025001900337358357   0.006294124183013949
-0.2038279764716488   -0.02630030467632628   0.005395546385922677
-0.2038279764716488   -0.02630030467632628   0.005395546385922677
-0.2038279764716488   -0.02630030467632628   0.005395546385922677
-0.2038279764716488   -0.02630030467632628   0.005395546385922677
-0.19658800909511787   -0.012023640495009764   -0.0019339588431736485
-0.19658800909511787   -0.012023640495009764   -0.0019339588431736485
-0.19658800909511787   -0.012023640495009764   -0.0019339588431736485
-0.19658800909511787   -0.012023640495009764   -0.0019339588431736485
-0.1687584709312836   -0.0034941197058407075   0.0017777659697776824
-0.1687584709312836   -0.0034941197058407075   0.0017777659697776824
-0.1687584709312836   -0.0034941197058407075   0.0017777659697776824
-0.1687584709312836   -0.0034941197058407075   0.0017777659697776824
-0.18710394552206353   -0.01575881002478742   -0.0050114638784024765
-0.18710394552206353   -0.01575881002478742   -0.0050114638784024765
-0.18710394552206353   -0.01575881002478742   -0.0050114638784024765
-0.18710394552206353   -0.01575881002478742   -0.0050114638784024765
-0.1688779953776588   -0.005464700980395193   0.0031507250124554395
-0.1688779953776588   -0.005464700980395193   0.0031507250124554395
-0.1688779953776588   -0.005464700980395193   0.0031507250124554395
-0.1688779953776588   -0.005464700980395193   0.0031507250124554395
-0.19526790178332587   -0.008852476355043727   0.0014954135758202328
-0.19526790178332587   -0.008852476355043727   0.0014954135758202328
-0.19526790178332587   -0.008852476355043727   0.0014954135758202328
-0.19526790178332587   -0.008852476355043727   0.0014954135758202328
-0.18705569963391963   0.007766935318465701   -0.004897602013853301
-0.18705569963391963   0.007766935318465701   -0.004897602013853301
-0.18705569963391963   0.007766935318465701   -0.004897602013853301
-0.18705569963391963   0.007766935318465701   -0.004897602013853301
-0.15972200196345462   0.014433909108129793   -0.0019894908670095857
-0.15972200196345462   0.014433909108129793   -0.0019894908670095857
-0.15972200196345462   0.014433909108129793   -0.0019894908670095857
-0.15972200196345462   0.014433909108129793   -0.0019894908670095857
-0.1771404828015899   0.001920596612580169   0.0026781591509189365
-0.1771404828015899   0.001920596612580169   0.0026781591509189365
-0.1771404828015899   0.001920596612580169   0.0026781591509189365
-0.1771404828015899   0.001920596612580169   0.0026781591509189365
-0.15938516365921024   0.014255237390538699   -0.00012662762819769247
-0.15938516365921024   0.014255237390538699   -0.00012662762819769247
-0.15938516365921024   0.014255237390538699   -0.00012662762819769247
-0.15938516365921024   0.014255237390538699   -0.00012662762819769247
-0.186344088160164   0.008994056814056371   -0.002566666140667327
-0.186344088160164   0.008994056814056371   -0.002566666140667327
-0.186344088160164   0.008994056814056371   -0.002566666140667327
-0.186344088160164   0.008994056814056371   -0.002566666140667327
-0.17792742060802302   0.02768228198020815   -0.00823518490664792
-0.17792742060802302   0.02768228198020815   -0.00823518490664792
-0.17792742060802302   0.02768228198020815   -0.00823518490664792
-0.17792742060802302   0.02768228198020815   -0.00823518490664792
-0.15112039328893745   0.03243538902710705   -0.006133742501178978
-0.15112039328893745   0.03243538902710705   -0.006133742501178978
-0.15112039328893745   0.03243538902710705   -0.006133742501178978
-0.15112039328893745   0.03243538902710705   -0.006133742501178978
-0.1676442344445634   0.019633414012488012   0.010007181902704401
-0.1676442344445634   0.019633414012488012   0.010007181902704401
-0.1676442344445634   0.019633414012488012   0.010007181902704401
-0.1676442344445634   0.019633414012488012   0.010007181902704401
-0.20961168262123825   -0.039741102990797667   -0.010082186047555307
-0.20961168262123825   -0.039741102990797667   -0.010082186047555307
-0.20961168262123825   -0.039741102990797667   -0.010082186047555307
-0.20961168262123825   -0.039741102990797667   -0.010082186047555307
-0.22493461466667483   -0.011480822647793196   0.01908685446263861
-0.22493461466667483   -0.011480822647793196   0.01908685446263861
-0.22493461466667483   -0.011480822647793196   0.01908685446263861
-0.22493461466667483   -0.011480822647793196   0.01908685446263861
-0.22864727984234812   -0.027552408965014416   -0.018932158215144546
-0.22864727984234812   -0.027552408965014416   -0.018932158215144546
-0.22864727984234812   -0.027552408965014416   -0.018932158215144546
-0.22864727984234812   -0.027552408965014416   -0.018932158215144546
-0.18819129756051312   0.011869179359521118   0.016156778975319294
-0.18819129756051312   0.011869179359521118   0.016156778975319294
-0.18819129756051312   0.011869179359521118   0.016156778975319294
-0.18819129756051312   0.011869179359521118   0.016156778975319294
-0.2119484220016886   -0.01565308780521553   -0.0031554247660515594
-0.2119484220016886   -0.01565308780521553   -0.0031554247660515594
-0.2119484220016886   -0.01565308780521553   -0.0031554247660515594
-0.2119484220016886   -0.01565308780521553   -0.0031554247660515594
-0.20062842428172273   -0.020828451053418583   -0.013331224217790774
-0.20062842428172273   -0.020828451053418583   -0.013331224217790774
-0.20062842428172273   -0.020828451053418583   -0.013331224217790774
-0.20062842428172273   -0.020828451053418583   -0.013331224217790774
-0.21495163111935228   0.006403743449711251   0.01558993298510912
-0.21495163111935228   0.006403743449711251   0.01558993298510912
-0.21495163111935228   0.006403743449711251   0.01558993298510912
-0.21495163111935228   0.006403743449711251   0.01558993298510912
-0.21611344787396525   -0.008788134089532407   -0.02124306195298504
-0.21611344787396525   -0.008788134089532407   -0.02124306195298504
-0.21611344787396525   -0.008788134089532407   -0.02124306195298504
-0.21611344787396525   -0.008788134089532407   -0.02124306195298504
-0.17962213137040045   0.028035093077327218   0.012002081544879507
-0.17962213137040045   0.028035093077327218   0.012002081544879507
-0.17962213137040045   0.028035093077327218   0.012002081544879507
-0.17962213137040045   0.028035093077327218   0.012002081544879507
-0.20059876440225122   0.001382170440729396   0.004786898006239479
-0.20059876440225122   0.001382170440729396   0.004786898006239479
-0.20059876440225122   0.001382170440729396   0.004786898006239479
-0.20059876440225122   0.001382170440729396   0.004786898006239479
-0.19167257069016405   -0.00307862554791221   -0.01713639642870058
-0.19167257069016405   -0.00307862554791221   -0.01713639642870058
-0.19167257069016405   -0.00307862554791221   -0.01713639642870058
-0.19167257069016405   -0.00307862554791221   -0.01713639642870058
-0.20279122433506439   0.02359736875484692   0.012982552897141932
-0.20279122433506439   0.02359736875484692   0.012982552897141932
-0.20279122433506439   0.02359736875484692   0.012982552897141932
-0.20279122433506439   0.02359736875484692   0.012982552897141932
-0.20515143303031408   0.011866901874917282   -0.023317881763689825
-0.20515143303031408   0.011866901874917282   -0.023317881763689825
-0.20515143303031408   0.011866901874917282   -0.023317881763689825
-0.20515143303031408   0.011866901874917282   -0.023317881763689825
-0.17102981667008282   0.04603144997393639   0.007903666789324911
-0.17102981667008282   0.04603144997393639   0.007903666789324911
-0.17102981667008282   0.04603144997393639   0.007903666789324911
-0.17102981667008282   0.04603144997393639   0.007903666789324911
-0.19099802359772744   0.01826000319822071   0.012371824313088017
-0.19099802359772744   0.01826000319822071   0.012371824313088017
-0.19099802359772744   0.01826000319822071   0.012371824313088017
-0.19099802359772744   0.01826000319822071   0.012371824313088017
-0.2409656226488542   -0.047219719260510384   -0.025329288835544958
-0.2409656226488542   -0.047219719260510384   -0.025329288835544958
-0.2409656226488542   -0.047219719260510384   -0.025329288835544958
-0.2409656226488542   -0.047219719260510384   -0.025329288835544958
-0.2678346319595312   0.003333473822729985   0.03446426438624689
-0.2678346319595312   0.003333473822729985   0.03446426438624689
-0.2678346319595312   0.003333473822729985   0.03446426438624689
-0.2678346319595312   0.003333473822729985   0.03446426438624689
-0.2644307501016196   -0.03953413188308936   -0.03378350440893014
-0.2644307501016196   -0.03953413188308936   -0.03378350440893014
-0.2644307501016196   -0.03953413188308936   -0.03378350440893014
-0.2644307501016196   -0.03953413188308936   -0.03378350440893014
-0.2072109888119603   0.029807619840531867   0.030889268131246532
-0.2072109888119603   0.029807619840531867   0.030889268131246532
-0.2072109888119603   0.029807619840531867   0.030889268131246532
-0.2072109888119603   0.029807619840531867   0.030889268131246532
-0.2352600166708537   -0.010246116017557828   -0.0014565185924704169
-0.2352600166708537   -0.010246116017557828   -0.0014565185924704169
-0.2352600166708537   -0.010246116017557828   -0.0014565185924704169
-0.2352600166708537   -0.010246116017557828   -0.0014565185924704169
-0.23154319226847883   -0.03199395441402964   -0.02897017489678758
-0.23154319226847883   -0.03199395441402964   -0.02897017489678758
-0.23154319226847883   -0.03199395441402964   -0.02897017489678758
-0.23154319226847883   -0.03199395441402964   -0.02897017489678758
-0.23876883915941258   0.023597149857165205   0.03139476856185016
-0.23876883915941258   0.023597149857165205   0.03139476856185016
-0.23876883915941258   0.023597149857165205   0.03139476856185016
-0.23876883915941258   0.023597149857165205   0.03139476856185016
-0.2426987239018698   -0.02858999597805095   -0.04028701760907089
-0.2426987239018698   -0.02858999597805095   -0.04028701760907089
-0.2426987239018698   -0.02858999597805095   -0.04028701760907089
-0.2426987239018698   -0.02858999597805095   -0.04028701760907089
-0.19754505789580387   0.03751687909034411   0.025293874757945367
-0.19754505789580387   0.03751687909034411   0.025293874757945367
-0.19754505789580387   0.03751687909034411   0.025293874757945367
-0.19754505789580387   0.03751687909034411   0.025293874757945367
-0.22064075563546784   0.0012048859828835932   0.006151007488929973
-0.22064075563546784   0.0012048859828835932   0.006151007488929973
-0.22064075563546784   0.0012048859828835932   0.006151007488929973
-0.22064075563546784   0.0012048859828835932   0.006151007488929973
-0.22141184940842176   -0.022983215250422972   -0.03353998846437904
-0.22141184940842176   -0.022983215250422972   -0.03353998846437904
-0.22141184940842176   -0.022983215250422972   -0.03353998846437904
-0.22141184940842176   -0.022983215250422972   -0.03353998846437904
-0.21743718509846152   0.03330484565350396   0.024125834776417568
-0.21743718509846152   0.03330484565350396   0.024125834776417568
-0.21743718509846152   0.03330484565350396   0.024125834776417568
-0.21743718509846152   0.03330484565350396   0.024125834776417568
-0.21411116528118262   -0.009684522018409879   -0.04405005506142837
-0.21411116528118262   -0.009684522018409879   -0.04405005506142837
-0.21411116528118262   -0.009684522018409879   -0.04405005506142837
-0.21411116528118262   -0.009684522018409879   -0.04405005506142837
-0.18890155540192774   0.048964496100299584   0.020833912152859402
-0.18890155540192774   0.048964496100299584   0.020833912152859402
-0.18890155540192774   0.048964496100299584   0.020833912152859402
-0.18890155540192774   0.048964496100299584   0.020833912152859402
-0.20045900352530846   0.012622377204895065   0.014981401278788352
-0.20045900352530846   0.012622377204895065   0.014981401278788352
-0.20045900352530846   0.012622377204895065   0.014981401278788352
-0.20045900352530846   0.012622377204895065   0.014981401278788352
0.14606055893139064   0.023532181268877534   0.03762248739679891
0.14606055893139064   0.023532181268877534   0.03762248739679891
0.14606055893139064   0.023532181268877534   0.03762248739679891
0.14606055893139064   0.023532181268877534   0.03762248739679891
-0.0029888054441633946   -0.06037784620212026   -0.024774973902896284
-0.0029888054441633946   -0.06037784620212026   -0.024774973902896284
-0.0029888054441633946   -0.06037784620212026   -0.024774973902896284
-0.0029888054441633946   -0.06037784620212026   -0.024774973902896284
0.032347785117595264   0.011697749971906243   0.029045831497010323
0.032347785117595264   0.011697749971906243   0.029045831497010323
0.032347785117595264   0.011697749971906243   0.029045831497010323
0.032347785117595264   0.011697749971906243   0.029045831497010323
0.1521406460429208   -0.020877165524834315   -0.03104696259513174
0.1521406460429208   -0.020877165524834315   -0.03104696259513174
0.1521406460429208   -0.020877165524834315   -0.03104696259513174
0.1521406460429208   -0.020877165524834315   -0.03104696259513174
0.07458997811570438   -0.011625782343773242   -0.0179751016424994
0.07458997811570438   -0.011625782343773242   -0.0179751016424994
0.07458997811570438   -0.011625782343773242   -0.0179751016424994
0.07458997811570438   -0.011625782343773242   -0.0179751016424994
0.17766229133526576   0.04174025382032438   0.03394384452143052
0.17766229133526576   0.04174025382032438   0.03394384452143052
0.17766229133526576   0.04174025382032438   0.03394384452143052
0.17766229133526576   0.04174025382032438   0.03394384452143052
0.008409484440219096   -0.049336324758284304   -0.029611597159679984
0.008409484440219096   -0.049336324758284304   -0.029611597159679984
0.008409484440219096   -0.049336324758284304   -0.029611597159679984
0.008409484440219096   -0.049336324758284304   -0.029611597159679984
0.04512890871516613   0.020465632647988646   0.024224465386374634
0.04512890871516613   0.020465632647988646   0.024224465386374634
0.04512890871516613   0.020465632647988646   0.024224465386374634
0.04512890871516613   0.020465632647988646   0.024224465386374634
0.17676552630876707   -0.01097599725164538   -0.03880011411527239
0.17676552630876707   -0.01097599725164538   -0.03880011411527239
0.17676552630876707   -0.01097599725164538   -0.03880011411527239
0.17676552630876707   -0.01097599725164538   -0.03880011411527239
0.09682790400574856   -0.0007107320569531119   -0.00849448610018387
0.09682790400574856   -0.0007107320569531119   -0.00849448610018387
0.09682790400574856   -0.0007107320569531119   -0.00849448610018387
0.09682790400574856   -0.0007107320569531119   -0.00849448610018387
0.2025535251775669   0.052448699548841786   0.026715183428239534
0.2025535251775669   0.052448699548841786   0.026715183428239534
0.2025535251775669   0.052448699548841786   0.026715183428239534
0.2025535251775669   0.052448699548841786   0.026715183428239534
0.02088366040724754   -0.041416313591620166   -0.03511982991361145
0.02088366040724754   -0.041416313591620166   -0.03511982991361145
0.02088366040724754   -0.041416313591620166   -0.03511982991361145
0.02088366040724754   -0.041416313591620166   -0.03511982991361145
0.057526732138606526   0.036592247324619076   0.020960803676610514
0.057526732138606526   0.036592247324619076   0.020960803676610514
0.057526732138606526   0.036592247324619076   0.020960803676610514
0.057526732138606526   0.036592247324619076   0.020960803676610514
0.2094703791277001   0.011176003389666567   -0.042776906585410064
0.2094703791277001   0.011176003389666567   -0.042776906585410064
0.2094703791277001   0.011176003389666567   -0.042776906585410064
0.2094703791277001   0.011176003389666567   -0.042776906585410064
0.11541510950323441   0.011544229807727166   0.0004508983818361269
0.11541510950323441   0.011544229807727166   0.0004508983818361269
0.11541510950323441   0.011544229807727166   0.0004508983818361269
0.11541510950323441   0.011544229807727166   0.0004508983818361269
0.02046046776834912   0.006470606603971824   0.02562293935357421
0.02046046776834912   0.006470606603971824   0.02562293935357421
0.02046046776834912   0.006470606603971824   0.02562293935357421
0.02046046776834912   0.006470606603971824   0.02562293935357421
-0.13753455951661245   -0.05130084242947258   -0.011373027232753116
-0.13753455951661245   -0.05130084242947258   -0.011373027232753116
-0.13753455951661245   -0.05130084242947258   -0.011373027232753116
-0.13753455951661245   -0.05130084242947258   -0.011373027232753116
-0.11529644933231074   -0.007522059101928295   0.011664582410354736
-0.11529644933231074   -0.007522059101928295   0.011664582410354736
-0.11529644933231074   -0.007522059101928295   0.011664582410354736
-0.11529644933231074   -0.007522059101928295   0.011664582410354736
0.02126625114325127   -0.005679745881511768   -0.008984342521291653
0.02126625114325127   -0.005679745881511768   -0.008984342521291653
0.02126625114325127   -0.005679745881511768   -0.008984342521291653
0.02126625114325127   -0.005679745881511768   -0.008984342521291653
-0.05392199697805476   -0.013194977744970285   -0.00861875669823447
-0.05392199697805476   -0.013194977744970285   -0.00861875669823447
-0.05392199697805476   -0.013194977744970285   -0.00861875669823447
-0.05392199697805476   -0.013194977744970285   -0.00861875669823447
0.03364059630318177   0.024478300852057572   0.022729336544791548
0.03364059630318177   0.024478300852057572   0.022729336544791548
0.03364059630318177   0.024478300852057572   0.022729336544791548
0.03364059630318177   0.024478300852057572   0.022729336544791548
-0.1265140287313761   -0.03652334007462993   -0.015422033612270427
-0.1265140287313761   -0.03652334007462993   -0.015422033612270427
-0.1265140287313761   -0.03652334007462993   -0.015422033612270427
-0.1265140287313761   -0.03652334007462993   -0.015422033612270427
-0.10364998746830449   0.00950176595176616   0.008238483400747714
-0.10364998746830449   0.00950176595176616   0.008238483400747714
-0.10364998746830449   0.00950176595176616   0.008238483400747714
-0.10364998746830449   0.00950176595176616   0.008238483400747714
0.035848325390075736   0.010453121189135939   -0.012165939780224606
0.035848325390075736   0.010453121189135939   -0.012165939780224606
0.035848325390075736   0.010453121189135939   -0.012165939780224606
0.035848325390075736   0.010453121189135939   -0.012165939780224606
-0.04157322424830669   0.001805547118433049   -0.0010667188100484575
-0.04157322424830669   0.001805547118433049   -0.0010667188100484575
-0.04157322424830669   0.001805547118433049   -0.0010667188100484575
-0.04157322424830669   0.001805547118433049   -0.0010667188100484575
0.04874573082844996   0.04240671220927256   0.020367496391509896
0.04874573082844996   0.04240671220927256   0.020367496391509896
0.04874573082844996   0.04240671220927256   0.020367496391509896
0.04874573082844996   0.04240671220927256   0.020367496391509896
-0.11543250712487266   -0.021336939286561833   -0.019835409643765088
-0.11543250712487266   -0.021336939286561833   -0.019835409643765088
-0.11543250712487266   -0.021336939286561833   -0.019835409643765088
-0.11543250712487266   -0.021336939286561833   -0.019835409643765088
-0.09193066729066249   0.02877823486151342   0.004972771865357294
-0.09193066729066249   0.02877823486151342   0.004972771865357294
-0.09193066729066249   0.02877823486151342   0.004972771865357294
-0.09193066729066249   0.02877823486151342   0.004972771865357294
0.04866526184357207   0.028771622028400147   -0.015525922502342866
0.04866526184357207   0.028771622028400147   -0.015525922502342866
0.04866526184357207   0.028771622028400147   -0.015525922502342866
0.04866526184357207   0.028771622028400147   -0.015525922502342866
-0.027890822947929144   0.018392742869734864   0.006993995007536989
-0.027890822947929144   0.018392742869734864   0.006993995007536989
-0.027890822947929144   0.018392742869734864   0.006993995007536989
-0.027890822947929144   0.018392742869734864   0.006993995007536989
-0.12510685469406924   -0.009785215589913713   0.009249870040405953
-0.12510685469406924   -0.009785215589913713   0.009249870040405953
-0.12510685469406924   -0.009785215589913713   0.009249870040405953
-0.12510685469406924   -0.009785215589913713   0.009249870040405953
-0.2696236292053539   -0.03659556603726996   0.0023255071930006616
-0.2696236292053539   -0.03659556603726996   0.0023255071930006616
-0.2696236292053539   -0.03659556603726996   0.0023255071930006616
-0.2696236292053539   -0.03659556603726996   0.0023255071930006616
-0.2594541931232835   -0.023002858895861563   -0.005070207788311326
-0.2594541931232835   -0.023002858895861563   -0.005070207788311326
-0.2594541931232835   -0.023002858895861563   -0.005070207788311326
-0.2594541931232835   -0.023002858895861563   -0.005070207788311326
-0.11307041715343417   0.009577262064193195   0.005695422138616079
-0.11307041715343417   0.009577262064193195   0.005695422138616079
-0.11307041715343417   0.009577262064193195   0.005695422138616079
-0.11307041715343417   0.009577262064193195   0.005695422138616079
-0.192092989567854   -0.013736022467222444   -0.005036620732476807
-0.192092989567854   -0.013736022467222444   -0.005036620732476807
-0.192092989567854   -0.013736022467222444   -0.005036620732476807
-0.192092989567854   -0.013736022467222444   -0.005036620732476807
-0.11320268527374204   0.00848646079330249   0.006124882807967469
-0.11320268527374204   0.00848646079330249   0.006124882807967469
-0.11320268527374204   0.00848646079330249   0.006124882807967469
-0.11320268527374204   0.00848646079330249   0.006124882807967469
-0.25832597395550627   -0.020916106577504333   -0.0015158642677841686
-0.25832597395550627   -0.020916106577504333   -0.0015158642677841686
-0.25832597395550627   -0.020916106577504333   -0.0015158642677841686
-0.25832597395550627   -0.020916106577504333   -0.0015158642677841686
-0.24720106983535683   -0.004258490880796021   -0.00797242293973642
-0.24720106983535683   -0.004258490880796021   -0.00797242293973642
-0.24720106983535683   -0.004258490880796021   -0.00797242293973642
-0.24720106983535683   -0.004258490880796021   -0.00797242293973642
-0.10154056825251782   0.026175015777518296   0.0021123296539308743
-0.10154056825251782   0.026175015777518296   0.0021123296539308743
-0.10154056825251782   0.026175015777518296   0.0021123296539308743
-0.10154056825251782   0.026175015777518296   0.0021123296539308743
-0.17943696282419017   0.0027191835171388908   0.0025783376985737197
-0.17943696282419017   0.0027191835171388908   0.0025783376985737197
-0.17943696282419017   0.0027191835171388908   0.0025783376985737197
-0.17943696282419017   0.0027191835171388908   0.0025783376985737197
-0.10122574536939469   0.027086125474797218   0.00277533437226761
-0.10122574536939469   0.027086125474797218   0.00277533437226761
-0.10122574536939469   0.027086125474797218   0.00277533437226761
-0.10122574536939469   0.027086125474797218   0.00277533437226761
-0.2467171635986346   -0.004370871458230029   -0.0054405111786939575
-0.2467171635986346   -0.004370871458230029   -0.0054405111786939575
-0.2467171635986346   -0.004370871458230029   -0.0054405111786939575
-0.2467171635986346   -0.004370871458230029   -0.0054405111786939575
-0.23544092408916273   0.014542773364005404   -0.011276290016477258
-0.23544092408916273   0.014542773364005404   -0.011276290016477258
-0.23544092408916273   0.014542773364005404   -0.011276290016477258
-0.23544092408916273   0.014542773364005404   -0.011276290016477258
-0.09052084969949745   0.04282148748672799   -0.002021392804032079
-0.09052084969949745   0.04282148748672799   -0.002021392804032079
-0.09052084969949745   0.04282148748672799   -0.002021392804032079
-0.09052084969949745   0.04282148748672799   -0.002021392804032079
-0.16744772101943156   0.019131686908592547   0.009696399153536928
-0.16744772101943156   0.019131686908592547   0.009696399153536928
-0.16744772101943156   0.019131686908592547   0.009696399153536928
-0.16744772101943156   0.019131686908592547   0.009696399153536928
-0.2694357049270751   -0.02572041590247962   -0.007610021550393253
-0.2694357049270751   -0.02572041590247962   -0.007610021550393253
-0.2694357049270751   -0.02572041590247962   -0.007610021550393253
-0.2694357049270751   -0.02572041590247962   -0.007610021550393253
-0.4005514700524021   -0.02276765753393222   0.01575842140991013
-0.4005514700524021   -0.02276765753393222   0.01575842140991013
-0.4005514700524021   -0.02276765753393222   0.01575842140991013
-0.4005514700524021   -0.02276765753393222   0.01575842140991013
-0.4008500130079885   -0.03818117881276136   -0.021436296438617747
-0.4008500130079885   -0.03818117881276136   -0.021436296438617747
-0.4008500130079885   -0.03818117881276136   -0.021436296438617747
-0.4008500130079885   -0.03818117881276136   -0.021436296438617747
-0.2451253376721515   0.024189109886991644   0.019382100684493447
-0.2451253376721515   0.024189109886991644   0.019382100684493447
-0.2451253376721515   0.024189109886991644   0.019382100684493447
-0.2451253376721515   0.024189109886991644   0.019382100684493447
-0.32714278706999367   -0.014035507768525215   -0.0021352673015490736
-0.32714278706999367   -0.014035507768525215   -0.0021352673015490736
-0.32714278706999367   -0.014035507768525215   -0.0021352673015490736
-0.32714278706999367   -0.014035507768525215   -0.0021352673015490736
-0.2574340963515949   -0.007337710632420903   -0.010634872193309004
-0.2574340963515949   -0.007337710632420903   -0.010634872193309004
-0.2574340963515949   -0.007337710632420903   -0.010634872193309004
-0.2574340963515949   -0.007337710632420903   -0.010634872193309004
-0.3877130829955659   -0.005826186960368681   0.011893361771106198
-0.3877130829955659   -0.005826186960368681   0.011893361771106198
-0.3877130829955659   -0.005826186960368681   0.011893361771106198
-0.3877130829955659   -0.005826186960368681   0.011893361771106198
-0.3854629053653102   -0.020304262647328722   -0.023853923083490464
-0.3854629053653102   -0.020304262647328722   -0.023853923083490464
-0.3854629053653102   -0.020304262647328722   -0.023853923083490464
-0.3854629053653102   -0.020304262647328722   -0.023853923083490464
-0.23381139197035333   0.0392893350497816   0.015428140454703601
-0.23381139197035333   0.0392893350497816   0.015428140454703601
-0.23381139197035333   0.0392893350497816   0.015428140454703601
-0.23381139197035333   0.0392893350497816   0.015428140454703601
-0.3119231484787851   0.0025566382963595584   0.00571779802903441
-0.3119231484787851   0.0025566382963595584   0.00571779802903441
-0.3119231484787851   0.0025566382963595584   0.00571779802903441
-0.3119231484787851   0.0025566382963595584   0.00571779802903441
-0.2457103069761155   0.009551351451952628   -0.014328450976278384
-0.2457103069761155   0.009551351451952628   -0.014328450976278384
-0.2457103069761155   0.009551351451952628   -0.014328450976278384
-0.2457103069761155   0.009551351451952628   -0.014328450976278384
-0.37263374304931396   0.010363968260734262   0.009623657588427564
-0.37263374304931396   0.010363968260734262   0.009623657588427564
-0.37263374304931396   0.010363968260734262   0.009623657588427564
-0.37263374304931396   0.010363968260734262   0.009623657588427564
-0.3717027095852582   -0.0008205266122292242   -0.02568332322631245
-0.3717027095852582   -0.0008205266122292242   -0.02568332322631245
-0.3717027095852582   -0.0008205266122292242   -0.02568332322631245
-0.3717027095852582   -0.0008205266122292242   -0.02568332322631245
-0.22261648221211194   0.05594574445210451   0.01144294828067749
-0.22261648221211194   0.05594574445210451   0.01144294828067749
-0.22261648221211194   0.05594574445210451   0.01144294828067749
-0.22261648221211194   0.05594574445210451   0.01144294828067749
-0.30058868849895104   0.018010533735456524   0.012749914271242016
-0.30058868849895104   0.018010533735456524   0.012749914271242016
-0.30058868849895104   0.018010533735456524   0.012749914271242016
-0.30058868849895104   0.018010533735456524   0.012749914271242016
-0.4111725005687421   -0.036874858764588334   -0.023239529941133874
-0.4111725005687421   -0.036874858764588334   -0.023239529941133874
-0.4111725005687421   -0.036874858764588334   -0.023239529941133874
-0.4111725005687421   -0.036874858764588334   -0.023239529941133874
-0.5499775455112256   -0.009919947403354341   0.03430211823416443
-0.5499775455112256   -0.009919947403354341   0.03430211823416443
-0.5499775455112256   -0.009919947403354341   0.03430211823416443
-0.5499775455112256   -0.009919947403354341   0.03430211823416443
-0.54256264530131   -0.04965642884678674   -0.031079318816012197
-0.54256264530131   -0.04965642884678674   -0.031079318816012197
-0.54256264530131   -0.04965642884678674   -0.031079318816012197
-0.54256264530131   -0.04965642884678674   -0.031079318816012197
-0.37397661440834495   0.04093549475110904   0.03381402299572943
-0.37397661440834495   0.04093549475110904   0.03381402299572943
-0.37397661440834495   0.04093549475110904   0.03381402299572943
-0.37397661440834495   0.04093549475110904   0.03381402299572943
-0.4491673867495601   -0.007997268667117995   0.0038092151353210923
-0.4491673867495601   -0.007997268667117995   0.0038092151353210923
-0.4491673867495601   -0.007997268667117995   0.0038092151353210923
-0.4491673867495601   -0.007997268667117995   0.0038092151353210923
-0.3981484992597602   -0.01981643098110135   -0.026293475529134996
-0.3981484992597602   -0.01981643098110135   -0.026293475529134996
-0.3981484992597602   -0.01981643098110135   -0.026293475529134996
-0.3981484992597602   -0.01981643098110135   -0.026293475529134996
-0.5176357694887758   0.011850487846541559   0.03204814355332286
-0.5176357694887758   0.011850487846541559   0.03204814355332286
-0.5176357694887758   0.011850487846541559   0.03204814355332286
-0.5176357694887758   0.011850487846541559   0.03204814355332286
-0.5181267375076046   -0.039059874999426446   -0.03700821607910659
-0.5181267375076046   -0.039059874999426446   -0.03700821607910659
-0.5181267375076046   -0.039059874999426446   -0.03700821607910659
-0.5181267375076046   -0.039059874999426446   -0.03700821607910659
-0.36147290118041664   0.04790433305619752   0.027887502137448908
-0.36147290118041664   0.04790433305619752   0.027887502137448908
-0.36147290118041664   0.04790433305619752   0.027887502137448908
-0.36147290118041664   0.04790433305619752   0.027887502137448908
-0.4354391811691545   0.0031362387007309936   0.010140541454983457
-0.4354391811691545   0.0031362387007309936   0.010140541454983457
-0.4354391811691545   0.0031362387007309936   0.010140541454983457
-0.4354391811691545   0.0031362387007309936   0.010140541454983457
-0.38492684254041315   -0.011094855926197205   -0.030383015680136648
-0.38492684254041315   -0.011094855926197205   -0.030383015680136648
-0.38492684254041315   -0.011094855926197205   -0.030383015680136648
-0.38492684254041315   -0.011094855926197205   -0.030383015680136648
-0.49375270110665304   0.020859409023923102   0.024942681902298022
-0.49375270110665304   0.020859409023923102   0.024942681902298022
-0.49375270110665304   0.020859409023923102   0.024942681902298022
-0.49375270110665304   0.020859409023923102   0.024942681902298022
-0.4879612922492953   -0.02327315089232585   -0.041294585962915534
-0.4879612922492953   -0.02327315089232585   -0.041294585962915534
-0.4879612922492953   -0.02327315089232585   -0.041294585962915534
-0.4879612922492953   -0.02327315089232585   -0.041294585962915534
-0.35050511524448646   0.056256276973390154   0.02322784489192463
-0.35050511524448646   0.056256276973390154   0.02322784489192463
-0.35050511524448646   0.056256276973390154   0.02322784489192463
-0.35050511524448646   0.056256276973390154   0.02322784489192463
-0.40940118507671136   0.01354328655882903   0.019085721318810034
-0.40940118507671136   0.01354328655882903   0.019085721318810034
-0.40940118507671136   0.01354328655882903   0.019085721318810034
-0.40940118507671136   0.01354328655882903   0.019085721318810034
0.43418850771497003   0.03950022893659863   0.0374380886315647
0.43418850771497003   0.03950022893659863   0.0374380886315647
0.43418850771497003   0.03950022893659863   0.0374380886315647
0.43418850771497003   0.03950022893659863   0.0374380886315647
0.15874897210619138   -0.07171862374869044   -0.024631311072512842
0.15874897210619138   -0.07171862374869044   -0.024631311072512842
0.15874897210619138   -0.07171862374869044   -0.024631311072512842
0.15874897210619138   -0.07171862374869044   -0.024631311072512842
0.19565685063478713   -0.0005818612258033352   0.02691335430815682
0.19565685063478713   -0.0005818612258033352   0.02691335430815682
0.19565685063478713   -0.0005818612258033352   0.02691335430815682
0.19565685063478713   -0.0005818612258033352   0.02691335430815682
0.44185108860864203   -0.00960770040986405   -0.031462537638276306
0.44185108860864203   -0.00960770040986405   -0.031462537638276306
0.44185108860864203   -0.00960770040986405   -0.031462537638276306
0.44185108860864203   -0.00960770040986405   -0.031462537638276306
0.28869467722551245   -0.01287220200784489   -0.027765601369133266
0.28869467722551245   -0.01287220200784489   -0.027765601369133266
0.28869467722551245   -0.01287220200784489   -0.027765601369133266
0.28869467722551245   -0.01287220200784489   -0.027765601369133266
0.4675573952033319   0.05492319650944601   0.03253809841585885
0.4675573952033319   0.05492319650944601   0.03253809841585885
0.4675573952033319   0.05492319650944601   0.03253809841585885
0.4675573952033319   0.05492319650944601   0.03253809841585885
0.17178118014371402   -0.0632821220415021   -0.029764737331507918
0.17178118014371402   -0.0632821220415021   -0.029764737331507918
0.17178118014371402   -0.0632821220415021   -0.029764737331507918
0.17178118014371402   -0.0632821220415021   -0.029764737331507918
0.21012207971964136   0.007890597524121058   0.022176306352685537
0.21012207971964136   0.007890597524121058   0.022176306352685537
0.21012207971964136   0.007890597524121058   0.022176306352685537
0.21012207971964136   0.007890597524121058   0.022176306352685537
0.46836217971046407   1.3776490560224453e-05   -0.03958300481361776
0.46836217971046407   1.3776490560224453e-05   -0.03958300481361776
0.46836217971046407   1.3776490560224453e-05   -0.03958300481361776
0.46836217971046407   1.3776490560224453e-05   -0.03958300481361776
0.3164276897596382   -0.0024932669207730594   -0.016848066858381736
0.3164276897596382   -0.0024932669207730594   -0.016848066858381736
0.3164276897596382   -0.0024932669207730594   -0.016848066858381736
0.3164276897596382   -0.0024932669207730594   -0.016848066858381736
0.4943413440891882   0.065303756534671   0.02502283703588845
0.4943413440891882   0.065303756534671   0.02502283703588845
0.4943413440891882   0.065303756534671   0.02502283703588845
0.4943413440891882   0.065303756534671   0.02502283703588845
0.18608064138194902   -0.05546165647895791   -0.03467863133269336
0.18608064138194902   -0.05546165647895791   -0.03467863133269336
0.18608064138194902   -0.05546165647895791   -0.03467863133269336
0.18608064138194902   -0.05546165647895791   -0.03467863133269336
0.22456957680893033   0.026595153604171216   0.019219646805883
0.22456957680893033   0.026595153604171216   0.019219646805883
0.22456957680893033   0.026595153604171216   0.019219646805883
0.22456957680893033   0.026595153604171216   0.019219646805883
0.5032007975067535   0.025100038005430376   -0.04268262538165357
0.5032007975067535   0.025100038005430376   -0.04268262538165357
0.5032007975067535   0.025100038005430376   -0.04268262538165357
0.5032007975067535   0.025100038005430376   -0.04268262538165357
0.3334117270746176   0.010158276763933619   -0.007433043784587243
0.3334117270746176   0.010158276763933619   -0.007433043784587243
0.3334117270746176   0.010158276763933619   -0.007433043784587243
0.3334117270746176   0.010158276763933619   -0.007433043784587243
0.18845968545235842   0.022177781993998502   0.03002584991563144
0.18845968545235842   0.022177781993998502   0.03002584991563144
0.18845968545235842   0.022177781993998502   0.03002584991563144
0.18845968545235842   0.022177781993998502   0.03002584991563144
-0.09233365699968842   -0.06693615873095397   -0.012921391961069773
-0.09233365699968842   -0.06693615873095397   -0.012921391961069773
-0.09233365699968842   -0.06693615873095397   -0.012921391961069773
-0.09233365699968842   -0.06693615873095397   -0.012921391961069773
-0.06701833784260322   -0.01973095630920376   0.009044194326102883
-0.06701833784260322   -0.01973095630920376   0.009044194326102883
-0.06701833784260322   -0.01973095630920376   0.009044194326102883
-0.06701833784260322   -0.01973095630920376   0.009044194326102883
0.18979024202054076   0.000898151959188756   -0.0038997019480671302
0.18979024202054076   0.000898151959188756   -0.0038997019480671302
0.18979024202054076   0.000898151959188756   -0.0038997019480671302
0.18979024202054076   0.000898151959188756   -0.0038997019480671302
0.05224179766701631   -0.014048805470194726   -0.011792681709668422
0.05224179766701631   -0.014048805470194726   -0.011792681709668422
0.05224179766701631   -0.014048805470194726   -0.011792681709668422
0.05224179766701631   -0.014048805470194726   -0.011792681709668422
0.203333292047582   0.03789439236073187   0.02681930778559583
0.203333292047582   0.03789439236073187   0.02681930778559583
0.203333292047582   0.03789439236073187   0.02681930778559583
0.203333292047582   0.03789439236073187   0.02681930778559583
-0.07944968454532986   -0.055615493386437724   -0.01722800211029821
-0.07944968454532986   -0.055615493386437724   -0.01722800211029821
-0.07944968454532986   -0.055615493386437724   -0.01722800211029821
-0.07944968454532986   -0.055615493386437724   -0.01722800211029821
-0.053549332653886374   -0.003852195562480061   0.005705134505657492
-0.053549332653886374   -0.003852195562480061   0.005705134505657492
-0.053549332653886374   -0.003852195562480061   0.005705134505657492
-0.053549332653886374   -0.003852195562480061   0.005705134505657492
0.20567325832960617   0.015127245177219664   -0.007304448250585134
0.20567325832960617   0.015127245177219664   -0.007304448250585134
0.20567325832960617   0.015127245177219664   -0.007304448250585134
0.20567325832960617   0.015127245177219664   -0.007304448250585134
0.06524220848379612   -0.0015116472636139758   -0.0046841019212273665
0.06524220848379612   -0.0015116472636139758   -0.0046841019212273665
0.06524220848379612   -0.0015116472636139758   -0.0046841019212273665
0.06524220848379612   -0.0015116472636139758   -0.0046841019212273665
0.2197605946020968   0.05443388220450155   0.02382559608458236
0.2197605946020968   0.05443388220450155   0.02382559608458236
0.2197605946020968   0.05443388220450155   0.02382559608458236
0.2197605946020968   0.05443388220450155   0.02382559608458236
-0.06652397048597629   -0.04204613414936186   -0.020974116067910303
-0.06652397048597629   -0.04204613414936186   -0.020974116067910303
-0.06652397048597629   -0.04204613414936186   -0.020974116067910303
-0.06652397048597629   -0.04204613414936186   -0.020974116067910303
-0.04024372847874182   0.014571828388500652   0.002384099620473577
-0.04024372847874182   0.014571828388500652   0.002384099620473577
-0.04024372847874182   0.014571828388500652   0.002384099620473577
-0.04024372847874182   0.014571828388500652   0.002384099620473577
0.21973844121724442   0.032094885434556214   -0.010435762982931446
0.21973844121724442   0.032094885434556214   -0.010435762982931446
0.21973844121724442   0.032094885434556214   -0.010435762982931446
0.21973844121724442   0.032094885434556214   -0.010435762982931446
0.081361603694293   0.013887213884660805   0.003622406543246741
0.081361603694293   0.013887213884660805   0.003622406543246741
0.081361603694293   0.013887213884660805   0.003622406543246741
0.081361603694293   0.013887213884660805   0.003622406543246741
-0.07283068775651948   0.004857816598884148   0.012799478924936828
-0.07283068775651948   0.004857816598884148   0.012799478924936828
-0.07283068775651948   0.004857816598884148   0.012799478924936828
-0.07283068775651948   0.004857816598884148   0.012799478924936828
-0.33844394182562487   -0.0591676489819119   -0.001749015538239293
-0.33844394182562487   -0.0591676489819119   -0.001749015538239293
-0.33844394182562487   -0.0591676489819119   -0.001749015538239293
-0.33844394182562487   -0.0591676489819119   -0.001749015538239293
-0.3225014755534859   -0.03503564980976534   -0.007938078831124823
-0.3225014755534859   -0.03503564980976534   -0.007938078831124823
-0.3225014755534859   -0.03503564980976534   -0.007938078831124823
-0.3225014755534859   -0.03503564980976534   -0.007938078831124823
-0.06136456880395385   0.009102021488230097   0.008480061721913956
-0.06136456880395385   0.009102021488230097   0.008480061721913956
-0.06136456880395385   0.009102021488230097   0.008480061721913956
-0.06136456880395385   0.009102021488230097   0.008480061721913956
-0.199131176385134   -0.01815691488382845   -0.0073708992620333605
-0.199131176385134   -0.01815691488382845   -0.0073708992620333605
-0.199131176385134   -0.01815691488382845   -0.0073708992620333605
-0.199131176385134   -0.01815691488382845   -0.0073708992620333605
-0.05869062237995672   0.021253749714326493   0.009698065615805116
-0.05869062237995672   0.021253749714326493   0.009698065615805116
-0.05869062237995672   0.021253749714326493   0.009698065615805116
-0.05869062237995672   0.021253749714326493   0.009698065615805116
-0.32442435056075564   -0.04643630661913401   -0.006151797058104799
-0.32442435056075564   -0.04643630661913401   -0.006151797058104799
-0.32442435056075564   -0.04643630661913401   -0.006151797058104799
-0.32442435056075564   -0.04643630661913401   -0.006151797058104799
-0.3076510835281328   -0.017613631439325622   -0.010720391154673735
-0.3076510835281328   -0.017613631439325622   -0.010720391154673735
-0.3076510835281328   -0.017613631439325622   -0.010720391154673735
-0.3076510835281328   -0.017613631439325622   -0.010720391154673735
-0.04825803953404411   0.023479982477616616   0.004829422064770189
-0.04825803953404411   0.023479982477616616   0.004829422064770189
-0.04825803953404411   0.023479982477616616   0.004829422064770189
-0.04825803953404411   0.023479982477616616   0.004829422064770189
-0.1841486512362001   -0.0035839331781819216   -0.00010786934100738554
-0.1841486512362001   -0.0035839331781819216   -0.00010786934100738554
-0.1841486512362001   -0.0035839331781819216   -0.00010786934100738554
-0.1841486512362001   -0.0035839331781819216   -0.00010786934100738554
-0.04502792739842466   0.038289225884706304   0.006170739335777758
-0.04502792739842466   0.038289225884706304   0.006170739335777758
-0.04502792739842466   0.038289225884706304   0.006170739335777758
-0.04502792739842466   0.038289225884706304   0.006170739335777758
-0.3101853540022924   -0.03172703318495549   -0.00927834177984202
-0.3101853540022924   -0.03172703318495549   -0.00927834177984202
-0.3101853540022924   -0.03172703318495549   -0.00927834177984202
-0.3101853540022924   -0.03172703318495549   -0.00927834177984202
-0.2938241331939237   -0.0002421216797624942   -0.014036155142058263
-0.2938241331939237   -0.0002421216797624942   -0.014036155142058263
-0.2938241331939237   -0.0002421216797624942   -0.014036155142058263
-0.2938241331939237   -0.0002421216797624942   -0.014036155142058263
-0.03575968736511556   0.03815680515914279   0.0012193284179627755
-0.03575968736511556   0.03815680515914279   0.0012193284179627755
-0.03575968736511556   0.03815680515914279   0.0012193284179627755
-0.03575968736511556   0.03815680515914279   0.0012193284179627755
-0.1703924755903463   0.01093604350426077   0.006799876115279976
-0.1703924755903463   0.01093604350426077   0.006799876115279976
-0.1703924755903463   0.01093604350426077   0.006799876115279976
-0.1703924755903463   0.01093604350426077   0.006799876115279976
-0.3298005936806361   -0.012757626083834798   -0.00494229771136874
-0.3298005936806361   -0.012757626083834798   -0.00494229771136874
-0.3298005936806361   -0.012757626083834798   -0.00494229771136874
-0.3298005936806361   -0.012757626083834798   -0.00494229771136874
-0.5792452986965438   -0.048056229703699604   0.010980657695952134
-0.5792452986965438   -0.048056229703699604   0.010980657695952134
-0.5792452986965438   -0.048056229703699604   0.010980657695952134
-0.5792452986965438   -0.048056229703699604   0.010980657695952134
-0.5716454581870243   -0.04976323259888248   -0.02385949123000436
-0.5716454581870243   -0.04976323259888248   -0.02385949123000436
-0.5716454581870243   -0.04976323259888248   -0.02385949123000436
-0.5716454581870243   -0.04976323259888248   -0.02385949123000436
-0.30515789355232803   0.022502047876749812   0.021242133488152418
-0.30515789355232803   0.022502047876749812   0.021242133488152418
-0.30515789355232803   0.022502047876749812   0.021242133488152418
-0.30515789355232803   0.022502047876749812   0.021242133488152418
-0.44337463765028345   -0.0192706656260734   -0.002578563023457381
-0.44337463765028345   -0.0192706656260734   -0.002578563023457381
-0.44337463765028345   -0.0192706656260734   -0.002578563023457381
-0.44337463765028345   -0.0192706656260734   -0.002578563023457381
-0.31443239171608145   0.0049380142087783584   -0.007566323662643058
-0.31443239171608145   0.0049380142087783584   -0.007566323662643058
-0.31443239171608145   0.0049380142087783584   -0.007566323662643058
-0.31443239171608145   0.0049380142087783584   -0.007566323662643058
-0.5623074689848564   -0.03213570789249659   0.005202930074448858
-0.5623074689848564   -0.03213570789249659   0.005202930074448858
-0.5623074689848564   -0.03213570789249659   0.005202930074448858
-0.5623074689848564   -0.03213570789249659   0.005202930074448858
-0.5522104893807052   -0.032754467652082384   -0.026391775644264412
-0.5522104893807052   -0.032754467652082384   -0.026391775644264412
-0.5522104893807052   -0.032754467652082384   -0.026391775644264412
-0.5522104893807052   -0.032754467652082384   -0.026391775644264412
-0.2913468301944421   0.03619689644622629   0.016990347628229978
-0.2913468301944421   0.03619689644622629   0.016990347628229978
-0.2913468301944421   0.03619689644622629   0.016990347628229978
-0.2913468301944421   0.03619689644622629   0.016990347628229978
-0.42357220545881685   -0.003170645991258752   0.004716211210945037
-0.42357220545881685   -0.003170645991258752   0.004716211210945037
-0.42357220545881685   -0.003170645991258752   0.004716211210945037
-0.42357220545881685   -0.003170645991258752   0.004716211210945037
-0.3000538985699284   0.020737988398608947   -0.011086086201584543
-0.3000538985699284   0.020737988398608947   -0.011086086201584543
-0.3000538985699284   0.020737988398608947   -0.011086086201584543
-0.3000538985699284   0.020737988398608947   -0.011086086201584543
-0.5430172241922727   -0.01680936279151895   0.0036294454373344553
-0.5430172241922727   -0.01680936279151895   0.0036294454373344553
-0.5430172241922727   -0.01680936279151895   0.0036294454373344553
-0.5430172241922727   -0.01680936279151895   0.0036294454373344553
-0.5348352652620606   -0.014338010328410887   -0.027757042571950788
-0.5348352652620606   -0.014338010328410887   -0.027757042571950788
-0.5348352652620606   -0.014338010328410887   -0.027757042571950788
-0.5348352652620606   -0.014338010328410887   -0.027757042571950788
-0.2779708554263932   0.05123178953625418   0.013756322479579745
-0.2779708554263932   0.05123178953625418   0.013756322479579745
-0.2779708554263932   0.05123178953625418   0.013756322479579745
-0.2779708554263932   0.05123178953625418   0.013756322479579745
-0.4102628285846743   0.01057499109543689   0.011002368266415444
-0.4102628285846743   0.01057499109543689   0.011002368266415444
-0.4102628285846743   0.01057499109543689   0.011002368266415444
-0.4102628285846743   0.01057499109543689   0.011002368266415444
-0.5815787089446502   -0.027374273655440078   -0.02136834959283955
-0.5815787089446502   -0.027374273655440078   -0.02136834959283955
-0.5815787089446502   -0.027374273655440078   -0.02136834959283955
-0.5815787089446502   -0.027374273655440078   -0.02136834959283955
-0.8295051964293434   -0.0299996692401511   0.03699313876717111
-0.8295051964293434   -0.0299996692401511   0.03699313876717111
-0.8295051964293434   -0.0299996692401511   0.03699313876717111
-0.8295051964293434   -0.0299996692401511   0.03699313876717111
-0.8139488856472068   -0.059503537664876475   -0.02840886784533625
-0.8139488856472068   -0.059503537664876475   -0.02840886784533625
-0.8139488856472068   -0.059503537664876475   -0.02840886784533625
-0.8139488856472068   -0.059503537664876475   -0.02840886784533625
-0.5401519180603822   0.04619533086699626   0.037649645937323645
-0.5401519180603822   0.04619533086699626   0.037649645937323645
-0.5401519180603822   0.04619533086699626   0.037649645937323645
-0.5401519180603822   0.04619533086699626   0.037649645937323645
-0.6606125648563477   -0.008157539909874605   0.0077838238567758955
-0.6606125648563477   -0.008157539909874605   0.0077838238567758955
-0.6606125648563477   -0.008157539909874605   0.0077838238567758955
-0.6606125648563477   -0.008157539909874605   0.0077838238567758955
-0.5633651180247389   -0.008457679312339848   -0.023763343705121107
-0.5633651180247389   -0.008457679312339848   -0.023763343705121107
-0.5633651180247389   -0.008457679312339848   -0.023763343705121107
-0.5633651180247389   -0.008457679312339848   -0.023763343705121107
-0.7903320995932794   -0.00444694139597044   0.034618466155387384
-0.7903320995932794   -0.00444694139597044   0.034618466155387384
-0.7903320995932794   -0.00444694139597044   0.034618466155387384
-0.7903320995932794   -0.00444694139597044   0.034618466155387384
-0.7844389249404787   -0.04896134285892681   -0.03347485367811062
-0.7844389249404787   -0.04896134285892681   -0.03347485367811062
-0.7844389249404787   -0.04896134285892681   -0.03347485367811062
-0.7844389249404787   -0.04896134285892681   -0.03347485367811062
-0.5238710320710915   0.052694736846683854   0.029856306405037947
-0.5238710320710915   0.052694736846683854   0.029856306405037947
-0.5238710320710915   0.052694736846683854   0.029856306405037947
-0.5238710320710915   0.052694736846683854   0.029856306405037947
-0.645571586505266   0.0033577988925166044   0.013821542248695279
-0.645571586505266   0.0033577988925166044   0.013821542248695279
-0.645571586505266   0.0033577988925166044   0.013821542248695279
-0.645571586505266   0.0033577988925166044   0.013821542248695279
-0.5457849826318908   5.0562023298283965e-05   -0.027069271575573067
-0.5457849826318908   5.0562023298283965e-05   -0.027069271575573067
-0.5457849826318908   5.0562023298283965e-05   -0.027069271575573067
-0.5457849826318908   5.0562023298283965e-05   -0.027069271575573067
-0.7621183591500486   0.004089447194081913   0.02507718522101593
-0.7621183591500486   0.004089447194081913   0.02507718522101593
-0.7621183591500486   0.004089447194081913   0.02507718522101593
-0.7621183591500486   0.004089447194081913   0.02507718522101593
-0.7521273048214407   -0.03634849380153588   -0.03817381940575132
-0.7521273048214407   -0.03634849380153588   -0.03817381940575132
-0.7521273048214407   -0.03634849380153588   -0.03817381940575132
-0.7521273048214407   -0.03634849380153588   -0.03817381940575132
-0.5095902565465554   0.058711065960316895   0.02541892471684508
-0.5095902565465554   0.058711065960316895   0.02541892471684508
-0.5095902565465554   0.058711065960316895   0.02541892471684508
-0.5095902565465554   0.058711065960316895   0.02541892471684508
-0.6128899038201765   0.012908123099746482   0.02299985104049085
-0.6128899038201765   0.012908123099746482   0.02299985104049085
-0.6128899038201765   0.012908123099746482   0.02299985104049085
-0.6128899038201765   0.012908123099746482   0.02299985104049085
0.7263071887320561   0.054363881546515516   0.038222998777682815
0.7263071887320561   0.054363881546515516   0.038222998777682815
0.7263071887320561   0.054363881546515516   0.038222998777682815
0.7263071887320561   0.054363881546515516   0.038222998777682815
0.319959664725577   -0.0850571813301161   -0.017673836888379313
0.319959664725577   -0.0850571813301161   -0.017673836888379313
0.319959664725577   -0.0850571813301161   -0.017673836888379313
0.319959664725577   -0.0850571813301161   -0.017673836888379313
0.3564108628084077   -0.015160707998675083   0.026212650217933495
0.3564108628084077   -0.015160707998675083   0.026212650217933495
0.3564108628084077   -0.015160707998675083   0.026212650217933495
0.3564108628084077   -0.015160707998675083   0.026212650217933495
0.7341173797022151   -0.0008646813827679137   -0.02762618410610973
0.7341173797022151   -0.0008646813827679137   -0.02762618410610973
0.7341173797022151   -0.0008646813827679137   -0.02762618410610973
0.7341173797022151   -0.0008646813827679137   -0.02762618410610973
0.502931361062692   -0.015053998334943093   -0.039165865213809464
0.502931361062692   -0.015053998334943093   -0.039165865213809464
0.502931361062692   -0.015053998334943093   -0.039165865213809464
0.502931361062692   -0.015053998334943093   -0.039165865213809464
0.7595329457061676   0.0666154762028878   0.031971488327988046
0.7595329457061676   0.0666154762028878   0.031971488327988046
0.7595329457061676   0.0666154762028878   0.031971488327988046
0.7595329457061676   0.0666154762028878   0.031971488327988046
0.3334403900578606   -0.08019577233092634   -0.023604649202547234
0.3334403900578606   -0.08019577233092634   -0.023604649202547234
0.3334403900578606   -0.08019577233092634   -0.023604649202547234
0.3334403900578606   -0.08019577233092634   -0.023604649202547234
0.37058701870697064   -0.0073896706140898286   0.021174920666625463
0.37058701870697064   -0.0073896706140898286   0.021174920666625463
0.37058701870697064   -0.0073896706140898286   0.021174920666625463
0.37058701870697064   -0.0073896706140898286   0.021174920666625463
0.7590078003331083   0.007696337356216894   -0.03446784349034468
0.7590078003331083   0.007696337356216894   -0.03446784349034468
0.7590078003331083   0.007696337356216894   -0.03446784349034468
0.7590078003331083   0.007696337356216894   -0.03446784349034468
0.5342668549112397   -0.005921724464852292   -0.026671143813953996
0.5342668549112397   -0.005921724464852292   -0.026671143813953996
0.5342668549112397   -0.005921724464852292   -0.026671143813953996
0.5342668549112397   -0.005921724464852292   -0.026671143813953996
0.7842676542407878   0.07584752086683538   0.02368024253743431
0.7842676542407878   0.07584752086683538   0.02368024253743431
0.7842676542407878   0.07584752086683538   0.02368024253743431
0.7842676542407878   0.07584752086683538   0.02368024253743431
0.3474627194450546   -0.07340529947894994   -0.02843094677809456
0.3474627194450546   -0.07340529947894994   -0.02843094677809456
0.3474627194450546   -0.07340529947894994   -0.02843094677809456
0.3474627194450546   -0.07340529947894994   -0.02843094677809456
0.3834395896909044   0.013397311920384541   0.018564952008966212
0.3834395896909044   0.013397311920384541   0.018564952008966212
0.3834395896909044   0.013397311920384541   0.018564952008966212
0.3834395896909044   0.013397311920384541   0.018564952008966212
0.7896685366857019   0.03276164965637962   -0.03607723979939359
0.7896685366857019   0.03276164965637962   -0.03607723979939359
0.7896685366857019   0.03276164965637962   -0.03607723979939359
0.7896685366857019   0.03276164965637962   -0.03607723979939359
0.5458288879378289   0.006402808251631885   -0.018049832302962435
0.5458288879378289   0.006402808251631885   -0.018049832302962435
0.5458288879378289   0.006402808251631885   -0.018049832302962435
0.5458288879378289   0.006402808251631885   -0.018049832302962435
0.3539169288317491   0.031924414408355174   0.03513088790400781
0.3539169288317491   0.031924414408355174   0.03513088790400781
0.3539169288317491   0.031924414408355174   0.03513088790400781
0.3539169288317491   0.031924414408355174   0.03513088790400781
-0.0445997600846895   -0.10460774988671258   -0.010093234272157726
-0.0445997600846895   -0.10460774988671258   -0.010093234272157726
-0.0445997600846895   -0.10460774988671258   -0.010093234272157726
-0.0445997600846895   -0.10460774988671258   -0.010093234272157726
-0.013291008042402137   -0.03717008723799036   0.008840352128980206
-0.013291008042402137   -0.03717008723799036   0.008840352128980206
-0.013291008042402137   -0.03717008723799036   0.008840352128980206
-0.013291008042402137   -0.03717008723799036   0.008840352128980206
0.35084735722919524   -0.018567269629309546   0.0018016839525056422
0.35084735722919524   -0.018567269629309546   0.0018016839525056422
0.35084735722919524   -0.018567269629309546   0.0018016839525056422
0.35084735722919524   -0.018567269629309546   0.0018016839525056422
0.15733182286329234   -0.02894703409921068   -0.018575332578380302
0.15733182286329234   -0.02894703409921068   -0.018575332578380302
0.15733182286329234   -0.02894703409921068   -0.018575332578380302
0.15733182286329234   -0.02894703409921068   -0.018575332578380302
0.36918260901415717   0.04378225033093918   0.031128422917068577
0.36918260901415717   0.04378225033093918   0.031128422917068577
0.36918260901415717   0.04378225033093918   0.031128422917068577
0.36918260901415717   0.04378225033093918   0.031128422917068577
-0.030328975832109292   -0.09822232320298398   -0.015297250854561961
-0.030328975832109292   -0.09822232320298398   -0.015297250854561961
-0.030328975832109292   -0.09822232320298398   -0.015297250854561961
-0.030328975832109292   -0.09822232320298398   -0.015297250854561961
0.001160172675388398   -0.023240696563833613   0.005368928698366261
0.001160172675388398   -0.023240696563833613   0.005368928698366261
0.001160172675388398   -0.023240696563833613   0.005368928698366261
0.001160172675388398   -0.023240696563833613   0.005368928698366261
0.36567139650279906   -0.0080613062674561   -0.0027315547008658486
0.36567139650279906   -0.0080613062674561   -0.0027315547008658486
0.36567139650279906   -0.0080613062674561   -0.0027315547008658486
0.36567139650279906   -0.0080613062674561   -0.0027315547008658486
0.1698527321784217   -0.02038726316209481   -0.012024085336471854
0.1698527321784217   -0.02038726316209481   -0.012024085336471854
0.1698527321784217   -0.02038726316209481   -0.012024085336471854
0.1698527321784217   -0.02038726316209481   -0.012024085336471854
0.3849919248983289   0.05801152028579397   0.02779826072353299
0.3849919248983289   0.05801152028579397   0.02779826072353299
0.3849919248983289   0.05801152028579397   0.02779826072353299
0.3849919248983289   0.05801152028579397   0.02779826072353299
-0.017380975403897967   -0.08853414280083004   -0.02204336546106913
-0.017380975403897967   -0.08853414280083004   -0.02204336546106913
-0.017380975403897967   -0.08853414280083004   -0.02204336546106913
-0.017380975403897967   -0.08853414280083004   -0.02204336546106913
0.012508998271951868   -0.006891155890840071   0.0018634733353796876
0.012508998271951868   -0.006891155890840071   0.0018634733353796876
0.012508998271951868   -0.006891155890840071   0.0018634733353796876
0.012508998271951868   -0.006891155890840071   0.0018634733353796876
0.37675587731850907   0.005362464479153273   -0.006818762411783419
0.37675587731850907   0.005362464479153273   -0.006818762411783419
0.37675587731850907   0.005362464479153273   -0.006818762411783419
0.37675587731850907   0.005362464479153273   -0.006818762411783419
0.1852802563679971   -0.007569492412029808   -0.0049721417793117464
0.1852802563679971   -0.007569492412029808   -0.0049721417793117464
0.1852802563679971   -0.007569492412029808   -0.0049721417793117464
0.1852802563679971   -0.007569492412029808   -0.0049721417793117464
-0.01634298314881896   0.009099104970989574   0.01748379554949283
-0.01634298314881896   0.009099104970989574   0.01748379554949283
-0.01634298314881896   0.009099104970989574   0.01748379554949283
-0.01634298314881896   0.009099104970989574   0.01748379554949283
-0.40630701116267504   -0.13108246098988804   -0.008062441301005405
-0.40630701116267504   -0.13108246098988804   -0.008062441301005405
-0.40630701116267504   -0.13108246098988804   -0.008062441301005405
-0.40630701116267504   -0.13108246098988804   -0.008062441301005405
-0.3747418844808597   -0.05698382171470276   -0.00857183861584443
-0.3747418844808597   -0.05698382171470276   -0.00857183861584443
-0.3747418844808597   -0.05698382171470276   -0.00857183861584443
-0.3747418844808597   -0.05698382171470276   -0.00857183861584443
-0.01487389486585627   -0.04418138164602657   0.007937212419745742
-0.01487389486585627   -0.04418138164602657   0.007937212419745742
-0.01487389486585627   -0.04418138164602657   0.007937212419745742
-0.01487389486585627   -0.04418138164602657   0.007937212419745742
-0.20397238512151084   -0.05279351491137547   -0.01656853966614972
-0.20397238512151084   -0.05279351491137547   -0.01656853966614972
-0.20397238512151084   -0.05279351491137547   -0.01656853966614972
-0.20397238512151084   -0.05279351491137547   -0.01656853966614972
-0.0002878576949186251   0.022465462242779864   0.014220554385627552
-0.0002878576949186251   0.022465462242779864   0.014220554385627552
-0.0002878576949186251   0.022465462242779864   0.014220554385627552
-0.0002878576949186251   0.022465462242779864   0.014220554385627552
-0.38838771165896113   -0.12269045561067292   -0.011094340610381129
-0.38838771165896113   -0.12269045561067292   -0.011094340610381129
-0.38838771165896113   -0.12269045561067292   -0.011094340610381129
-0.38838771165896113   -0.12269045561067292   -0.011094340610381129
-0.35680972965725705   -0.041525585698641315   -0.011646728693306532
-0.35680972965725705   -0.041525585698641315   -0.011646728693306532
-0.35680972965725705   -0.041525585698641315   -0.011646728693306532
-0.35680972965725705   -0.041525585698641315   -0.011646728693306532
-0.0014184757214013698   -0.03407860304799384   0.003313593198577649
-0.0014184757214013698   -0.03407860304799384   0.003313593198577649
-0.0014184757214013698   -0.03407860304799384   0.003313593198577649
-0.0014184757214013698   -0.03407860304799384   0.003313593198577649
-0.18656445740637725   -0.041667305322698134   -0.00916933421828224
-0.18656445740637725   -0.041667305322698134   -0.00916933421828224
-0.18656445740637725   -0.041667305322698134   -0.00916933421828224
-0.18656445740637725   -0.041667305322698134   -0.00916933421828224
0.014401032173487835   0.037260348609312446   0.011072181015717384
0.014401032173487835   0.037260348609312446   0.011072181015717384
0.014401032173487835   0.037260348609312446   0.011072181015717384
0.014401032173487835   0.037260348609312446   0.011072181015717384
-0.3726156247300524   -0.11285092453385374   -0.019350865222070815
-0.3726156247300524   -0.11285092453385374   -0.019350865222070815
-0.3726156247300524   -0.11285092453385374   -0.019350865222070815
-0.3726156247300524   -0.11285092453385374   -0.019350865222070815
-0.344133250846049   -0.02677737096141353   -0.01507798870388534
-0.344133250846049   -0.02677737096141353   -0.01507798870388534
-0.344133250846049   -0.02677737096141353   -0.01507798870388534
-0.344133250846049   -0.02677737096141353   -0.01507798870388534
0.0074051696928338715   -0.025972931307912943   -0.004573894143139342
0.0074051696928338715   -0.025972931307912943   -0.004573894143139342
0.0074051696928338715   -0.025972931307912943   -0.004573894143139342
0.0074051696928338715   -0.025972931307912943   -0.004573894143139342
-0.17380123025885225   -0.0312733167849381   -0.004513388001456273
-0.17380123025885225   -0.0312733167849381   -0.004513388001456273
-0.17380123025885225   -0.0312733167849381   -0.004513388001456273
-0.17380123025885225   -0.0312733167849381   -0.004513388001456273
-0.3807061449161935   -0.010643870582097613   -0.0004967004763882371
-0.3807061449161935   -0.010643870582097613   -0.0004967004763882371
-0.3807061449161935   -0.010643870582097613   -0.0004967004763882371
-0.3807061449161935   -0.010643870582097613   -0.0004967004763882371
-0.7698728572368903   -0.14092923663006945   -0.006430628137916755
-0.7698728572368903   -0.14092923663006945   -0.006430628137916755
-0.7698728572368903   -0.14092923663006945   -0.006430628137916755
-0.7698728572368903   -0.14092923663006945   -0.006430628137916755
-0.7360832990959901   -0.07300687418567332   -0.025377071280331842
-0.7360832990959901   -0.07300687418567332   -0.025377071280331842
-0.7360832990959901   -0.07300687418567332   -0.025377071280331842
-0.7360832990959901   -0.07300687418567332   -0.025377071280331842
-0.3674705305298968   -0.04593353133271691   0.01673464075698447
-0.3674705305298968   -0.04593353133271691   0.01673464075698447
-0.3674705305298968   -0.04593353133271691   0.01673464075698447
-0.3674705305298968   -0.04593353133271691   0.01673464075698447
-0.5586261358861836   -0.06357340953999681   -0.011664243821579073
-0.5586261358861836   -0.06357340953999681   -0.011664243821579073
-0.5586261358861836   -0.06357340953999681   -0.011664243821579073
-0.5586261358861836   -0.06357340953999681   -0.011664243821579073
-0.36089374316431533   0.006536217089302507   -0.0028511708371275063
-0.36089374316431533   0.006536217089302507   -0.0028511708371275063
-0.36089374316431533   0.006536217089302507   -0.0028511708371275063
-0.36089374316431533   0.006536217089302507   -0.0028511708371275063
-0.7429250416006464   -0.12574157774677164   -0.006851080242508745
-0.7429250416006464   -0.12574157774677164   -0.006851080242508745
-0.7429250416006464   -0.12574157774677164   -0.006851080242508745
-0.7429250416006464   -0.12574157774677164   -0.006851080242508745
-0.7104195858817124   -0.05688978600224831   -0.029370308926872674
-0.7104195858817124   -0.05688978600224831   -0.029370308926872674
-0.7104195858817124   -0.05688978600224831   -0.029370308926872674
-0.7104195858817124   -0.05688978600224831   -0.029370308926872674
-0.3500784704356868   -0.0338513475337513   0.014335329249658066
-0.3500784704356868   -0.0338513475337513   0.014335329249658066
-0.3500784704356868   -0.0338513475337513   0.014335329249658066
-0.3500784704356868   -0.0338513475337513   0.014335329249658066
-0.5322021996851065   -0.04810824565660117   -0.0037633430550147173
-0.5322021996851065   -0.04810824565660117   -0.0037633430550147173
-0.5322021996851065   -0.04810824565660117   -0.0037633430550147173
-0.5322021996851065   -0.04810824565660117   -0.0037633430550147173
-0.3429246495828866   0.021444900199060233   -0.0051918142191558075
-0.3429246495828866   0.021444900199060233   -0.0051918142191558075
-0.3429246495828866   0.021444900199060233   -0.0051918142191558075
-0.3429246495828866   0.021444900199060233   -0.0051918142191558075
-0.7187828294499089   -0.11339545645045576   -0.014680856319642083
-0.7187828294499089   -0.11339545645045576   -0.014680856319642083
-0.7187828294499089   -0.11339545645045576   -0.014680856319642083
-0.7187828294499089   -0.11339545645045576   -0.014680856319642083
-0.6896504404576856   -0.039919226059794866   -0.03031917046940369
-0.6896504404576856   -0.039919226059794866   -0.03031917046940369
-0.6896504404576856   -0.039919226059794866   -0.03031917046940369
-0.6896504404576856   -0.039919226059794866   -0.03031917046940369
-0.3400983912588332   -0.026169856756800607   0.004488795027583661
-0.3400983912588332   -0.026169856756800607   0.004488795027583661
-0.3400983912588332   -0.026169856756800607   0.004488795027583661
-0.3400983912588332   -0.026169856756800607   0.004488795027583661
-0.5177644239091649   -0.0386906201292391   -0.00116922368206758
-0.5177644239091649   -0.0386906201292391   -0.00116922368206758
-0.5177644239091649   -0.0386906201292391   -0.00116922368206758
-0.5177644239091649   -0.0386906201292391   -0.00116922368206758
-0.7490721754069128   -0.024985819927265805   -0.01837063569083297
-0.7490721754069128   -0.024985819927265805   -0.01837063569083297
-0.7490721754069128   -0.024985819927265805   -0.01837063569083297
-0.7490721754069128   -0.024985819927265805   -0.01837063569083297
-1.1296273977773963   -0.0957660641287111   0.04218029202619583
-1.1296273977773963   -0.0957660641287111   0.04218029202619583
-1.1296273977773963   -0.0957660641287111   0.04218029202619583
-1.1296273977773963   -0.0957660641287111   0.04218029202619583
-1.09147598636696   -0.07654128026692533   -0.024709341425706327
-1.09147598636696   -0.07654128026692533   -0.024709341425706327
-1.09147598636696   -0.07654128026692533   -0.024709341425706327
-1.09147598636696   -0.07654128026692533   -0.024709341425706327
-0.7045445319209355   0.02040750513164554   0.03890238527761683
-0.7045445319209355   0.02040750513164554   0.03890238527761683
-0.7045445319209355   0.02040750513164554   0.03890238527761683
-0.7045445319209355   0.02040750513164554   0.03890238527761683
-0.8775220772731627   -0.029910020994656887   0.004493599246810337
-0.8775220772731627   -0.029910020994656887   0.004493599246810337
-0.8775220772731627   -0.029910020994656887   0.004493599246810337
-0.8775220772731627   -0.029910020994656887   0.004493599246810337
-0.7207885247971195   -0.001536612051788032   -0.020373461919860503
-0.7207885247971195   -0.001536612051788032   -0.020373461919860503
-0.7207885247971195   -0.001536612051788032   -0.020373461919860503
-0.7207885247971195   -0.001536612051788032   -0.020373461919860503
-1.072614285653514   -0.051979455246229433   0.045037337120820364
-1.072614285653514   -0.051979455246229433   0.045037337120820364
-1.072614285653514   -0.051979455246229433   0.045037337120820364
-1.072614285653514   -0.051979455246229433   0.045037337120820364
-1.050512867808322   -0.06449015773277221   -0.029426330754981134
-1.050512867808322   -0.06449015773277221   -0.029426330754981134
-1.050512867808322   -0.06449015773277221   -0.029426330754981134
-1.050512867808322   -0.06449015773277221   -0.029426330754981134
-0.6791881349110409   0.03237711939955846   0.03752004052467839
-0.6791881349110409   0.03237711939955846   0.03752004052467839
-0.6791881349110409   0.03237711939955846   0.03752004052467839
-0.6791881349110409   0.03237711939955846   0.03752004052467839
-0.8536021085376471   -0.012061377669344578   0.017559195766047364
-0.8536021085376471   -0.012061377669344578   0.017559195766047364
-0.8536021085376471   -0.012061377669344578   0.017559195766047364
-0.8536021085376471   -0.012061377669344578   0.017559195766047364
-0.6959938396582152   0.007893867738266329   -0.022025231549895413
-0.6959938396582152   0.007893867738266329   -0.022025231549895413
-0.6959938396582152   0.007893867738266329   -0.022025231549895413
-0.6959938396582152   0.007893867738266329   -0.022025231549895413
-1.0331600807683745   -0.03945982377869922   0.03230727049069318
-1.0331600807683745   -0.03945982377869922   0.03230727049069318
-1.0331600807683745   -0.03945982377869922   0.03230727049069318
-1.0331600807683745   -0.03945982377869922   0.03230727049069318
-1.008121077970003   -0.0531949300667706   -0.035580233995145066
-1.008121077970003   -0.0531949300667706   -0.035580233995145066
-1.008121077970003   -0.0531949300667706   -0.035580233995145066
-1.008121077970003   -0.0531949300667706   -0.035580233995145066
-0.6604972686770129   0.046560096040950044   0.02896736633321867
-0.6604972686770129   0.046560096040950044   0.02896736633321867
-0.6604972686770129   0.046560096040950044   0.02896736633321867
-0.6604972686770129   0.046560096040950044   0.02896736633321867
-0.8078746379766933   0.0031639743039049845   0.03073450839988154
-0.8078746379766933   0.0031639743039049845   0.03073450839988154
-0.8078746379766933   0.0031639743039049845   0.03073450839988154
-0.8078746379766933   0.0031639743039049845   0.03073450839988154
0.9897901317395529   0.05956243746452427   0.03559379007081584
0.9897901317395529   0.05956243746452427   0.03559379007081584
0.9897901317395529   0.05956243746452427   0.03559379007081584
0.9897901317395529   0.05956243746452427   0.03559379007081584
0.4712812160801143   -0.08792543771056965   0.0076709147637857855
0.4712812160801143   -0.08792543771056965   0.0076709147637857855
0.4712812160801143   -0.08792543771056965   0.0076709147637857855
0.4712812160801143   -0.08792543771056965   0.0076709147637857855
0.4970283680199885   -0.03729893634445826   0.02729155276763455
0.4970283680199885   -0.03729893634445826   0.02729155276763455
0.4970283680199885   -0.03729893634445826   0.02729155276763455
0.4970283680199885   -0.03729893634445826   0.02729155276763455
0.9948487418291241   0.009022414849222789   -0.008167407150893424
0.9948487418291241   0.009022414849222789   -0.008167407150893424
0.9948487418291241   0.009022414849222789   -0.008167407150893424
0.9948487418291241   0.009022414849222789   -0.008167407150893424
0.6955594329324976   -0.01872186145540379   -0.04602591724074609
0.6955594329324976   -0.01872186145540379   -0.04602591724074609
0.6955594329324976   -0.01872186145540379   -0.04602591724074609
0.6955594329324976   -0.01872186145540379   -0.04602591724074609
1.013538713785456   0.06617149645925485   0.028133371020732795
1.013538713785456   0.06617149645925485   0.028133371020732795
1.013538713785456   0.06617149645925485   0.028133371020732795
1.013538713785456   0.06617149645925485   0.028133371020732795
0.48280347987375805   -0.08998293414438915   0.008851109836413018
0.48280347987375805   -0.08998293414438915   0.008851109836413018
0.48280347987375805   -0.08998293414438915   0.008851109836413018
0.48280347987375805   -0.08998293414438915   0.008851109836413018
0.5067178749025586   -0.03171883185970291   0.020746235860636675
0.5067178749025586   -0.03171883185970291   0.020746235860636675
0.5067178749025586   -0.03171883185970291   0.020746235860636675
0.5067178749025586   -0.03171883185970291   0.020746235860636675
1.0120776311970119   0.015302696650099444   -0.002729106095537698
1.0120776311970119   0.015302696650099444   -0.002729106095537698
1.0120776311970119   0.015302696650099444   -0.002729106095537698
1.0120776311970119   0.015302696650099444   -0.002729106095537698
0.7240465627811915   -0.014763547479712973   -0.031499677617687016
0.7240465627811915   -0.014763547479712973   -0.031499677617687016
0.7240465627811915   -0.014763547479712973   -0.031499677617687016
0.7240465627811915   -0.014763547479712973   -0.031499677617687016
1.0279102003511793   0.07226472776914483   0.019471708556254602
1.0279102003511793   0.07226472776914483   0.019471708556254602
1.0279102003511793   0.07226472776914483   0.019471708556254602
1.0279102003511793   0.07226472776914483   0.019471708556254602
0.4939907626297278   -0.08557540609741153   0.010967248734191484
0.4939907626297278   -0.08557540609741153   0.010967248734191484
0.4939907626297278   -0.08557540609741153   0.010967248734191484
0.4939907626297278   -0.08557540609741153   0.010967248734191484
0.5210076314033091   -0.0099617336857887   0.018966748772188194
0.5210076314033091   -0.0099617336857887   0.018966748772188194
0.5210076314033091   -0.0099617336857887   0.018966748772188194
0.5210076314033091   -0.0099617336857887   0.018966748772188194
1.0300419893088377   0.029798943020985867   -0.0006999651018241848
1.0300419893088377   0.029798943020985867   -0.0006999651018241848
1.0300419893088377   0.029798943020985867   -0.0006999651018241848
1.0300419893088377   0.029798943020985867   -0.0006999651018241848
0.7273998569748636   -0.006687905935788406   -0.023624068083761468
0.7273998569748636   -0.006687905935788406   -0.023624068083761468
0.7273998569748636   -0.006687905935788406   -0.023624068083761468
0.7273998569748636   -0.006687905935788406   -0.023624068083761468
0.49750138835974156   0.013333661955729728   0.03751267649562276
0.49750138835974156   0.013333661955729728   0.03751267649562276
0.49750138835974156   0.013333661955729728   0.03751267649562276
0.49750138835974156   0.013333661955729728   0.03751267649562276
0.024799176378103912   -0.1743196987064111   0.01761984724139065
0.024799176378103912   -0.1743196987064111   0.01761984724139065
0.024799176378103912   -0.1743196987064111   0.01761984724139065
0.024799176378103912   -0.1743196987064111   0.01761984724139065
0.05823959784196292   -0.07413533420745864   0.016569120449023166
0.05823959784196292   -0.07413533420745864   0.016569120449023166
0.05823959784196292   -0.07413533420745864   0.016569120449023166
0.05823959784196292   -0.07413533420745864   0.016569120449023166
0.48481555096354234   -0.08252861511803788   0.01145714625897773
0.48481555096354234   -0.08252861511803788   0.01145714625897773
0.48481555096354234   -0.08252861511803788   0.01145714625897773
0.48481555096354234   -0.08252861511803788   0.01145714625897773
0.25772015508557145   -0.07771621696991285   -0.029224613974983986
0.25772015508557145   -0.07771621696991285   -0.029224613974983986
0.25772015508557145   -0.07771621696991285   -0.029224613974983986
0.25772015508557145   -0.07771621696991285   -0.029224613974983986
0.5091024245355059   0.018996655701331928   0.03136624329943309
0.5091024245355059   0.018996655701331928   0.03136624329943309
0.5091024245355059   0.018996655701331928   0.03136624329943309
0.5091024245355059   0.018996655701331928   0.03136624329943309
0.040367579805922385   -0.1692457494909042   0.022319445552266066
0.040367579805922385   -0.1692457494909042   0.022319445552266066
0.040367579805922385   -0.1692457494909042   0.022319445552266066
0.040367579805922385   -0.1692457494909042   0.022319445552266066
0.07164429739531973   -0.06392920985674445   0.011956026460171746
0.07164429739531973   -0.06392920985674445   0.011956026460171746
0.07164429739531973   -0.06392920985674445   0.011956026460171746
0.07164429739531973   -0.06392920985674445   0.011956026460171746
0.49630687668271994   -0.07714663593778578   0.014119048839526471
0.49630687668271994   -0.07714663593778578   0.014119048839526471
0.49630687668271994   -0.07714663593778578   0.014119048839526471
0.49630687668271994   -0.07714663593778578   0.014119048839526471
0.2690873520084342   -0.07378061329337789   -0.014617313890440235
0.2690873520084342   -0.07378061329337789   -0.014617313890440235
0.2690873520084342   -0.07378061329337789   -0.014617313890440235
0.2690873520084342   -0.07378061329337789   -0.014617313890440235
0.5199327419473153   0.028631351338808286   0.02647038788590922
0.5199327419473153   0.028631351338808286   0.02647038788590922
0.5199327419473153   0.028631351338808286   0.02647038788590922
0.5199327419473153   0.028631351338808286   0.02647038788590922
0.05418638628947251   -0.16353924297458525   0.02427650404877648
0.05418638628947251   -0.16353924297458525   0.02427650404877648
0.05418638628947251   -0.16353924297458525   0.02427650404877648
0.05418638628947251   -0.16353924297458525   0.02427650404877648
0.09224572412394538   -0.04860213862132894   0.007868375280399761
0.09224572412394538   -0.04860213862132894   0.007868375280399761
0.09224572412394538   -0.04860213862132894   0.007868375280399761
0.09224572412394538   -0.04860213862132894   0.007868375280399761
0.5088622027082765   -0.0689822886317857   0.017260160243026415
0.5088622027082765   -0.0689822886317857   0.017260160243026415
0.5088622027082765   -0.0689822886317857   0.017260160243026415
0.5088622027082765   -0.0689822886317857   0.017260160243026415
0.2891708698794212   -0.06429534651238755   0.002398760525699019
0.2891708698794212   -0.06429534651238755   0.002398760525699019
0.2891708698794212   -0.06429534651238755   0.002398760525699019
0.2891708698794212   -0.06429534651238755   0.002398760525699019
0.054471189974832274   -0.03248524099872281   0.024145457517344204
0.054471189974832274   -0.03248524099872281   0.024145457517344204
0.054471189974832274   -0.03248524099872281   0.024145457517344204
0.054471189974832274   -0.03248524099872281   0.024145457517344204
-0.4251413863529274   -0.2988136891823252   0.02573261395705917
-0.4251413863529274   -0.2988136891823252   0.02573261395705917
-0.4251413863529274   -0.2988136891823252   0.02573261395705917
-0.4251413863529274   -0.2988136891823252   0.02573261395705917
-0.372383957887847   -0.11696156710831265   0.0015463481302752796
-0.372383957887847   -0.11696156710831265   0.0015463481302752796
-0.372383957887847   -0.11696156710831265   0.0015463481302752796
-0.372383957887847   -0.11696156710831265   0.0015463481302752796
0.028579792186148208   -0.21592096015149262   0.010055718113983585
0.028579792186148208   -0.21592096015149262   0.010055718113983585
0.028579792186148208   -0.21592096015149262   0.010055718113983585
0.028579792186148208   -0.21592096015149262   0.010055718113983585
-0.18408479972368005   -0.1672214987606487   -0.035055939587633665
-0.18408479972368005   -0.1672214987606487   -0.035055939587633665
-0.18408479972368005   -0.1672214987606487   -0.035055939587633665
-0.18408479972368005   -0.1672214987606487   -0.035055939587633665
0.0685084239361829   -0.025280647522524048   0.01905856423518846
0.0685084239361829   -0.025280647522524048   0.01905856423518846
0.0685084239361829   -0.025280647522524048   0.01905856423518846
0.0685084239361829   -0.025280647522524048   0.01905856423518846
-0.402995173397868   -0.29828446349726706   0.029813166969127558
-0.402995173397868   -0.29828446349726706   0.029813166969127558
-0.402995173397868   -0.29828446349726706   0.029813166969127558
-0.402995173397868   -0.29828446349726706   0.029813166969127558
-0.35202728986578713   -0.10491658077345313   -0.0002674812843023733
-0.35202728986578713   -0.10491658077345313   -0.0002674812843023733
-0.35202728986578713   -0.10491658077345313   -0.0002674812843023733
-0.35202728986578713   -0.10491658077345313   -0.0002674812843023733
0.04272238015502505   -0.21101860426526128   0.014435834667215187
0.04272238015502505   -0.21101860426526128   0.014435834667215187
0.04272238015502505   -0.21101860426526128   0.014435834667215187
0.04272238015502505   -0.21101860426526128   0.014435834667215187
-0.16343756182087366   -0.16136482654562437   -0.012983808332042109
-0.16343756182087366   -0.16136482654562437   -0.012983808332042109
-0.16343756182087366   -0.16136482654562437   -0.012983808332042109
-0.16343756182087366   -0.16136482654562437   -0.012983808332042109
0.08134382442638456   -0.015736642755334904   0.012261094514086406
0.08134382442638456   -0.015736642755334904   0.012261094514086406
0.08134382442638456   -0.015736642755334904   0.012261094514086406
0.08134382442638456   -0.015736642755334904   0.012261094514086406
-0.38226966328023565   -0.2918194714264624   0.03542354229647007
-0.38226966328023565   -0.2918194714264624   0.03542354229647007
-0.38226966328023565   -0.2918194714264624   0.03542354229647007
-0.38226966328023565   -0.2918194714264624   0.03542354229647007
-0.31842697668039577   -0.09105538739062363   -0.004154028183493849
-0.31842697668039577   -0.09105538739062363   -0.004154028183493849
-0.31842697668039577   -0.09105538739062363   -0.004154028183493849
-0.31842697668039577   -0.09105538739062363   -0.004154028183493849
0.06479014659018824   -0.19759729642796003   0.019585645418245062
0.06479014659018824   -0.19759729642796003   0.019585645418245062
0.06479014659018824   -0.19759729642796003   0.019585645418245062
0.06479014659018824   -0.19759729642796003   0.019585645418245062
-0.1366759274501556   -0.14847536116565732   0.010028739160533734
-0.1366759274501556   -0.14847536116565732   0.010028739160533734
-0.1366759274501556   -0.14847536116565732   0.010028739160533734
-0.1366759274501556   -0.14847536116565732   0.010028739160533734
-0.38009826990474876   -0.05938441011077736   0.01151891712640199
-0.38009826990474876   -0.05938441011077736   0.01151891712640199
-0.38009826990474876   -0.05938441011077736   0.01151891712640199
-0.38009826990474876   -0.05938441011077736   0.01151891712640199
-0.9429981061531478   -0.4642619865798679   -0.021215003964537127
-0.9429981061531478   -0.4642619865798679   -0.021215003964537127
-0.9429981061531478   -0.4642619865798679   -0.021215003964537127
-0.9429981061531478   -0.4642619865798679   -0.021215003964537127
-0.8560519653604972   -0.15218006972662368   -0.025916616381949004
-0.8560519653604972   -0.15218006972662368   -0.025916616381949004
-0.8560519653604972   -0.15218006972662368   -0.025916616381949004
-0.8560519653604972   -0.15218006972662368   -0.025916616381949004
-0.4251061181239619   -0.3871070213316072   0.008081001172995511
-0.4251061181239619   -0.3871070213316072   0.008081001172995511
-0.4251061181239619   -0.3871070213316072   0.008081001172995511
-0.4251061181239619   -0.3871070213316072   0.008081001172995511
-0.6503530934249065   -0.27466471269865345   -0.03689232148500085
-0.6503530934249065   -0.27466471269865345   -0.03689232148500085
-0.6503530934249065   -0.27466471269865345   -0.03689232148500085
-0.6503530934249065   -0.27466471269865345   -0.03689232148500085
-0.35607464358431856   -0.044812509655897684   0.010943862195502432
-0.35607464358431856   -0.044812509655897684   0.010943862195502432
-0.35607464358431856   -0.044812509655897684   0.010943862195502432
-0.35607464358431856   -0.044812509655897684   0.010943862195502432
-0.9228115527969407   -0.49220269429913205   -0.019691928991650176
-0.9228115527969407   -0.49220269429913205   -0.019691928991650176
-0.9228115527969407   -0.49220269429913205   -0.019691928991650176
-0.9228115527969407   -0.49220269429913205   -0.019691928991650176
-0.8288733945688777   -0.13776654715383468   -0.026445744717567943
-0.8288733945688777   -0.13776654715383468   -0.026445744717567943
-0.8288733945688777   -0.13776654715383468   -0.026445744717567943
-0.8288733945688777   -0.13776654715383468   -0.026445744717567943
-0.40531554084435223   -0.3838594192748845   0.012234102324306467
-0.40531554084435223   -0.3838594192748845   0.012234102324306467
-0.40531554084435223   -0.3838594192748845   0.012234102324306467
-0.40531554084435223   -0.3838594192748845   0.012234102324306467
-0.6217093024633588   -0.26699224572727437   -0.025539673112652705
-0.6217093024633588   -0.26699224572727437   -0.025539673112652705
-0.6217093024633588   -0.26699224572727437   -0.025539673112652705
-0.6217093024633588   -0.26699224572727437   -0.025539673112652705
-0.33692282902299503   -0.03334969722491912   0.0036879393811272004
-0.33692282902299503   -0.03334969722491912   0.0036879393811272004
-0.33692282902299503   -0.03334969722491912   0.0036879393811272004
-0.33692282902299503   -0.03334969722491912   0.0036879393811272004
-0.8971022653084635   -0.48811242812202743   -0.017244217447297094
-0.8971022653084635   -0.48811242812202743   -0.017244217447297094
-0.8971022653084635   -0.48811242812202743   -0.017244217447297094
-0.8971022653084635   -0.48811242812202743   -0.017244217447297094
-0.7864026827737015   -0.12232668875433242   -0.029991073445176347
-0.7864026827737015   -0.12232668875433242   -0.029991073445176347
-0.7864026827737015   -0.12232668875433242   -0.029991073445176347
-0.7864026827737015   -0.12232668875433242   -0.029991073445176347
-0.362486967764308   -0.34437778889885173   0.028868417905177718
-0.362486967764308   -0.34437778889885173   0.028868417905177718
-0.362486967764308   -0.34437778889885173   0.028868417905177718
-0.362486967764308   -0.34437778889885173   0.028868417905177718
-0.5898621110747244   -0.24155979412410616   -0.013788830567101062
-0.5898621110747244   -0.24155979412410616   -0.013788830567101062
-0.5898621110747244   -0.24155979412410616   -0.013788830567101062
-0.5898621110747244   -0.24155979412410616   -0.013788830567101062
-0.8572660234777953   -0.0509109692562988   -0.005905607911343647
-0.8572660234777953   -0.0509109692562988   -0.005905607911343647
-0.8572660234777953   -0.0509109692562988   -0.005905607911343647
-0.8572660234777953   -0.0509109692562988   -0.005905607911343647
-1.509600486114021   -0.29882984289422787   0.015451271642881736
-1.509600486114021   -0.29882984289422787   0.015451271642881736
-1.509600486114021   -0.29882984289422787   0.015451271642881736
-1.509600486114021   -0.29882984289422787   0.015451271642881736
-1.450635732313966   -0.14288004626412396   -0.03144417130820032
-1.450635732313966   -0.14288004626412396   -0.03144417130820032
-1.450635732313966   -0.14288004626412396   -0.03144417130820032
-1.450635732313966   -0.14288004626412396   -0.03144417130820032
-0.8393037494369625   -0.15560989265464364   0.0612542861637444
-0.8393037494369625   -0.15560989265464364   0.0612542861637444
-0.8393037494369625   -0.15560989265464364   0.0612542861637444
-0.8393037494369625   -0.15560989265464364   0.0612542861637444
-1.1171157069364919   -0.17306060491402556   0.015568143559738234
-1.1171157069364919   -0.17306060491402556   0.015568143559738234
-1.1171157069364919   -0.17306060491402556   0.015568143559738234
-1.1171157069364919   -0.17306060491402556   0.015568143559738234
-0.8225867595744026   -0.010946290741825397   0.00017563356372926608
-0.8225867595744026   -0.010946290741825397   0.00017563356372926608
-0.8225867595744026   -0.010946290741825397   0.00017563356372926608
-0.8225867595744026   -0.010946290741825397   0.00017563356372926608
-1.4728726350073942   -0.293063561007812   0.007554829968334231
-1.4728726350073942   -0.293063561007812   0.007554829968334231
-1.4728726350073942   -0.293063561007812   0.007554829968334231
-1.4728726350073942   -0.293063561007812   0.007554829968334231
-1.4184453336184577   -0.13096346326192182   -0.03992567407530617
-1.4184453336184577   -0.13096346326192182   -0.03992567407530617
-1.4184453336184577   -0.13096346326192182   -0.03992567407530617
-1.4184453336184577   -0.13096346326192182   -0.03992567407530617
-0.8113368956530083   -0.14797778215750948   0.0714479848654608
-0.8113368956530083   -0.14797778215750948   0.0714479848654608
-0.8113368956530083   -0.14797778215750948   0.0714479848654608
-0.8113368956530083   -0.14797778215750948   0.0714479848654608
-1.1003679614687654   -0.14263221140477747   0.015067528259566587
-1.1003679614687654   -0.14263221140477747   0.015067528259566587
-1.1003679614687654   -0.14263221140477747   0.015067528259566587
-1.1003679614687654   -0.14263221140477747   0.015067528259566587
-0.7976828349003128   -0.0003981061741164735   -0.00786138735445499
-0.7976828349003128   -0.0003981061741164735   -0.00786138735445499
-0.7976828349003128   -0.0003981061741164735   -0.00786138735445499
-0.7976828349003128   -0.0003981061741164735   -0.00786138735445499
-1.434040899614277   -0.2804846444884357   0.03161767717209868
-1.434040899614277   -0.2804846444884357   0.03161767717209868
-1.434040899614277   -0.2804846444884357   0.03161767717209868
-1.434040899614277   -0.2804846444884357   0.03161767717209868
-1.3515699358093163   -0.10640047687969333   -0.04476283113769469
-1.3515699358093163   -0.10640047687969333   -0.04476283113769469
-1.3515699358093163   -0.10640047687969333   -0.04476283113769469
-1.3515699358093163   -0.10640047687969333   -0.04476283113769469
-0.7677660555823337   -0.1378167803041665   0.0786821540615012
-0.7677660555823337   -0.1378167803041665   0.0786821540615012
-0.7677660555823337   -0.1378167803041665   0.0786821540615012
-0.7677660555823337   -0.1378167803041665   0.0786821540615012
-1.0352347069626129   -0.1091150636544872   0.03130289927322433
-1.0352347069626129   -0.1091150636544872   0.03130289927322433
-1.0352347069626129   -0.1091150636544872   0.03130289927322433
-1.0352347069626129   -0.1091150636544872   0.03130289927322433
1.08419021039988   0.03614735304094683   0.015125874201602552
1.08419021039988   0.03614735304094683   0.015125874201602552
1.08419021039988   0.03614735304094683   0.015125874201602552
1.08419021039988   0.03614735304094683   0.015125874201602552
0.5526517779559541   -0.029495080294276842   0.010878861231707351
0.5526517779559541   -0.029495080294276842   0.010878861231707351
0.5526517779559541   -0.029495080294276842   0.010878861231707351
0.5526517779559541   -0.029495080294276842   0.010878861231707351
0.5313518013839421   -0.0776973624336478   0.0217306468799357
0.5313518013839421   -0.0776973624336478   0.0217306468799357
0.5313518013839421   -0.0776973624336478   0.0217306468799357
0.5313518013839421   -0.0776973624336478   0.0217306468799357
1.076357601934299   0.06060125595321658   0.007781346626175356
1.076357601934299   0.06060125595321658   0.007781346626175356
1.076357601934299   0.06060125595321658   0.007781346626175356
1.076357601934299   0.06060125595321658   0.007781346626175356
0.7679134000273118   -0.01074368050781701   -0.028411383932077622
0.7679134000273118   -0.01074368050781701   -0.028411383932077622
0.7679134000273118   -0.01074368050781701   -0.028411383932077622
0.7679134000273118   -0.01074368050781701   -0.028411383932077622
1.0706125838673053   0.028116805946602007   0.011540706297821501
1.0706125838673053   0.028116805946602007   0.011540706297821501
1.0706125838673053   0.028116805946602007   0.011540706297821501
1.0706125838673053   0.028116805946602007   0.011540706297821501
0.5353704411483693   -0.04693929072959971   0.011065773998023595
0.5353704411483693   -0.04693929072959971   0.011065773998023595
0.5353704411483693   -0.04693929072959971   0.011065773998023595
0.5353704411483693   -0.04693929072959971   0.011065773998023595
0.5177206784975862   -0.0794340056173613   0.017944335266584233
0.5177206784975862   -0.0794340056173613   0.017944335266584233
0.5177206784975862   -0.0794340056173613   0.017944335266584233
0.5177206784975862   -0.0794340056173613   0.017944335266584233
1.0639396344132308   0.058045051079056956   0.01362993588241937
1.0639396344132308   0.058045051079056956   0.01362993588241937
1.0639396344132308   0.058045051079056956   0.01362993588241937
1.0639396344132308   0.058045051079056956   0.01362993588241937
0.7658416182069409   -0.014809002701015053   -0.0327462856794111
0.7658416182069409   -0.014809002701015053   -0.0327462856794111
0.7658416182069409   -0.014809002701015053   -0.0327462856794111
0.7658416182069409   -0.014809002701015053   -0.0327462856794111
1.0553287189293798   0.025185681103435408   0.003434728438774154
1.0553287189293798   0.025185681103435408   0.003434728438774154
1.0553287189293798   0.025185681103435408   0.003434728438774154
1.0553287189293798   0.025185681103435408   0.003434728438774154
0.523210313109258   -0.0496959165139209   0.01565441922150304
0.523210313109258   -0.0496959165139209   0.01565441922150304
0.523210313109258   -0.0496959165139209   0.01565441922150304
0.523210313109258   -0.0496959165139209   0.01565441922150304
0.5033678995639597   -0.07229617754116756   0.015498521832286657
0.5033678995639597   -0.07229617754116756   0.015498521832286657
0.5033678995639597   -0.07229617754116756   0.015498521832286657
0.5033678995639597   -0.07229617754116756   0.015498521832286657
1.044835940280078   0.05889451121376934   0.019732105452838405
1.044835940280078   0.05889451121376934   0.019732105452838405
1.044835940280078   0.05889451121376934   0.019732105452838405
1.044835940280078   0.05889451121376934   0.019732105452838405
0.7372745459288859   -0.014846686527441595   -0.04408554247023436
0.7372745459288859   -0.014846686527441595   -0.04408554247023436
0.7372745459288859   -0.014846686527441595   -0.04408554247023436
0.7372745459288859   -0.014846686527441595   -0.04408554247023436
0.548248984092622   -0.06773312023969308   0.027102931860462642
0.548248984092622   -0.06773312023969308   0.027102931860462642
0.548248984092622   -0.06773312023969308   0.027102931860462642
0.548248984092622   -0.06773312023969308   0.027102931860462642
0.10424874104117914   -0.06524417981200273   0.005527755274853677
0.10424874104117914   -0.06524417981200273   0.005527755274853677
0.10424874104117914   -0.06524417981200273   0.005527755274853677
0.10424874104117914   -0.06524417981200273   0.005527755274853677
0.06749254289612212   -0.16258349367298144   0.028505761551680227
0.06749254289612212   -0.16258349367298144   0.028505761551680227
0.06749254289612212   -0.16258349367298144   0.028505761551680227
0.06749254289612212   -0.16258349367298144   0.028505761551680227
0.5511087503896698   0.021957298081350555   0.020860731393575957
0.5511087503896698   0.021957298081350555   0.020860731393575957
0.5511087503896698   0.021957298081350555   0.020860731393575957
0.5511087503896698   0.021957298081350555   0.020860731393575957
0.3128799809379509   -0.06868000705063002   -0.0012469938383415369
0.3128799809379509   -0.06868000705063002   -0.0012469938383415369
0.3128799809379509   -0.06868000705063002   -0.0012469938383415369
0.3128799809379509   -0.06868000705063002   -0.0012469938383415369
0.5329678955852039   -0.07063902029581776   0.022752775748416845
0.5329678955852039   -0.07063902029581776   0.022752775748416845
0.5329678955852039   -0.07063902029581776   0.022752775748416845
0.5329678955852039   -0.07063902029581776   0.022752775748416845
0.08104650435576138   -0.07457406864063973   0.008266143817532923
0.08104650435576138   -0.07457406864063973   0.008266143817532923
0.08104650435576138   -0.07457406864063973   0.008266143817532923
0.08104650435576138   -0.07457406864063973   0.008266143817532923
0.05099184271341197   -0.16393204468037886   0.02550703909586905
0.05099184271341197   -0.16393204468037886   0.02550703909586905
0.05099184271341197   -0.16393204468037886   0.02550703909586905
0.05099184271341197   -0.16393204468037886   0.02550703909586905
0.5385425462247002   0.017943012604653055   0.02467665568014034
0.5385425462247002   0.017943012604653055   0.02467665568014034
0.5385425462247002   0.017943012604653055   0.02467665568014034
0.5385425462247002   0.017943012604653055   0.02467665568014034
0.29043460308078745   -0.07316423322846084   -0.014889322666028361
0.29043460308078745   -0.07316423322846084   -0.014889322666028361
0.29043460308078745   -0.07316423322846084   -0.014889322666028361
0.29043460308078745   -0.07316423322846084   -0.014889322666028361
0.5194796685156843   -0.07156235949263041   0.018867639232339
0.5194796685156843   -0.07156235949263041   0.018867639232339
0.5194796685156843   -0.07156235949263041   0.018867639232339
0.5194796685156843   -0.07156235949263041   0.018867639232339
0.06506540426865162   -0.07941598873687253   0.011358790928561003
0.06506540426865162   -0.07941598873687253   0.011358790928561003
0.06506540426865162   -0.07941598873687253   0.011358790928561003
0.06506540426865162   -0.07941598873687253   0.011358790928561003
0.03253800428934145   -0.1637169011619214   0.019911296011283046
0.03253800428934145   -0.1637169011619214   0.019911296011283046
0.03253800428934145   -0.1637169011619214   0.019911296011283046
0.03253800428934145   -0.1637169011619214   0.019911296011283046
0.5242807541101933   0.01829910524817827   0.029467511774109542
0.5242807541101933   0.01829910524817827   0.029467511774109542
0.5242807541101933   0.01829910524817827   0.029467511774109542
0.5242807541101933   0.01829910524817827   0.029467511774109542
0.2767956733729051   -0.07248998003910839   -0.026463027046534256
0.2767956733729051   -0.07248998003910839   -0.026463027046534256
0.2767956733729051   -0.07248998003910839   -0.026463027046534256
0.2767956733729051   -0.07248998003910839   -0.026463027046534256
0.08148892244398254   -0.19778104476581784   0.02426552724268579
0.08148892244398254   -0.19778104476581784   0.02426552724268579
0.08148892244398254   -0.19778104476581784   0.02426552724268579
0.08148892244398254   -0.19778104476581784   0.02426552724268579
-0.3269831865415625   -0.10091687141108696   0.00012754821720017961
-0.3269831865415625   -0.10091687141108696   0.00012754821720017961
-0.3269831865415625   -0.10091687141108696   0.00012754821720017961
-0.3269831865415625   -0.10091687141108696   0.00012754821720017961
-0.3934780441778948   -0.29581048645978314   0.03266592293657411
-0.3934780441778948   -0.29581048645978314   0.03266592293657411
-0.3934780441778948   -0.29581048645978314   0.03266592293657411
-0.3934780441778948   -0.29581048645978314   0.03266592293657411
0.0937390211600039   -0.01609999005242782   0.013254649250533612
0.0937390211600039   -0.01609999005242782   0.013254649250533612
0.0937390211600039   -0.01609999005242782   0.013254649250533612
0.0937390211600039   -0.01609999005242782   0.013254649250533612
-0.13452858201722742   -0.15049434669329947   0.0057099339033287455
-0.13452858201722742   -0.15049434669329947   0.0057099339033287455
-0.13452858201722742   -0.15049434669329947   0.0057099339033287455
-0.13452858201722742   -0.15049434669329947   0.0057099339033287455
0.05602204848868692   -0.20894141112123085   0.017511206962753642
0.05602204848868692   -0.20894141112123085   0.017511206962753642
0.05602204848868692   -0.20894141112123085   0.017511206962753642
0.05602204848868692   -0.20894141112123085   0.017511206962753642
-0.36220104966913264   -0.10940904355353519   0.0026494525741333624
-0.36220104966913264   -0.10940904355353519   0.0026494525741333624
-0.36220104966913264   -0.10940904355353519   0.0026494525741333624
-0.36220104966913264   -0.10940904355353519   0.0026494525741333624
-0.41642496567914133   -0.3003941876282003   0.02670526368668627
-0.41642496567914133   -0.3003941876282003   0.02670526368668627
-0.41642496567914133   -0.3003941876282003   0.02670526368668627
-0.41642496567914133   -0.3003941876282003   0.02670526368668627
0.07826967958767946   -0.020551178171014043   0.018515356957841674
0.07826967958767946   -0.020551178171014043   0.018515356957841674
0.07826967958767946   -0.020551178171014043   0.018515356957841674
0.07826967958767946   -0.020551178171014043   0.018515356957841674
-0.1632222797313033   -0.15954795712855235   -0.013431488419136182
-0.1632222797313033   -0.15954795712855235   -0.013431488419136182
-0.1632222797313033   -0.15954795712855235   -0.013431488419136182
-0.1632222797313033   -0.15954795712855235   -0.013431488419136182
0.038445612077040406   -0.21249363047297895   0.01133747170661132
0.038445612077040406   -0.21249363047297895   0.01133747170661132
0.038445612077040406   -0.21249363047297895   0.01133747170661132
0.038445612077040406   -0.21249363047297895   0.01133747170661132
-0.38429243694571247   -0.11614327410344624   0.0031169938290725313
-0.38429243694571247   -0.11614327410344624   0.0031169938290725313
-0.38429243694571247   -0.11614327410344624   0.0031169938290725313
-0.38429243694571247   -0.11614327410344624   0.0031169938290725313
-0.44133657822529665   -0.2982759997459957   0.022318853643551212
-0.44133657822529665   -0.2982759997459957   0.022318853643551212
-0.44133657822529665   -0.2982759997459957   0.022318853643551212
-0.44133657822529665   -0.2982759997459957   0.022318853643551212
0.061068082477972414   -0.022998115437736485   0.02184290123025199
0.061068082477972414   -0.022998115437736485   0.02184290123025199
0.061068082477972414   -0.022998115437736485   0.02184290123025199
0.061068082477972414   -0.022998115437736485   0.02184290123025199
-0.18653534071588704   -0.16294887338624175   -0.032619053666570176
-0.18653534071588704   -0.16294887338624175   -0.032619053666570176
-0.18653534071588704   -0.16294887338624175   -0.032619053666570176
-0.18653534071588704   -0.16294887338624175   -0.032619053666570176
-0.36894361752871224   -0.33943865307333326   0.028847174943700593
-0.36894361752871224   -0.33943865307333326   0.028847174943700593
-0.36894361752871224   -0.33943865307333326   0.028847174943700593
-0.36894361752871224   -0.33943865307333326   0.028847174943700593
-0.8161242521163737   -0.12554156425221322   -0.0187363960914865
-0.8161242521163737   -0.12554156425221322   -0.0187363960914865
-0.8161242521163737   -0.12554156425221322   -0.0187363960914865
-0.8161242521163737   -0.12554156425221322   -0.0187363960914865
-0.9324212580146571   -0.49524551765470665   -0.02529634055180674
-0.9324212580146571   -0.49524551765470665   -0.02529634055180674
-0.9324212580146571   -0.49524551765470665   -0.02529634055180674
-0.9324212580146571   -0.49524551765470665   -0.02529634055180674
-0.3440113282058846   -0.027263564858095696   0.01145258119493403
-0.3440113282058846   -0.027263564858095696   0.01145258119493403
-0.3440113282058846   -0.027263564858095696   0.01145258119493403
-0.3440113282058846   -0.027263564858095696   0.01145258119493403
-0.609421377152728   -0.23709664751920964   -0.019965339954464145
-0.609421377152728   -0.23709664751920964   -0.019965339954464145
-0.609421377152728   -0.23709664751920964   -0.019965339954464145
-0.609421377152728   -0.23709664751920964   -0.019965339954464145
-0.4158415081906303   -0.38488556358076503   0.009923679993874751
-0.4158415081906303   -0.38488556358076503   0.009923679993874751
-0.4158415081906303   -0.38488556358076503   0.009923679993874751
-0.4158415081906303   -0.38488556358076503   0.009923679993874751
-0.8588370340657995   -0.13586947496792678   -0.016751263494306473
-0.8588370340657995   -0.13586947496792678   -0.016751263494306473
-0.8588370340657995   -0.13586947496792678   -0.016751263494306473
-0.8588370340657995   -0.13586947496792678   -0.016751263494306473
-0.9597570382053986   -0.5030444131819356   -0.02924936984990245
-0.9597570382053986   -0.5030444131819356   -0.02924936984990245
-0.9597570382053986   -0.5030444131819356   -0.02924936984990245
-0.9597570382053986   -0.5030444131819356   -0.02924936984990245
-0.3652094548076234   -0.03461745820089225   0.017006088616963788
-0.3652094548076234   -0.03461745820089225   0.017006088616963788
-0.3652094548076234   -0.03461745820089225   0.017006088616963788
-0.3652094548076234   -0.03461745820089225   0.017006088616963788
-0.6428741263592016   -0.2628883237203889   -0.028656945900596448
-0.6428741263592016   -0.2628883237203889   -0.028656945900596448
-0.6428741263592016   -0.2628883237203889   -0.028656945900596448
-0.6428741263592016   -0.2628883237203889   -0.028656945900596448
-0.4393751349712269   -0.39233842720459156   0.003898656802645617
-0.4393751349712269   -0.39233842720459156   0.003898656802645617
-0.4393751349712269   -0.39233842720459156   0.003898656802645617
-0.4393751349712269   -0.39233842720459156   0.003898656802645617
-0.8858490984359761   -0.14558118457241837   -0.01717289961231394
-0.8858490984359761   -0.14558118457241837   -0.01717289961231394
-0.8858490984359761   -0.14558118457241837   -0.01717289961231394
-0.8858490984359761   -0.14558118457241837   -0.01717289961231394
-0.9830212471698534   -0.4808535770833649   -0.03297624361184259
-0.9830212471698534   -0.4808535770833649   -0.03297624361184259
-0.9830212471698534   -0.4808535770833649   -0.03297624361184259
-0.9830212471698534   -0.4808535770833649   -0.03297624361184259
-0.391989747745153   -0.04502431682633358   0.015801323124607344
-0.391989747745153   -0.04502431682633358   0.015801323124607344
-0.391989747745153   -0.04502431682633358   0.015801323124607344
-0.391989747745153   -0.04502431682633358   0.015801323124607344
-0.6737870437651425   -0.2716095044936388   -0.03704769824596291
-0.6737870437651425   -0.2716095044936388   -0.03704769824596291
-0.6737870437651425   -0.2716095044936388   -0.03704769824596291
-0.6737870437651425   -0.2716095044936388   -0.03704769824596291
-0.8024548960023499   -0.14639767929599046   0.07046649952239756
-0.8024548960023499   -0.14639767929599046   0.07046649952239756
-0.8024548960023499   -0.14639767929599046   0.07046649952239756
-0.8024548960023499   -0.14639767929599046   0.07046649952239756
-1.4086934862641665   -0.10490345927060096   -0.02454440724114293
-1.4086934862641665   -0.10490345927060096   -0.02454440724114293
-1.4086934862641665   -0.10490345927060096   -0.02454440724114293
-1.4086934862641665   -0.10490345927060096   -0.02454440724114293
-1.4942502233373207   -0.2949922772000528   0.01928883733705683
-1.4942502233373207   -0.2949922772000528   0.01928883733705683
-1.4942502233373207   -0.2949922772000528   0.01928883733705683
-1.4942502233373207   -0.2949922772000528   0.01928883733705683
-0.8244125623896532   0.012322804345165667   0.007178815573332997
-0.8244125623896532   0.012322804345165667   0.007178815573332997
-0.8244125623896532   0.012322804345165667   0.007178815573332997
-0.8244125623896532   0.012322804345165667   0.007178815573332997
-1.078531099538207   -0.1035904317023612   0.02157299586404532
-1.078531099538207   -0.1035904317023612   0.02157299586404532
-1.078531099538207   -0.1035904317023612   0.02157299586404532
-1.078531099538207   -0.1035904317023612   0.02157299586404532
-0.8472057291849568   -0.15694499054049663   0.06248077648247366
-0.8472057291849568   -0.15694499054049663   0.06248077648247366
-0.8472057291849568   -0.15694499054049663   0.06248077648247366
-0.8472057291849568   -0.15694499054049663   0.06248077648247366
-1.4677974771841737   -0.12206490295654562   -0.021374806140702918
-1.4677974771841737   -0.12206490295654562   -0.021374806140702918
-1.4677974771841737   -0.12206490295654562   -0.021374806140702918
-1.4677974771841737   -0.12206490295654562   -0.021374806140702918
-1.5302717991146535   -0.30741335203462683   -0.0067949610584805975
-1.5302717991146535   -0.30741335203462683   -0.0067949610584805975
-1.5302717991146535   -0.30741335203462683   -0.0067949610584805975
-1.5302717991146535   -0.30741335203462683   -0.0067949610584805975
-0.8498912259021378   0.004019571127040003   0.01301570735741922
-0.8498912259021378   0.004019571127040003   0.01301570735741922
-0.8498912259021378   0.004019571127040003   0.01301570735741922
-0.8498912259021378   0.004019571127040003   0.01301570735741922
-1.1423903468028436   -0.13660840893590964   0.008784793808530034
-1.1423903468028436   -0.13660840893590964   0.008784793808530034
-1.1423903468028436   -0.13660840893590964   0.008784793808530034
-1.1423903468028436   -0.13660840893590964   0.008784793808530034
-0.8759428903214772   -0.16486098898895252   0.05163794537671468
-0.8759428903214772   -0.16486098898895252   0.05163794537671468
-0.8759428903214772   -0.16486098898895252   0.05163794537671468
-0.8759428903214772   -0.16486098898895252   0.05163794537671468
-1.4967797444348754   -0.1310924016581933   -0.015655638036009834
-1.4967797444348754   -0.1310924016581933   -0.015655638036009834
-1.4967797444348754   -0.1310924016581933   -0.015655638036009834
-1.4967797444348754   -0.1310924016581933   -0.015655638036009834
-1.5613284434989625   -0.312306530459607   -0.00020420879907268041
-1.5613284434989625   -0.312306530459607   -0.00020420879907268041
-1.5613284434989625   -0.312306530459607   -0.00020420879907268041
-1.5613284434989625   -0.312306530459607   -0.00020420879907268041
-0.8857269621296883   -0.032771800048179055   0.005413404553791884
-0.8857269621296883   -0.032771800048179055   0.005413404553791884
-0.8857269621296883   -0.032771800048179055   0.005413404553791884
-0.8857269621296883   -0.032771800048179055   0.005413404553791884
-1.1558414996823017   -0.1648835196372519   0.013832243561164914
-1.1558414996823017   -0.1648835196372519   0.013832243561164914
-1.1558414996823017   -0.1648835196372519   0.013832243561164914
-1.1558414996823017   -0.1648835196372519   0.013832243561164914
0.9521036993557708   0.044147494503448154   -0.020360186179484374
0.9521036993557708   0.044147494503448154   -0.020360186179484374
0.9521036993557708   0.044147494503448154   -0.020360186179484374
0.9521036993557708   0.044147494503448154   -0.020360186179484374
0.47851233521682146   -0.010088897936404204   0.009886964589468791
0.47851233521682146   -0.010088897936404204   0.009886964589468791
0.47851233521682146   -0.010088897936404204   0.009886964589468791
0.47851233521682146   -0.010088897936404204   0.009886964589468791
0.4484336565172953   -0.07015932484880526   -0.01809761196693012
0.4484336565172953   -0.07015932484880526   -0.01809761196693012
0.4484336565172953   -0.07015932484880526   -0.01809761196693012
0.4484336565172953   -0.07015932484880526   -0.01809761196693012
0.9411800995714686   0.06854534599067982   0.011567556065914614
0.9411800995714686   0.06854534599067982   0.011567556065914614
0.9411800995714686   0.06854534599067982   0.011567556065914614
0.9411800995714686   0.06854534599067982   0.011567556065914614
0.6681023616356795   0.0016478312291740016   -0.025796033588559697
0.6681023616356795   0.0016478312291740016   -0.025796033588559697
0.6681023616356795   0.0016478312291740016   -0.025796033588559697
0.6681023616356795   0.0016478312291740016   -0.025796033588559697
0.926010150462688   0.024856773030165855   -0.020593616517467245
0.926010150462688   0.024856773030165855   -0.020593616517467245
0.926010150462688   0.024856773030165855   -0.020593616517467245
0.926010150462688   0.024856773030165855   -0.020593616517467245
0.4627716560701425   -0.027302701444224066   0.010735762392721337
0.4627716560701425   -0.027302701444224066   0.010735762392721337
0.4627716560701425   -0.027302701444224066   0.010735762392721337
0.4627716560701425   -0.027302701444224066   0.010735762392721337
0.432222779506676   -0.07402029907876764   -0.01497996000014866
0.432222779506676   -0.07402029907876764   -0.01497996000014866
0.432222779506676   -0.07402029907876764   -0.01497996000014866
0.432222779506676   -0.07402029907876764   -0.01497996000014866
0.9186918772645785   0.06304996248978509   0.016991524292073762
0.9186918772645785   0.06304996248978509   0.016991524292073762
0.9186918772645785   0.06304996248978509   0.016991524292073762
0.9186918772645785   0.06304996248978509   0.016991524292073762
0.6594194537219364   -0.006569035504245382   -0.030673497718670617
0.6594194537219364   -0.006569035504245382   -0.030673497718670617
0.6594194537219364   -0.006569035504245382   -0.030673497718670617
0.6594194537219364   -0.006569035504245382   -0.030673497718670617
0.9034031866130063   0.01994281753943987   -0.016344784015441455
0.9034031866130063   0.01994281753943987   -0.016344784015441455
0.9034031866130063   0.01994281753943987   -0.016344784015441455
0.9034031866130063   0.01994281753943987   -0.016344784015441455
0.4463448222941218   -0.03207980199254862   0.013689756850861753
0.4463448222941218   -0.03207980199254862   0.013689756850861753
0.4463448222941218   -0.03207980199254862   0.013689756850861753
0.4463448222941218   -0.03207980199254862   0.013689756850861753
0.4165462367007637   -0.07276843035848923   -0.010292898829109484
0.4165462367007637   -0.07276843035848923   -0.010292898829109484
0.4165462367007637   -0.07276843035848923   -0.010292898829109484
0.4165462367007637   -0.07276843035848923   -0.010292898829109484
0.8908696328232145   0.05945779870299885   0.022186030194146777
0.8908696328232145   0.05945779870299885   0.022186030194146777
0.8908696328232145   0.05945779870299885   0.022186030194146777
0.8908696328232145   0.05945779870299885   0.022186030194146777
0.6270892498698559   -0.011429286732623216   -0.04021155489018982
0.6270892498698559   -0.011429286732623216   -0.04021155489018982
0.6270892498698559   -0.011429286732623216   -0.04021155489018982
0.6270892498698559   -0.011429286732623216   -0.04021155489018982
0.4814608139358325   0.010000646467984268   0.004539813780135238
0.4814608139358325   0.010000646467984268   0.004539813780135238
0.4814608139358325   0.010000646467984268   0.004539813780135238
0.4814608139358325   0.010000646467984268   0.004539813780135238
0.04500594236143272   -0.029090584005766577   -0.0012392769281015757
0.04500594236143272   -0.029090584005766577   -0.0012392769281015757
0.04500594236143272   -0.029090584005766577   -0.0012392769281015757
0.04500594236143272   -0.029090584005766577   -0.0012392769281015757
0.016658772998389748   -0.0925970043227931   -0.017460803235862278
0.016658772998389748   -0.0925970043227931   -0.017460803235862278
0.016658772998389748   -0.0925970043227931   -0.017460803235862278
0.016658772998389748   -0.0925970043227931   -0.017460803235862278
0.4819670891801907   0.055678776274429145   0.023731450224309295
0.4819670891801907   0.055678776274429145   0.023731450224309295
0.4819670891801907   0.055678776274429145   0.023731450224309295
0.4819670891801907   0.055678776274429145   0.023731450224309295
0.25157279497521523   -0.012805803345687209   -0.009871842239552522
0.25157279497521523   -0.012805803345687209   -0.009871842239552522
0.25157279497521523   -0.012805803345687209   -0.009871842239552522
0.25157279497521523   -0.012805803345687209   -0.009871842239552522
0.4681342003224285   0.0026994985259772668   0.007546283683950827
0.4681342003224285   0.0026994985259772668   0.007546283683950827
0.4681342003224285   0.0026994985259772668   0.007546283683950827
0.4681342003224285   0.0026994985259772668   0.007546283683950827
0.031025335476924536   -0.03908405295356854   0.0008590577875870957
0.031025335476924536   -0.03908405295356854   0.0008590577875870957
0.031025335476924536   -0.03908405295356854   0.0008590577875870957
0.031025335476924536   -0.03908405295356854   0.0008590577875870957
0.0010273870276414747   -0.09693742036956188   -0.012210349993875488
0.0010273870276414747   -0.09693742036956188   -0.012210349993875488
0.0010273870276414747   -0.09693742036956188   -0.012210349993875488
0.0010273870276414747   -0.09693742036956188   -0.012210349993875488
0.464811841560871   0.04778392617695613   0.02616112501510308
0.464811841560871   0.04778392617695613   0.02616112501510308
0.464811841560871   0.04778392617695613   0.02616112501510308
0.464811841560871   0.04778392617695613   0.02616112501510308
0.23353940550631694   -0.02009250379304856   -0.013975247705414001
0.23353940550631694   -0.02009250379304856   -0.013975247705414001
0.23353940550631694   -0.02009250379304856   -0.013975247705414001
0.23353940550631694   -0.02009250379304856   -0.013975247705414001
0.4517616770599873   -0.002174705522323947   0.01086893420996829
0.4517616770599873   -0.002174705522323947   0.01086893420996829
0.4517616770599873   -0.002174705522323947   0.01086893420996829
0.4517616770599873   -0.002174705522323947   0.01086893420996829
0.01400871391305572   -0.047047626285750654   0.0028064903493845265
0.01400871391305572   -0.047047626285750654   0.0028064903493845265
0.01400871391305572   -0.047047626285750654   0.0028064903493845265
0.01400871391305572   -0.047047626285750654   0.0028064903493845265
-0.015739240941490457   -0.09727310853145094   -0.008373562072383479
-0.015739240941490457   -0.09727310853145094   -0.008373562072383479
-0.015739240941490457   -0.09727310853145094   -0.008373562072383479
-0.015739240941490457   -0.09727310853145094   -0.008373562072383479
0.44750144482031123   0.04281472471294297   0.02889998669719815
0.44750144482031123   0.04281472471294297   0.02889998669719815
0.44750144482031123   0.04281472471294297   0.02889998669719815
0.44750144482031123   0.04281472471294297   0.02889998669719815
0.21951076411132758   -0.022927329478413937   -0.017471848829328306
0.21951076411132758   -0.022927329478413937   -0.017471848829328306
0.21951076411132758   -0.022927329478413937   -0.017471848829328306
0.21951076411132758   -0.022927329478413937   -0.017471848829328306
0.04624132152101026   -0.025940060391002318   0.0017870952550199815
0.04624132152101026   -0.025940060391002318   0.0017870952550199815
0.04624132152101026   -0.025940060391002318   0.0017870952550199815
0.04624132152101026   -0.025940060391002318   0.0017870952550199815
-0.3741791667964007   -0.043157227569525364   -0.011748098642842375
-0.3741791667964007   -0.043157227569525364   -0.011748098642842375
-0.3741791667964007   -0.043157227569525364   -0.011748098642842375
-0.3741791667964007   -0.043157227569525364   -0.011748098642842375
-0.4056951682861884   -0.12262922141841096   -0.019957318133189794
-0.4056951682861884   -0.12262922141841096   -0.019957318133189794
-0.4056951682861884   -0.12262922141841096   -0.019957318133189794
-0.4056951682861884   -0.12262922141841096   -0.019957318133189794
0.04958815010023467   0.040911497108130926   0.013677580842438313
0.04958815010023467   0.040911497108130926   0.013677580842438313
0.04958815010023467   0.040911497108130926   0.013677580842438313
0.04958815010023467   0.040911497108130926   0.013677580842438313
-0.17150012730340677   -0.035902941087073786   -0.009767415020646396
-0.17150012730340677   -0.035902941087073786   -0.009767415020646396
-0.17150012730340677   -0.035902941087073786   -0.009767415020646396
-0.17150012730340677   -0.035902941087073786   -0.009767415020646396
0.03448729738346016   -0.028986918153753306   0.008071732520449963
0.03448729738346016   -0.028986918153753306   0.008071732520449963
0.03448729738346016   -0.028986918153753306   0.008071732520449963
0.03448729738346016   -0.028986918153753306   0.008071732520449963
-0.3894303668485589   -0.05156685743567174   -0.009695674927781478
-0.3894303668485589   -0.05156685743567174   -0.009695674927781478
-0.3894303668485589   -0.05156685743567174   -0.009695674927781478
-0.3894303668485589   -0.05156685743567174   -0.009695674927781478
-0.4240155940520493   -0.1273725352175799   -0.013306154635258916
-0.4240155940520493   -0.1273725352175799   -0.013306154635258916
-0.4240155940520493   -0.1273725352175799   -0.013306154635258916
-0.4240155940520493   -0.1273725352175799   -0.013306154635258916
0.032440642557016564   0.03246631457426606   0.015452192709172037
0.032440642557016564   0.03246631457426606   0.015452192709172037
0.032440642557016564   0.03246631457426606   0.015452192709172037
0.032440642557016564   0.03246631457426606   0.015452192709172037
-0.1866671299881968   -0.040904576973707474   -0.011706035037392155
-0.1866671299881968   -0.040904576973707474   -0.011706035037392155
-0.1866671299881968   -0.040904576973707474   -0.011706035037392155
-0.1866671299881968   -0.040904576973707474   -0.011706035037392155
0.01826346853983408   -0.03404080361053859   0.011073440808064283
0.01826346853983408   -0.03404080361053859   0.011073440808064283
0.01826346853983408   -0.03404080361053859   0.011073440808064283
0.01826346853983408   -0.03404080361053859   0.011073440808064283
-0.40958830370683885   -0.060615300704747285   -0.007926937422039315
-0.40958830370683885   -0.060615300704747285   -0.007926937422039315
-0.40958830370683885   -0.060615300704747285   -0.007926937422039315
-0.40958830370683885   -0.060615300704747285   -0.007926937422039315
-0.44433168185724226   -0.130811550643061   -0.011824510461155999
-0.44433168185724226   -0.130811550643061   -0.011824510461155999
-0.44433168185724226   -0.130811550643061   -0.011824510461155999
-0.44433168185724226   -0.130811550643061   -0.011824510461155999
0.013891359809860122   0.025261490305852136   0.017244842847066347
0.013891359809860122   0.025261490305852136   0.017244842847066347
0.013891359809860122   0.025261490305852136   0.017244842847066347
0.013891359809860122   0.025261490305852136   0.017244842847066347
-0.2063580345165109   -0.046891352071931104   -0.016391361572249567
-0.2063580345165109   -0.046891352071931104   -0.016391361572249567
-0.2063580345165109   -0.046891352071931104   -0.016391361572249567
-0.2063580345165109   -0.046891352071931104   -0.016391361572249567
-0.36823730028294704   -0.031046744496871222   0.0058507508517660345
-0.36823730028294704   -0.031046744496871222   0.0058507508517660345
-0.36823730028294704   -0.031046744496871222   0.0058507508517660345
-0.36823730028294704   -0.031046744496871222   0.0058507508517660345
-0.7837374813301947   -0.05053229799053264   -0.020614083711345543
-0.7837374813301947   -0.05053229799053264   -0.020614083711345543
-0.7837374813301947   -0.05053229799053264   -0.020614083711345543
-0.7837374813301947   -0.05053229799053264   -0.020614083711345543
-0.8195248896504004   -0.12866503701620366   -0.020041218151089918
-0.8195248896504004   -0.12866503701620366   -0.020041218151089918
-0.8195248896504004   -0.12866503701620366   -0.020041218151089918
-0.8195248896504004   -0.12866503701620366   -0.020041218151089918
-0.3701125643994842   0.031358177109560376   0.003968302772357685
-0.3701125643994842   0.031358177109560376   0.003968302772357685
-0.3701125643994842   0.031358177109560376   0.003968302772357685
-0.3701125643994842   0.031358177109560376   0.003968302772357685
-0.5806004871367456   -0.04265418040258014   -0.008143485366230885
-0.5806004871367456   -0.04265418040258014   -0.008143485366230885
-0.5806004871367456   -0.04265418040258014   -0.008143485366230885
-0.5806004871367456   -0.04265418040258014   -0.008143485366230885
-0.3812477182613088   -0.034226014161339906   0.013876724734137189
-0.3812477182613088   -0.034226014161339906   0.013876724734137189
-0.3812477182613088   -0.034226014161339906   0.013876724734137189
-0.3812477182613088   -0.034226014161339906   0.013876724734137189
-0.8061224585424249   -0.06081356849915308   -0.02088053112826882
-0.8061224585424249   -0.06081356849915308   -0.02088053112826882
-0.8061224585424249   -0.06081356849915308   -0.02088053112826882
-0.8061224585424249   -0.06081356849915308   -0.02088053112826882
-0.8448413292091909   -0.13677155865674195   -0.014132539260747756
-0.8448413292091909   -0.13677155865674195   -0.014132539260747756
-0.8448413292091909   -0.13677155865674195   -0.014132539260747756
-0.8448413292091909   -0.13677155865674195   -0.014132539260747756
-0.39049391680214646   0.02210392485669962   0.004825771539975668
-0.39049391680214646   0.02210392485669962   0.004825771539975668
-0.39049391680214646   0.02210392485669962   0.004825771539975668
-0.39049391680214646   0.02210392485669962   0.004825771539975668
-0.5965306959699351   -0.047095640684953255   -0.008136720146273452
-0.5965306959699351   -0.047095640684953255   -0.008136720146273452
-0.5965306959699351   -0.047095640684953255   -0.008136720146273452
-0.5965306959699351   -0.047095640684953255   -0.008136720146273452
-0.4014700203471617   -0.04238412774822738   0.014433306419826458
-0.4014700203471617   -0.04238412774822738   0.014433306419826458
-0.4014700203471617   -0.04238412774822738   0.014433306419826458
-0.4014700203471617   -0.04238412774822738   0.014433306419826458
-0.8323427885822356   -0.0707610689698816   -0.01765032581284129
-0.8323427885822356   -0.0707610689698816   -0.01765032581284129
-0.8323427885822356   -0.0707610689698816   -0.01765032581284129
-0.8323427885822356   -0.0707610689698816   -0.01765032581284129
-0.8734642368046771   -0.14749522639320198   -0.015078735650210479
-0.8734642368046771   -0.14749522639320198   -0.015078735650210479
-0.8734642368046771   -0.14749522639320198   -0.015078735650210479
-0.8734642368046771   -0.14749522639320198   -0.015078735650210479
-0.41252580475490386   0.01065391824847848   0.005739406158992655
-0.41252580475490386   0.01065391824847848   0.005739406158992655
-0.41252580475490386   0.01065391824847848   0.005739406158992655
-0.41252580475490386   0.01065391824847848   0.005739406158992655
-0.6250397785295903   -0.05814765008668532   -0.013308551791059414
-0.6250397785295903   -0.05814765008668532   -0.013308551791059414
-0.6250397785295903   -0.05814765008668532   -0.013308551791059414
-0.6250397785295903   -0.05814765008668532   -0.013308551791059414
-0.7574144259296068   0.03529584442062644   0.025173050880434394
-0.7574144259296068   0.03529584442062644   0.025173050880434394
-0.7574144259296068   0.03529584442062644   0.025173050880434394
-0.7574144259296068   0.03529584442062644   0.025173050880434394
-1.1739997190563798   -0.058456132348146075   -0.015515022924328603
-1.1739997190563798   -0.058456132348146075   -0.015515022924328603
-1.1739997190563798   -0.058456132348146075   -0.015515022924328603
-1.1739997190563798   -0.058456132348146075   -0.015515022924328603
-1.2024055667054125   -0.059554985341361666   0.025782871456455747
-1.2024055667054125   -0.059554985341361666   0.025782871456455747
-1.2024055667054125   -0.059554985341361666   0.025782871456455747
-1.2024055667054125   -0.059554985341361666   0.025782871456455747
-0.7860695700739239   0.024620320480889996   -0.006049977765806486
-0.7860695700739239   0.024620320480889996   -0.006049977765806486
-0.7860695700739239   0.024620320480889996   -0.006049977765806486
-0.7860695700739239   0.024620320480889996   -0.006049977765806486
-0.9342754787104639   0.000595001471880352   0.023772040786221804
-0.9342754787104639   0.000595001471880352   0.023772040786221804
-0.9342754787104639   0.000595001471880352   0.023772040786221804
-0.9342754787104639   0.000595001471880352   0.023772040786221804
-0.7781041562352479   0.026523504035893722   0.03187390787256797
-0.7781041562352479   0.026523504035893722   0.03187390787256797
-0.7781041562352479   0.026523504035893722   0.03187390787256797
-0.7781041562352479   0.026523504035893722   0.03187390787256797
-1.2098329079417316   -0.060920096294008824   -0.009988723772492769
-1.2098329079417316   -0.060920096294008824   -0.009988723772492769
-1.2098329079417316   -0.060920096294008824   -0.009988723772492769
-1.2098329079417316   -0.060920096294008824   -0.009988723772492769
-1.2382111364463055   -0.06922548326420352   0.035110345945338683
-1.2382111364463055   -0.06922548326420352   0.035110345945338683
-1.2382111364463055   -0.06922548326420352   0.035110345945338683
-1.2382111364463055   -0.06922548326420352   0.035110345945338683
-0.8123219296471895   0.01804217628491539   -0.0063492763924080375
-0.8123219296471895   0.01804217628491539   -0.0063492763924080375
-0.8123219296471895   0.01804217628491539   -0.0063492763924080375
-0.8123219296471895   0.01804217628491539   -0.0063492763924080375
-0.9807077732110903   -0.010696694046063146   0.0131957734667493
-0.9807077732110903   -0.010696694046063146   0.0131957734667493
-0.9807077732110903   -0.010696694046063146   0.0131957734667493
-0.9807077732110903   -0.010696694046063146   0.0131957734667493
-0.8050372796326153   0.01667537408544701   0.03144077587993169
-0.8050372796326153   0.01667537408544701   0.03144077587993169
-0.8050372796326153   0.01667537408544701   0.03144077587993169
-0.8050372796326153   0.01667537408544701   0.03144077587993169
-1.246868194363451   -0.06923108896730988   -0.00816933793727287
-1.246868194363451   -0.06923108896730988   -0.00816933793727287
-1.246868194363451   -0.06923108896730988   -0.00816933793727287
-1.246868194363451   -0.06923108896730988   -0.00816933793727287
-1.2891758191808778   -0.10846617385405187   0.030390392575617375
-1.2891758191808778   -0.10846617385405187   0.030390392575617375
-1.2891758191808778   -0.10846617385405187   0.030390392575617375
-1.2891758191808778   -0.10846617385405187   0.030390392575617375
-0.8425930126956991   -0.002224737214139405   -0.0059931042843853755
-0.8425930126956991   -0.002224737214139405   -0.0059931042843853755
-0.8425930126956991   -0.002224737214139405   -0.0059931042843853755
-0.8425930126956991   -0.002224737214139405   -0.0059931042843853755
-1.000097226594427   -0.024981179542739818   0.003990651466125067
-1.000097226594427   -0.024981179542739818   0.003990651466125067
-1.000097226594427   -0.024981179542739818   0.003990651466125067
-1.000097226594427   -0.024981179542739818   0.003990651466125067
0.7742437381817369   0.041639825684012   -0.02720082027336554
0.7742437381817369   0.041639825684012   -0.02720082027336554
0.7742437381817369   0.041639825684012   -0.02720082027336554
0.7742437381817369   0.041639825684012   -0.02720082027336554
0.38320801787078684   -0.0008254154295840345   0.009743094924367188
0.38320801787078684   -0.0008254154295840345   0.009743094924367188
0.38320801787078684   -0.0008254154295840345   0.009743094924367188
0.38320801787078684   -0.0008254154295840345   0.009743094924367188
0.3506705999430002   -0.05687790179562466   -0.02503918323713937
0.3506705999430002   -0.05687790179562466   -0.02503918323713937
0.3506705999430002   -0.05687790179562466   -0.02503918323713937
0.3506705999430002   -0.05687790179562466   -0.02503918323713937
0.7598766681401198   0.06240264408187875   0.012233572219961686
0.7598766681401198   0.06240264408187875   0.012233572219961686
0.7598766681401198   0.06240264408187875   0.012233572219961686
0.7598766681401198   0.06240264408187875   0.012233572219961686
0.5376863490338769   0.004729363213614446   -0.017706911089016814
0.5376863490338769   0.004729363213614446   -0.017706911089016814
0.5376863490338769   0.004729363213614446   -0.017706911089016814
0.5376863490338769   0.004729363213614446   -0.017706911089016814
0.7440101863120572   0.021548844631601206   -0.02624503747006704
0.7440101863120572   0.021548844631601206   -0.02624503747006704
0.7440101863120572   0.021548844631601206   -0.02624503747006704
0.7440101863120572   0.021548844631601206   -0.02624503747006704
0.3658654510894298   -0.016695733026980148   0.010752903726357205
0.3658654510894298   -0.016695733026980148   0.010752903726357205
0.3658654510894298   -0.016695733026980148   0.010752903726357205
0.3658654510894298   -0.016695733026980148   0.010752903726357205
0.33440105411734977   -0.061564656812368605   -0.02179074907146611
0.33440105411734977   -0.061564656812368605   -0.02179074907146611
0.33440105411734977   -0.061564656812368605   -0.02179074907146611
0.33440105411734977   -0.061564656812368605   -0.02179074907146611
0.7355548461984003   0.055939814505982746   0.016788377099389934
0.7355548461984003   0.055939814505982746   0.016788377099389934
0.7355548461984003   0.055939814505982746   0.016788377099389934
0.7355548461984003   0.055939814505982746   0.016788377099389934
0.5251159177444101   -0.0037639573808540064   -0.02312859669274335
0.5251159177444101   -0.0037639573808540064   -0.02312859669274335
0.5251159177444101   -0.0037639573808540064   -0.02312859669274335
0.5251159177444101   -0.0037639573808540064   -0.02312859669274335
0.7200196271046271   0.015773022355575143   -0.02072092621905544
0.7200196271046271   0.015773022355575143   -0.02072092621905544
0.7200196271046271   0.015773022355575143   -0.02072092621905544
0.7200196271046271   0.015773022355575143   -0.02072092621905544
0.3493262102070388   -0.02200792766603851   0.01327830223064512
0.3493262102070388   -0.02200792766603851   0.01327830223064512
0.3493262102070388   -0.02200792766603851   0.01327830223064512
0.3493262102070388   -0.02200792766603851   0.01327830223064512
0.31956550942692763   -0.06280235529156389   -0.01781061638237995
0.31956550942692763   -0.06280235529156389   -0.01781061638237995
0.31956550942692763   -0.06280235529156389   -0.01781061638237995
0.31956550942692763   -0.06280235529156389   -0.01781061638237995
0.7081364032621743   0.050389581436059615   0.020951186961262108
0.7081364032621743   0.050389581436059615   0.020951186961262108
0.7081364032621743   0.050389581436059615   0.020951186961262108
0.7081364032621743   0.050389581436059615   0.020951186961262108
0.4953015768852758   -0.009563710776626481   -0.03134952895107579
0.4953015768852758   -0.009563710776626481   -0.03134952895107579
0.4953015768852758   -0.009563710776626481   -0.03134952895107579
0.4953015768852758   -0.009563710776626481   -0.03134952895107579
0.39001563553563157   0.040625302982078976   0.0023304648369274206
0.39001563553563157   0.040625302982078976   0.0023304648369274206
0.39001563553563157   0.040625302982078976   0.0023304648369274206
0.39001563553563157   0.040625302982078976   0.0023304648369274206
0.012432125387518573   -0.013090234539587532   -0.0017070746835208606
0.012432125387518573   -0.013090234539587532   -0.0017070746835208606
0.012432125387518573   -0.013090234539587532   -0.0017070746835208606
0.012432125387518573   -0.013090234539587532   -0.0017070746835208606
-0.0120986437496462   -0.05130112065232594   -0.017102301479629232
-0.0120986437496462   -0.05130112065232594   -0.017102301479629232
-0.0120986437496462   -0.05130112065232594   -0.017102301479629232
-0.0120986437496462   -0.05130112065232594   -0.017102301479629232
0.3825942041562303   0.05659626730500593   0.021104668728373868
0.3825942041562303   0.05659626730500593   0.021104668728373868
0.3825942041562303   0.05659626730500593   0.021104668728373868
0.3825942041562303   0.05659626730500593   0.021104668728373868
0.19022085846501877   0.008067999134142528   -0.0021292378201781606
0.19022085846501877   0.008067999134142528   -0.0021292378201781606
0.19022085846501877   0.008067999134142528   -0.0021292378201781606
0.19022085846501877   0.008067999134142528   -0.0021292378201781606
0.37399919657202113   0.030236739441995425   0.004489158670340956
0.37399919657202113   0.030236739441995425   0.004489158670340956
0.37399919657202113   0.030236739441995425   0.004489158670340956
0.37399919657202113   0.030236739441995425   0.004489158670340956
-0.0033478687565904387   -0.024785825380473567   0.00013627821379720052
-0.0033478687565904387   -0.024785825380473567   0.00013627821379720052
-0.0033478687565904387   -0.024785825380473567   0.00013627821379720052
-0.0033478687565904387   -0.024785825380473567   0.00013627821379720052
-0.02750903526341376   -0.05887362015091128   -0.014805729799949112
-0.02750903526341376   -0.05887362015091128   -0.014805729799949112
-0.02750903526341376   -0.05887362015091128   -0.014805729799949112
-0.02750903526341376   -0.05887362015091128   -0.014805729799949112
0.36513418533775394   0.04697037753063711   0.02333987268754549
0.36513418533775394   0.04697037753063711   0.02333987268754549
0.36513418533775394   0.04697037753063711   0.02333987268754549
0.36513418533775394   0.04697037753063711   0.02333987268754549
0.171355423161563   -0.0014344453831605462   -0.0075224324484020125
0.171355423161563   -0.0014344453831605462   -0.0075224324484020125
0.171355423161563   -0.0014344453831605462   -0.0075224324484020125
0.171355423161563   -0.0014344453831605462   -0.0075224324484020125
0.35686517411910423   0.022296172092141405   0.0066690220327962485
0.35686517411910423   0.022296172092141405   0.0066690220327962485
0.35686517411910423   0.022296172092141405   0.0066690220327962485
0.35686517411910423   0.022296172092141405   0.0066690220327962485
-0.019226308052680878   -0.0341856987203318   0.001919984823135823
-0.019226308052680878   -0.0341856987203318   0.001919984823135823
-0.019226308052680878   -0.0341856987203318   0.001919984823135823
-0.019226308052680878   -0.0341856987203318   0.001919984823135823
-0.042756850677468254   -0.0633795324878754   -0.01181300380914483
-0.042756850677468254   -0.0633795324878754   -0.01181300380914483
-0.042756850677468254   -0.0633795324878754   -0.01181300380914483
-0.042756850677468254   -0.0633795324878754   -0.01181300380914483
0.3485264483430199   0.03889315626288625   0.0252985666436263
0.3485264483430199   0.03889315626288625   0.0252985666436263
0.3485264483430199   0.03889315626288625   0.0252985666436263
0.3485264483430199   0.03889315626288625   0.0252985666436263
0.1574730169653514   -0.007455374004966672   -0.011478410626254494
0.1574730169653514   -0.007455374004966672   -0.011478410626254494
0.1574730169653514   -0.007455374004966672   -0.011478410626254494
0.1574730169653514   -0.007455374004966672   -0.011478410626254494
0.02532561829101203   0.04085615019615942   0.008814005098199488
0.02532561829101203   0.04085615019615942   0.008814005098199488
0.02532561829101203   0.04085615019615942   0.008814005098199488
0.02532561829101203   0.04085615019615942   0.008814005098199488
-0.3469665793447324   -0.022676865202598383   -0.011908748295057878
-0.3469665793447324   -0.022676865202598383   -0.011908748295057878
-0.3469665793447324   -0.022676865202598383   -0.011908748295057878
-0.3469665793447324   -0.022676865202598383   -0.011908748295057878
-0.36610256563573046   -0.04714836331969842   -0.01093100556074332
-0.36610256563573046   -0.04714836331969842   -0.01093100556074332
-0.36610256563573046   -0.04714836331969842   -0.01093100556074332
-0.36610256563573046   -0.04714836331969842   -0.01093100556074332
0.012911203129115206   0.04636585374094657   0.010279958520905285
0.012911203129115206   0.04636585374094657   0.010279958520905285
0.012911203129115206   0.04636585374094657   0.010279958520905285
0.012911203129115206   0.04636585374094657   0.010279958520905285
-0.16849357971416293   0.005110929858293006   0.0006697959394467642
-0.16849357971416293   0.005110929858293006   0.0006697959394467642
-0.16849357971416293   0.005110929858293006   0.0006697959394467642
-0.16849357971416293   0.005110929858293006   0.0006697959394467642
0.010293698585969879   0.03252395712167946   0.011034332424445762
0.010293698585969879   0.03252395712167946   0.011034332424445762
0.010293698585969879   0.03252395712167946   0.011034332424445762
0.010293698585969879   0.03252395712167946   0.011034332424445762
-0.3630627163101084   -0.03288412191795459   -0.00999600033437692
-0.3630627163101084   -0.03288412191795459   -0.00999600033437692
-0.3630627163101084   -0.03288412191795459   -0.00999600033437692
-0.3630627163101084   -0.03288412191795459   -0.00999600033437692
-0.38263660652239234   -0.055462795894305014   -0.009116110554274429
-0.38263660652239234   -0.055462795894305014   -0.009116110554274429
-0.38263660652239234   -0.055462795894305014   -0.009116110554274429
-0.38263660652239234   -0.055462795894305014   -0.009116110554274429
-0.002988038766213241   0.036466852705979054   0.012458779829163165
-0.002988038766213241   0.036466852705979054   0.012458779829163165
-0.002988038766213241   0.036466852705979054   0.012458779829163165
-0.002988038766213241   0.036466852705979054   0.012458779829163165
-0.18433823416662104   -0.0030503078233296687   -0.0033711618789111983
-0.18433823416662104   -0.0030503078233296687   -0.0033711618789111983
-0.18433823416662104   -0.0030503078233296687   -0.0033711618789111983
-0.18433823416662104   -0.0030503078233296687   -0.0033711618789111983
-0.005219622430004135   0.02449780489855422   0.01326990931763353
-0.005219622430004135   0.02449780489855422   0.01326990931763353
-0.005219622430004135   0.02449780489855422   0.01326990931763353
-0.005219622430004135   0.02449780489855422   0.01326990931763353
-0.38004535756104596   -0.04313408278932468   -0.008488578852522813
-0.38004535756104596   -0.04313408278932468   -0.008488578852522813
-0.38004535756104596   -0.04313408278932468   -0.008488578852522813
-0.38004535756104596   -0.04313408278932468   -0.008488578852522813
-0.39905307787518124   -0.061995554399507505   -0.006095942994659834
-0.39905307787518124   -0.061995554399507505   -0.006095942994659834
-0.39905307787518124   -0.061995554399507505   -0.006095942994659834
-0.39905307787518124   -0.061995554399507505   -0.006095942994659834
-0.019462322306323478   0.027141819868524996   0.014138285690178661
-0.019462322306323478   0.027141819868524996   0.014138285690178661
-0.019462322306323478   0.027141819868524996   0.014138285690178661
-0.019462322306323478   0.027141819868524996   0.014138285690178661
-0.20138902630963734   -0.011348632903417985   -0.007793587787932328
-0.20138902630963734   -0.011348632903417985   -0.007793587787932328
-0.20138902630963734   -0.011348632903417985   -0.007793587787932328
-0.20138902630963734   -0.011348632903417985   -0.007793587787932328
-0.32726128648130126   0.0480616065711852   0.015879244248319616
-0.32726128648130126   0.0480616065711852   0.015879244248319616
-0.32726128648130126   0.0480616065711852   0.015879244248319616
-0.32726128648130126   0.0480616065711852   0.015879244248319616
-0.6948428788686609   -0.031116845214277836   -0.019464483214628653
-0.6948428788686609   -0.031116845214277836   -0.019464483214628653
-0.6948428788686609   -0.031116845214277836   -0.019464483214628653
-0.6948428788686609   -0.031116845214277836   -0.019464483214628653
-0.7097500440617586   -0.03802604865549618   -0.0033153463906506753
-0.7097500440617586   -0.03802604865549618   -0.0033153463906506753
-0.7097500440617586   -0.03802604865549618   -0.0033153463906506753
-0.7097500440617586   -0.03802604865549618   -0.0033153463906506753
-0.34755084819546306   0.03514120612131765   -0.0004619878004206157
-0.34755084819546306   0.03514120612131765   -0.0004619878004206157
-0.34755084819546306   0.03514120612131765   -0.0004619878004206157
-0.34755084819546306   0.03514120612131765   -0.0004619878004206157
-0.516091338235982   0.005076859521432588   0.0037841100436792063
-0.516091338235982   0.005076859521432588   0.0037841100436792063
-0.516091338235982   0.005076859521432588   0.0037841100436792063
-0.516091338235982   0.005076859521432588   0.0037841100436792063
-0.3430155466873664   0.0395458877248237   0.017809838136556497
-0.3430155466873664   0.0395458877248237   0.017809838136556497
-0.3430155466873664   0.0395458877248237   0.017809838136556497
-0.3430155466873664   0.0395458877248237   0.017809838136556497
-0.7137205675713572   -0.04186595226050417   -0.01932806033363557
-0.7137205675713572   -0.04186595226050417   -0.01932806033363557
-0.7137205675713572   -0.04186595226050417   -0.01932806033363557
-0.7137205675713572   -0.04186595226050417   -0.01932806033363557
-0.7301053937838741   -0.047381672648944335   -0.002990739006516502
-0.7301053937838741   -0.047381672648944335   -0.002990739006516502
-0.7301053937838741   -0.047381672648944335   -0.002990739006516502
-0.7301053937838741   -0.047381672648944335   -0.002990739006516502
-0.3642867807344873   0.025695176105509584   0.00147504638544034
-0.3642867807344873   0.025695176105509584   0.00147504638544034
-0.3642867807344873   0.025695176105509584   0.00147504638544034
-0.3642867807344873   0.025695176105509584   0.00147504638544034
-0.5302875953149805   -0.0023563942852859662   0.00047480826383218544
-0.5302875953149805   -0.0023563942852859662   0.00047480826383218544
-0.5302875953149805   -0.0023563942852859662   0.00047480826383218544
-0.5302875953149805   -0.0023563942852859662   0.00047480826383218544
-0.35931443432258264   0.031484214962259886   0.020547739588213182
-0.35931443432258264   0.031484214962259886   0.020547739588213182
-0.35931443432258264   0.031484214962259886   0.020547739588213182
-0.35931443432258264   0.031484214962259886   0.020547739588213182
-0.733918172215591   -0.052011143525506925   -0.017425160288538494
-0.733918172215591   -0.052011143525506925   -0.017425160288538494
-0.733918172215591   -0.052011143525506925   -0.017425160288538494
-0.733918172215591   -0.052011143525506925   -0.017425160288538494
-0.7488346483584016   -0.057411488019624216   0.0017212184219769777
-0.7488346483584016   -0.057411488019624216   0.0017212184219769777
-0.7488346483584016   -0.057411488019624216   0.0017212184219769777
-0.7488346483584016   -0.057411488019624216   0.0017212184219769777
-0.3820235463952676   0.014427966722419343   0.0026281932829816668
-0.3820235463952676   0.014427966722419343   0.0026281932829816668
-0.3820235463952676   0.014427966722419343   0.0026281932829816668
-0.3820235463952676   0.014427966722419343   0.0026281932829816668
-0.5525976379104682   -0.012863082270511937   -0.004001315487972473
-0.5525976379104682   -0.012863082270511937   -0.004001315487972473
-0.5525976379104682   -0.012863082270511937   -0.004001315487972473
-0.5525976379104682   -0.012863082270511937   -0.004001315487972473
-0.6703388234807539   0.04980570087830696   0.022133247632310893
-0.6703388234807539   0.04980570087830696   0.022133247632310893
-0.6703388234807539   0.04980570087830696   0.022133247632310893
-0.6703388234807539   0.04980570087830696   0.022133247632310893
-1.026061918914782   -0.04751805436135578   -0.017786578241467038
-1.026061918914782   -0.04751805436135578   -0.017786578241467038
-1.026061918914782   -0.04751805436135578   -0.017786578241467038
-1.026061918914782   -0.04751805436135578   -0.017786578241467038
-1.0398782778525968   -0.021178465796324833   0.018764798626792256
-1.0398782778525968   -0.021178465796324833   0.018764798626792256
-1.0398782778525968   -0.021178465796324833   0.018764798626792256
-1.0398782778525968   -0.021178465796324833   0.018764798626792256
-0.6991999792664197   0.02126788598489396   -0.009858957054346057
-0.6991999792664197   0.02126788598489396   -0.009858957054346057
-0.6991999792664197   0.02126788598489396   -0.009858957054346057
-0.6991999792664197   0.02126788598489396   -0.009858957054346057
-0.8208710474635432   0.010254889322446677   0.018966886627118457
-0.8208710474635432   0.010254889322446677   0.018966886627118457
-0.8208710474635432   0.010254889322446677   0.018966886627118457
-0.8208710474635432   0.010254889322446677   0.018966886627118457
-0.6862155988558962   0.050889397061906594   0.02544143392124887
-0.6862155988558962   0.050889397061906594   0.02544143392124887
-0.6862155988558962   0.050889397061906594   0.02544143392124887
-0.6862155988558962   0.050889397061906594   0.02544143392124887
-1.052097508170884   -0.050034826781101084   -0.013474991979856882
-1.052097508170884   -0.050034826781101084   -0.013474991979856882
-1.052097508170884   -0.050034826781101084   -0.013474991979856882
-1.052097508170884   -0.050034826781101084   -0.013474991979856882
-1.0651698272861498   -0.02607496420928135   0.025912918775568672
-1.0651698272861498   -0.02607496420928135   0.025912918775568672
-1.0651698272861498   -0.02607496420928135   0.025912918775568672
-1.0651698272861498   -0.02607496420928135   0.025912918775568672
-0.7186157282148554   0.015841515166555527   -0.008765598976923111
-0.7186157282148554   0.015841515166555527   -0.008765598976923111
-0.7186157282148554   0.015841515166555527   -0.008765598976923111
-0.7186157282148554   0.015841515166555527   -0.008765598976923111
-0.855883756255046   0.005081126062567547   0.012306862382867406
-0.855883756255046   0.005081126062567547   0.012306862382867406
-0.855883756255046   0.005081126062567547   0.012306862382867406
-0.855883756255046   0.005081126062567547   0.012306862382867406
-0.7042713285057529   0.04723477894892775   0.03156313578621711
-0.7042713285057529   0.04723477894892775   0.03156313578621711
-0.7042713285057529   0.04723477894892775   0.03156313578621711
-0.7042713285057529   0.04723477894892775   0.03156313578621711
-1.078769974124373   -0.05672397512077287   -0.011438804504047412
-1.078769974124373   -0.05672397512077287   -0.011438804504047412
-1.078769974124373   -0.05672397512077287   -0.011438804504047412
-1.078769974124373   -0.05672397512077287   -0.011438804504047412
-1.0994820343911453   -0.04726364408981425   0.025701383032686598
-1.0994820343911453   -0.04726364408981425   0.025701383032686598
-1.0994820343911453   -0.04726364408981425   0.025701383032686598
-1.0994820343911453   -0.04726364408981425   0.025701383032686598
-0.7394619259114301   -0.0005791458668239213   -0.008247511495969528
-0.7394619259114301   -0.0005791458668239213   -0.008247511495969528
-0.7394619259114301   -0.0005791458668239213   -0.008247511495969528
-0.7394619259114301   -0.0005791458668239213   -0.008247511495969528
-0.8657842759288839   -0.002432177097615097   0.01016375298364916
-0.8657842759288839   -0.002432177097615097   0.01016375298364916
-0.8657842759288839   -0.002432177097615097   0.01016375298364916
-0.8657842759288839   -0.002432177097615097   0.01016375298364916
0.5894587986344372   0.03292709962371096   -0.02774511057280818
0.5894587986344372   0.03292709962371096   -0.02774511057280818
0.5894587986344372   0.03292709962371096   -0.02774511057280818
0.5894587986344372   0.03292709962371096   -0.02774511057280818
0.2799061023837648   0.005243465842515603   0.010489962171647951
0.2799061023837648   0.005243465842515603   0.010489962171647951
0.2799061023837648   0.005243465842515603   0.010489962171647951
0.2799061023837648   0.005243465842515603   0.010489962171647951
0.24912487525012636   -0.047475124003001946   -0.026403475314448324
0.24912487525012636   -0.047475124003001946   -0.026403475314448324
0.24912487525012636   -0.047475124003001946   -0.026403475314448324
0.24912487525012636   -0.047475124003001946   -0.026403475314448324
0.576916591851314   0.05398012191350776   0.012984553226108392
0.576916591851314   0.05398012191350776   0.012984553226108392
0.576916591851314   0.05398012191350776   0.012984553226108392
0.576916591851314   0.05398012191350776   0.012984553226108392
0.4019613561783831   0.005421053811889346   -0.011896288680495623
0.4019613561783831   0.005421053811889346   -0.011896288680495623
0.4019613561783831   0.005421053811889346   -0.011896288680495623
0.4019613561783831   0.005421053811889346   -0.011896288680495623
0.5612679634060934   0.014982079394820415   -0.02626054648130355
0.5612679634060934   0.014982079394820415   -0.02626054648130355
0.5612679634060934   0.014982079394820415   -0.02626054648130355
0.5612679634060934   0.014982079394820415   -0.02626054648130355
0.26446807895777835   -0.00878250622188298   0.011619925442690457
0.26446807895777835   -0.00878250622188298   0.011619925442690457
0.26446807895777835   -0.00878250622188298   0.011619925442690457
0.26446807895777835   -0.00878250622188298   0.011619925442690457
0.23476244103647653   -0.05208547112713277   -0.022545645904263972
0.23476244103647653   -0.05208547112713277   -0.022545645904263972
0.23476244103647653   -0.05208547112713277   -0.022545645904263972
0.23476244103647653   -0.05208547112713277   -0.022545645904263972
0.554579661681871   0.04737792055066235   0.017127818166110323
0.554579661681871   0.04737792055066235   0.017127818166110323
0.554579661681871   0.04737792055066235   0.017127818166110323
0.554579661681871   0.04737792055066235   0.017127818166110323
0.3892280842513313   -0.0026062869010448075   -0.016598175736115522
0.3892280842513313   -0.0026062869010448075   -0.016598175736115522
0.3892280842513313   -0.0026062869010448075   -0.016598175736115522
0.3892280842513313   -0.0026062869010448075   -0.016598175736115522
0.5392864487839174   0.009113662040508362   -0.02107398781349913
0.5392864487839174   0.009113662040508362   -0.02107398781349913
0.5392864487839174   0.009113662040508362   -0.02107398781349913
0.5392864487839174   0.009113662040508362   -0.02107398781349913
0.24966264852925035   -0.014214218022158082   0.014084138454628747
0.24966264852925035   -0.014214218022158082   0.014084138454628747
0.24966264852925035   -0.014214218022158082   0.014084138454628747
0.24966264852925035   -0.014214218022158082   0.014084138454628747
0.22183540410685004   -0.05481719841509858   -0.01878171313920464
0.22183540410685004   -0.05481719841509858   -0.01878171313920464
0.22183540410685004   -0.05481719841509858   -0.01878171313920464
0.22183540410685004   -0.05481719841509858   -0.01878171313920464
0.5293755448104318   0.04030843865120742   0.02038963546386101
0.5293755448104318   0.04030843865120742   0.02038963546386101
0.5293755448104318   0.04030843865120742   0.02038963546386101
0.5293755448104318   0.04030843865120742   0.02038963546386101
0.36367990767852887   -0.008634092550124546   -0.02362078190981444
0.36367990767852887   -0.008634092550124546   -0.02362078190981444
0.36367990767852887   -0.008634092550124546   -0.02362078190981444
0.36367990767852887   -0.008634092550124546   -0.02362078190981444
0.2847413880220734   0.041412503470974894   -0.001502647265263543
0.2847413880220734   0.041412503470974894   -0.001502647265263543
0.2847413880220734   0.041412503470974894   -0.001502647265263543
0.2847413880220734   0.041412503470974894   -0.001502647265263543
-0.019002056269545924   -0.004306338394824617   -0.0002513480010578632
-0.019002056269545924   -0.004306338394824617   -0.0002513480010578632
-0.019002056269545924   -0.004306338394824617   -0.0002513480010578632
-0.019002056269545924   -0.004306338394824617   -0.0002513480010578632
-0.04068880763444376   -0.03564990799458629   -0.016843195978913077
-0.04068880763444376   -0.03564990799458629   -0.016843195978913077
-0.04068880763444376   -0.03564990799458629   -0.016843195978913077
-0.04068880763444376   -0.03564990799458629   -0.016843195978913077
0.277480311172855   0.04911872461268971   0.018779855683500803
0.277480311172855   0.04911872461268971   0.018779855683500803
0.277480311172855   0.04911872461268971   0.018779855683500803
0.277480311172855   0.04911872461268971   0.018779855683500803
0.1236912127546632   0.012071562788169173   0.0009099055752834172
0.1236912127546632   0.012071562788169173   0.0009099055752834172
0.1236912127546632   0.012071562788169173   0.0009099055752834172
0.1236912127546632   0.012071562788169173   0.0009099055752834172
0.27010495369344867   0.030068201705506527   0.0009535911936585234
0.27010495369344867   0.030068201705506527   0.0009535911936585234
0.27010495369344867   0.030068201705506527   0.0009535911936585234
0.27010495369344867   0.030068201705506527   0.0009535911936585234
-0.03318915206380581   -0.016475086996170434   0.0014802608758608324
-0.03318915206380581   -0.016475086996170434   0.0014802608758608324
-0.03318915206380581   -0.016475086996170434   0.0014802608758608324
-0.03318915206380581   -0.016475086996170434   0.0014802608758608324
-0.05421329934991171   -0.044357315114749586   -0.013951105851722255
-0.05421329934991171   -0.044357315114749586   -0.013951105851722255
-0.05421329934991171   -0.044357315114749586   -0.013951105851722255
-0.05421329934991171   -0.044357315114749586   -0.013951105851722255
0.2615298639692465   0.038681011619242034   0.020524986013209096
0.2615298639692465   0.038681011619242034   0.020524986013209096
0.2615298639692465   0.038681011619242034   0.020524986013209096
0.2615298639692465   0.038681011619242034   0.020524986013209096
0.10698704364272772   0.0017380990411958088   -0.004273884432278972
0.10698704364272772   0.0017380990411958088   -0.004273884432278972
0.10698704364272772   0.0017380990411958088   -0.004273884432278972
0.10698704364272772   0.0017380990411958088   -0.004273884432278972
0.2544013526164016   0.02072377051875272   0.0028396703494759368
0.2544013526164016   0.02072377051875272   0.0028396703494759368
0.2544013526164016   0.02072377051875272   0.0028396703494759368
0.2544013526164016   0.02072377051875272   0.0028396703494759368
-0.047192616610053785   -0.02650790262724689   0.0033028953600646865
-0.047192616610053785   -0.02650790262724689   0.0033028953600646865
-0.047192616610053785   -0.02650790262724689   0.0033028953600646865
-0.047192616610053785   -0.02650790262724689   0.0033028953600646865
-0.06755568914971305   -0.05162993218211082   -0.011234738088626224
-0.06755568914971305   -0.05162993218211082   -0.011234738088626224
-0.06755568914971305   -0.05162993218211082   -0.011234738088626224
-0.06755568914971305   -0.05162993218211082   -0.011234738088626224
0.24680249115432873   0.029067977582510687   0.022168546100578175
0.24680249115432873   0.029067977582510687   0.022168546100578175
0.24680249115432873   0.029067977582510687   0.022168546100578175
0.24680249115432873   0.029067977582510687   0.022168546100578175
0.09423126087495531   -0.006044366610450004   -0.008575625619538365
0.09423126087495531   -0.006044366610450004   -0.008575625619538365
0.09423126087495531   -0.006044366610450004   -0.008575625619538365
0.09423126087495531   -0.006044366610450004   -0.008575625619538365
-0.0068998134692291975   0.049090785960545044   0.006862741645156099
-0.0068998134692291975   0.049090785960545044   0.006862741645156099
-0.0068998134692291975   0.049090785960545044   0.006862741645156099
-0.0068998134692291975   0.049090785960545044   0.006862741645156099
-0.31157082005824654   -0.013772459620209414   -0.010331114538212817
-0.31157082005824654   -0.013772459620209414   -0.010331114538212817
-0.31157082005824654   -0.013772459620209414   -0.010331114538212817
-0.31157082005824654   -0.013772459620209414   -0.010331114538212817
-0.3255429955008749   -0.024998655610818588   -0.008088389607930416
-0.3255429955008749   -0.024998655610818588   -0.008088389607930416
-0.3255429955008749   -0.024998655610818588   -0.008088389607930416
-0.3255429955008749   -0.024998655610818588   -0.008088389607930416
-0.0206140417079885   0.039661002557132015   0.008219723101644948
-0.0206140417079885   0.039661002557132015   0.008219723101644948
-0.0206140417079885   0.039661002557132015   0.008219723101644948
-0.0206140417079885   0.039661002557132015   0.008219723101644948
-0.16576143267243965   0.01256692103056213   0.0032462636733877476
-0.16576143267243965   0.01256692103056213   0.0032462636733877476
-0.16576143267243965   0.01256692103056213   0.0032462636733877476
-0.16576143267243965   0.01256692103056213   0.0032462636733877476
-0.020352808029671376   0.03957869884590571   0.009608195204456868
-0.020352808029671376   0.03957869884590571   0.009608195204456868
-0.020352808029671376   0.03957869884590571   0.009608195204456868
-0.020352808029671376   0.03957869884590571   0.009608195204456868
-0.32554531715848994   -0.024657439878885124   -0.008441213627939287
-0.32554531715848994   -0.024657439878885124   -0.008441213627939287
-0.32554531715848994   -0.024657439878885124   -0.008441213627939287
-0.32554531715848994   -0.024657439878885124   -0.008441213627939287
-0.3393975417328287   -0.034420866729419464   -0.005570314381213956
-0.3393975417328287   -0.034420866729419464   -0.005570314381213956
-0.3393975417328287   -0.034420866729419464   -0.005570314381213956
-0.3393975417328287   -0.034420866729419464   -0.005570314381213956
-0.03471819136056069   0.02891470713711608   0.010252411843167159
-0.03471819136056069   0.02891470713711608   0.010252411843167159
-0.03471819136056069   0.02891470713711608   0.010252411843167159
-0.03471819136056069   0.02891470713711608   0.010252411843167159
-0.17975881746094802   0.003250214769327131   -0.0009505128993003292
-0.17975881746094802   0.003250214769327131   -0.0009505128993003292
-0.17975881746094802   0.003250214769327131   -0.0009505128993003292
-0.17975881746094802   0.003250214769327131   -0.0009505128993003292
-0.03417538054315048   0.030094885831854858   0.011786287235479425
-0.03417538054315048   0.030094885831854858   0.011786287235479425
-0.03417538054315048   0.030094885831854858   0.011786287235479425
-0.03417538054315048   0.030094885831854858   0.011786287235479425
-0.339868286693389   -0.03552897956730832   -0.00681592634612653
-0.339868286693389   -0.03552897956730832   -0.00681592634612653
-0.339868286693389   -0.03552897956730832   -0.00681592634612653
-0.339868286693389   -0.03552897956730832   -0.00681592634612653
-0.35308251873123797   -0.04302470360440924   -0.0030741352495781277
-0.35308251873123797   -0.04302470360440924   -0.0030741352495781277
-0.35308251873123797   -0.04302470360440924   -0.0030741352495781277
-0.35308251873123797   -0.04302470360440924   -0.0030741352495781277
-0.048884385997751904   0.01852143623424521   0.011970409254823483
-0.048884385997751904   0.01852143623424521   0.011970409254823483
-0.048884385997751904   0.01852143623424521   0.011970409254823483
-0.048884385997751904   0.01852143623424521   0.011970409254823483
-0.19440220014009066   -0.006142151942633794   -0.005627944235191383
-0.19440220014009066   -0.006142151942633794   -0.005627944235191383
-0.19440220014009066   -0.006142151942633794   -0.005627944235191383
-0.19440220014009066   -0.006142151942633794   -0.005627944235191383
-0.29256551474707143   0.056180095610379774   0.01474285678706995
-0.29256551474707143   0.056180095610379774   0.01474285678706995
-0.29256551474707143   0.056180095610379774   0.01474285678706995
-0.29256551474707143   0.056180095610379774   0.01474285678706995
-0.5977420154128664   -0.02346305585102019   -0.018565882007760076
-0.5977420154128664   -0.02346305585102019   -0.018565882007760076
-0.5977420154128664   -0.02346305585102019   -0.018565882007760076
-0.5977420154128664   -0.02346305585102019   -0.018565882007760076
-0.6053650319999134   -0.016039939624055227   0.001446467277165353
-0.6053650319999134   -0.016039939624055227   0.001446467277165353
-0.6053650319999134   -0.016039939624055227   0.001446467277165353
-0.6053650319999134   -0.016039939624055227   0.001446467277165353
-0.31367929699460934   0.028524804428353617   -0.002293357115772769
-0.31367929699460934   0.028524804428353617   -0.002293357115772769
-0.31367929699460934   0.028524804428353617   -0.002293357115772769
-0.31367929699460934   0.028524804428353617   -0.002293357115772769
-0.4493847139728249   0.011856338283889   0.00549559688344449
-0.4493847139728249   0.011856338283889   0.00549559688344449
-0.4493847139728249   0.011856338283889   0.00549559688344449
-0.4493847139728249   0.011856338283889   0.00549559688344449
-0.3060458903324379   0.04701190948223989   0.017386571141196072
-0.3060458903324379   0.04701190948223989   0.017386571141196072
-0.3060458903324379   0.04701190948223989   0.017386571141196072
-0.3060458903324379   0.04701190948223989   0.017386571141196072
-0.6129352246029711   -0.034463830618834485   -0.01798060474335146
-0.6129352246029711   -0.034463830618834485   -0.01798060474335146
-0.6129352246029711   -0.034463830618834485   -0.01798060474335146
-0.6129352246029711   -0.034463830618834485   -0.01798060474335146
-0.6215026840830795   -0.025567992164659145   0.0023751083831889674
-0.6215026840830795   -0.025567992164659145   0.0023751083831889674
-0.6215026840830795   -0.025567992164659145   0.0023751083831889674
-0.6215026840830795   -0.025567992164659145   0.0023751083831889674
-0.32773192845254573   0.01856994433479574   -0.00023305904401427213
-0.32773192845254573   0.01856994433479574   -0.00023305904401427213
-0.32773192845254573   0.01856994433479574   -0.00023305904401427213
-0.32773192845254573   0.01856994433479574   -0.00023305904401427213
-0.4611708636332635   0.0035741221107571837   0.0015957090231345505
-0.4611708636332635   0.0035741221107571837   0.0015957090231345505
-0.4611708636332635   0.0035741221107571837   0.0015957090231345505
-0.4611708636332635   0.0035741221107571837   0.0015957090231345505
-0.319775663847205   0.03827169322447921   0.019846515093006153
-0.319775663847205   0.03827169322447921   0.019846515093006153
-0.319775663847205   0.03827169322447921   0.019846515093006153
-0.319775663847205   0.03827169322447921   0.019846515093006153
-0.629052547662112   -0.04486334002803496   -0.016078861648601533
-0.629052547662112   -0.04486334002803496   -0.016078861648601533
-0.629052547662112   -0.04486334002803496   -0.016078861648601533
-0.629052547662112   -0.04486334002803496   -0.016078861648601533
-0.6361256258145104   -0.035844762790280996   0.005366625138722797
-0.6361256258145104   -0.035844762790280996   0.005366625138722797
-0.6361256258145104   -0.035844762790280996   0.005366625138722797
-0.6361256258145104   -0.035844762790280996   0.005366625138722797
-0.34218063452785835   0.007152651802060678   0.0012579303608533932
-0.34218063452785835   0.007152651802060678   0.0012579303608533932
-0.34218063452785835   0.007152651802060678   0.0012579303608533932
-0.34218063452785835   0.007152651802060678   0.0012579303608533932
-0.4792571368138879   -0.006873341019475725   -0.003379516391683629
-0.4792571368138879   -0.006873341019475725   -0.003379516391683629
-0.4792571368138879   -0.006873341019475725   -0.003379516391683629
-0.4792571368138879   -0.006873341019475725   -0.003379516391683629
-0.5751016124146081   0.05038828167789567   0.02078479545461623
-0.5751016124146081   0.05038828167789567   0.02078479545461623
-0.5751016124146081   0.05038828167789567   0.02078479545461623
-0.5751016124146081   0.05038828167789567   0.02078479545461623
-0.8704811910255799   -0.04024193484260788   -0.020292192025980843
-0.8704811910255799   -0.04024193484260788   -0.020292192025980843
-0.8704811910255799   -0.04024193484260788   -0.020292192025980843
-0.8704811910255799   -0.04024193484260788   -0.020292192025980843
-0.8799637265224665   -0.009089310243325766   0.019118809060602093
-0.8799637265224665   -0.009089310243325766   0.019118809060602093
-0.8799637265224665   -0.009089310243325766   0.019118809060602093
-0.8799637265224665   -0.009089310243325766   0.019118809060602093
-0.6018825313384204   0.014600337486034613   -0.011781306525459917
-0.6018825313384204   0.014600337486034613   -0.011781306525459917
-0.6018825313384204   0.014600337486034613   -0.011781306525459917
-0.6018825313384204   0.014600337486034613   -0.011781306525459917
-0.6994416493352802   0.011210300067150882   0.01721620822444614
-0.6994416493352802   0.011210300067150882   0.01721620822444614
-0.6994416493352802   0.011210300067150882   0.01721620822444614
-0.6994416493352802   0.011210300067150882   0.01721620822444614
-0.5874767870112054   0.0504615553051158   0.024386197291518363
-0.5874767870112054   0.0504615553051158   0.024386197291518363
-0.5874767870112054   0.0504615553051158   0.024386197291518363
-0.5874767870112054   0.0504615553051158   0.024386197291518363
-0.8941338317993051   -0.04471488901202757   -0.016106138554886157
-0.8941338317993051   -0.04471488901202757   -0.016106138554886157
-0.8941338317993051   -0.04471488901202757   -0.016106138554886157
-0.8941338317993051   -0.04471488901202757   -0.016106138554886157
-0.9011075183395765   -0.014122634160915755   0.023905444510441493
-0.9011075183395765   -0.014122634160915755   0.023905444510441493
-0.9011075183395765   -0.014122634160915755   0.023905444510441493
-0.9011075183395765   -0.014122634160915755   0.023905444510441493
-0.6170517086781395   0.009144273898206188   -0.01008228065497667
-0.6170517086781395   0.009144273898206188   -0.01008228065497667
-0.6170517086781395   0.009144273898206188   -0.01008228065497667
-0.6170517086781395   0.009144273898206188   -0.01008228065497667
-0.7291668375327863   0.005607688638256579   0.010574798589835593
-0.7291668375327863   0.005607688638256579   0.010574798589835593
-0.7291668375327863   0.005607688638256579   0.010574798589835593
-0.7291668375327863   0.005607688638256579   0.010574798589835593
-0.6017716516229304   0.046713254986816805   0.02874902353245834
-0.6017716516229304   0.046713254986816805   0.02874902353245834
-0.6017716516229304   0.046713254986816805   0.02874902353245834
-0.6017716516229304   0.046713254986816805   0.02874902353245834
-0.9159904760094156   -0.05129451586415515   -0.013337462135507294
-0.9159904760094156   -0.05129451586415515   -0.013337462135507294
-0.9159904760094156   -0.05129451586415515   -0.013337462135507294
-0.9159904760094156   -0.05129451586415515   -0.013337462135507294
-0.9290185418373325   -0.032155949330528615   0.023425087111409365
-0.9290185418373325   -0.032155949330528615   0.023425087111409365
-0.9290185418373325   -0.032155949330528615   0.023425087111409365
-0.9290185418373325   -0.032155949330528615   0.023425087111409365
-0.6330878442961052   -0.006146647574785932   -0.009142582484750195
-0.6330878442961052   -0.006146647574785932   -0.009142582484750195
-0.6330878442961052   -0.006146647574785932   -0.009142582484750195
-0.6330878442961052   -0.006146647574785932   -0.009142582484750195
-0.7365828544724158   -0.0014083274954198796   0.008403170868843401
-0.7365828544724158   -0.0014083274954198796   0.008403170868843401
-0.7365828544724158   -0.0014083274954198796   0.008403170868843401
-0.7365828544724158   -0.0014083274954198796   0.008403170868843401
0.40733442097180017   0.023214120895097876   -0.027085081153476076
0.40733442097180017   0.023214120895097876   -0.027085081153476076
0.40733442097180017   0.023214120895097876   -0.027085081153476076
0.40733442097180017   0.023214120895097876   -0.027085081153476076
0.17396798060790344   0.010742986184769588   0.011547706383751504
0.17396798060790344   0.010742986184769588   0.011547706383751504
0.17396798060790344   0.010742986184769588   0.011547706383751504
0.17396798060790344   0.010742986184769588   0.011547706383751504
0.14610943579216776   -0.03983524250685219   -0.025285112816545014
0.14610943579216776   -0.03983524250685219   -0.025285112816545014
0.14610943579216776   -0.03983524250685219   -0.025285112816545014
0.14610943579216776   -0.03983524250685219   -0.025285112816545014
0.3979889022562575   0.046017415981839484   0.01403943583204706
0.3979889022562575   0.046017415981839484   0.01403943583204706
0.3979889022562575   0.046017415981839484   0.01403943583204706
0.3979889022562575   0.046017415981839484   0.01403943583204706
0.2664588332563674   0.005887654768826401   -0.007273119937512604
0.2664588332563674   0.005887654768826401   -0.007273119937512604
0.2664588332563674   0.005887654768826401   -0.007273119937512604
0.2664588332563674   0.005887654768826401   -0.007273119937512604
0.3824017561643196   0.007420390334771602   -0.025299268980577896
0.3824017561643196   0.007420390334771602   -0.025299268980577896
0.3824017561643196   0.007420390334771602   -0.025299268980577896
0.3824017561643196   0.007420390334771602   -0.025299268980577896
0.16140310606243014   -0.0015316926814599348   0.012879688709377307
0.16140310606243014   -0.0015316926814599348   0.012879688709377307
0.16140310606243014   -0.0015316926814599348   0.012879688709377307
0.16140310606243014   -0.0015316926814599348   0.012879688709377307
0.1342641225384233   -0.04442044149021883   -0.02154845289484791
0.1342641225384233   -0.04442044149021883   -0.02154845289484791
0.1342641225384233   -0.04442044149021883   -0.02154845289484791
0.1342641225384233   -0.04442044149021883   -0.02154845289484791
0.37848661179265114   0.039506975291382126   0.018138622057731618
0.37848661179265114   0.039506975291382126   0.018138622057731618
0.37848661179265114   0.039506975291382126   0.018138622057731618
0.37848661179265114   0.039506975291382126   0.018138622057731618
0.25430747056602376   -0.0016993014977494496   -0.011749040207912662
0.25430747056602376   -0.0016993014977494496   -0.011749040207912662
0.25430747056602376   -0.0016993014977494496   -0.011749040207912662
0.25430747056602376   -0.0016993014977494496   -0.011749040207912662
0.3631442312899764   0.0015433415051740416   -0.020609646669436724
0.3631442312899764   0.0015433415051740416   -0.020609646669436724
0.3631442312899764   0.0015433415051740416   -0.020609646669436724
0.3631442312899764   0.0015433415051740416   -0.020609646669436724
0.14916875512499922   -0.006894555620109854   0.01544882416792362
0.14916875512499922   -0.006894555620109854   0.01544882416792362
0.14916875512499922   -0.006894555620109854   0.01544882416792362
0.14916875512499922   -0.006894555620109854   0.01544882416792362
0.12368923733536497   -0.048500302054709885   -0.017967760590658695
0.12368923733536497   -0.048500302054709885   -0.017967760590658695
0.12368923733536497   -0.048500302054709885   -0.017967760590658695
0.12368923733536497   -0.048500302054709885   -0.017967760590658695
0.35569629644332384   0.031006675958263473   0.0207381961509069
0.35569629644332384   0.031006675958263473   0.0207381961509069
0.35569629644332384   0.031006675958263473   0.0207381961509069
0.35569629644332384   0.031006675958263473   0.0207381961509069
0.23347207350413215   -0.007891007629115647   -0.01794240709554299
0.23347207350413215   -0.007891007629115647   -0.01794240709554299
0.23347207350413215   -0.007891007629115647   -0.01794240709554299
0.23347207350413215   -0.007891007629115647   -0.01794240709554299
0.17528993315624475   0.03365201679381991   -0.004751561483595193
0.17528993315624475   0.03365201679381991   -0.004751561483595193
0.17528993315624475   0.03365201679381991   -0.004751561483595193
0.17528993315624475   0.03365201679381991   -0.004751561483595193
-0.053357213512468006   0.002672749913788876   0.001486870854260136
-0.053357213512468006   0.002672749913788876   0.001486870854260136
-0.053357213512468006   0.002672749913788876   0.001486870854260136
-0.053357213512468006   0.002672749913788876   0.001486870854260136
-0.07240407468661489   -0.027737729684381006   -0.015618029942382934
-0.07240407468661489   -0.027737729684381006   -0.015618029942382934
-0.07240407468661489   -0.027737729684381006   -0.015618029942382934
-0.07240407468661489   -0.027737729684381006   -0.015618029942382934
0.17057607571825265   0.04041009678180205   0.016802747525227837
0.17057607571825265   0.04041009678180205   0.016802747525227837
0.17057607571825265   0.04041009678180205   0.016802747525227837
0.17057607571825265   0.04041009678180205   0.016802747525227837
0.053823490149361775   0.011649855042868217   0.0020758922698514842
0.053823490149361775   0.011649855042868217   0.0020758922698514842
0.053823490149361775   0.011649855042868217   0.0020758922698514842
0.053823490149361775   0.011649855042868217   0.0020758922698514842
0.16302320265675507   0.021967522977231313   -0.0025190439776913293
0.16302320265675507   0.021967522977231313   -0.0025190439776913293
0.16302320265675507   0.021967522977231313   -0.0025190439776913293
0.16302320265675507   0.021967522977231313   -0.0025190439776913293
-0.0649669274397802   -0.00941088169447318   0.003240858301884534
-0.0649669274397802   -0.00941088169447318   0.003240858301884534
-0.0649669274397802   -0.00941088169447318   0.003240858301884534
-0.0649669274397802   -0.00941088169447318   0.003240858301884534
-0.083416420050114   -0.0369450806788596   -0.012659191457938642
-0.083416420050114   -0.0369450806788596   -0.012659191457938642
-0.083416420050114   -0.0369450806788596   -0.012659191457938642
-0.083416420050114   -0.0369450806788596   -0.012659191457938642
0.157062896055827   0.02975582329800332   0.01826914990394933
0.157062896055827   0.02975582329800332   0.01826914990394933
0.157062896055827   0.02975582329800332   0.01826914990394933
0.157062896055827   0.02975582329800332   0.01826914990394933
0.0402143404285254   0.0011968788412389407   -0.0029448393810349183
0.0402143404285254   0.0011968788412389407   -0.0029448393810349183
0.0402143404285254   0.0011968788412389407   -0.0029448393810349183
0.0402143404285254   0.0011968788412389407   -0.0029448393810349183
0.14974891656603037   0.012092366738791991   -0.0006372909858250453
0.14974891656603037   0.012092366738791991   -0.0006372909858250453
0.14974891656603037   0.012092366738791991   -0.0006372909858250453
0.14974891656603037   0.012092366738791991   -0.0006372909858250453
-0.07639047862919862   -0.019569662188529624   0.005095097156310232
-0.07639047862919862   -0.019569662188529624   0.005095097156310232
-0.07639047862919862   -0.019569662188529624   0.005095097156310232
-0.07639047862919862   -0.019569662188529624   0.005095097156310232
-0.09427850757343728   -0.04556715817144863   -0.009926133941452357
-0.09427850757343728   -0.04556715817144863   -0.009926133941452357
-0.09427850757343728   -0.04556715817144863   -0.009926133941452357
-0.09427850757343728   -0.04556715817144863   -0.009926133941452357
0.14486878109078977   0.019551596372212092   0.019878059759546117
0.14486878109078977   0.019551596372212092   0.019878059759546117
0.14486878109078977   0.019551596372212092   0.019878059759546117
0.14486878109078977   0.019551596372212092   0.019878059759546117
0.029331937770721725   -0.007436371712534235   -0.007366438547336686
0.029331937770721725   -0.007436371712534235   -0.007366438547336686
0.029331937770721725   -0.007436371712534235   -0.007366438547336686
0.029331937770721725   -0.007436371712534235   -0.007366438547336686
-0.044927303453727405   0.042403584017234375   0.003905587044517639
-0.044927303453727405   0.042403584017234375   0.003905587044517639
-0.044927303453727405   0.042403584017234375   0.003905587044517639
-0.044927303453727405   0.042403584017234375   0.003905587044517639
-0.2772673815360704   -0.007240661588578173   -0.008456483379145813
-0.2772673815360704   -0.007240661588578173   -0.008456483379145813
-0.2772673815360704   -0.007240661588578173   -0.008456483379145813
-0.2772673815360704   -0.007240661588578173   -0.008456483379145813
-0.28814979953531   -0.016738101386018785   -0.006240038786787562
-0.28814979953531   -0.016738101386018785   -0.006240038786787562
-0.28814979953531   -0.016738101386018785   -0.006240038786787562
-0.28814979953531   -0.016738101386018785   -0.006240038786787562
-0.05626660877094456   0.03080094010981895   0.006530629841770648
-0.05626660877094456   0.03080094010981895   0.006530629841770648
-0.05626660877094456   0.03080094010981895   0.006530629841770648
-0.05626660877094456   0.03080094010981895   0.006530629841770648
-0.16624318277776937   0.012104178452612213   0.003307798475992295
-0.16624318277776937   0.012104178452612213   0.003307798475992295
-0.16624318277776937   0.012104178452612213   0.003307798475992295
-0.16624318277776937   0.012104178452612213   0.003307798475992295
-0.05593853224410879   0.03228879195561024   0.006683160630156374
-0.05593853224410879   0.03228879195561024   0.006683160630156374
-0.05593853224410879   0.03228879195561024   0.006683160630156374
-0.05593853224410879   0.03228879195561024   0.006683160630156374
-0.2885138474825326   -0.018261924652194058   -0.006536455256721654
-0.2885138474825326   -0.018261924652194058   -0.006536455256721654
-0.2885138474825326   -0.018261924652194058   -0.006536455256721654
-0.2885138474825326   -0.018261924652194058   -0.006536455256721654
-0.29927897184162233   -0.026770023589049414   -0.0036104613065986307
-0.29927897184162233   -0.026770023589049414   -0.0036104613065986307
-0.29927897184162233   -0.026770023589049414   -0.0036104613065986307
-0.29927897184162233   -0.026770023589049414   -0.0036104613065986307
-0.06782433457540245   0.019837168352587385   0.0085189868841722
-0.06782433457540245   0.019837168352587385   0.0085189868841722
-0.06782433457540245   0.019837168352587385   0.0085189868841722
-0.06782433457540245   0.019837168352587385   0.0085189868841722
-0.17768375798252392   0.0023228250827994953   -0.001001335795618348
-0.17768375798252392   0.0023228250827994953   -0.001001335795618348
-0.17768375798252392   0.0023228250827994953   -0.001001335795618348
-0.17768375798252392   0.0023228250827994953   -0.001001335795618348
-0.06725872228969426   0.022160801596430343   0.009023415068872038
-0.06725872228969426   0.022160801596430343   0.009023415068872038
-0.06725872228969426   0.022160801596430343   0.009023415068872038
-0.06725872228969426   0.022160801596430343   0.009023415068872038
-0.3000293902747276   -0.029278462980288442   -0.00485411408088178
-0.3000293902747276   -0.029278462980288442   -0.00485411408088178
-0.3000293902747276   -0.029278462980288442   -0.00485411408088178
-0.3000293902747276   -0.029278462980288442   -0.00485411408088178
-0.3102145534849378   -0.03634849570036622   -0.0010490829310476901
-0.3102145534849378   -0.03634849570036622   -0.0010490829310476901
-0.3102145534849378   -0.03634849570036622   -0.0010490829310476901
-0.3102145534849378   -0.03634849570036622   -0.0010490829310476901
-0.07928941004891135   0.009185793499710748   0.010266402010015954
-0.07928941004891135   0.009185793499710748   0.010266402010015954
-0.07928941004891135   0.009185793499710748   0.010266402010015954
-0.07928941004891135   0.009185793499710748   0.010266402010015954
-0.18960098445870302   -0.007467219716921936   -0.005675441116110888
-0.18960098445870302   -0.007467219716921936   -0.005675441116110888
-0.18960098445870302   -0.007467219716921936   -0.005675441116110888
-0.18960098445870302   -0.007467219716921936   -0.005675441116110888
-0.2616599292054219   0.04994546760760368   0.012394649077914724
-0.2616599292054219   0.04994546760760368   0.012394649077914724
-0.2616599292054219   0.04994546760760368   0.012394649077914724
-0.2616599292054219   0.04994546760760368   0.012394649077914724
-0.49744340626014094   -0.017130658756156245   -0.01713849077191859
-0.49744340626014094   -0.017130658756156245   -0.01713849077191859
-0.49744340626014094   -0.017130658756156245   -0.01713849077191859
-0.49744340626014094   -0.017130658756156245   -0.01713849077191859
-0.5015162786185119   -0.007822442884384766   0.003807387944437926
-0.5015162786185119   -0.007822442884384766   0.003807387944437926
-0.5015162786185119   -0.007822442884384766   0.003807387944437926
-0.5015162786185119   -0.007822442884384766   0.003807387944437926
-0.2802519967156333   0.020096790019098303   -0.0035859160935231005
-0.2802519967156333   0.020096790019098303   -0.0035859160935231005
-0.2802519967156333   0.020096790019098303   -0.0035859160935231005
-0.2802519967156333   0.020096790019098303   -0.0035859160935231005
-0.38291210894778355   0.011375823158256883   0.00478765182131527
-0.38291210894778355   0.011375823158256883   0.00478765182131527
-0.38291210894778355   0.011375823158256883   0.00478765182131527
-0.38291210894778355   0.011375823158256883   0.00478765182131527
-0.27247167027028674   0.04025625202236287   0.015156254129950947
-0.27247167027028674   0.04025625202236287   0.015156254129950947
-0.27247167027028674   0.04025625202236287   0.015156254129950947
-0.27247167027028674   0.04025625202236287   0.015156254129950947
-0.5096442467062979   -0.028329546530087853   -0.01632534884878925
-0.5096442467062979   -0.028329546530087853   -0.01632534884878925
-0.5096442467062979   -0.028329546530087853   -0.01632534884878925
-0.5096442467062979   -0.028329546530087853   -0.01632534884878925
-0.5146442357548617   -0.017762326548809448   0.005017893840275789
-0.5146442357548617   -0.017762326548809448   0.005017893840275789
-0.5146442357548617   -0.017762326548809448   0.005017893840275789
-0.5146442357548617   -0.017762326548809448   0.005017893840275789
-0.29150214491052395   0.009987816309769589   -0.0014841665499273765
-0.29150214491052395   0.009987816309769589   -0.0014841665499273765
-0.29150214491052395   0.009987816309769589   -0.0014841665499273765
-0.29150214491052395   0.009987816309769589   -0.0014841665499273765
-0.39250663040728373   0.0025273862534013966   0.0004733051920552678
-0.39250663040728373   0.0025273862534013966   0.0004733051920552678
-0.39250663040728373   0.0025273862534013966   0.0004733051920552678
-0.39250663040728373   0.0025273862534013966   0.0004733051920552678
-0.28344028630829265   0.031031227605541764   0.017781715165462758
-0.28344028630829265   0.031031227605541764   0.017781715165462758
-0.28344028630829265   0.031031227605541764   0.017781715165462758
-0.28344028630829265   0.031031227605541764   0.017781715165462758
-0.5227405270863946   -0.03884017057388288   -0.014385718792319077
-0.5227405270863946   -0.03884017057388288   -0.014385718792319077
-0.5227405270863946   -0.03884017057388288   -0.014385718792319077
-0.5227405270863946   -0.03884017057388288   -0.014385718792319077
-0.5263183208452771   -0.028373272072415842   0.007765997305889463
-0.5263183208452771   -0.028373272072415842   0.007765997305889463
-0.5263183208452771   -0.028373272072415842   0.007765997305889463
-0.5263183208452771   -0.028373272072415842   0.007765997305889463
-0.302951904317072   -0.0012511737489977089   0.00016684095690729095
-0.302951904317072   -0.0012511737489977089   0.00016684095690729095
-0.302951904317072   -0.0012511737489977089   0.00016684095690729095
-0.302951904317072   -0.0012511737489977089   0.00016684095690729095
-0.407012119475342   -0.0077919298044608724   -0.0045536347458709076
-0.407012119475342   -0.0077919298044608724   -0.0045536347458709076
-0.407012119475342   -0.0077919298044608724   -0.0045536347458709076
-0.407012119475342   -0.0077919298044608724   -0.0045536347458709076
-0.4774362309459395   0.046315700822585675   0.0194510262203465
-0.4774362309459395   0.046315700822585675   0.0194510262203465
-0.4774362309459395   0.046315700822585675   0.0194510262203465
-0.4774362309459395   0.046315700822585675   0.0194510262203465
-0.7051325226705335   -0.03256357095732028   -0.022090821920344728
-0.7051325226705335   -0.03256357095732028   -0.022090821920344728
-0.7051325226705335   -0.03256357095732028   -0.022090821920344728
-0.7051325226705335   -0.03256357095732028   -0.022090821920344728
-0.7117990537115156   -0.0011751887525225935   0.019257584654849252
-0.7117990537115156   -0.0011751887525225935   0.019257584654849252
-0.7117990537115156   -0.0011751887525225935   0.019257584654849252
-0.7117990537115156   -0.0011751887525225935   0.019257584654849252
-0.5019432495304847   0.007052015145781489   -0.013201924645599813
-0.5019432495304847   0.007052015145781489   -0.013201924645599813
-0.5019432495304847   0.007052015145781489   -0.013201924645599813
-0.5019432495304847   0.007052015145781489   -0.013201924645599813
-0.5726787923600487   0.010624738084295052   0.01457707024372884
-0.5726787923600487   0.010624738084295052   0.01457707024372884
-0.5726787923600487   0.010624738084295052   0.01457707024372884
-0.5726787923600487   0.010624738084295052   0.01457707024372884
-0.4872279886561859   0.0444773219182584   0.022949072953424507
-0.4872279886561859   0.0444773219182584   0.022949072953424507
-0.4872279886561859   0.0444773219182584   0.022949072953424507
-0.4872279886561859   0.0444773219182584   0.022949072953424507
-0.7268136256994336   -0.038899806638620686   -0.01809065739864632
-0.7268136256994336   -0.038899806638620686   -0.01809065739864632
-0.7268136256994336   -0.038899806638620686   -0.01809065739864632
-0.7268136256994336   -0.038899806638620686   -0.01809065739864632
-0.7303717367447187   -0.006651483262944777   0.024258961605847673
-0.7303717367447187   -0.006651483262944777   0.024258961605847673
-0.7303717367447187   -0.006651483262944777   0.024258961605847673
-0.7303717367447187   -0.006651483262944777   0.024258961605847673
-0.5140406191081064   0.0015103037903069563   -0.011236653265071977
-0.5140406191081064   0.0015103037903069563   -0.011236653265071977
-0.5140406191081064   0.0015103037903069563   -0.011236653265071977
-0.5140406191081064   0.0015103037903069563   -0.011236653265071977
-0.5978722016474094   0.004344084973229585   0.007743497759531953
-0.5978722016474094   0.004344084973229585   0.007743497759531953
-0.5978722016474094   0.004344084973229585   0.007743497759531953
-0.5978722016474094   0.004344084973229585   0.007743497759531953
-0.4986405581106554   0.04024812603766428   0.027025829474829635
-0.4986405581106554   0.04024812603766428   0.027025829474829635
-0.4986405581106554   0.04024812603766428   0.027025829474829635
-0.4986405581106554   0.04024812603766428   0.027025829474829635
-0.7459868519358865   -0.04560435970401892   -0.014863737908921204
-0.7459868519358865   -0.04560435970401892   -0.014863737908921204
-0.7459868519358865   -0.04560435970401892   -0.014863737908921204
-0.7459868519358865   -0.04560435970401892   -0.014863737908921204
-0.755217223633513   -0.02388415483626724   0.024299260545251056
-0.755217223633513   -0.02388415483626724   0.024299260545251056
-0.755217223633513   -0.02388415483626724   0.024299260545251056
-0.755217223633513   -0.02388415483626724   0.024299260545251056
-0.5267111158166341   -0.012632872666440347   -0.009938376956878645
-0.5267111158166341   -0.012632872666440347   -0.009938376956878645
-0.5267111158166341   -0.012632872666440347   -0.009938376956878645
-0.5267111158166341   -0.012632872666440347   -0.009938376956878645
-0.6047983792735061   -0.002859450071707452   0.004530457676634958
-0.6047983792735061   -0.002859450071707452   0.004530457676634958
-0.6047983792735061   -0.002859450071707452   0.004530457676634958
-0.6047983792735061   -0.002859450071707452   0.004530457676634958
0.22692796883937977   0.01369812056747425   -0.026636609934201527
0.22692796883937977   0.01369812056747425   -0.026636609934201527
0.22692796883937977   0.01369812056747425   -0.026636609934201527
0.22692796883937977   0.01369812056747425   -0.026636609934201527
0.06683858722085174   0.015871044375983537   0.012671032677379113
0.06683858722085174   0.015871044375983537   0.012671032677379113
0.06683858722085174   0.015871044375983537   0.012671032677379113
0.06683858722085174   0.015871044375983537   0.012671032677379113
0.042085750304167974   -0.032673509331018466   -0.0235120387801532
0.042085750304167974   -0.032673509331018466   -0.0235120387801532
0.042085750304167974   -0.032673509331018466   -0.0235120387801532
0.042085750304167974   -0.032673509331018466   -0.0235120387801532
0.2208686019605031   0.03817769984784883   0.015242411036262483
0.2208686019605031   0.03817769984784883   0.015242411036262483
0.2208686019605031   0.03817769984784883   0.015242411036262483
0.2208686019605031   0.03817769984784883   0.015242411036262483
0.13108743847374363   0.006385187402777064   -0.00300550811320063
0.13108743847374363   0.006385187402777064   -0.00300550811320063
0.13108743847374363   0.006385187402777064   -0.00300550811320063
0.13108743847374363   0.006385187402777064   -0.00300550811320063
0.20524721448328564   -0.00023014503296657843   -0.02445668146901142
0.20524721448328564   -0.00023014503296657843   -0.02445668146901142
0.20524721448328564   -0.00023014503296657843   -0.02445668146901142
0.20524721448328564   -0.00023014503296657843   -0.02445668146901142
0.05722012150920394   0.005247319277615182   0.014238988636393448
0.05722012150920394   0.005247319277615182   0.014238988636393448
0.05722012150920394   0.005247319277615182   0.014238988636393448
0.05722012150920394   0.005247319277615182   0.014238988636393448
0.032751251794506414   -0.03726738525143357   -0.019997820658202166
0.032751251794506414   -0.03726738525143357   -0.019997820658202166
0.032751251794506414   -0.03726738525143357   -0.019997820658202166
0.032751251794506414   -0.03726738525143357   -0.019997820658202166
0.2040871911996692   0.03184250592266158   0.01962139411449723
0.2040871911996692   0.03184250592266158   0.01962139411449723
0.2040871911996692   0.03184250592266158   0.01962139411449723
0.2040871911996692   0.03184250592266158   0.01962139411449723
0.11945523563504992   -0.0008071540501716767   -0.007647046261456399
0.11945523563504992   -0.0008071540501716767   -0.007647046261456399
0.11945523563504992   -0.0008071540501716767   -0.007647046261456399
0.11945523563504992   -0.0008071540501716767   -0.007647046261456399
0.18854365971134618   -0.006133409181097366   -0.020120348223360902
0.18854365971134618   -0.006133409181097366   -0.020120348223360902
0.18854365971134618   -0.006133409181097366   -0.020120348223360902
0.18854365971134618   -0.006133409181097366   -0.020120348223360902
0.04763924335428554   5.298992378131775e-05   0.017121761965479564
0.04763924335428554   5.298992378131775e-05   0.017121761965479564
0.04763924335428554   5.298992378131775e-05   0.017121761965479564
0.04763924335428554   5.298992378131775e-05   0.017121761965479564
0.024413304001078526   -0.04273149244472365   -0.01666965342178337
0.024413304001078526   -0.04273149244472365   -0.01666965342178337
0.024413304001078526   -0.04273149244472365   -0.01666965342178337
0.024413304001078526   -0.04273149244472365   -0.01666965342178337
0.18328445430215498   0.021760138599815907   0.021817692533408917
0.18328445430215498   0.021760138599815907   0.021817692533408917
0.18328445430215498   0.021760138599815907   0.021817692533408917
0.18328445430215498   0.021760138599815907   0.021817692533408917
0.1031726293477482   -0.0071794410421193895   -0.013357996788685666
0.1031726293477482   -0.0071794410421193895   -0.013357996788685666
0.1031726293477482   -0.0071794410421193895   -0.013357996788685666
0.1031726293477482   -0.0071794410421193895   -0.013357996788685666
0.06449250519760213   0.024423044060313964   -0.00761137712319988
0.06449250519760213   0.024423044060313964   -0.00761137712319988
0.06449250519760213   0.024423044060313964   -0.00761137712319988
0.06449250519760213   0.024423044060313964   -0.00761137712319988
-0.08995523915560383   0.007646285449098861   0.003019442402928365
-0.08995523915560383   0.007646285449098861   0.003019442402928365
-0.08995523915560383   0.007646285449098861   0.003019442402928365
-0.08995523915560383   0.007646285449098861   0.003019442402928365
-0.10590906677451652   -0.020999053310394644   -0.013757860442986464
-0.10590906677451652   -0.020999053310394644   -0.013757860442986464
-0.10590906677451652   -0.020999053310394644   -0.013757860442986464
-0.10590906677451652   -0.020999053310394644   -0.013757860442986464
0.062308501482758974   0.030281167606016592   0.014647040175767168
0.062308501482758974   0.030281167606016592   0.014647040175767168
0.062308501482758974   0.030281167606016592   0.014647040175767168
0.062308501482758974   0.030281167606016592   0.014647040175767168
-0.017814946286414335   0.009897058568319041   0.0025662100765948444
-0.017814946286414335   0.009897058568319041   0.0025662100765948444
-0.017814946286414335   0.009897058568319041   0.0025662100765948444
-0.017814946286414335   0.009897058568319041   0.0025662100765948444
0.05475866051997176   0.012768220692224845   -0.0055892177243773156
0.05475866051997176   0.012768220692224845   -0.0055892177243773156
0.05475866051997176   0.012768220692224845   -0.0055892177243773156
0.05475866051997176   0.012768220692224845   -0.0055892177243773156
-0.09877820223175121   -0.003905082816624824   0.004802491777070251
-0.09877820223175121   -0.003905082816624824   0.004802491777070251
-0.09877820223175121   -0.003905082816624824   0.004802491777070251
-0.09877820223175121   -0.003905082816624824   0.004802491777070251
-0.11425626354845907   -0.030321671999828204   -0.010799166980922242
-0.11425626354845907   -0.030321671999828204   -0.010799166980922242
-0.11425626354845907   -0.030321671999828204   -0.010799166980922242
-0.11425626354845907   -0.030321671999828204   -0.010799166980922242
0.051357620865090936   0.019791345659366678   0.01597529378392115
0.051357620865090936   0.019791345659366678   0.01597529378392115
0.051357620865090936   0.019791345659366678   0.01597529378392115
0.051357620865090936   0.019791345659366678   0.01597529378392115
-0.02814584059125106   -0.0001914928203330951   -0.0022718366181425273
-0.02814584059125106   -0.0001914928203330951   -0.0022718366181425273
-0.02814584059125106   -0.0001914928203330951   -0.0022718366181425273
-0.02814584059125106   -0.0001914928203330951   -0.0022718366181425273
0.04402793618853554   0.0027655371298809517   -0.003647321069371049
0.04402793618853554   0.0027655371298809517   -0.003647321069371049
0.04402793618853554   0.0027655371298809517   -0.003647321069371049
0.04402793618853554   0.0027655371298809517   -0.003647321069371049
-0.1074694128312658   -0.013838697429704781   0.006652112034920599
-0.1074694128312658   -0.013838697429704781   0.006652112034920599
-0.1074694128312658   -0.013838697429704781   0.006652112034920599
-0.1074694128312658   -0.013838697429704781   0.006652112034920599
-0.12253754189442832   -0.03953057998806944   -0.008126499056643484
-0.12253754189442832   -0.03953057998806944   -0.008126499056643484
-0.12253754189442832   -0.03953057998806944   -0.008126499056643484
-0.12253754189442832   -0.03953057998806944   -0.008126499056643484
0.04176870105531276   0.009532319903113644   0.017843519501551476
0.04176870105531276   0.009532319903113644   0.017843519501551476
0.04176870105531276   0.009532319903113644   0.017843519501551476
0.04176870105531276   0.009532319903113644   0.017843519501551476
-0.03705353117445152   -0.009179320259440323   -0.0068280413494563475
-0.03705353117445152   -0.009179320259440323   -0.0068280413494563475
-0.03705353117445152   -0.009179320259440323   -0.0068280413494563475
-0.03705353117445152   -0.009179320259440323   -0.0068280413494563475
-0.08522935109321562   0.03309772900717966   0.0011974391567885767
-0.08522935109321562   0.03309772900717966   0.0011974391567885767
-0.08522935109321562   0.03309772900717966   0.0011974391567885767
-0.08522935109321562   0.03309772900717966   0.0011974391567885767
-0.2445684091378105   -0.0031258345912807597   -0.006773532049783135
-0.2445684091378105   -0.0031258345912807597   -0.006773532049783135
-0.2445684091378105   -0.0031258345912807597   -0.006773532049783135
-0.2445684091378105   -0.0031258345912807597   -0.006773532049783135
-0.25210092417438335   -0.01048652172608166   -0.004072363934308924
-0.25210092417438335   -0.01048652172608166   -0.004072363934308924
-0.25210092417438335   -0.01048652172608166   -0.004072363934308924
-0.25210092417438335   -0.01048652172608166   -0.004072363934308924
-0.09403515722598549   0.019948693575199922   0.004663940414072244
-0.09403515722598549   0.019948693575199922   0.004663940414072244
-0.09403515722598549   0.019948693575199922   0.004663940414072244
-0.09403515722598549   0.019948693575199922   0.004663940414072244
-0.16857694628272565   0.009640010305348116   0.002644790259789885
-0.16857694628272565   0.009640010305348116   0.002644790259789885
-0.16857694628272565   0.009640010305348116   0.002644790259789885
-0.16857694628272565   0.009640010305348116   0.002644790259789885
-0.09360171668638033   0.02281979991320059   0.003960036774099264
-0.09360171668638033   0.02281979991320059   0.003960036774099264
-0.09360171668638033   0.02281979991320059   0.003960036774099264
-0.09360171668638033   0.02281979991320059   0.003960036774099264
-0.252902697937539   -0.013725961287632439   -0.004841793188536073
-0.252902697937539   -0.013725961287632439   -0.004841793188536073
-0.252902697937539   -0.013725961287632439   -0.004841793188536073
-0.252902697937539   -0.013725961287632439   -0.004841793188536073
-0.26041470549317913   -0.02066411624321336   -0.0013970651770548112
-0.26041470549317913   -0.02066411624321336   -0.0013970651770548112
-0.26041470549317913   -0.02066411624321336   -0.0013970651770548112
-0.26041470549317913   -0.02066411624321336   -0.0013970651770548112
-0.10284368209919338   0.009309713248891047   0.006632355016684993
-0.10284368209919338   0.009309713248891047   0.006632355016684993
-0.10284368209919338   0.009309713248891047   0.006632355016684993
-0.10284368209919338   0.009309713248891047   0.006632355016684993
-0.17724764297611154   -3.462038729433112e-05   -0.0016872750198057979
-0.17724764297611154   -3.462038729433112e-05   -0.0016872750198057979
-0.17724764297611154   -3.462038729433112e-05   -0.0016872750198057979
-0.17724764297611154   -3.462038729433112e-05   -0.0016872750198057979
-0.10226194994404066   0.012513328091911342   0.006337400949430208
-0.10226194994404066   0.012513328091911342   0.006337400949430208
-0.10226194994404066   0.012513328091911342   0.006337400949430208
-0.10226194994404066   0.012513328091911342   0.006337400949430208
-0.2615194695252639   -0.024390762963165363   -0.0031942386175265527
-0.2615194695252639   -0.024390762963165363   -0.0031942386175265527
-0.2615194695252639   -0.024390762963165363   -0.0031942386175265527
-0.2615194695252639   -0.024390762963165363   -0.0031942386175265527
-0.2685637675949229   -0.030482726876320195   0.0011981576758728074
-0.2685637675949229   -0.030482726876320195   0.0011981576758728074
-0.2685637675949229   -0.030482726876320195   0.0011981576758728074
-0.2685637675949229   -0.030482726876320195   0.0011981576758728074
-0.11150769399667093   -0.000933362369755308   0.00842552281382937
-0.11150769399667093   -0.000933362369755308   0.00842552281382937
-0.11150769399667093   -0.000933362369755308   0.00842552281382937
-0.11150769399667093   -0.000933362369755308   0.00842552281382937
-0.18637510728423945   -0.009729508369822332   -0.006393202856413961
-0.18637510728423945   -0.009729508369822332   -0.006393202856413961
-0.18637510728423945   -0.009729508369822332   -0.006393202856413961
-0.18637510728423945   -0.009729508369822332   -0.006393202856413961
-0.23225647148398648   0.041388742232558   0.010271579395498213
-0.23225647148398648   0.041388742232558   0.010271579395498213
-0.23225647148398648   0.041388742232558   0.010271579395498213
-0.23225647148398648   0.041388742232558   0.010271579395498213
-0.39600343577506475   -0.012029902535863939   -0.015374566017733154
-0.39600343577506475   -0.012029902535863939   -0.015374566017733154
-0.39600343577506475   -0.012029902535863939   -0.015374566017733154
-0.39600343577506475   -0.012029902535863939   -0.015374566017733154
-0.3967415811184761   -0.0012482733762847961   0.006178351332388837
-0.3967415811184761   -0.0012482733762847961   0.006178351332388837
-0.3967415811184761   -0.0012482733762847961   0.006178351332388837
-0.3967415811184761   -0.0012482733762847961   0.006178351332388837
-0.24809161046268507   0.010283906912167596   -0.004796224014068477
-0.24809161046268507   0.010283906912167596   -0.004796224014068477
-0.24809161046268507   0.010283906912167596   -0.004796224014068477
-0.24809161046268507   0.010283906912167596   -0.004796224014068477
-0.3166262618817485   0.009570146654569352   0.003453525315221001
-0.3166262618817485   0.009570146654569352   0.003453525315221001
-0.3166262618817485   0.009570146654569352   0.003453525315221001
-0.3166262618817485   0.009570146654569352   0.003453525315221001
-0.24029819900501925   0.031413067347676765   0.013041672838755188
-0.24029819900501925   0.031413067347676765   0.013041672838755188
-0.24029819900501925   0.031413067347676765   0.013041672838755188
-0.24029819900501925   0.031413067347676765   0.013041672838755188
-0.40523957850973974   -0.023082019745394988   -0.014477889254826723
-0.40523957850973974   -0.023082019745394988   -0.014477889254826723
-0.40523957850973974   -0.023082019745394988   -0.014477889254826723
-0.40523957850973974   -0.023082019745394988   -0.014477889254826723
-0.4069824287195657   -0.011288356594935722   0.007615252735587816
-0.4069824287195657   -0.011288356594935722   0.007615252735587816
-0.4069824287195657   -0.011288356594935722   0.007615252735587816
-0.4069824287195657   -0.011288356594935722   0.007615252735587816
-0.2564490797718748   0.0004773537367736159   -0.0027104065505220223
-0.2564490797718748   0.0004773537367736159   -0.0027104065505220223
-0.2564490797718748   0.0004773537367736159   -0.0027104065505220223
-0.2564490797718748   0.0004773537367736159   -0.0027104065505220223
-0.3239704495862545   0.0005676858584469056   -0.0010840590653807824
-0.3239704495862545   0.0005676858584469056   -0.0010840590653807824
-0.3239704495862545   0.0005676858584469056   -0.0010840590653807824
-0.3239704495862545   0.0005676858584469056   -0.0010840590653807824
-0.24844926157347805   0.022040361602343097   0.015725676575894243
-0.24844926157347805   0.022040361602343097   0.015725676575894243
-0.24844926157347805   0.022040361602343097   0.015725676575894243
-0.24844926157347805   0.022040361602343097   0.015725676575894243
-0.415422331497685   -0.03329144904022806   -0.012581168709720189
-0.415422331497685   -0.03329144904022806   -0.012581168709720189
-0.415422331497685   -0.03329144904022806   -0.012581168709720189
-0.415422331497685   -0.03329144904022806   -0.012581168709720189
-0.41581582039637277   -0.021774868566819747   0.010412282947097909
-0.41581582039637277   -0.021774868566819747   0.010412282947097909
-0.41581582039637277   -0.021774868566819747   0.010412282947097909
-0.41581582039637277   -0.021774868566819747   0.010412282947097909
-0.2649142606759234   -0.010034991958690386   -0.0010020426467634569
-0.2649142606759234   -0.010034991958690386   -0.0010020426467634569
-0.2649142606759234   -0.010034991958690386   -0.0010020426467634569
-0.2649142606759234   -0.010034991958690386   -0.0010020426467634569
-0.3349663376161644   -0.00928272116127403   -0.006045470318808185
-0.3349663376161644   -0.00928272116127403   -0.006045470318808185
-0.3349663376161644   -0.00928272116127403   -0.006045470318808185
-0.3349663376161644   -0.00928272116127403   -0.006045470318808185
-0.37873131890699574   0.040771714447341345   0.018184401339410336
-0.37873131890699574   0.040771714447341345   0.018184401339410336
-0.37873131890699574   0.040771714447341345   0.018184401339410336
-0.37873131890699574   0.040771714447341345   0.018184401339410336
-0.5341613980076726   -0.024706500049641814   -0.023162143172462693
-0.5341613980076726   -0.024706500049641814   -0.023162143172462693
-0.5341613980076726   -0.024706500049641814   -0.023162143172462693
-0.5341613980076726   -0.024706500049641814   -0.023162143172462693
-0.5380048111361528   0.006301640280587328   0.019107762634112915
-0.5380048111361528   0.006301640280587328   0.019107762634112915
-0.5380048111361528   0.006301640280587328   0.019107762634112915
-0.5380048111361528   0.006301640280587328   0.019107762634112915
-0.4007491937871527   -0.000991873561923741   -0.01411611182536271
-0.4007491937871527   -0.000991873561923741   -0.01411611182536271
-0.4007491937871527   -0.000991873561923741   -0.01411611182536271
-0.4007491937871527   -0.000991873561923741   -0.01411611182536271
-0.4429714753508525   0.009651121800308356   0.010823076718488561
-0.4429714753508525   0.009651121800308356   0.010823076718488561
-0.4429714753508525   0.009651121800308356   0.010823076718488561
-0.4429714753508525   0.009651121800308356   0.010823076718488561
-0.3859888686275828   0.0371850036146626   0.021508636795903868
-0.3859888686275828   0.0371850036146626   0.021508636795903868
-0.3859888686275828   0.0371850036146626   0.021508636795903868
-0.3859888686275828   0.0371850036146626   0.021508636795903868
-0.5535172080146613   -0.03262730861493382   -0.01952527286290441
-0.5535172080146613   -0.03262730861493382   -0.01952527286290441
-0.5535172080146613   -0.03262730861493382   -0.01952527286290441
-0.5535172080146613   -0.03262730861493382   -0.01952527286290441
-0.5539785806603199   0.0006471924169362056   0.024385751420287816
-0.5539785806603199   0.0006471924169362056   0.024385751420287816
-0.5539785806603199   0.0006471924169362056   0.024385751420287816
-0.5539785806603199   0.0006471924169362056   0.024385751420287816
-0.40996013524119324   -0.006463366512879026   -0.01209826995461434
-0.40996013524119324   -0.006463366512879026   -0.01209826995461434
-0.40996013524119324   -0.006463366512879026   -0.01209826995461434
-0.40996013524119324   -0.006463366512879026   -0.01209826995461434
-0.4634886746856293   0.0029785368542443666   0.004031390768232168
-0.4634886746856293   0.0029785368542443666   0.004031390768232168
-0.4634886746856293   0.0029785368542443666   0.004031390768232168
-0.4634886746856293   0.0029785368542443666   0.004031390768232168
-0.3945819591072506   0.03276267940328101   0.025566564798942495
-0.3945819591072506   0.03276267940328101   0.025566564798942495
-0.3945819591072506   0.03276267940328101   0.025566564798942495
-0.3945819591072506   0.03276267940328101   0.025566564798942495
-0.5700642442329183   -0.03928634093787769   -0.016109033087882585
-0.5700642442329183   -0.03928634093787769   -0.016109033087882585
-0.5700642442329183   -0.03928634093787769   -0.016109033087882585
-0.5700642442329183   -0.03928634093787769   -0.016109033087882585
-0.5760478918919398   -0.015482882585407733   0.025148349523590185
-0.5760478918919398   -0.015482882585407733   0.025148349523590185
-0.5760478918919398   -0.015482882585407733   0.025148349523590185
-0.5760478918919398   -0.015482882585407733   0.025148349523590185
-0.4194722190356006   -0.019093102005512005   -0.0105514768103602
-0.4194722190356006   -0.019093102005512005   -0.0105514768103602
-0.4194722190356006   -0.019093102005512005   -0.0105514768103602
-0.4194722190356006   -0.019093102005512005   -0.0105514768103602
-0.4700269385830988   -0.004149670721947194   2.4619083923940743e-05
-0.4700269385830988   -0.004149670721947194   2.4619083923940743e-05
-0.4700269385830988   -0.004149670721947194   2.4619083923940743e-05
-0.4700269385830988   -0.004149670721947194   2.4619083923940743e-05
0.04553296858247919   0.0037329822823445723   -0.02671365915244315
0.04553296858247919   0.0037329822823445723   -0.02671365915244315
0.04553296858247919   0.0037329822823445723   -0.02671365915244315
0.04553296858247919   0.0037329822823445723   -0.02671365915244315
-0.04076043064100543   0.01991762985735928   0.013593697332267268
-0.04076043064100543   0.01991762985735928   0.013593697332267268
-0.04076043064100543   0.01991762985735928   0.013593697332267268
-0.04076043064100543   0.01991762985735928   0.013593697332267268
-0.06253792919012124   -0.02586227550576146   -0.021550934581164582
-0.06253792919012124   -0.02586227550576146   -0.021550934581164582
-0.06253792919012124   -0.02586227550576146   -0.021550934581164582
-0.06253792919012124   -0.02586227550576146   -0.021550934581164582
0.04223421142992862   0.028715527897779945   0.016652956970168966
0.04223421142992862   0.028715527897779945   0.016652956970168966
0.04223421142992862   0.028715527897779945   0.016652956970168966
0.04223421142992862   0.028715527897779945   0.016652956970168966
-0.004988363772094473   0.0063089416887627215   0.0022940633968671713
-0.004988363772094473   0.0063089416887627215   0.0022940633968671713
-0.004988363772094473   0.0063089416887627215   0.0022940633968671713
-0.004988363772094473   0.0063089416887627215   0.0022940633968671713
0.026675836045522816   -0.008495011627679797   -0.023928380426400324
0.026675836045522816   -0.008495011627679797   -0.023928380426400324
0.026675836045522816   -0.008495011627679797   -0.023928380426400324
0.026675836045522816   -0.008495011627679797   -0.023928380426400324
-0.047889327512606404   0.010438490312807316   0.015391307987840844
-0.047889327512606404   0.010438490312807316   0.015391307987840844
-0.047889327512606404   0.010438490312807316   0.015391307987840844
-0.047889327512606404   0.010438490312807316   0.015391307987840844
-0.06973661914050305   -0.030507187123003567   -0.018303260773671604
-0.06973661914050305   -0.030507187123003567   -0.018303260773671604
-0.06973661914050305   -0.030507187123003567   -0.018303260773671604
-0.06973661914050305   -0.030507187123003567   -0.018303260773671604
0.0274695629790319   0.022422445825645367   0.022883409252905107
0.0274695629790319   0.022422445825645367   0.022883409252905107
0.0274695629790319   0.022422445825645367   0.022883409252905107
0.0274695629790319   0.022422445825645367   0.022883409252905107
-0.01656096142831198   -0.0006559441043598071   -0.0030510259654045833
-0.01656096142831198   -0.0006559441043598071   -0.0030510259654045833
-0.01656096142831198   -0.0006559441043598071   -0.0030510259654045833
-0.01656096142831198   -0.0006559441043598071   -0.0030510259654045833
0.011539758518369502   -0.014549910734541755   -0.019793256490219763
0.011539758518369502   -0.014549910734541755   -0.019793256490219763
0.011539758518369502   -0.014549910734541755   -0.019793256490219763
0.011539758518369502   -0.014549910734541755   -0.019793256490219763
-0.055073841794229146   0.0051981423227923824   0.019305296511901236
-0.055073841794229146   0.0051981423227923824   0.019305296511901236
-0.055073841794229146   0.0051981423227923824   0.019305296511901236
-0.055073841794229146   0.0051981423227923824   0.019305296511901236
-0.07632726734502107   -0.037564762362634056   -0.01519509063166483
-0.07632726734502107   -0.037564762362634056   -0.01519509063166483
-0.07632726734502107   -0.037564762362634056   -0.01519509063166483
-0.07632726734502107   -0.037564762362634056   -0.01519509063166483
0.0069622507255499184   0.009286345715545   0.026129785374687273
0.0069622507255499184   0.009286345715545   0.026129785374687273
0.0069622507255499184   0.009286345715545   0.026129785374687273
0.0069622507255499184   0.009286345715545   0.026129785374687273
-0.02916633319192341   -0.007633729699208916   -0.009248306242994756
-0.02916633319192341   -0.007633729699208916   -0.009248306242994756
-0.02916633319192341   -0.007633729699208916   -0.009248306242994756
-0.02916633319192341   -0.007633729699208916   -0.009248306242994756
-0.04685784254391029   0.013555608188226953   -0.010531340513124708
-0.04685784254391029   0.013555608188226953   -0.010531340513124708
-0.04685784254391029   0.013555608188226953   -0.010531340513124708
-0.04685784254391029   0.013555608188226953   -0.010531340513124708
-0.1272835445763243   0.005371681952159689   0.00350922738466683
-0.1272835445763243   0.005371681952159689   0.00350922738466683
-0.1272835445763243   0.005371681952159689   0.00350922738466683
-0.1272835445763243   0.005371681952159689   0.00350922738466683
-0.13856315282475867   -0.015071719557067542   -0.011245741332135888
-0.13856315282475867   -0.015071719557067542   -0.011245741332135888
-0.13856315282475867   -0.015071719557067542   -0.011245741332135888
-0.13856315282475867   -0.015071719557067542   -0.011245741332135888
-0.04825089885929574   0.013258219875053451   0.01076372169214804
-0.04825089885929574   0.013258219875053451   0.01076372169214804
-0.04825089885929574   0.013258219875053451   0.01076372169214804
-0.04825089885929574   0.013258219875053451   0.01076372169214804
-0.0900712388577597   0.004008036902726562   0.0021658487010657763
-0.0900712388577597   0.004008036902726562   0.0021658487010657763
-0.0900712388577597   0.004008036902726562   0.0021658487010657763
-0.0900712388577597   0.004008036902726562   0.0021658487010657763
-0.05432933026044514   0.002291791778760918   -0.008662007217307121
-0.05432933026044514   0.002291791778760918   -0.008662007217307121
-0.05432933026044514   0.002291791778760918   -0.008662007217307121
-0.05432933026044514   0.002291791778760918   -0.008662007217307121
-0.13323853220846354   -0.004859102245629384   0.005164744437901658
-0.13323853220846354   -0.004859102245629384   0.005164744437901658
-0.13323853220846354   -0.004859102245629384   0.005164744437901658
-0.13323853220846354   -0.004859102245629384   0.005164744437901658
-0.1441779183197411   -0.024177195739400536   -0.00833187402508287
-0.1441779183197411   -0.024177195739400536   -0.00833187402508287
-0.1441779183197411   -0.024177195739400536   -0.00833187402508287
-0.1441779183197411   -0.024177195739400536   -0.00833187402508287
-0.05690863721220459   0.003191428132880551   0.012138033611935854
-0.05690863721220459   0.003191428132880551   0.012138033611935854
-0.05690863721220459   0.003191428132880551   0.012138033611935854
-0.05690863721220459   0.003191428132880551   0.012138033611935854
-0.09716173728334067   -0.005155911575962949   -0.0024419000925262925
-0.09716173728334067   -0.005155911575962949   -0.0024419000925262925
-0.09716173728334067   -0.005155911575962949   -0.0024419000925262925
-0.09716173728334067   -0.005155911575962949   -0.0024419000925262925
-0.06277501116812251   -0.007525600925845731   -0.006476807108927453
-0.06277501116812251   -0.007525600925845731   -0.006476807108927453
-0.06277501116812251   -0.007525600925845731   -0.006476807108927453
-0.06277501116812251   -0.007525600925845731   -0.006476807108927453
-0.13912222902206972   -0.014270851338920774   0.007040228062794356
-0.13912222902206972   -0.014270851338920774   0.007040228062794356
-0.13912222902206972   -0.014270851338920774   0.007040228062794356
-0.13912222902206972   -0.014270851338920774   0.007040228062794356
-0.14982963715793712   -0.03350676073827202   -0.0057535454921270116
-0.14982963715793712   -0.03350676073827202   -0.0057535454921270116
-0.14982963715793712   -0.03350676073827202   -0.0057535454921270116
-0.14982963715793712   -0.03350676073827202   -0.0057535454921270116
-0.06415574012808663   -0.006959587741831634   0.015057370832204937
-0.06415574012808663   -0.006959587741831634   0.015057370832204937
-0.06415574012808663   -0.006959587741831634   0.015057370832204937
-0.06415574012808663   -0.006959587741831634   0.015057370832204937
-0.10421585600031719   -0.014170295495761324   -0.007114833004725041
-0.10421585600031719   -0.014170295495761324   -0.007114833004725041
-0.10421585600031719   -0.014170295495761324   -0.007114833004725041
-0.10421585600031719   -0.014170295495761324   -0.007114833004725041
-0.12489308860674753   0.02194214480152545   -0.0011089556168150556
-0.12489308860674753   0.02194214480152545   -0.0011089556168150556
-0.12489308860674753   0.02194214480152545   -0.0011089556168150556
-0.12489308860674753   0.02194214480152545   -0.0011089556168150556
-0.21284649093211894   -0.007391590443715377   -0.0060751374796157095
-0.21284649093211894   -0.007391590443715377   -0.0060751374796157095
-0.21284649093211894   -0.007391590443715377   -0.0060751374796157095
-0.21284649093211894   -0.007391590443715377   -0.0060751374796157095
-0.2151213646096232   -0.005472007530749971   -0.0013533577320395188
-0.2151213646096232   -0.005472007530749971   -0.0013533577320395188
-0.2151213646096232   -0.005472007530749971   -0.0013533577320395188
-0.2151213646096232   -0.005472007530749971   -0.0013533577320395188
-0.13265736336202466   0.0015427993228098891   0.0016686871016567961
-0.13265736336202466   0.0015427993228098891   0.0016686871016567961
-0.13265736336202466   0.0015427993228098891   0.0016686871016567961
-0.13265736336202466   0.0015427993228098891   0.0016686871016567961
-0.17101476989620354   0.0024778652634940383   0.0007923126525497884
-0.17101476989620354   0.0024778652634940383   0.0007923126525497884
-0.17101476989620354   0.0024778652634940383   0.0007923126525497884
-0.17101476989620354   0.0024778652634940383   0.0007923126525497884
-0.13056571023981775   0.01203645441393271   0.0016332976215684483
-0.13056571023981775   0.01203645441393271   0.0016332976215684483
-0.13056571023981775   0.01203645441393271   0.0016332976215684483
-0.13056571023981775   0.01203645441393271   0.0016332976215684483
-0.21794058291622168   -0.01669322780626438   -0.004228228989517517
-0.21794058291622168   -0.01669322780626438   -0.004228228989517517
-0.21794058291622168   -0.01669322780626438   -0.004228228989517517
-0.21794058291622168   -0.01669322780626438   -0.004228228989517517
-0.22039181211607956   -0.01525548803246532   0.001354478626789328
-0.22039181211607956   -0.01525548803246532   0.001354478626789328
-0.22039181211607956   -0.01525548803246532   0.001354478626789328
-0.22039181211607956   -0.01525548803246532   0.001354478626789328
-0.13860276057617898   -0.00808083355013106   0.003447552503458233
-0.13860276057617898   -0.00808083355013106   0.003447552503458233
-0.13860276057617898   -0.00808083355013106   0.003447552503458233
-0.13860276057617898   -0.00808083355013106   0.003447552503458233
-0.17671996003469148   -0.006420412268441606   -0.003437998213439805
-0.17671996003469148   -0.006420412268441606   -0.003437998213439805
-0.17671996003469148   -0.006420412268441606   -0.003437998213439805
-0.17671996003469148   -0.006420412268441606   -0.003437998213439805
-0.13645519575413065   0.002068206772733663   0.004036336290835323
-0.13645519575413065   0.002068206772733663   0.004036336290835323
-0.13645519575413065   0.002068206772733663   0.004036336290835323
-0.13645519575413065   0.002068206772733663   0.004036336290835323
-0.2234173511650745   -0.0262825025822766   -0.00274620206837399
-0.2234173511650745   -0.0262825025822766   -0.00274620206837399
-0.2234173511650745   -0.0262825025822766   -0.00274620206837399
-0.2234173511650745   -0.0262825025822766   -0.00274620206837399
-0.22552217479567577   -0.024629883862618992   0.003957396148500443
-0.22552217479567577   -0.024629883862618992   0.003957396148500443
-0.22552217479567577   -0.024629883862618992   0.003957396148500443
-0.22552217479567577   -0.024629883862618992   0.003957396148500443
-0.14432184002925919   -0.01714649726345996   0.0054251766764485815
-0.14432184002925919   -0.01714649726345996   0.0054251766764485815
-0.14432184002925919   -0.01714649726345996   0.0054251766764485815
-0.14432184002925919   -0.01714649726345996   0.0054251766764485815
-0.182858992541194   -0.015368413190617632   -0.00803575850767927
-0.182858992541194   -0.015368413190617632   -0.00803575850767927
-0.182858992541194   -0.015368413190617632   -0.00803575850767927
-0.182858992541194   -0.015368413190617632   -0.00803575850767927
-0.20211154635307782   0.031554156288712505   0.008653838683162149
-0.20211154635307782   0.031554156288712505   0.008653838683162149
-0.20211154635307782   0.031554156288712505   0.008653838683162149
-0.20211154635307782   0.031554156288712505   0.008653838683162149
-0.295213123910124   -0.012389162719103286   -0.013589214891483847
-0.295213123910124   -0.012389162719103286   -0.013589214891483847
-0.295213123910124   -0.012389162719103286   -0.013589214891483847
-0.295213123910124   -0.012389162719103286   -0.013589214891483847
-0.2913423655712442   0.004360131665948182   0.008835654863393577
-0.2913423655712442   0.004360131665948182   0.008835654863393577
-0.2913423655712442   0.004360131665948182   0.008835654863393577
-0.2913423655712442   0.004360131665948182   0.008835654863393577
-0.21577232224082288   -0.004081806471812128   -0.0059983469469757425
-0.21577232224082288   -0.004081806471812128   -0.0059983469469757425
-0.21577232224082288   -0.004081806471812128   -0.0059983469469757425
-0.21577232224082288   -0.004081806471812128   -0.0059983469469757425
-0.2502117756387786   0.004884906905390993   0.0012686440740368732
-0.2502117756387786   0.004884906905390993   0.0012686440740368732
-0.2502117756387786   0.004884906905390993   0.0012686440740368732
-0.2502117756387786   0.004884906905390993   0.0012686440740368732
-0.2071332649345124   0.021714872869307254   0.01140026024345718
-0.2071332649345124   0.021714872869307254   0.01140026024345718
-0.2071332649345124   0.021714872869307254   0.01140026024345718
-0.2071332649345124   0.021714872869307254   0.01140026024345718
-0.30104473253540515   -0.022499857333024925   -0.012816190958442115
-0.30104473253540515   -0.022499857333024925   -0.012816190958442115
-0.30104473253540515   -0.022499857333024925   -0.012816190958442115
-0.30104473253540515   -0.022499857333024925   -0.012816190958442115
-0.2983950308566512   -0.005279448255315882   0.010451534573806903
-0.2983950308566512   -0.005279448255315882   0.010451534573806903
-0.2983950308566512   -0.005279448255315882   0.010451534573806903
-0.2983950308566512   -0.005279448255315882   0.010451534573806903
-0.22099614452858238   -0.012851646431211177   -0.004071025036979023
-0.22099614452858238   -0.012851646431211177   -0.004071025036979023
-0.22099614452858238   -0.012851646431211177   -0.004071025036979023
-0.22099614452858238   -0.012851646431211177   -0.004071025036979023
-0.2549953981817552   -0.0036857604901544463   -0.0033161712977983412
-0.2549953981817552   -0.0036857604901544463   -0.0033161712977983412
-0.2549953981817552   -0.0036857604901544463   -0.0033161712977983412
-0.2549953981817552   -0.0036857604901544463   -0.0033161712977983412
-0.2122637172384347   0.012670333791729738   0.014069131190818492
-0.2122637172384347   0.012670333791729738   0.014069131190818492
-0.2122637172384347   0.012670333791729738   0.014069131190818492
-0.2122637172384347   0.012670333791729738   0.014069131190818492
-0.30796714906651895   -0.03164111939797751   -0.011047385332874068
-0.30796714906651895   -0.03164111939797751   -0.011047385332874068
-0.30796714906651895   -0.03164111939797751   -0.011047385332874068
-0.30796714906651895   -0.03164111939797751   -0.011047385332874068
-0.30412488888123024   -0.01500977827716226   0.013334653966183996
-0.30412488888123024   -0.01500977827716226   0.013334653966183996
-0.30412488888123024   -0.01500977827716226   0.013334653966183996
-0.30412488888123024   -0.01500977827716226   0.013334653966183996
-0.22624285047664053   -0.021850887253925245   -0.0024249788650170176
-0.22624285047664053   -0.021850887253925245   -0.0024249788650170176
-0.22624285047664053   -0.021850887253925245   -0.0024249788650170176
-0.22624285047664053   -0.021850887253925245   -0.0024249788650170176
-0.262221651039176   -0.012460011491470238   -0.008027715725043204
-0.262221651039176   -0.012460011491470238   -0.008027715725043204
-0.262221651039176   -0.012460011491470238   -0.008027715725043204
-0.262221651039176   -0.012460011491470238   -0.008027715725043204
-0.2797443010336635   0.03423541277832972   0.01713032399338582
-0.2797443010336635   0.03423541277832972   0.01713032399338582
-0.2797443010336635   0.03423541277832972   0.01713032399338582
-0.2797443010336635   0.03423541277832972   0.01713032399338582
-0.3616546846531073   -0.018215877998081914   -0.022569927616944783
-0.3616546846531073   -0.018215877998081914   -0.022569927616944783
-0.3616546846531073   -0.018215877998081914   -0.022569927616944783
-0.3616546846531073   -0.018215877998081914   -0.022569927616944783
-0.361989739600319   0.013360351400312165   0.01888555879899846
-0.361989739600319   0.013360351400312165   0.01888555879899846
-0.361989739600319   0.013360351400312165   0.01888555879899846
-0.361989739600319   0.013360351400312165   0.01888555879899846
-0.29872667485596865   -0.009926389464540566   -0.013799370429740235
-0.29872667485596865   -0.009926389464540566   -0.013799370429740235
-0.29872667485596865   -0.009926389464540566   -0.013799370429740235
-0.29872667485596865   -0.009926389464540566   -0.013799370429740235
-0.3123048530768873   0.00799725085286088   0.006162818923870411
-0.3123048530768873   0.00799725085286088   0.006162818923870411
-0.3123048530768873   0.00799725085286088   0.006162818923870411
-0.3123048530768873   0.00799725085286088   0.006162818923870411
-0.28409957598657426   0.02920268271150162   0.020207051741185686
-0.28409957598657426   0.02920268271150162   0.020207051741185686
-0.28409957598657426   0.02920268271150162   0.020207051741185686
-0.28409957598657426   0.02920268271150162   0.020207051741185686
-0.3777260598725514   -0.026877942178565612   -0.019557748983282677
-0.3777260598725514   -0.026877942178565612   -0.019557748983282677
-0.3777260598725514   -0.026877942178565612   -0.019557748983282677
-0.3777260598725514   -0.026877942178565612   -0.019557748983282677
-0.37481213082702064   0.007848051271253653   0.024310814551861043
-0.37481213082702064   0.007848051271253653   0.024310814551861043
-0.37481213082702064   0.007848051271253653   0.024310814551861043
-0.37481213082702064   0.007848051271253653   0.024310814551861043
-0.30483763057649627   -0.014971760983902136   -0.012069151296835771
-0.30483763057649627   -0.014971760983902136   -0.012069151296835771
-0.30483763057649627   -0.014971760983902136   -0.012069151296835771
-0.30483763057649627   -0.014971760983902136   -0.012069151296835771
-0.3276209996397062   0.0013100666178243563   -0.00023444576081090018
-0.3276209996397062   0.0013100666178243563   -0.00023444576081090018
-0.3276209996397062   0.0013100666178243563   -0.00023444576081090018
-0.3276209996397062   0.0013100666178243563   -0.00023444576081090018
-0.28961330293256854   0.02486816593962667   0.024212559999274047
-0.28961330293256854   0.02486816593962667   0.024212559999274047
-0.28961330293256854   0.02486816593962667   0.024212559999274047
-0.28961330293256854   0.02486816593962667   0.024212559999274047
-0.3911606772422867   -0.033116094423610326   -0.016467771829601643
-0.3911606772422867   -0.033116094423610326   -0.016467771829601643
-0.3911606772422867   -0.033116094423610326   -0.016467771829601643
-0.3911606772422867   -0.033116094423610326   -0.016467771829601643
-0.3937003230695413   -0.006691899566410895   0.02568263941908601
-0.3937003230695413   -0.006691899566410895   0.02568263941908601
-0.3937003230695413   -0.006691899566410895   0.02568263941908601
-0.3937003230695413   -0.006691899566410895   0.02568263941908601
-0.3109774554392961   -0.025513945311234357   -0.010424011790080873
-0.3109774554392961   -0.025513945311234357   -0.010424011790080873
-0.3109774554392961   -0.025513945311234357   -0.010424011790080873
-0.3109774554392961   -0.025513945311234357   -0.010424011790080873
-0.3334195260525886   -0.005341345566278282   -0.004748027268617033
-0.3334195260525886   -0.005341345566278282   -0.004748027268617033
-0.3334195260525886   -0.005341345566278282   -0.004748027268617033
-0.3334195260525886   -0.005341345566278282   -0.004748027268617033
-0.14535262455466916   -0.009417762034466915   -0.028491068213199966
-0.14535262455466916   -0.009417762034466915   -0.028491068213199966
-0.14535262455466916   -0.009417762034466915   -0.028491068213199966
-0.14535262455466916   -0.009417762034466915   -0.028491068213199966
-0.14681657655606464   0.021624523105192577   0.012769133828604708
-0.14681657655606464   0.021624523105192577   0.012769133828604708
-0.14681657655606464   0.021624523105192577   0.012769133828604708
-0.14681657655606464   0.021624523105192577   0.012769133828604708
-0.16569487139624076   -0.020079399395352138   -0.019392596669322082
-0.16569487139624076   -0.020079399395352138   -0.019392596669322082
-0.16569487139624076   -0.020079399395352138   -0.019392596669322082
-0.16569487139624076   -0.020079399395352138   -0.019392596669322082
-0.14857037331312947   0.011827248424620587   0.019057049102869136
-0.14857037331312947   0.011827248424620587   0.019057049102869136
-0.14857037331312947   0.011827248424620587   0.019057049102869136
-0.14857037331312947   0.011827248424620587   0.019057049102869136
-0.14398372286978797   0.003768647104559814   0.013030435157227009
-0.14398372286978797   0.003768647104559814   0.013030435157227009
-0.14398372286978797   0.003768647104559814   0.013030435157227009
-0.14398372286978797   0.003768647104559814   0.013030435157227009
-0.16365161932355007   -0.02058051345989339   -0.023941419064719013
-0.16365161932355007   -0.02058051345989339   -0.023941419064719013
-0.16365161932355007   -0.02058051345989339   -0.023941419064719013
-0.16365161932355007   -0.02058051345989339   -0.023941419064719013
-0.15245504912200927   0.010486938752972868   0.016240176553510337
-0.15245504912200927   0.010486938752972868   0.016240176553510337
-0.15245504912200927   0.010486938752972868   0.016240176553510337
-0.15245504912200927   0.010486938752972868   0.016240176553510337
-0.1714604213614275   -0.02523161943950469   -0.016456932732385774
-0.1714604213614275   -0.02523161943950469   -0.016456932732385774
-0.1714604213614275   -0.02523161943950469   -0.016456932732385774
-0.1714604213614275   -0.02523161943950469   -0.016456932732385774
-0.16321016889107334   0.004845809342148594   0.03557096704078561
-0.16321016889107334   0.004845809342148594   0.03557096704078561
-0.16321016889107334   0.004845809342148594   0.03557096704078561
-0.16321016889107334   0.004845809342148594   0.03557096704078561
-0.1573916993025606   -0.005069654854142012   0.005266616753792107
-0.1573916993025606   -0.005069654854142012   0.005266616753792107
-0.1573916993025606   -0.005069654854142012   0.005266616753792107
-0.1573916993025606   -0.005069654854142012   0.005266616753792107
-0.18053949422358756   -0.02750168126782227   -0.01872816901181363
-0.18053949422358756   -0.02750168126782227   -0.01872816901181363
-0.18053949422358756   -0.02750168126782227   -0.01872816901181363
-0.18053949422358756   -0.02750168126782227   -0.01872816901181363
-0.15853560513308013   0.0027113620662994973   0.0202241669035469
-0.15853560513308013   0.0027113620662994973   0.0202241669035469
-0.15853560513308013   0.0027113620662994973   0.0202241669035469
-0.15853560513308013   0.0027113620662994973   0.0202241669035469
-0.17619814146318494   -0.03517034184836366   -0.01299326025612111
-0.17619814146318494   -0.03517034184836366   -0.01299326025612111
-0.17619814146318494   -0.03517034184836366   -0.01299326025612111
-0.17619814146318494   -0.03517034184836366   -0.01299326025612111
-0.18592565262056565   -0.01822789603055984   0.033264727303003956
-0.18592565262056565   -0.01822789603055984   0.033264727303003956
-0.18592565262056565   -0.01822789603055984   0.033264727303003956
-0.18592565262056565   -0.01822789603055984   0.033264727303003956
-0.1691933600021478   -0.015500557333184005   -0.00710801226943375
-0.1691933600021478   -0.015500557333184005   -0.00710801226943375
-0.1691933600021478   -0.015500557333184005   -0.00710801226943375
-0.1691933600021478   -0.015500557333184005   -0.00710801226943375
-0.15747011913661355   -0.0042852413588508   -0.014588814610096368
-0.15747011913661355   -0.0042852413588508   -0.014588814610096368
-0.15747011913661355   -0.0042852413588508   -0.014588814610096368
-0.15747011913661355   -0.0042852413588508   -0.014588814610096368
-0.1618120318514309   -0.019970232514732345   -0.000862868215554341
-0.1618120318514309   -0.019970232514732345   -0.000862868215554341
-0.1618120318514309   -0.019970232514732345   -0.000862868215554341
-0.1618120318514309   -0.019970232514732345   -0.000862868215554341
-0.16314940035438646   -0.01335612582778105   -0.007409505326933755
-0.16314940035438646   -0.01335612582778105   -0.007409505326933755
-0.16314940035438646   -0.01335612582778105   -0.007409505326933755
-0.16314940035438646   -0.01335612582778105   -0.007409505326933755
-0.1631822839970116   -0.02673345565658776   -0.00017560341194075568
-0.1631822839970116   -0.02673345565658776   -0.00017560341194075568
-0.1631822839970116   -0.02673345565658776   -0.00017560341194075568
-0.1631822839970116   -0.02673345565658776   -0.00017560341194075568
-0.16003921990419304   -0.01678931530074668   -0.00043528320302264195
-0.16003921990419304   -0.01678931530074668   -0.00043528320302264195
-0.16003921990419304   -0.01678931530074668   -0.00043528320302264195
-0.16003921990419304   -0.01678931530074668   -0.00043528320302264195
-0.16321243277692873   -0.014415659867107123   -0.012644143101006488
-0.16321243277692873   -0.014415659867107123   -0.012644143101006488
-0.16321243277692873   -0.014415659867107123   -0.012644143101006488
-0.16321243277692873   -0.014415659867107123   -0.012644143101006488
-0.164158799584615   -0.026713469627409836   0.0009008423215522629
-0.164158799584615   -0.026713469627409836   0.0009008423215522629
-0.164158799584615   -0.026713469627409836   0.0009008423215522629
-0.164158799584615   -0.026713469627409836   0.0009008423215522629
-0.16602403205482189   -0.02202433809841233   -0.004825402701926593
-0.16602403205482189   -0.02202433809841233   -0.004825402701926593
-0.16602403205482189   -0.02202433809841233   -0.004825402701926593
-0.16602403205482189   -0.02202433809841233   -0.004825402701926593
-0.1693123922550806   -0.03476643901371455   0.003818032373558586
-0.1693123922550806   -0.03476643901371455   0.003818032373558586
-0.1693123922550806   -0.03476643901371455   0.003818032373558586
-0.1693123922550806   -0.03476643901371455   0.003818032373558586
-0.16389213073628647   -0.023816396275610975   -0.004482467982674765
-0.16389213073628647   -0.023816396275610975   -0.004482467982674765
-0.16389213073628647   -0.023816396275610975   -0.004482467982674765
-0.16389213073628647   -0.023816396275610975   -0.004482467982674765
-0.16974023845807548   -0.02368335530808649   -0.009404282347043796
-0.16974023845807548   -0.02368335530808649   -0.009404282347043796
-0.16974023845807548   -0.02368335530808649   -0.009404282347043796
-0.16974023845807548   -0.02368335530808649   -0.009404282347043796
-0.16692358493723064   -0.034434820889444655   0.0030873156770580765
-0.16692358493723064   -0.034434820889444655   0.0030873156770580765
-0.16692358493723064   -0.034434820889444655   0.0030873156770580765
-0.16692358493723064   -0.034434820889444655   0.0030873156770580765
-0.168624272631146   -0.03131871925743221   -0.0022697542427232292
-0.168624272631146   -0.03131871925743221   -0.0022697542427232292
-0.168624272631146   -0.03131871925743221   -0.0022697542427232292
-0.168624272631146   -0.03131871925743221   -0.0022697542427232292
-0.17402403875989186   -0.04489774696078816   0.007604658372767019
-0.17402403875989186   -0.04489774696078816   0.007604658372767019
-0.17402403875989186   -0.04489774696078816   0.007604658372767019
-0.17402403875989186   -0.04489774696078816   0.007604658372767019
-0.16911567100643243   -0.03223855752737832   -0.009600926640785434
-0.16911567100643243   -0.03223855752737832   -0.009600926640785434
-0.16911567100643243   -0.03223855752737832   -0.009600926640785434
-0.16911567100643243   -0.03223855752737832   -0.009600926640785434
-0.15730480879815634   0.004393646988514585   -0.002690632452428506
-0.15730480879815634   0.004393646988514585   -0.002690632452428506
-0.15730480879815634   0.004393646988514585   -0.002690632452428506
-0.15730480879815634   0.004393646988514585   -0.002690632452428506
-0.17983365947170613   -0.034164644630111304   -0.008668769970590962
-0.17983365947170613   -0.034164644630111304   -0.008668769970590962
-0.17983365947170613   -0.034164644630111304   -0.008668769970590962
-0.17983365947170613   -0.034164644630111304   -0.008668769970590962
-0.1726366791847295   -0.006351846531605591   0.0021747736522842384
-0.1726366791847295   -0.006351846531605591   0.0021747736522842384
-0.1726366791847295   -0.006351846531605591   0.0021747736522842384
-0.1726366791847295   -0.006351846531605591   0.0021747736522842384
-0.16736241824651804   -0.036543184686456315   -0.005287535928916516
-0.16736241824651804   -0.036543184686456315   -0.005287535928916516
-0.16736241824651804   -0.036543184686456315   -0.005287535928916516
-0.16736241824651804   -0.036543184686456315   -0.005287535928916516
-0.16916482257565799   -0.018747409867241303   -0.003747999814316963
-0.16916482257565799   -0.018747409867241303   -0.003747999814316963
-0.16916482257565799   -0.018747409867241303   -0.003747999814316963
-0.16916482257565799   -0.018747409867241303   -0.003747999814316963
-0.15985008071949175   -0.0042360734708859465   -3.2959509355293126e-05
-0.15985008071949175   -0.0042360734708859465   -3.2959509355293126e-05
-0.15985008071949175   -0.0042360734708859465   -3.2959509355293126e-05
-0.15985008071949175   -0.0042360734708859465   -3.2959509355293126e-05
-0.1810959085433917   -0.03960584957881248   -0.006867370093823745
-0.1810959085433917   -0.03960584957881248   -0.006867370093823745
-0.1810959085433917   -0.03960584957881248   -0.006867370093823745
-0.1810959085433917   -0.03960584957881248   -0.006867370093823745
-0.17474176024815047   -0.01505011225431988   0.00474015865448562
-0.17474176024815047   -0.01505011225431988   0.00474015865448562
-0.17474176024815047   -0.01505011225431988   0.00474015865448562
-0.17474176024815047   -0.01505011225431988   0.00474015865448562
-0.1700542681707994   -0.043387803258356554   -0.003613118121873961
-0.1700542681707994   -0.043387803258356554   -0.003613118121873961
-0.1700542681707994   -0.043387803258356554   -0.003613118121873961
-0.1700542681707994   -0.043387803258356554   -0.003613118121873961
-0.1713862703929822   -0.025361358543966716   -0.007219484410072967
-0.1713862703929822   -0.025361358543966716   -0.007219484410072967
-0.1713862703929822   -0.025361358543966716   -0.007219484410072967
-0.1713862703929822   -0.025361358543966716   -0.007219484410072967
-0.16276313427211409   -0.013092890972811307   0.002547639086007421
-0.16276313427211409   -0.013092890972811307   0.002547639086007421
-0.16276313427211409   -0.013092890972811307   0.002547639086007421
-0.16276313427211409   -0.013092890972811307   0.002547639086007421
-0.18309082356658427   -0.04640295395961612   -0.005652316232386975
-0.18309082356658427   -0.04640295395961612   -0.005652316232386975
-0.18309082356658427   -0.04640295395961612   -0.005652316232386975
-0.18309082356658427   -0.04640295395961612   -0.005652316232386975
-0.17647957454373198   -0.02321198827830332   0.007255456116689166
-0.17647957454373198   -0.02321198827830332   0.007255456116689166
-0.17647957454373198   -0.02321198827830332   0.007255456116689166
-0.17647957454373198   -0.02321198827830332   0.007255456116689166
-0.17209998238485802   -0.04992168552844758   -0.0010453367402679797
-0.17209998238485802   -0.04992168552844758   -0.0010453367402679797
-0.17209998238485802   -0.04992168552844758   -0.0010453367402679797
-0.17209998238485802   -0.04992168552844758   -0.0010453367402679797
-0.17401552790569388   -0.03227216392751899   -0.011031769944871511
-0.17401552790569388   -0.03227216392751899   -0.011031769944871511
-0.17401552790569388   -0.03227216392751899   -0.011031769944871511
-0.17401552790569388   -0.03227216392751899   -0.011031769944871511
-0.16603447843597033   0.01783075622468298   0.008331734353293783
-0.16603447843597033   0.01783075622468298   0.008331734353293783
-0.16603447843597033   0.01783075622468298   0.008331734353293783
-0.16603447843597033   0.01783075622468298   0.008331734353293783
-0.19786422862452743   -0.0257076824439055   -0.012152718736925111
-0.19786422862452743   -0.0257076824439055   -0.012152718736925111
-0.19786422862452743   -0.0257076824439055   -0.012152718736925111
-0.19786422862452743   -0.0257076824439055   -0.012152718736925111
-0.1874161142378701   0.005081987953675017   0.011464417177522598
-0.1874161142378701   0.005081987953675017   0.011464417177522598
-0.1874161142378701   0.005081987953675017   0.011464417177522598
-0.1874161142378701   0.005081987953675017   0.011464417177522598
-0.1789182619850492   -0.02827685444473549   -0.0073081324361844655
-0.1789182619850492   -0.02827685444473549   -0.0073081324361844655
-0.1789182619850492   -0.02827685444473549   -0.0073081324361844655
-0.1789182619850492   -0.02827685444473549   -0.0073081324361844655
-0.1825157988414532   -0.007583604504396048   -0.0022363808530404053
-0.1825157988414532   -0.007583604504396048   -0.0022363808530404053
-0.1825157988414532   -0.007583604504396048   -0.0022363808530404053
-0.1825157988414532   -0.007583604504396048   -0.0022363808530404053
-0.16784283275409267   0.00888516055808468   0.010906998715778098
-0.16784283275409267   0.00888516055808468   0.010906998715778098
-0.16784283275409267   0.00888516055808468   0.010906998715778098
-0.16784283275409267   0.00888516055808468   0.010906998715778098
-0.19975295448277228   -0.03334143806308884   -0.011796358030228188
-0.19975295448277228   -0.03334143806308884   -0.011796358030228188
-0.19975295448277228   -0.03334143806308884   -0.011796358030228188
-0.19975295448277228   -0.03334143806308884   -0.011796358030228188
-0.1909753523594918   -0.0034309913347168076   0.013011458276402266
-0.1909753523594918   -0.0034309913347168076   0.013011458276402266
-0.1909753523594918   -0.0034309913347168076   0.013011458276402266
-0.1909753523594918   -0.0034309913347168076   0.013011458276402266
-0.18076696699448128   -0.034629646219340865   -0.005806341112147333
-0.18076696699448128   -0.034629646219340865   -0.005806341112147333
-0.18076696699448128   -0.034629646219340865   -0.005806341112147333
-0.18076696699448128   -0.034629646219340865   -0.005806341112147333
-0.18436007919469938   -0.014764448244307367   -0.006311945496777105
-0.18436007919469938   -0.014764448244307367   -0.006311945496777105
-0.18436007919469938   -0.014764448244307367   -0.006311945496777105
-0.18436007919469938   -0.014764448244307367   -0.006311945496777105
-0.1698232005415937   0.0008780969668102552   0.01340474796613944
-0.1698232005415937   0.0008780969668102552   0.01340474796613944
-0.1698232005415937   0.0008780969668102552   0.01340474796613944
-0.1698232005415937   0.0008780969668102552   0.01340474796613944
-0.2030113482925653   -0.04003096400105383   -0.010568548722628114
-0.2030113482925653   -0.04003096400105383   -0.010568548722628114
-0.2030113482925653   -0.04003096400105383   -0.010568548722628114
-0.2030113482925653   -0.04003096400105383   -0.010568548722628114
-0.19336281801476482   -0.011614108372012731   0.015878883082669826
-0.19336281801476482   -0.011614108372012731   0.015878883082669826
-0.19336281801476482   -0.011614108372012731   0.015878883082669826
-0.19336281801476482   -0.011614108372012731   0.015878883082669826
-0.18237825637850136   -0.04101727444384489   -0.004432666891616241
-0.18237825637850136   -0.04101727444384489   -0.004432666891616241
-0.18237825637850136   -0.04101727444384489   -0.004432666891616241
-0.18237825637850136   -0.04101727444384489   -0.004432666891616241
-0.18752914441543442   -0.021558557801432097   -0.0102705935166836
-0.18752914441543442   -0.021558557801432097   -0.0102705935166836
-0.18752914441543442   -0.021558557801432097   -0.0102705935166836
-0.18752914441543442   -0.021558557801432097   -0.0102705935166836
-0.1818356407397653   0.025598686630476195   0.016683851612503797
-0.1818356407397653   0.025598686630476195   0.016683851612503797
-0.1818356407397653   0.025598686630476195   0.016683851612503797
-0.1818356407397653   0.025598686630476195   0.016683851612503797
-0.19629804002957527   -0.015707943890949025   -0.01754786464632021
-0.19629804002957527   -0.015707943890949025   -0.01754786464632021
-0.19629804002957527   -0.015707943890949025   -0.01754786464632021
-0.19629804002957527   -0.015707943890949025   -0.01754786464632021
-0.19212403204252207   0.017864467588598477   0.018552272022508344
-0.19212403204252207   0.017864467588598477   0.018552272022508344
-0.19212403204252207   0.017864467588598477   0.018552272022508344
-0.19212403204252207   0.017864467588598477   0.018552272022508344
-0.19680274621953625   -0.019656557508325994   -0.01073019726881097
-0.19680274621953625   -0.019656557508325994   -0.01073019726881097
-0.19680274621953625   -0.019656557508325994   -0.01073019726881097
-0.19680274621953625   -0.019656557508325994   -0.01073019726881097
-0.18518024319163737   0.004460973529404564   0.0008733505382984563
-0.18518024319163737   0.004460973529404564   0.0008733505382984563
-0.18518024319163737   0.004460973529404564   0.0008733505382984563
-0.18518024319163737   0.004460973529404564   0.0008733505382984563
-0.18289723179127423   0.019856280589316856   0.019284536774852423
-0.18289723179127423   0.019856280589316856   0.019284536774852423
-0.18289723179127423   0.019856280589316856   0.019284536774852423
-0.18289723179127423   0.019856280589316856   0.019284536774852423
-0.2070667195410729   -0.02268554357933384   -0.015611154302313572
-0.2070667195410729   -0.02268554357933384   -0.015611154302313572
-0.2070667195410729   -0.02268554357933384   -0.015611154302313572
-0.2070667195410729   -0.02268554357933384   -0.015611154302313572
-0.20057976359797888   0.013065690013164048   0.023860236709977778
-0.20057976359797888   0.013065690013164048   0.023860236709977778
-0.20057976359797888   0.013065690013164048   0.023860236709977778
-0.20057976359797888   0.013065690013164048   0.023860236709977778
-0.19952617917741144   -0.023409126492815225   -0.009764540655101295
-0.19952617917741144   -0.023409126492815225   -0.009764540655101295
-0.19952617917741144   -0.023409126492815225   -0.009764540655101295
-0.19952617917741144   -0.023409126492815225   -0.009764540655101295
-0.1943109394239322   -0.0013393725067426896   -0.003979769441911397
-0.1943109394239322   -0.0013393725067426896   -0.003979769441911397
-0.1943109394239322   -0.0013393725067426896   -0.003979769441911397
-0.1943109394239322   -0.0013393725067426896   -0.003979769441911397
-0.18507831090014443   0.016005890048685145   0.023059784189733472
-0.18507831090014443   0.016005890048685145   0.023059784189733472
-0.18507831090014443   0.016005890048685145   0.023059784189733472
-0.18507831090014443   0.016005890048685145   0.023059784189733472
-0.2163675826506169   -0.02768927730370349   -0.014323891236337129
-0.2163675826506169   -0.02768927730370349   -0.014323891236337129
-0.2163675826506169   -0.02768927730370349   -0.014323891236337129
-0.2163675826506169   -0.02768927730370349   -0.014323891236337129
-0.21533124996050756   0.0007962131716996654   0.025480575145815997
-0.21533124996050756   0.0007962131716996654   0.025480575145815997
-0.21533124996050756   0.0007962131716996654   0.025480575145815997
-0.21533124996050756   0.0007962131716996654   0.025480575145815997
-0.20202487258139287   -0.03056703111858359   -0.00847846700389962
-0.20202487258139287   -0.03056703111858359   -0.00847846700389962
-0.20202487258139287   -0.03056703111858359   -0.00847846700389962
-0.20202487258139287   -0.03056703111858359   -0.00847846700389962
-0.19862989895688526   -0.006702438092212439   -0.008328085861262276
-0.19862989895688526   -0.006702438092212439   -0.008328085861262276
-0.19862989895688526   -0.006702438092212439   -0.008328085861262276
-0.19862989895688526   -0.006702438092212439   -0.008328085861262276
-0.37976262944692923   -0.03482071312548363   -0.036510994433911724
-0.37976262944692923   -0.03482071312548363   -0.036510994433911724
-0.37976262944692923   -0.03482071312548363   -0.036510994433911724
-0.37976262944692923   -0.03482071312548363   -0.036510994433911724
-0.24237822093431732   0.02013480519474585   0.00856094079520038
-0.24237822093431732   0.02013480519474585   0.00856094079520038
-0.24237822093431732   0.02013480519474585   0.00856094079520038
-0.24237822093431732   0.02013480519474585   0.00856094079520038
-0.25467655772331904   -0.016490574669968346   -0.01642588195987832
-0.25467655772331904   -0.016490574669968346   -0.01642588195987832
-0.25467655772331904   -0.016490574669968346   -0.01642588195987832
-0.25467655772331904   -0.016490574669968346   -0.01642588195987832
-0.4045095748702354   -0.04635528528412344   0.0405856619834251
-0.4045095748702354   -0.04635528528412344   0.0405856619834251
-0.4045095748702354   -0.04635528528412344   0.0405856619834251
-0.4045095748702354   -0.04635528528412344   0.0405856619834251
-0.2943042435872509   -0.01146755478311539   0.03953156738496062
-0.2943042435872509   -0.01146755478311539   0.03953156738496062
-0.2943042435872509   -0.01146755478311539   0.03953156738496062
-0.2943042435872509   -0.01146755478311539   0.03953156738496062
-0.41901356906198456   -0.05144226616467817   -0.026847328094761938
-0.41901356906198456   -0.05144226616467817   -0.026847328094761938
-0.41901356906198456   -0.05144226616467817   -0.026847328094761938
-0.41901356906198456   -0.05144226616467817   -0.026847328094761938
-0.25039444682401646   -0.021625477081859874   0.010119574948524002
-0.25039444682401646   -0.021625477081859874   0.010119574948524002
-0.25039444682401646   -0.021625477081859874   0.010119574948524002
-0.25039444682401646   -0.021625477081859874   0.010119574948524002
-0.25885060241122143   -0.023774724105232785   -0.011891266675973178
-0.25885060241122143   -0.023774724105232785   -0.011891266675973178
-0.25885060241122143   -0.023774724105232785   -0.011891266675973178
-0.25885060241122143   -0.023774724105232785   -0.011891266675973178
-0.4177674308904921   -0.06466774137161901   0.0007941368418128147
-0.4177674308904921   -0.06466774137161901   0.0007941368418128147
-0.4177674308904921   -0.06466774137161901   0.0007941368418128147
-0.4177674308904921   -0.06466774137161901   0.0007941368418128147
-0.3263816002445667   -0.039012595507351686   0.009207697982247076
-0.3263816002445667   -0.039012595507351686   0.009207697982247076
-0.3263816002445667   -0.039012595507351686   0.009207697982247076
-0.3263816002445667   -0.039012595507351686   0.009207697982247076
-0.4209727092201919   -0.058167409472910506   -0.02173258670539134
-0.4209727092201919   -0.058167409472910506   -0.02173258670539134
-0.4209727092201919   -0.058167409472910506   -0.02173258670539134
-0.4209727092201919   -0.058167409472910506   -0.02173258670539134
-0.25871550696821133   -0.03334523889063076   -0.0016452746755266506
-0.25871550696821133   -0.03334523889063076   -0.0016452746755266506
-0.25871550696821133   -0.03334523889063076   -0.0016452746755266506
-0.25871550696821133   -0.03334523889063076   -0.0016452746755266506
-0.259270370382651   -0.04129457995364909   -0.008723974550356957
-0.259270370382651   -0.04129457995364909   -0.008723974550356957
-0.259270370382651   -0.04129457995364909   -0.008723974550356957
-0.259270370382651   -0.04129457995364909   -0.008723974550356957
-0.42823404295900475   -0.09858338868916801   0.006167673303412433
-0.42823404295900475   -0.09858338868916801   0.006167673303412433
-0.42823404295900475   -0.09858338868916801   0.006167673303412433
-0.42823404295900475   -0.09858338868916801   0.006167673303412433
-0.3263302466680048   -0.053565051978498486   0.0007811482072891257
-0.3263302466680048   -0.053565051978498486   0.0007811482072891257
-0.3263302466680048   -0.053565051978498486   0.0007811482072891257
-0.3263302466680048   -0.053565051978498486   0.0007811482072891257
-0.26169366347549555   -0.04445856544968582   -0.023422901266257096
-0.26169366347549555   -0.04445856544968582   -0.023422901266257096
-0.26169366347549555   -0.04445856544968582   -0.023422901266257096
-0.26169366347549555   -0.04445856544968582   -0.023422901266257096
-0.18098698296995328   -0.1183230952104203   -0.022118735350000744
-0.18098698296995328   -0.1183230952104203   -0.022118735350000744
-0.18098698296995328   -0.1183230952104203   -0.022118735350000744
-0.18098698296995328   -0.1183230952104203   -0.022118735350000744
-0.15889412277010795   -0.026143490320924494   -0.0015139379605280875
-0.15889412277010795   -0.026143490320924494   -0.0015139379605280875
-0.15889412277010795   -0.026143490320924494   -0.0015139379605280875
-0.15889412277010795   -0.026143490320924494   -0.0015139379605280875
-0.2786703597519328   -0.12513418230470463   -0.027751284468212817
-0.2786703597519328   -0.12513418230470463   -0.027751284468212817
-0.2786703597519328   -0.12513418230470463   -0.027751284468212817
-0.2786703597519328   -0.12513418230470463   -0.027751284468212817
-0.21753720682055122   -0.08325245505898594   -0.006376769632963873
-0.21753720682055122   -0.08325245505898594   -0.006376769632963873
-0.21753720682055122   -0.08325245505898594   -0.006376769632963873
-0.21753720682055122   -0.08325245505898594   -0.006376769632963873
-0.26161142920468833   -0.04991860568589473   -0.0176722083507989
-0.26161142920468833   -0.04991860568589473   -0.0176722083507989
-0.26161142920468833   -0.04991860568589473   -0.0176722083507989
-0.26161142920468833   -0.04991860568589473   -0.0176722083507989
-0.17700725863962538   -0.10241327226200711   -0.015809835367032544
-0.17700725863962538   -0.10241327226200711   -0.015809835367032544
-0.17700725863962538   -0.10241327226200711   -0.015809835367032544
-0.17700725863962538   -0.10241327226200711   -0.015809835367032544
-0.16092574278892047   -0.033827797993709524   0.00012458800743125886
-0.16092574278892047   -0.033827797993709524   0.00012458800743125886
-0.16092574278892047   -0.033827797993709524   0.00012458800743125886
-0.16092574278892047   -0.033827797993709524   0.00012458800743125886
-0.2798800651389165   -0.1244673759346659   -0.016345928485017217
-0.2798800651389165   -0.1244673759346659   -0.016345928485017217
-0.2798800651389165   -0.1244673759346659   -0.016345928485017217
-0.2798800651389165   -0.1244673759346659   -0.016345928485017217
-0.2152738941396266   -0.07803170021967522   -0.006777525709007554
-0.2152738941396266   -0.07803170021967522   -0.006777525709007554
-0.2152738941396266   -0.07803170021967522   -0.006777525709007554
-0.2152738941396266   -0.07803170021967522   -0.006777525709007554
-0.26587449126123003   -0.05749962691325492   -0.013285808117993882
-0.26587449126123003   -0.05749962691325492   -0.013285808117993882
-0.26587449126123003   -0.05749962691325492   -0.013285808117993882
-0.26587449126123003   -0.05749962691325492   -0.013285808117993882
-0.17713600323313558   -0.10300023358164784   -0.011754278625707791
-0.17713600323313558   -0.10300023358164784   -0.011754278625707791
-0.17713600323313558   -0.10300023358164784   -0.011754278625707791
-0.17713600323313558   -0.10300023358164784   -0.011754278625707791
-0.16111976396857922   -0.04334459882014955   0.0024661242846474238
-0.16111976396857922   -0.04334459882014955   0.0024661242846474238
-0.16111976396857922   -0.04334459882014955   0.0024661242846474238
-0.16111976396857922   -0.04334459882014955   0.0024661242846474238
-0.2794173666656626   -0.12636411423514723   -0.024389421683920207
-0.2794173666656626   -0.12636411423514723   -0.024389421683920207
-0.2794173666656626   -0.12636411423514723   -0.024389421683920207
-0.2794173666656626   -0.12636411423514723   -0.024389421683920207
-0.21876829817504023   -0.08388266397562696   -0.012615035087032912
-0.21876829817504023   -0.08388266397562696   -0.012615035087032912
-0.21876829817504023   -0.08388266397562696   -0.012615035087032912
-0.21876829817504023   -0.08388266397562696   -0.012615035087032912
-0.15904584486540269   -0.02868379643522171   -0.002052343602446431
-0.15904584486540269   -0.02868379643522171   -0.002052343602446431
-0.15904584486540269   -0.02868379643522171   -0.002052343602446431
-0.15904584486540269   -0.02868379643522171   -0.002052343602446431
-0.13459322948248598   -0.0907773437408049   -0.01566762268969029
-0.13459322948248598   -0.0907773437408049   -0.01566762268969029
-0.13459322948248598   -0.0907773437408049   -0.01566762268969029
-0.13459322948248598   -0.0907773437408049   -0.01566762268969029
-0.11604608897319786   -0.023997996911439994   0.0061220736728449104
-0.11604608897319786   -0.023997996911439994   0.0061220736728449104
-0.11604608897319786   -0.023997996911439994   0.0061220736728449104
-0.11604608897319786   -0.023997996911439994   0.0061220736728449104
-0.17648542281930613   -0.09838343687471333   -0.01723049165273003
-0.17648542281930613   -0.09838343687471333   -0.01723049165273003
-0.17648542281930613   -0.09838343687471333   -0.01723049165273003
-0.17648542281930613   -0.09838343687471333   -0.01723049165273003
-0.14591305075325012   -0.061263946899194316   -0.007206927399478737
-0.14591305075325012   -0.061263946899194316   -0.007206927399478737
-0.14591305075325012   -0.061263946899194316   -0.007206927399478737
-0.14591305075325012   -0.061263946899194316   -0.007206927399478737
-0.16010790170630051   -0.0339833656542605   0.0002570426918450247
-0.16010790170630051   -0.0339833656542605   0.0002570426918450247
-0.16010790170630051   -0.0339833656542605   0.0002570426918450247
-0.16010790170630051   -0.0339833656542605   0.0002570426918450247
-0.13336674911675522   -0.08934120716244463   -0.01513801679393733
-0.13336674911675522   -0.08934120716244463   -0.01513801679393733
-0.13336674911675522   -0.08934120716244463   -0.01513801679393733
-0.13336674911675522   -0.08934120716244463   -0.01513801679393733
-0.11629083902523142   -0.03032242818724375   0.007950328088122058
-0.11629083902523142   -0.03032242818724375   0.007950328088122058
-0.11629083902523142   -0.03032242818724375   0.007950328088122058
-0.11629083902523142   -0.03032242818724375   0.007950328088122058
-0.17724548493236486   -0.09993924544193591   -0.01536267526156624
-0.17724548493236486   -0.09993924544193591   -0.01536267526156624
-0.17724548493236486   -0.09993924544193591   -0.01536267526156624
-0.17724548493236486   -0.09993924544193591   -0.01536267526156624
-0.14582641949779324   -0.06361488117961595   -0.009357438259464931
-0.14582641949779324   -0.06361488117961595   -0.009357438259464931
-0.14582641949779324   -0.06361488117961595   -0.009357438259464931
-0.14582641949779324   -0.06361488117961595   -0.009357438259464931
-0.16167659231224626   -0.04040094665237745   0.002943489049468395
-0.16167659231224626   -0.04040094665237745   0.002943489049468395
-0.16167659231224626   -0.04040094665237745   0.002943489049468395
-0.16167659231224626   -0.04040094665237745   0.002943489049468395
-0.1323815179641311   -0.09038251329558328   -0.01244298149803686
-0.1323815179641311   -0.09038251329558328   -0.01244298149803686
-0.1323815179641311   -0.09038251329558328   -0.01244298149803686
-0.1323815179641311   -0.09038251329558328   -0.01244298149803686
-0.11515204574529189   -0.03633315086221023   0.009949399951352633
-0.11515204574529189   -0.03633315086221023   0.009949399951352633
-0.11515204574529189   -0.03633315086221023   0.009949399951352633
-0.11515204574529189   -0.03633315086221023   0.009949399951352633
-0.17537981895214708   -0.10114646200013402   -0.01103228745320737
-0.17537981895214708   -0.10114646200013402   -0.01103228745320737
-0.17537981895214708   -0.10114646200013402   -0.01103228745320737
-0.17537981895214708   -0.10114646200013402   -0.01103228745320737
-0.1456173923471273   -0.06674688489468962   -0.010881248946152451
-0.1456173923471273   -0.06674688489468962   -0.010881248946152451
-0.1456173923471273   -0.06674688489468962   -0.010881248946152451
-0.1456173923471273   -0.06674688489468962   -0.010881248946152451
-0.11188620747427465   -0.0038862547869634046   0.010976398397524918
-0.11188620747427465   -0.0038862547869634046   0.010976398397524918
-0.11188620747427465   -0.0038862547869634046   0.010976398397524918
-0.11188620747427465   -0.0038862547869634046   0.010976398397524918
-0.106984737670971   -0.04829473944208745   -0.009488559105726904
-0.106984737670971   -0.04829473944208745   -0.009488559105726904
-0.106984737670971   -0.04829473944208745   -0.009488559105726904
-0.106984737670971   -0.04829473944208745   -0.009488559105726904
-0.09244660437436547   -0.006985862411441831   0.012675170119600069
-0.09244660437436547   -0.006985862411441831   0.012675170119600069
-0.09244660437436547   -0.006985862411441831   0.012675170119600069
-0.09244660437436547   -0.006985862411441831   0.012675170119600069
-0.12490691379513805   -0.055504297120196854   -0.0066757502280992
-0.12490691379513805   -0.055504297120196854   -0.0066757502280992
-0.12490691379513805   -0.055504297120196854   -0.0066757502280992
-0.12490691379513805   -0.055504297120196854   -0.0066757502280992
-0.10941053212079026   -0.02838332379230309   -0.0039221051739228956
-0.10941053212079026   -0.02838332379230309   -0.0039221051739228956
-0.10941053212079026   -0.02838332379230309   -0.0039221051739228956
-0.10941053212079026   -0.02838332379230309   -0.0039221051739228956
-0.11212283648105195   -0.010923395843560214   0.01266373506569466
-0.11212283648105195   -0.010923395843560214   0.01266373506569466
-0.11212283648105195   -0.010923395843560214   0.01266373506569466
-0.11212283648105195   -0.010923395843560214   0.01266373506569466
-0.1062467468957332   -0.05258282889536011   -0.010728576003320327
-0.1062467468957332   -0.05258282889536011   -0.010728576003320327
-0.1062467468957332   -0.05258282889536011   -0.010728576003320327
-0.1062467468957332   -0.05258282889536011   -0.010728576003320327
-0.09277422048012275   -0.01314197230984977   0.013639281920949636
-0.09277422048012275   -0.01314197230984977   0.013639281920949636
-0.09277422048012275   -0.01314197230984977   0.013639281920949636
-0.09277422048012275   -0.01314197230984977   0.013639281920949636
-0.12507511203293264   -0.05890168099411995   -0.0073917841435078985
-0.12507511203293264   -0.05890168099411995   -0.0073917841435078985
-0.12507511203293264   -0.05890168099411995   -0.0073917841435078985
-0.12507511203293264   -0.05890168099411995   -0.0073917841435078985
-0.10911140425532358   -0.03330827665825094   -0.00667618754712607
-0.10911140425532358   -0.03330827665825094   -0.00667618754712607
-0.10911140425532358   -0.03330827665825094   -0.00667618754712607
-0.10911140425532358   -0.03330827665825094   -0.00667618754712607
-0.11231506148521954   -0.016897199479059596   0.014403987079997273
-0.11231506148521954   -0.016897199479059596   0.014403987079997273
-0.11231506148521954   -0.016897199479059596   0.014403987079997273
-0.11231506148521954   -0.016897199479059596   0.014403987079997273
-0.10615052097682146   -0.055762703773895715   -0.010621489098497895
-0.10615052097682146   -0.055762703773895715   -0.010621489098497895
-0.10615052097682146   -0.055762703773895715   -0.010621489098497895
-0.10615052097682146   -0.055762703773895715   -0.010621489098497895
-0.09219175343436957   -0.018930341527969727   0.01581549474362781
-0.09219175343436957   -0.018930341527969727   0.01581549474362781
-0.09219175343436957   -0.018930341527969727   0.01581549474362781
-0.09219175343436957   -0.018930341527969727   0.01581549474362781
-0.12333446261277975   -0.0622823062330391   -0.005013529015257777
-0.12333446261277975   -0.0622823062330391   -0.005013529015257777
-0.12333446261277975   -0.0622823062330391   -0.005013529015257777
-0.12333446261277975   -0.0622823062330391   -0.005013529015257777
-0.10900600601740265   -0.03758086149392154   -0.008618874774850096
-0.10900600601740265   -0.03758086149392154   -0.008618874774850096
-0.10900600601740265   -0.03758086149392154   -0.008618874774850096
-0.10900600601740265   -0.03758086149392154   -0.008618874774850096
-0.08946928092351136   0.0126051482478538   0.017188836941630016
-0.08946928092351136   0.0126051482478538   0.017188836941630016
-0.08946928092351136   0.0126051482478538   0.017188836941630016
-0.08946928092351136   0.0126051482478538   0.017188836941630016
-0.061072924474914726   -0.01606203254272339   -0.005915852030251176
-0.061072924474914726   -0.01606203254272339   -0.005915852030251176
-0.061072924474914726   -0.01606203254272339   -0.005915852030251176
-0.061072924474914726   -0.01606203254272339   -0.005915852030251176
-0.05375837475764068   0.014498632994861042   0.017001383785228624
-0.05375837475764068   0.014498632994861042   0.017001383785228624
-0.05375837475764068   0.014498632994861042   0.017001383785228624
-0.05375837475764068   0.014498632994861042   0.017001383785228624
-0.09903916480444061   -0.02419416483184511   -0.0030793296103724076
-0.09903916480444061   -0.02419416483184511   -0.0030793296103724076
-0.09903916480444061   -0.02419416483184511   -0.0030793296103724076
-0.09903916480444061   -0.02419416483184511   -0.0030793296103724076
-0.074727204802218   -0.0016033578959441658   -0.003011669867161001
-0.074727204802218   -0.0016033578959441658   -0.003011669867161001
-0.074727204802218   -0.0016033578959441658   -0.003011669867161001
-0.074727204802218   -0.0016033578959441658   -0.003011669867161001
-0.08824036444324981   0.007955049811201938   0.018765457552534566
-0.08824036444324981   0.007955049811201938   0.018765457552534566
-0.08824036444324981   0.007955049811201938   0.018765457552534566
-0.08824036444324981   0.007955049811201938   0.018765457552534566
-0.0646759726227007   -0.017769379152052657   -0.00531859339315007
-0.0646759726227007   -0.017769379152052657   -0.00531859339315007
-0.0646759726227007   -0.017769379152052657   -0.00531859339315007
-0.0646759726227007   -0.017769379152052657   -0.00531859339315007
-0.05629224713702264   0.011465351901203567   0.02137391927460386
-0.05629224713702264   0.011465351901203567   0.02137391927460386
-0.05629224713702264   0.011465351901203567   0.02137391927460386
-0.05629224713702264   0.011465351901203567   0.02137391927460386
-0.09880744697094802   -0.025787227169779305   -0.003881595673247175
-0.09880744697094802   -0.025787227169779305   -0.003881595673247175
-0.09880744697094802   -0.025787227169779305   -0.003881595673247175
-0.09880744697094802   -0.025787227169779305   -0.003881595673247175
-0.07717733269147001   -0.004909912478778498   -0.004376841868540619
-0.07717733269147001   -0.004909912478778498   -0.004376841868540619
-0.07717733269147001   -0.004909912478778498   -0.004376841868540619
-0.07717733269147001   -0.004909912478778498   -0.004376841868540619
-0.0875016106665522   0.005267305896806176   0.021593052782146464
-0.0875016106665522   0.005267305896806176   0.021593052782146464
-0.0875016106665522   0.005267305896806176   0.021593052782146464
-0.0875016106665522   0.005267305896806176   0.021593052782146464
-0.06837236639695704   -0.020363464120920494   -0.007197861002944081
-0.06837236639695704   -0.020363464120920494   -0.007197861002944081
-0.06837236639695704   -0.020363464120920494   -0.007197861002944081
-0.06837236639695704   -0.020363464120920494   -0.007197861002944081
-0.06432880855895011   0.003116894682532024   0.022245097979243334
-0.06432880855895011   0.003116894682532024   0.022245097979243334
-0.06432880855895011   0.003116894682532024   0.022245097979243334
-0.06432880855895011   0.003116894682532024   0.022245097979243334
-0.09767249336632702   -0.027287669685424377   -0.003230876758704839
-0.09767249336632702   -0.027287669685424377   -0.003230876758704839
-0.09767249336632702   -0.027287669685424377   -0.003230876758704839
-0.09767249336632702   -0.027287669685424377   -0.003230876758704839
-0.07844160907278491   -0.007343526315488972   -0.00651012923211515
-0.07844160907278491   -0.007343526315488972   -0.00651012923211515
-0.07844160907278491   -0.007343526315488972   -0.00651012923211515
-0.07844160907278491   -0.007343526315488972   -0.00651012923211515
-0.904810467295396   -0.12927554596402746   -0.07605856863758736
-0.904810467295396   -0.12927554596402746   -0.07605856863758736
-0.904810467295396   -0.12927554596402746   -0.07605856863758736
-0.904810467295396   -0.12927554596402746   -0.07605856863758736
-0.3154660649329276   -0.5077961721189659   -0.059310117476798
-0.3154660649329276   -0.5077961721189659   -0.059310117476798
-0.3154660649329276   -0.5077961721189659   -0.059310117476798
-0.3154660649329276   -0.5077961721189659   -0.059310117476798
-0.24220184948131723   -0.021976064368390183   0.00017404117317323942
-0.24220184948131723   -0.021976064368390183   0.00017404117317323942
-0.24220184948131723   -0.021976064368390183   0.00017404117317323942
-0.24220184948131723   -0.021976064368390183   0.00017404117317323942
-0.9691992119675616   -0.594437335614724   -0.3127273095164571
-0.9691992119675616   -0.594437335614724   -0.3127273095164571
-0.9691992119675616   -0.594437335614724   -0.3127273095164571
-0.9691992119675616   -0.594437335614724   -0.3127273095164571
-0.5926654713065242   -0.2953769474383222   -0.0430850063688451
-0.5926654713065242   -0.2953769474383222   -0.0430850063688451
-0.5926654713065242   -0.2953769474383222   -0.0430850063688451
-0.5926654713065242   -0.2953769474383222   -0.0430850063688451
-0.8409317953271728   -0.16243531179837065   -0.10339225013087348
-0.8409317953271728   -0.16243531179837065   -0.10339225013087348
-0.8409317953271728   -0.16243531179837065   -0.10339225013087348
-0.8409317953271728   -0.16243531179837065   -0.10339225013087348
-0.3411415855687442   -0.42465040763178263   -0.09185029600056746
-0.3411415855687442   -0.42465040763178263   -0.09185029600056746
-0.3411415855687442   -0.42465040763178263   -0.09185029600056746
-0.3411415855687442   -0.42465040763178263   -0.09185029600056746
-0.24750333579561992   -0.02892622000717925   0.009237648569139487
-0.24750333579561992   -0.02892622000717925   0.009237648569139487
-0.24750333579561992   -0.02892622000717925   0.009237648569139487
-0.24750333579561992   -0.02892622000717925   0.009237648569139487
-0.9072269139125059   -0.5315926559867057   -0.2877639139798423
-0.9072269139125059   -0.5315926559867057   -0.2877639139798423
-0.9072269139125059   -0.5315926559867057   -0.2877639139798423
-0.9072269139125059   -0.5315926559867057   -0.2877639139798423
-0.5584475494653003   -0.2667863466187744   0.02226652315863839
-0.5584475494653003   -0.2667863466187744   0.02226652315863839
-0.5584475494653003   -0.2667863466187744   0.02226652315863839
-0.5584475494653003   -0.2667863466187744   0.02226652315863839
-0.7897678673904489   -0.15469910292602237   -0.07736223443024712
-0.7897678673904489   -0.15469910292602237   -0.07736223443024712
-0.7897678673904489   -0.15469910292602237   -0.07736223443024712
-0.7897678673904489   -0.15469910292602237   -0.07736223443024712
-0.33233052339211344   -0.3731879141422998   -0.07063659527820562
-0.33233052339211344   -0.3731879141422998   -0.07063659527820562
-0.33233052339211344   -0.3731879141422998   -0.07063659527820562
-0.33233052339211344   -0.3731879141422998   -0.07063659527820562
-0.2853957012986996   -0.07428302934425945   -0.015168871632349895
-0.2853957012986996   -0.07428302934425945   -0.015168871632349895
-0.2853957012986996   -0.07428302934425945   -0.015168871632349895
-0.2853957012986996   -0.07428302934425945   -0.015168871632349895
-0.8270382463555013   -0.44851790490702625   -0.2551112302525055
-0.8270382463555013   -0.44851790490702625   -0.2551112302525055
-0.8270382463555013   -0.44851790490702625   -0.2551112302525055
-0.8270382463555013   -0.44851790490702625   -0.2551112302525055
-0.5175512122866308   -0.23162299636177885   0.09621580671178376
-0.5175512122866308   -0.23162299636177885   0.09621580671178376
-0.5175512122866308   -0.23162299636177885   0.09621580671178376
-0.5175512122866308   -0.23162299636177885   0.09621580671178376
-0.2313532099051145   -0.1277341636823271   -0.018807850774373594
-0.2313532099051145   -0.1277341636823271   -0.018807850774373594
-0.2313532099051145   -0.1277341636823271   -0.018807850774373594
-0.2313532099051145   -0.1277341636823271   -0.018807850774373594
-0.10828291315207617   -0.1641749961355926   -0.026817198851289803
-0.10828291315207617   -0.1641749961355926   -0.026817198851289803
-0.10828291315207617   -0.1641749961355926   -0.026817198851289803
-0.10828291315207617   -0.1641749961355926   -0.026817198851289803
-0.09469475492045429   -0.08232076935871852   0.0023401754302393232
-0.09469475492045429   -0.08232076935871852   0.0023401754302393232
-0.09469475492045429   -0.08232076935871852   0.0023401754302393232
-0.09469475492045429   -0.08232076935871852   0.0023401754302393232
-0.2851733515052141   -0.23747266078936474   0.0008131274746649431
-0.2851733515052141   -0.23747266078936474   0.0008131274746649431
-0.2851733515052141   -0.23747266078936474   0.0008131274746649431
-0.2851733515052141   -0.23747266078936474   0.0008131274746649431
-0.152580100579169   -0.11481782946865371   0.04935303571690039
-0.152580100579169   -0.11481782946865371   0.04935303571690039
-0.152580100579169   -0.11481782946865371   0.04935303571690039
-0.152580100579169   -0.11481782946865371   0.04935303571690039
-0.2640811314166863   -0.11908813859868789   -0.012110294273375524
-0.2640811314166863   -0.11908813859868789   -0.012110294273375524
-0.2640811314166863   -0.11908813859868789   -0.012110294273375524
-0.2640811314166863   -0.11908813859868789   -0.012110294273375524
-0.12398102774755011   -0.20889934428796383   -0.017512613775994508
-0.12398102774755011   -0.20889934428796383   -0.017512613775994508
-0.12398102774755011   -0.20889934428796383   -0.017512613775994508
-0.12398102774755011   -0.20889934428796383   -0.017512613775994508
-0.10266340551062073   -0.08525681288517639   0.002490227134134597
-0.10266340551062073   -0.08525681288517639   0.002490227134134597
-0.10266340551062073   -0.08525681288517639   0.002490227134134597
-0.10266340551062073   -0.08525681288517639   0.002490227134134597
-0.2996711037261781   -0.23491774415427571   -0.045609666936552856
-0.2996711037261781   -0.23491774415427571   -0.045609666936552856
-0.2996711037261781   -0.23491774415427571   -0.045609666936552856
-0.2996711037261781   -0.23491774415427571   -0.045609666936552856
-0.18268087745695516   -0.14684380353021215   0.02217839059960805
-0.18268087745695516   -0.14684380353021215   0.02217839059960805
-0.18268087745695516   -0.14684380353021215   0.02217839059960805
-0.18268087745695516   -0.14684380353021215   0.02217839059960805
-0.27297716354046814   -0.12435762662535746   -0.022700083536923307
-0.27297716354046814   -0.12435762662535746   -0.022700083536923307
-0.27297716354046814   -0.12435762662535746   -0.022700083536923307
-0.27297716354046814   -0.12435762662535746   -0.022700083536923307
-0.12861285720938256   -0.19507244192714687   -0.01744140231770403
-0.12861285720938256   -0.19507244192714687   -0.01744140231770403
-0.12861285720938256   -0.19507244192714687   -0.01744140231770403
-0.12861285720938256   -0.19507244192714687   -0.01744140231770403
-0.11507403299295033   -0.08788117785009267   0.00368192656864038
-0.11507403299295033   -0.08788117785009267   0.00368192656864038
-0.11507403299295033   -0.08788117785009267   0.00368192656864038
-0.11507403299295033   -0.08788117785009267   0.00368192656864038
-0.32112395732549825   -0.22861290156181815   -0.039480279548786246
-0.32112395732549825   -0.22861290156181815   -0.039480279548786246
-0.32112395732549825   -0.22861290156181815   -0.039480279548786246
-0.32112395732549825   -0.22861290156181815   -0.039480279548786246
-0.19166067880024656   -0.1384839688119131   0.02339447655111551
-0.19166067880024656   -0.1384839688119131   0.02339447655111551
-0.19166067880024656   -0.1384839688119131   0.02339447655111551
-0.19166067880024656   -0.1384839688119131   0.02339447655111551
-0.08425549712197067   -0.07645607974836229   0.005600964912007379
-0.08425549712197067   -0.07645607974836229   0.005600964912007379
-0.08425549712197067   -0.07645607974836229   0.005600964912007379
-0.08425549712197067   -0.07645607974836229   0.005600964912007379
-0.0525529624755181   -0.05314962167033752   -0.013189829920470374
-0.0525529624755181   -0.05314962167033752   -0.013189829920470374
-0.0525529624755181   -0.05314962167033752   -0.013189829920470374
-0.0525529624755181   -0.05314962167033752   -0.013189829920470374
-0.05059018609213872   -0.06864645859523524   0.005559163017493089
-0.05059018609213872   -0.06864645859523524   0.005559163017493089
-0.05059018609213872   -0.06864645859523524   0.005559163017493089
-0.05059018609213872   -0.06864645859523524   0.005559163017493089
-0.09414649151210487   -0.07173696799212932   -0.005502308894602816
-0.09414649151210487   -0.07173696799212932   -0.005502308894602816
-0.09414649151210487   -0.07173696799212932   -0.005502308894602816
-0.09414649151210487   -0.07173696799212932   -0.005502308894602816
-0.05931357176892015   -0.05683203318802226   0.024834373363714926
-0.05931357176892015   -0.05683203318802226   0.024834373363714926
-0.05931357176892015   -0.05683203318802226   0.024834373363714926
-0.05931357176892015   -0.05683203318802226   0.024834373363714926
-0.09287792436279033   -0.07699593923408102   0.006099498093919679
-0.09287792436279033   -0.07699593923408102   0.006099498093919679
-0.09287792436279033   -0.07699593923408102   0.006099498093919679
-0.09287792436279033   -0.07699593923408102   0.006099498093919679
-0.05275232448422614   -0.06428105859605729   -0.00961692894212193
-0.05275232448422614   -0.06428105859605729   -0.00961692894212193
-0.05275232448422614   -0.06428105859605729   -0.00961692894212193
-0.05275232448422614   -0.06428105859605729   -0.00961692894212193
-0.05140322047084872   -0.07070174106643005   0.004982582154446937
-0.05140322047084872   -0.07070174106643005   0.004982582154446937
-0.05140322047084872   -0.07070174106643005   0.004982582154446937
-0.05140322047084872   -0.07070174106643005   0.004982582154446937
-0.10034531419348994   -0.08347543913149845   0.012299309966110637
-0.10034531419348994   -0.08347543913149845   0.012299309966110637
-0.10034531419348994   -0.08347543913149845   0.012299309966110637
-0.10034531419348994   -0.08347543913149845   0.012299309966110637
-0.06490609761924157   -0.06340792281284993   0.020792262031693563
-0.06490609761924157   -0.06340792281284993   0.020792262031693563
-0.06490609761924157   -0.06340792281284993   0.020792262031693563
-0.06490609761924157   -0.06340792281284993   0.020792262031693563
-0.10044027725209728   -0.0798632147877117   0.008212270329287182
-0.10044027725209728   -0.0798632147877117   0.008212270329287182
-0.10044027725209728   -0.0798632147877117   0.008212270329287182
-0.10044027725209728   -0.0798632147877117   0.008212270329287182
-0.05573781528587947   -0.0787435232838549   -0.00864860970328198
-0.05573781528587947   -0.0787435232838549   -0.00864860970328198
-0.05573781528587947   -0.0787435232838549   -0.00864860970328198
-0.05573781528587947   -0.0787435232838549   -0.00864860970328198
-0.05242393754791486   -0.07294147997893985   0.007036741248535122
-0.05242393754791486   -0.07294147997893985   0.007036741248535122
-0.05242393754791486   -0.07294147997893985   0.007036741248535122
-0.05242393754791486   -0.07294147997893985   0.007036741248535122
-0.11800972501545927   -0.10214285325042258   0.003265141856425506
-0.11800972501545927   -0.10214285325042258   0.003265141856425506
-0.11800972501545927   -0.10214285325042258   0.003265141856425506
-0.11800972501545927   -0.10214285325042258   0.003265141856425506
-0.07290964184457843   -0.0720898663886209   0.009481960298923474
-0.07290964184457843   -0.0720898663886209   0.009481960298923474
-0.07290964184457843   -0.0720898663886209   0.009481960298923474
-0.07290964184457843   -0.0720898663886209   0.009481960298923474
-0.042426076878113006   -0.030521916819273118   0.014816893215490654
-0.042426076878113006   -0.030521916819273118   0.014816893215490654
-0.042426076878113006   -0.030521916819273118   0.014816893215490654
-0.042426076878113006   -0.030521916819273118   0.014816893215490654
-0.030547651862953076   -0.0017499687534568305   -0.0030125205525886765
-0.030547651862953076   -0.0017499687534568305   -0.0030125205525886765
-0.030547651862953076   -0.0017499687534568305   -0.0030125205525886765
-0.030547651862953076   -0.0017499687534568305   -0.0030125205525886765
-0.028933114506341562   -0.03314400472259757   0.009151912471096913
-0.028933114506341562   -0.03314400472259757   0.009151912471096913
-0.028933114506341562   -0.03314400472259757   0.009151912471096913
-0.028933114506341562   -0.03314400472259757   0.009151912471096913
-0.039822217973577455   -0.007694748582434225   -0.0015527064025015868
-0.039822217973577455   -0.007694748582434225   -0.0015527064025015868
-0.039822217973577455   -0.007694748582434225   -0.0015527064025015868
-0.039822217973577455   -0.007694748582434225   -0.0015527064025015868
-0.03272089135784563   -0.017400572630713044   0.007345312295489518
-0.03272089135784563   -0.017400572630713044   0.007345312295489518
-0.03272089135784563   -0.017400572630713044   0.007345312295489518
-0.03272089135784563   -0.017400572630713044   0.007345312295489518
-0.04213197160000198   -0.03481116938246727   0.014014946265408841
-0.04213197160000198   -0.03481116938246727   0.014014946265408841
-0.04213197160000198   -0.03481116938246727   0.014014946265408841
-0.04213197160000198   -0.03481116938246727   0.014014946265408841
-0.025922287407240133   -0.0053265104498876215   -0.003611446306105891
-0.025922287407240133   -0.0053265104498876215   -0.003611446306105891
-0.025922287407240133   -0.0053265104498876215   -0.003611446306105891
-0.025922287407240133   -0.0053265104498876215   -0.003611446306105891
-0.02673556999510382   -0.036059761173621974   0.008478272921153178
-0.02673556999510382   -0.036059761173621974   0.008478272921153178
-0.02673556999510382   -0.036059761173621974   0.008478272921153178
-0.02673556999510382   -0.036059761173621974   0.008478272921153178
-0.040398784066699577   -0.013672473126526901   0.0029754962352894713
-0.040398784066699577   -0.013672473126526901   0.0029754962352894713
-0.040398784066699577   -0.013672473126526901   0.0029754962352894713
-0.040398784066699577   -0.013672473126526901   0.0029754962352894713
-0.030297020024675148   -0.020005741993110743   0.008570984940462496
-0.030297020024675148   -0.020005741993110743   0.008570984940462496
-0.030297020024675148   -0.020005741993110743   0.008570984940462496
-0.030297020024675148   -0.020005741993110743   0.008570984940462496
-0.04259334215520414   -0.037717436380521246   0.016047669046760988
-0.04259334215520414   -0.037717436380521246   0.016047669046760988
-0.04259334215520414   -0.037717436380521246   0.016047669046760988
-0.04259334215520414   -0.037717436380521246   0.016047669046760988
-0.024828901296579376   -0.012302687309607756   -0.005745457450234986
-0.024828901296579376   -0.012302687309607756   -0.005745457450234986
-0.024828901296579376   -0.012302687309607756   -0.005745457450234986
-0.024828901296579376   -0.012302687309607756   -0.005745457450234986
-0.022746572536120536   -0.03929130640184523   0.009353580064052337
-0.022746572536120536   -0.03929130640184523   0.009353580064052337
-0.022746572536120536   -0.03929130640184523   0.009353580064052337
-0.022746572536120536   -0.03929130640184523   0.009353580064052337
-0.04405267223198114   -0.027904613095837305   0.003856200945101182
-0.04405267223198114   -0.027904613095837305   0.003856200945101182
-0.04405267223198114   -0.027904613095837305   0.003856200945101182
-0.04405267223198114   -0.027904613095837305   0.003856200945101182
-0.029490493186452325   -0.02513651244992782   0.007187935314781341
-0.029490493186452325   -0.02513651244992782   0.007187935314781341
-0.029490493186452325   -0.02513651244992782   0.007187935314781341
-0.029490493186452325   -0.02513651244992782   0.007187935314781341
-0.027632654703272596   -0.005190257403227786   0.01500275389558471
-0.027632654703272596   -0.005190257403227786   0.01500275389558471
-0.027632654703272596   -0.005190257403227786   0.01500275389558471
-0.027632654703272596   -0.005190257403227786   0.01500275389558471
-0.005429543165394382   0.002911646084423298   -0.00030347752642674705
-0.005429543165394382   0.002911646084423298   -0.00030347752642674705
-0.005429543165394382   0.002911646084423298   -0.00030347752642674705
-0.005429543165394382   0.002911646084423298   -0.00030347752642674705
0.0009217734426270844   -0.001715637966663245   0.009352366468469216
0.0009217734426270844   -0.001715637966663245   0.009352366468469216
0.0009217734426270844   -0.001715637966663245   0.009352366468469216
0.0009217734426270844   -0.001715637966663245   0.009352366468469216
-0.02392826799115812   0.0019756586266290264   -0.0009435183022124898
-0.02392826799115812   0.0019756586266290264   -0.0009435183022124898
-0.02392826799115812   0.0019756586266290264   -0.0009435183022124898
-0.02392826799115812   0.0019756586266290264   -0.0009435183022124898
-0.014220236822078387   -0.0011336389573352442   -0.0010992669471669913
-0.014220236822078387   -0.0011336389573352442   -0.0010992669471669913
-0.014220236822078387   -0.0011336389573352442   -0.0010992669471669913
-0.014220236822078387   -0.0011336389573352442   -0.0010992669471669913
-0.02201997528281941   -0.005049783526853641   0.015623387392963727
-0.02201997528281941   -0.005049783526853641   0.015623387392963727
-0.02201997528281941   -0.005049783526853641   0.015623387392963727
-0.02201997528281941   -0.005049783526853641   0.015623387392963727
-0.00017539801230296095   0.006120925440229366   -0.003970054213065951
-0.00017539801230296095   0.006120925440229366   -0.003970054213065951
-0.00017539801230296095   0.006120925440229366   -0.003970054213065951
-0.00017539801230296095   0.006120925440229366   -0.003970054213065951
0.003988991337722627   -0.002143713882840331   0.01153953245277706
0.003988991337722627   -0.002143713882840331   0.01153953245277706
0.003988991337722627   -0.002143713882840331   0.01153953245277706
0.003988991337722627   -0.002143713882840331   0.01153953245277706
-0.021246208758164548   0.0012302053487872103   -0.001364887416555808
-0.021246208758164548   0.0012302053487872103   -0.001364887416555808
-0.021246208758164548   0.0012302053487872103   -0.001364887416555808
-0.021246208758164548   0.0012302053487872103   -0.001364887416555808
-0.009663760994888072   -0.0004047086162717638   0.0014178325426224673
-0.009663760994888072   -0.0004047086162717638   0.0014178325426224673
-0.009663760994888072   -0.0004047086162717638   0.0014178325426224673
-0.009663760994888072   -0.0004047086162717638   0.0014178325426224673
-0.018990375602149456   -0.005682164182423989   0.01682664789473085
-0.018990375602149456   -0.005682164182423989   0.01682664789473085
-0.018990375602149456   -0.005682164182423989   0.01682664789473085
-0.018990375602149456   -0.005682164182423989   0.01682664789473085
0.0024375340597653007   0.005473031526428635   -0.0038344993462785357
0.0024375340597653007   0.005473031526428635   -0.0038344993462785357
0.0024375340597653007   0.005473031526428635   -0.0038344993462785357
0.0024375340597653007   0.005473031526428635   -0.0038344993462785357
0.006992793935252791   -0.0034571500998232126   0.01125643386771734
0.006992793935252791   -0.0034571500998232126   0.01125643386771734
0.006992793935252791   -0.0034571500998232126   0.01125643386771734
0.006992793935252791   -0.0034571500998232126   0.01125643386771734
-0.016889348488106064   0.0008711694407517526   -0.0015227755384684223
-0.016889348488106064   0.0008711694407517526   -0.0015227755384684223
-0.016889348488106064   0.0008711694407517526   -0.0015227755384684223
-0.016889348488106064   0.0008711694407517526   -0.0015227755384684223
-0.005645183214829448   -4.022364758340144e-05   0.003562321672875829
-0.005645183214829448   -4.022364758340144e-05   0.003562321672875829
-0.005645183214829448   -4.022364758340144e-05   0.003562321672875829
-0.005645183214829448   -4.022364758340144e-05   0.003562321672875829
              </DataArray>   
             <DataArray type="Float64" NumberOfComponents="3" Name="Displacements" format="ascii">   
0.0   0.0   0.0
-0.002528156914613713   -0.001665325518662515   -0.000847317969358378
0.0   0.0   0.0
0.0   0.0   0.0
-0.002528156914613713   -0.001665325518662515   -0.000847317969358378
-0.0016081126455709963   -0.0014977677157711911   -0.0006226061546235836
0.0   0.0   0.0
-0.0015758971088988966   -0.0015725410470574526   -0.0005217457529463449
0.0   0.0   0.0
0.0   0.0   0.0
-0.0015758971088988966   -0.0015725410470574526   -0.0005217457529463449
0.0   0.0   0.0
0.0   0.0   0.0
-0.0015758971088988966   -0.0015725410470574526   -0.0005217457529463449
-0.0026453260416188363   -0.0017738503369524115   -0.0006804811528009082
-0.002528156914613713   -0.001665325518662515   -0.000847317969358378
0.0   0.0   0.0
-0.0015758971088988966   -0.0015725410470574526   -0.0005217457529463449
-0.002528156914613713   -0.001665325518662515   -0.000847317969358378
0.0   0.0   0.0
0.0   0.0   0.0
-0.0026453260416188363   -0.0017738503369524115   -0.0006804811528009082
0.0   0.0   0.0
0.0   0.0   0.0
-0.0026453260416188363   -0.0017738503369524115   -0.0006804811528009082
-0.0015758971088988966   -0.0015725410470574526   -0.0005217457529463449
0.0   0.0   0.0
-0.0015798956155890374   -0.0016109113337670487   -0.0004210814650068519
0.0   0.0   0.0
0.0   0.0   0.0
-0.0015798956155890374   -0.0016109113337670487   -0.0004210814650068519
0.0   0.0   0.0
0.0   0.0   0.0
-0.0015798956155890374   -0.0016109113337670487   -0.0004210814650068519
-0.0027274081126096262   -0.001826646916108726   -0.0005207220105191747
-0.0026453260416188363   -0.0017738503369524115   -0.0006804811528009082
0.0   0.0   0.0
-0.0015798956155890374   -0.0016109113337670487   -0.0004210814650068519
-0.0026453260416188363   -0.0017738503369524115   -0.0006804811528009082
0.0   0.0   0.0
0.0   0.0   0.0
-0.0027274081126096262   -0.001826646916108726   -0.0005207220105191747
0.0   0.0   0.0
0.0   0.0   0.0
-0.0027274081126096262   -0.001826646916108726   -0.0005207220105191747
-0.0015798956155890374   -0.0016109113337670487   -0.0004210814650068519
0.0   0.0   0.0
-0.0015785626441710378   -0.001620841265444965   -0.0003170566368041518
0.0   0.0   0.0
0.0   0.0   0.0
-0.0015785626441710378   -0.001620841265444965   -0.0003170566368041518
0.0   0.0   0.0
0.0   0.0   0.0
-0.0015785626441710378   -0.001620841265444965   -0.0003170566368041518
-0.002904677916334308   -0.0018668050992631964   -0.0003354414428533351
-0.0027274081126096262   -0.001826646916108726   -0.0005207220105191747
0.0   0.0   0.0
-0.0015785626441710378   -0.001620841265444965   -0.0003170566368041518
-0.0027274081126096262   -0.001826646916108726   -0.0005207220105191747
0.0   0.0   0.0
0.0   0.0   0.0
-0.0016081126455709963   -0.0014977677157711911   -0.0006226061546235836
0.0   0.0   0.0
0.0   0.0   0.0
-0.0016081126455709963   -0.0014977677157711911   -0.0006226061546235836
-0.0007328587323345559   -0.0014364076758937895   -0.00047375828942554897
0.0   0.0   0.0
-0.0007044186650819648   -0.0014850235922018668   -0.0004260893949901863
0.0   0.0   0.0
0.0   0.0   0.0
-0.0007044186650819648   -0.0014850235922018668   -0.0004260893949901863
0.0   0.0   0.0
0.0   0.0   0.0
-0.0007044186650819648   -0.0014850235922018668   -0.0004260893949901863
-0.0015758971088988966   -0.0015725410470574526   -0.0005217457529463449
-0.0016081126455709963   -0.0014977677157711911   -0.0006226061546235836
0.0   0.0   0.0
-0.0007044186650819648   -0.0014850235922018668   -0.0004260893949901863
-0.0016081126455709963   -0.0014977677157711911   -0.0006226061546235836
0.0   0.0   0.0
0.0   0.0   0.0
-0.0015758971088988966   -0.0015725410470574526   -0.0005217457529463449
0.0   0.0   0.0
0.0   0.0   0.0
-0.0015758971088988966   -0.0015725410470574526   -0.0005217457529463449
-0.0007044186650819648   -0.0014850235922018668   -0.0004260893949901863
0.0   0.0   0.0
-0.000688263614999527   -0.0015035724521110841   -0.00037971541712220335
0.0   0.0   0.0
0.0   0.0   0.0
-0.000688263614999527   -0.0015035724521110841   -0.00037971541712220335
0.0   0.0   0.0
0.0   0.0   0.0
-0.000688263614999527   -0.0015035724521110841   -0.00037971541712220335
-0.0015798956155890374   -0.0016109113337670487   -0.0004210814650068519
-0.0015758971088988966   -0.0015725410470574526   -0.0005217457529463449
0.0   0.0   0.0
-0.000688263614999527   -0.0015035724521110841   -0.00037971541712220335
-0.0015758971088988966   -0.0015725410470574526   -0.0005217457529463449
0.0   0.0   0.0
0.0   0.0   0.0
-0.0015798956155890374   -0.0016109113337670487   -0.0004210814650068519
0.0   0.0   0.0
0.0   0.0   0.0
-0.0015798956155890374   -0.0016109113337670487   -0.0004210814650068519
-0.000688263614999527   -0.0015035724521110841   -0.00037971541712220335
0.0   0.0   0.0
-0.0006734795325167405   -0.0014958765028534157   -0.0003318253605826337
0.0   0.0   0.0
0.0   0.0   0.0
-0.0006734795325167405   -0.0014958765028534157   -0.0003318253605826337
0.0   0.0   0.0
0.0   0.0   0.0
-0.0006734795325167405   -0.0014958765028534157   -0.0003318253605826337
-0.0015785626441710378   -0.001620841265444965   -0.0003170566368041518
-0.0015798956155890374   -0.0016109113337670487   -0.0004210814650068519
0.0   0.0   0.0
-0.0006734795325167405   -0.0014958765028534157   -0.0003318253605826337
-0.0015798956155890374   -0.0016109113337670487   -0.0004210814650068519
0.0   0.0   0.0
0.0   0.0   0.0
-0.0007328587323345559   -0.0014364076758937895   -0.00047375828942554897
0.0   0.0   0.0
0.0   0.0   0.0
-0.0007328587323345559   -0.0014364076758937895   -0.00047375828942554897
9.371079704784882e-05   -0.001444339226762886   -0.0003790421889015447
0.0   0.0   0.0
0.00011207069924299206   -0.0014694770814255664   -0.00038550949814306475
0.0   0.0   0.0
0.0   0.0   0.0
0.00011207069924299206   -0.0014694770814255664   -0.00038550949814306475
0.0   0.0   0.0
0.0   0.0   0.0
0.00011207069924299206   -0.0014694770814255664   -0.00038550949814306475
-0.0007044186650819648   -0.0014850235922018668   -0.0004260893949901863
-0.0007328587323345559   -0.0014364076758937895   -0.00047375828942554897
0.0   0.0   0.0
0.00011207069924299206   -0.0014694770814255664   -0.00038550949814306475
-0.0007328587323345559   -0.0014364076758937895   -0.00047375828942554897
0.0   0.0   0.0
0.0   0.0   0.0
-0.0007044186650819648   -0.0014850235922018668   -0.0004260893949901863
0.0   0.0   0.0
0.0   0.0   0.0
-0.0007044186650819648   -0.0014850235922018668   -0.0004260893949901863
0.00011207069924299206   -0.0014694770814255664   -0.00038550949814306475
0.0   0.0   0.0
0.00012662042144778274   -0.0014673405382052197   -0.00039139454857514943
0.0   0.0   0.0
0.0   0.0   0.0
0.00012662042144778274   -0.0014673405382052197   -0.00039139454857514943
0.0   0.0   0.0
0.0   0.0   0.0
0.00012662042144778274   -0.0014673405382052197   -0.00039139454857514943
-0.000688263614999527   -0.0015035724521110841   -0.00037971541712220335
-0.0007044186650819648   -0.0014850235922018668   -0.0004260893949901863
0.0   0.0   0.0
0.00012662042144778274   -0.0014673405382052197   -0.00039139454857514943
-0.0007044186650819648   -0.0014850235922018668   -0.0004260893949901863
0.0   0.0   0.0
0.0   0.0   0.0
-0.000688263614999527   -0.0015035724521110841   -0.00037971541712220335
0.0   0.0   0.0
0.0   0.0   0.0
-0.000688263614999527   -0.0015035724521110841   -0.00037971541712220335
0.00012662042144778274   -0.0014673405382052197   -0.00039139454857514943
0.0   0.0   0.0
0.00014604915548680096   -0.0014357015237023182   -0.0003974952564106529
0.0   0.0   0.0
0.0   0.0   0.0
0.00014604915548680096   -0.0014357015237023182   -0.0003974952564106529
0.0   0.0   0.0
0.0   0.0   0.0
0.00014604915548680096   -0.0014357015237023182   -0.0003974952564106529
-0.0006734795325167405   -0.0014958765028534157   -0.0003318253605826337
-0.000688263614999527   -0.0015035724521110841   -0.00037971541712220335
0.0   0.0   0.0
0.00014604915548680096   -0.0014357015237023182   -0.0003974952564106529
-0.000688263614999527   -0.0015035724521110841   -0.00037971541712220335
0.0   0.0   0.0
0.0   0.0   0.0
9.371079704784882e-05   -0.001444339226762886   -0.0003790421889015447
0.0   0.0   0.0
0.0   0.0   0.0
9.371079704784882e-05   -0.001444339226762886   -0.0003790421889015447
0.0009913187918664623   -0.0015141035774447543   -0.0003323780749544177
0.0   0.0   0.0
0.0009936263860795   -0.0015219947745749327   -0.0003958128512952133
0.0   0.0   0.0
0.0   0.0   0.0
0.0009936263860795   -0.0015219947745749327   -0.0003958128512952133
0.0   0.0   0.0
0.0   0.0   0.0
0.0009936263860795   -0.0015219947745749327   -0.0003958128512952133
0.00011207069924299206   -0.0014694770814255664   -0.00038550949814306475
9.371079704784882e-05   -0.001444339226762886   -0.0003790421889015447
0.0   0.0   0.0
0.0009936263860795   -0.0015219947745749327   -0.0003958128512952133
9.371079704784882e-05   -0.001444339226762886   -0.0003790421889015447
0.0   0.0   0.0
0.0   0.0   0.0
0.00011207069924299206   -0.0014694770814255664   -0.00038550949814306475
0.0   0.0   0.0
0.0   0.0   0.0
0.00011207069924299206   -0.0014694770814255664   -0.00038550949814306475
0.0009936263860795   -0.0015219947745749327   -0.0003958128512952133
0.0   0.0   0.0
0.0009898403806235818   -0.0015002651673193081   -0.0004567313341031756
0.0   0.0   0.0
0.0   0.0   0.0
0.0009898403806235818   -0.0015002651673193081   -0.0004567313341031756
0.0   0.0   0.0
0.0   0.0   0.0
0.0009898403806235818   -0.0015002651673193081   -0.0004567313341031756
0.00012662042144778274   -0.0014673405382052197   -0.00039139454857514943
0.00011207069924299206   -0.0014694770814255664   -0.00038550949814306475
0.0   0.0   0.0
0.0009898403806235818   -0.0015002651673193081   -0.0004567313341031756
0.00011207069924299206   -0.0014694770814255664   -0.00038550949814306475
0.0   0.0   0.0
0.0   0.0   0.0
0.00012662042144778274   -0.0014673405382052197   -0.00039139454857514943
0.0   0.0   0.0
0.0   0.0   0.0
0.00012662042144778274   -0.0014673405382052197   -0.00039139454857514943
0.0009898403806235818   -0.0015002651673193081   -0.0004567313341031756
0.0   0.0   0.0
0.0010094617876915915   -0.00144231461777989   -0.0005165407122861109
0.0   0.0   0.0
0.0   0.0   0.0
0.0010094617876915915   -0.00144231461777989   -0.0005165407122861109
0.0   0.0   0.0
0.0   0.0   0.0
0.0010094617876915915   -0.00144231461777989   -0.0005165407122861109
0.00014604915548680096   -0.0014357015237023182   -0.0003974952564106529
0.00012662042144778274   -0.0014673405382052197   -0.00039139454857514943
0.0   0.0   0.0
0.0010094617876915915   -0.00144231461777989   -0.0005165407122861109
0.00012662042144778274   -0.0014673405382052197   -0.00039139454857514943
0.0   0.0   0.0
0.0   0.0   0.0
0.0009913187918664623   -0.0015141035774447543   -0.0003323780749544177
0.0   0.0   0.0
0.0   0.0   0.0
0.0009913187918664623   -0.0015141035774447543   -0.0003323780749544177
0.0022409246308037144   -0.0016911758143845353   -0.00031406662092584633
0.0   0.0   0.0
0.0021052976024682393   -0.001672482401906416   -0.00045806637145826435
0.0   0.0   0.0
0.0   0.0   0.0
0.0021052976024682393   -0.001672482401906416   -0.00045806637145826435
0.0   0.0   0.0
0.0   0.0   0.0
0.0021052976024682393   -0.001672482401906416   -0.00045806637145826435
0.0009936263860795   -0.0015219947745749327   -0.0003958128512952133
0.0009913187918664623   -0.0015141035774447543   -0.0003323780749544177
0.0   0.0   0.0
0.0021052976024682393   -0.001672482401906416   -0.00045806637145826435
0.0009913187918664623   -0.0015141035774447543   -0.0003323780749544177
0.0   0.0   0.0
0.0   0.0   0.0
0.0009936263860795   -0.0015219947745749327   -0.0003958128512952133
0.0   0.0   0.0
0.0   0.0   0.0
0.0009936263860795   -0.0015219947745749327   -0.0003958128512952133
0.0021052976024682393   -0.001672482401906416   -0.00045806637145826435
0.0   0.0   0.0
0.002042966648725793   -0.0016377157247217267   -0.0005798875390154403
0.0   0.0   0.0
0.0   0.0   0.0
0.002042966648725793   -0.0016377157247217267   -0.0005798875390154403
0.0   0.0   0.0
0.0   0.0   0.0
0.002042966648725793   -0.0016377157247217267   -0.0005798875390154403
0.0009898403806235818   -0.0015002651673193081   -0.0004567313341031756
0.0009936263860795   -0.0015219947745749327   -0.0003958128512952133
0.0   0.0   0.0
0.002042966648725793   -0.0016377157247217267   -0.0005798875390154403
0.0009936263860795   -0.0015219947745749327   -0.0003958128512952133
0.0   0.0   0.0
0.0   0.0   0.0
0.0009898403806235818   -0.0015002651673193081   -0.0004567313341031756
0.0   0.0   0.0
0.0   0.0   0.0
0.0009898403806235818   -0.0015002651673193081   -0.0004567313341031756
0.002042966648725793   -0.0016377157247217267   -0.0005798875390154403
0.0   0.0   0.0
0.0019498452005632628   -0.0015489415480140613   -0.0007089133551914153
0.0   0.0   0.0
0.0   0.0   0.0
0.0019498452005632628   -0.0015489415480140613   -0.0007089133551914153
0.0   0.0   0.0
0.0   0.0   0.0
0.0019498452005632628   -0.0015489415480140613   -0.0007089133551914153
0.0010094617876915915   -0.00144231461777989   -0.0005165407122861109
0.0009898403806235818   -0.0015002651673193081   -0.0004567313341031756
0.0   0.0   0.0
0.0019498452005632628   -0.0015489415480140613   -0.0007089133551914153
0.0009898403806235818   -0.0015002651673193081   -0.0004567313341031756
0.0   0.0   0.0
-0.002528156914613713   -0.001665325518662515   -0.000847317969358378
-0.004717182652574518   -0.00463906751726473   -0.0011417977170616158
-0.0016081126455709963   -0.0014977677157711911   -0.0006226061546235836
-0.0026453260416188363   -0.0017738503369524115   -0.0006804811528009082
-0.004717182652574518   -0.00463906751726473   -0.0011417977170616158
-0.0030105712731443883   -0.0044885494813340105   -0.0009403341884780559
-0.0016081126455709963   -0.0014977677157711911   -0.0006226061546235836
-0.003013406427058491   -0.00456495705549216   -0.0008471780216450799
-0.0026453260416188363   -0.0017738503369524115   -0.0006804811528009082
-0.0015758971088988966   -0.0015725410470574526   -0.0005217457529463449
-0.003013406427058491   -0.00456495705549216   -0.0008471780216450799
-0.0016081126455709963   -0.0014977677157711911   -0.0006226061546235836
-0.0026453260416188363   -0.0017738503369524115   -0.0006804811528009082
-0.003013406427058491   -0.00456495705549216   -0.0008471780216450799
-0.0048575544588189525   -0.004745761981856823   -0.000990635642558705
-0.004717182652574518   -0.00463906751726473   -0.0011417977170616158
-0.0026453260416188363   -0.0017738503369524115   -0.0006804811528009082
-0.003013406427058491   -0.00456495705549216   -0.0008471780216450799
-0.004717182652574518   -0.00463906751726473   -0.0011417977170616158
-0.0016081126455709963   -0.0014977677157711911   -0.0006226061546235836
-0.0026453260416188363   -0.0017738503369524115   -0.0006804811528009082
-0.0048575544588189525   -0.004745761981856823   -0.000990635642558705
-0.0015758971088988966   -0.0015725410470574526   -0.0005217457529463449
-0.0027274081126096262   -0.001826646916108726   -0.0005207220105191747
-0.0048575544588189525   -0.004745761981856823   -0.000990635642558705
-0.003013406427058491   -0.00456495705549216   -0.0008471780216450799
-0.0015758971088988966   -0.0015725410470574526   -0.0005217457529463449
-0.0030244989290952027   -0.004611602140775096   -0.0007577058199371358
-0.0027274081126096262   -0.001826646916108726   -0.0005207220105191747
-0.0015798956155890374   -0.0016109113337670487   -0.0004210814650068519
-0.0030244989290952027   -0.004611602140775096   -0.0007577058199371358
-0.0015758971088988966   -0.0015725410470574526   -0.0005217457529463449
-0.0027274081126096262   -0.001826646916108726   -0.0005207220105191747
-0.0030244989290952027   -0.004611602140775096   -0.0007577058199371358
-0.004954779204614253   -0.00480608213846946   -0.0008426871504401699
-0.0048575544588189525   -0.004745761981856823   -0.000990635642558705
-0.0027274081126096262   -0.001826646916108726   -0.0005207220105191747
-0.0030244989290952027   -0.004611602140775096   -0.0007577058199371358
-0.0048575544588189525   -0.004745761981856823   -0.000990635642558705
-0.0015758971088988966   -0.0015725410470574526   -0.0005217457529463449
-0.0027274081126096262   -0.001826646916108726   -0.0005207220105191747
-0.004954779204614253   -0.00480608213846946   -0.0008426871504401699
-0.0015798956155890374   -0.0016109113337670487   -0.0004210814650068519
-0.002904677916334308   -0.0018668050992631964   -0.0003354414428533351
-0.004954779204614253   -0.00480608213846946   -0.0008426871504401699
-0.0030244989290952027   -0.004611602140775096   -0.0007577058199371358
-0.0015798956155890374   -0.0016109113337670487   -0.0004210814650068519
-0.0030146836582182696   -0.004635918184435399   -0.000674003787673297
-0.002904677916334308   -0.0018668050992631964   -0.0003354414428533351
-0.0015785626441710378   -0.001620841265444965   -0.0003170566368041518
-0.0030146836582182696   -0.004635918184435399   -0.000674003787673297
-0.0015798956155890374   -0.0016109113337670487   -0.0004210814650068519
-0.002904677916334308   -0.0018668050992631964   -0.0003354414428533351
-0.0030146836582182696   -0.004635918184435399   -0.000674003787673297
-0.005069661919225373   -0.004841352201116193   -0.0007081859155367751
-0.004954779204614253   -0.00480608213846946   -0.0008426871504401699
-0.002904677916334308   -0.0018668050992631964   -0.0003354414428533351
-0.0030146836582182696   -0.004635918184435399   -0.000674003787673297
-0.004954779204614253   -0.00480608213846946   -0.0008426871504401699
-0.0015798956155890374   -0.0016109113337670487   -0.0004210814650068519
-0.0016081126455709963   -0.0014977677157711911   -0.0006226061546235836
-0.0030105712731443883   -0.0044885494813340105   -0.0009403341884780559
-0.0007328587323345559   -0.0014364076758937895   -0.00047375828942554897
-0.0015758971088988966   -0.0015725410470574526   -0.0005217457529463449
-0.0030105712731443883   -0.0044885494813340105   -0.0009403341884780559
-0.00139814679990394   -0.004418505979809091   -0.0008028777407332454
-0.0007328587323345559   -0.0014364076758937895   -0.00047375828942554897
-0.0013853505972087662   -0.004467066297957314   -0.0007550722642928443
-0.0015758971088988966   -0.0015725410470574526   -0.0005217457529463449
-0.0007044186650819648   -0.0014850235922018668   -0.0004260893949901863
-0.0013853505972087662   -0.004467066297957314   -0.0007550722642928443
-0.0007328587323345559   -0.0014364076758937895   -0.00047375828942554897
-0.0015758971088988966   -0.0015725410470574526   -0.0005217457529463449
-0.0013853505972087662   -0.004467066297957314   -0.0007550722642928443
-0.003013406427058491   -0.00456495705549216   -0.0008471780216450799
-0.0030105712731443883   -0.0044885494813340105   -0.0009403341884780559
-0.0015758971088988966   -0.0015725410470574526   -0.0005217457529463449
-0.0013853505972087662   -0.004467066297957314   -0.0007550722642928443
-0.0030105712731443883   -0.0044885494813340105   -0.0009403341884780559
-0.0007328587323345559   -0.0014364076758937895   -0.00047375828942554897
-0.0015758971088988966   -0.0015725410470574526   -0.0005217457529463449
-0.003013406427058491   -0.00456495705549216   -0.0008471780216450799
-0.0007044186650819648   -0.0014850235922018668   -0.0004260893949901863
-0.0015798956155890374   -0.0016109113337670487   -0.0004210814650068519
-0.003013406427058491   -0.00456495705549216   -0.0008471780216450799
-0.0013853505972087662   -0.004467066297957314   -0.0007550722642928443
-0.0007044186650819648   -0.0014850235922018668   -0.0004260893949901863
-0.0013739284270503696   -0.004490643220905493   -0.0007117672044321954
-0.0015798956155890374   -0.0016109113337670487   -0.0004210814650068519
-0.000688263614999527   -0.0015035724521110841   -0.00037971541712220335
-0.0013739284270503696   -0.004490643220905493   -0.0007117672044321954
-0.0007044186650819648   -0.0014850235922018668   -0.0004260893949901863
-0.0015798956155890374   -0.0016109113337670487   -0.0004210814650068519
-0.0013739284270503696   -0.004490643220905493   -0.0007117672044321954
-0.0030244989290952027   -0.004611602140775096   -0.0007577058199371358
-0.003013406427058491   -0.00456495705549216   -0.0008471780216450799
-0.0015798956155890374   -0.0016109113337670487   -0.0004210814650068519
-0.0013739284270503696   -0.004490643220905493   -0.0007117672044321954
-0.003013406427058491   -0.00456495705549216   -0.0008471780216450799
-0.0007044186650819648   -0.0014850235922018668   -0.0004260893949901863
-0.0015798956155890374   -0.0016109113337670487   -0.0004210814650068519
-0.0030244989290952027   -0.004611602140775096   -0.0007577058199371358
-0.000688263614999527   -0.0015035724521110841   -0.00037971541712220335
-0.0015785626441710378   -0.001620841265444965   -0.0003170566368041518
-0.0030244989290952027   -0.004611602140775096   -0.0007577058199371358
-0.0013739284270503696   -0.004490643220905493   -0.0007117672044321954
-0.000688263614999527   -0.0015035724521110841   -0.00037971541712220335
-0.0013572255202926816   -0.004490123605171296   -0.0006741024311859523
-0.0015785626441710378   -0.001620841265444965   -0.0003170566368041518
-0.0006734795325167405   -0.0014958765028534157   -0.0003318253605826337
-0.0013572255202926816   -0.004490123605171296   -0.0006741024311859523
-0.000688263614999527   -0.0015035724521110841   -0.00037971541712220335
-0.0015785626441710378   -0.001620841265444965   -0.0003170566368041518
-0.0013572255202926816   -0.004490123605171296   -0.0006741024311859523
-0.0030146836582182696   -0.004635918184435399   -0.000674003787673297
-0.0030244989290952027   -0.004611602140775096   -0.0007577058199371358
-0.0015785626441710378   -0.001620841265444965   -0.0003170566368041518
-0.0013572255202926816   -0.004490123605171296   -0.0006741024311859523
-0.0030244989290952027   -0.004611602140775096   -0.0007577058199371358
-0.000688263614999527   -0.0015035724521110841   -0.00037971541712220335
-0.0007328587323345559   -0.0014364076758937895   -0.00047375828942554897
-0.00139814679990394   -0.004418505979809091   -0.0008028777407332454
9.371079704784882e-05   -0.001444339226762886   -0.0003790421889015447
-0.0007044186650819648   -0.0014850235922018668   -0.0004260893949901863
-0.00139814679990394   -0.004418505979809091   -0.0008028777407332454
0.00015625137573072165   -0.004420635470127106   -0.0007161450548672499
9.371079704784882e-05   -0.001444339226762886   -0.0003790421889015447
0.00017185206793716347   -0.004443530254372834   -0.0007128438700137875
-0.0007044186650819648   -0.0014850235922018668   -0.0004260893949901863
0.00011207069924299206   -0.0014694770814255664   -0.00038550949814306475
0.00017185206793716347   -0.004443530254372834   -0.0007128438700137875
9.371079704784882e-05   -0.001444339226762886   -0.0003790421889015447
-0.0007044186650819648   -0.0014850235922018668   -0.0004260893949901863
0.00017185206793716347   -0.004443530254372834   -0.0007128438700137875
-0.0013853505972087662   -0.004467066297957314   -0.0007550722642928443
-0.00139814679990394   -0.004418505979809091   -0.0008028777407332454
-0.0007044186650819648   -0.0014850235922018668   -0.0004260893949901863
0.00017185206793716347   -0.004443530254372834   -0.0007128438700137875
-0.00139814679990394   -0.004418505979809091   -0.0008028777407332454
9.371079704784882e-05   -0.001444339226762886   -0.0003790421889015447
-0.0007044186650819648   -0.0014850235922018668   -0.0004260893949901863
-0.0013853505972087662   -0.004467066297957314   -0.0007550722642928443
0.00011207069924299206   -0.0014694770814255664   -0.00038550949814306475
-0.000688263614999527   -0.0015035724521110841   -0.00037971541712220335
-0.0013853505972087662   -0.004467066297957314   -0.0007550722642928443
0.00017185206793716347   -0.004443530254372834   -0.0007128438700137875
0.00011207069924299206   -0.0014694770814255664   -0.00038550949814306475
0.00018258207859946952   -0.004442024746682187   -0.0007146477909746973
-0.000688263614999527   -0.0015035724521110841   -0.00037971541712220335
0.00012662042144778274   -0.0014673405382052197   -0.00039139454857514943
0.00018258207859946952   -0.004442024746682187   -0.0007146477909746973
0.00011207069924299206   -0.0014694770814255664   -0.00038550949814306475
-0.000688263614999527   -0.0015035724521110841   -0.00037971541712220335
0.00018258207859946952   -0.004442024746682187   -0.0007146477909746973
-0.0013739284270503696   -0.004490643220905493   -0.0007117672044321954
-0.0013853505972087662   -0.004467066297957314   -0.0007550722642928443
-0.000688263614999527   -0.0015035724521110841   -0.00037971541712220335
0.00018258207859946952   -0.004442024746682187   -0.0007146477909746973
-0.0013853505972087662   -0.004467066297957314   -0.0007550722642928443
0.00011207069924299206   -0.0014694770814255664   -0.00038550949814306475
-0.000688263614999527   -0.0015035724521110841   -0.00037971541712220335
-0.0013739284270503696   -0.004490643220905493   -0.0007117672044321954
0.00012662042144778274   -0.0014673405382052197   -0.00039139454857514943
-0.0006734795325167405   -0.0014958765028534157   -0.0003318253605826337
-0.0013739284270503696   -0.004490643220905493   -0.0007117672044321954
0.00018258207859946952   -0.004442024746682187   -0.0007146477909746973
0.00012662042144778274   -0.0014673405382052197   -0.00039139454857514943
0.00019403909034944273   -0.004415377945850767   -0.0007216366157647644
-0.0006734795325167405   -0.0014958765028534157   -0.0003318253605826337
0.00014604915548680096   -0.0014357015237023182   -0.0003974952564106529
0.00019403909034944273   -0.004415377945850767   -0.0007216366157647644
0.00012662042144778274   -0.0014673405382052197   -0.00039139454857514943
-0.0006734795325167405   -0.0014958765028534157   -0.0003318253605826337
0.00019403909034944273   -0.004415377945850767   -0.0007216366157647644
-0.0013572255202926816   -0.004490123605171296   -0.0006741024311859523
-0.0013739284270503696   -0.004490643220905493   -0.0007117672044321954
-0.0006734795325167405   -0.0014958765028534157   -0.0003318253605826337
0.00019403909034944273   -0.004415377945850767   -0.0007216366157647644
-0.0013739284270503696   -0.004490643220905493   -0.0007117672044321954
0.00012662042144778274   -0.0014673405382052197   -0.00039139454857514943
9.371079704784882e-05   -0.001444339226762886   -0.0003790421889015447
0.00015625137573072165   -0.004420635470127106   -0.0007161450548672499
0.0009913187918664623   -0.0015141035774447543   -0.0003323780749544177
0.00011207069924299206   -0.0014694770814255664   -0.00038550949814306475
0.00015625137573072165   -0.004420635470127106   -0.0007161450548672499
0.001803885921635604   -0.004492347145028591   -0.0006759595581122472
0.0009913187918664623   -0.0015141035774447543   -0.0003323780749544177
0.0018131385408114683   -0.004491891829924838   -0.0007186007566919725
0.00011207069924299206   -0.0014694770814255664   -0.00038550949814306475
0.0009936263860795   -0.0015219947745749327   -0.0003958128512952133
0.0018131385408114683   -0.004491891829924838   -0.0007186007566919725
0.0009913187918664623   -0.0015141035774447543   -0.0003323780749544177
0.00011207069924299206   -0.0014694770814255664   -0.00038550949814306475
0.0018131385408114683   -0.004491891829924838   -0.0007186007566919725
0.00017185206793716347   -0.004443530254372834   -0.0007128438700137875
0.00015625137573072165   -0.004420635470127106   -0.0007161450548672499
0.00011207069924299206   -0.0014694770814255664   -0.00038550949814306475
0.0018131385408114683   -0.004491891829924838   -0.0007186007566919725
0.00015625137573072165   -0.004420635470127106   -0.0007161450548672499
0.0009913187918664623   -0.0015141035774447543   -0.0003323780749544177
0.00011207069924299206   -0.0014694770814255664   -0.00038550949814306475
0.00017185206793716347   -0.004443530254372834   -0.0007128438700137875
0.0009936263860795   -0.0015219947745749327   -0.0003958128512952133
0.00012662042144778274   -0.0014673405382052197   -0.00039139454857514943
0.00017185206793716347   -0.004443530254372834   -0.0007128438700137875
0.0018131385408114683   -0.004491891829924838   -0.0007186007566919725
0.0009936263860795   -0.0015219947745749327   -0.0003958128512952133
0.0018056000436345704   -0.004467532767174584   -0.0007670171972747986
0.00012662042144778274   -0.0014673405382052197   -0.00039139454857514943
0.0009898403806235818   -0.0015002651673193081   -0.0004567313341031756
0.0018056000436345704   -0.004467532767174584   -0.0007670171972747986
0.0009936263860795   -0.0015219947745749327   -0.0003958128512952133
0.00012662042144778274   -0.0014673405382052197   -0.00039139454857514943
0.0018056000436345704   -0.004467532767174584   -0.0007670171972747986
0.00018258207859946952   -0.004442024746682187   -0.0007146477909746973
0.00017185206793716347   -0.004443530254372834   -0.0007128438700137875
0.00012662042144778274   -0.0014673405382052197   -0.00039139454857514943
0.0018056000436345704   -0.004467532767174584   -0.0007670171972747986
0.00017185206793716347   -0.004443530254372834   -0.0007128438700137875
0.0009936263860795   -0.0015219947745749327   -0.0003958128512952133
0.00012662042144778274   -0.0014673405382052197   -0.00039139454857514943
0.00018258207859946952   -0.004442024746682187   -0.0007146477909746973
0.0009898403806235818   -0.0015002651673193081   -0.0004567313341031756
0.00014604915548680096   -0.0014357015237023182   -0.0003974952564106529
0.00018258207859946952   -0.004442024746682187   -0.0007146477909746973
0.0018056000436345704   -0.004467532767174584   -0.0007670171972747986
0.0009898403806235818   -0.0015002651673193081   -0.0004567313341031756
0.001801584693419177   -0.004412642683198948   -0.0008194146765001575
0.00014604915548680096   -0.0014357015237023182   -0.0003974952564106529
0.0010094617876915915   -0.00144231461777989   -0.0005165407122861109
0.001801584693419177   -0.004412642683198948   -0.0008194146765001575
0.0009898403806235818   -0.0015002651673193081   -0.0004567313341031756
0.00014604915548680096   -0.0014357015237023182   -0.0003974952564106529
0.001801584693419177   -0.004412642683198948   -0.0008194146765001575
0.00019403909034944273   -0.004415377945850767   -0.0007216366157647644
0.00018258207859946952   -0.004442024746682187   -0.0007146477909746973
0.00014604915548680096   -0.0014357015237023182   -0.0003974952564106529
0.001801584693419177   -0.004412642683198948   -0.0008194146765001575
0.00018258207859946952   -0.004442024746682187   -0.0007146477909746973
0.0009898403806235818   -0.0015002651673193081   -0.0004567313341031756
0.0009913187918664623   -0.0015141035774447543   -0.0003323780749544177
0.001803885921635604   -0.004492347145028591   -0.0006759595581122472
0.0022409246308037144   -0.0016911758143845353   -0.00031406662092584633
0.0009936263860795   -0.0015219947745749327   -0.0003958128512952133
0.001803885921635604   -0.004492347145028591   -0.0006759595581122472
0.003793201164306151   -0.004625492671393109   -0.0006657048282151328
0.0022409246308037144   -0.0016911758143845353   -0.00031406662092584633
0.0037172769989979224   -0.004612540026511001   -0.0007617501961256291
0.0009936263860795   -0.0015219947745749327   -0.0003958128512952133
0.0021052976024682393   -0.001672482401906416   -0.00045806637145826435
0.0037172769989979224   -0.004612540026511001   -0.0007617501961256291
0.0022409246308037144   -0.0016911758143845353   -0.00031406662092584633
0.0009936263860795   -0.0015219947745749327   -0.0003958128512952133
0.0037172769989979224   -0.004612540026511001   -0.0007617501961256291
0.0018131385408114683   -0.004491891829924838   -0.0007186007566919725
0.001803885921635604   -0.004492347145028591   -0.0006759595581122472
0.0009936263860795   -0.0015219947745749327   -0.0003958128512952133
0.0037172769989979224   -0.004612540026511001   -0.0007617501961256291
0.001803885921635604   -0.004492347145028591   -0.0006759595581122472
0.0022409246308037144   -0.0016911758143845353   -0.00031406662092584633
0.0009936263860795   -0.0015219947745749327   -0.0003958128512952133
0.0018131385408114683   -0.004491891829924838   -0.0007186007566919725
0.0021052976024682393   -0.001672482401906416   -0.00045806637145826435
0.0009898403806235818   -0.0015002651673193081   -0.0004567313341031756
0.0018131385408114683   -0.004491891829924838   -0.0007186007566919725
0.0037172769989979224   -0.004612540026511001   -0.0007617501961256291
0.0021052976024682393   -0.001672482401906416   -0.00045806637145826435
0.0036493184727919314   -0.004575033199842215   -0.0008699370310037129
0.0009898403806235818   -0.0015002651673193081   -0.0004567313341031756
0.002042966648725793   -0.0016377157247217267   -0.0005798875390154403
0.0036493184727919314   -0.004575033199842215   -0.0008699370310037129
0.0021052976024682393   -0.001672482401906416   -0.00045806637145826435
0.0009898403806235818   -0.0015002651673193081   -0.0004567313341031756
0.0036493184727919314   -0.004575033199842215   -0.0008699370310037129
0.0018056000436345704   -0.004467532767174584   -0.0007670171972747986
0.0018131385408114683   -0.004491891829924838   -0.0007186007566919725
0.0009898403806235818   -0.0015002651673193081   -0.0004567313341031756
0.0036493184727919314   -0.004575033199842215   -0.0008699370310037129
0.0018131385408114683   -0.004491891829924838   -0.0007186007566919725
0.0021052976024682393   -0.001672482401906416   -0.00045806637145826435
0.0009898403806235818   -0.0015002651673193081   -0.0004567313341031756
0.0018056000436345704   -0.004467532767174584   -0.0007670171972747986
0.002042966648725793   -0.0016377157247217267   -0.0005798875390154403
0.0010094617876915915   -0.00144231461777989   -0.0005165407122861109
0.0018056000436345704   -0.004467532767174584   -0.0007670171972747986
0.0036493184727919314   -0.004575033199842215   -0.0008699370310037129
0.002042966648725793   -0.0016377157247217267   -0.0005798875390154403
0.0035469544856089118   -0.004491862487200356   -0.0009826394206201529
0.0010094617876915915   -0.00144231461777989   -0.0005165407122861109
0.0019498452005632628   -0.0015489415480140613   -0.0007089133551914153
0.0035469544856089118   -0.004491862487200356   -0.0009826394206201529
0.002042966648725793   -0.0016377157247217267   -0.0005798875390154403
0.0010094617876915915   -0.00144231461777989   -0.0005165407122861109
0.0035469544856089118   -0.004491862487200356   -0.0009826394206201529
0.001801584693419177   -0.004412642683198948   -0.0008194146765001575
0.0018056000436345704   -0.004467532767174584   -0.0007670171972747986
0.0010094617876915915   -0.00144231461777989   -0.0005165407122861109
0.0035469544856089118   -0.004491862487200356   -0.0009826394206201529
0.0018056000436345704   -0.004467532767174584   -0.0007670171972747986
0.002042966648725793   -0.0016377157247217267   -0.0005798875390154403
-0.004717182652574518   -0.00463906751726473   -0.0011417977170616158
-0.006457230371150196   -0.00868724042887768   -0.001301224886591724
-0.0030105712731443883   -0.0044885494813340105   -0.0009403341884780559
-0.0048575544588189525   -0.004745761981856823   -0.000990635642558705
-0.006457230371150196   -0.00868724042887768   -0.001301224886591724
-0.004152227419721941   -0.008572422695232049   -0.0011382040278022395
-0.0030105712731443883   -0.0044885494813340105   -0.0009403341884780559
-0.004160445005870024   -0.008638238795669748   -0.0010660547901427601
-0.0048575544588189525   -0.004745761981856823   -0.000990635642558705
-0.003013406427058491   -0.00456495705549216   -0.0008471780216450799
-0.004160445005870024   -0.008638238795669748   -0.0010660547901427601
-0.0030105712731443883   -0.0044885494813340105   -0.0009403341884780559
-0.0048575544588189525   -0.004745761981856823   -0.000990635642558705
-0.004160445005870024   -0.008638238795669748   -0.0010660547901427601
-0.006570835551677011   -0.008777240001830569   -0.0011887772447208248
-0.006457230371150196   -0.00868724042887768   -0.001301224886591724
-0.0048575544588189525   -0.004745761981856823   -0.000990635642558705
-0.004160445005870024   -0.008638238795669748   -0.0010660547901427601
-0.006457230371150196   -0.00868724042887768   -0.001301224886591724
-0.0030105712731443883   -0.0044885494813340105   -0.0009403341884780559
-0.0048575544588189525   -0.004745761981856823   -0.000990635642558705
-0.006570835551677011   -0.008777240001830569   -0.0011887772447208248
-0.003013406427058491   -0.00456495705549216   -0.0008471780216450799
-0.004954779204614253   -0.00480608213846946   -0.0008426871504401699
-0.006570835551677011   -0.008777240001830569   -0.0011887772447208248
-0.004160445005870024   -0.008638238795669748   -0.0010660547901427601
-0.003013406427058491   -0.00456495705549216   -0.0008471780216450799
-0.004170229972973803   -0.008684115503129922   -0.00099915931104591
-0.004954779204614253   -0.00480608213846946   -0.0008426871504401699
-0.0030244989290952027   -0.004611602140775096   -0.0007577058199371358
-0.004170229972973803   -0.008684115503129922   -0.00099915931104591
-0.003013406427058491   -0.00456495705549216   -0.0008471780216450799
-0.004954779204614253   -0.00480608213846946   -0.0008426871504401699
-0.004170229972973803   -0.008684115503129922   -0.00099915931104591
-0.006642046919392927   -0.008833760202054577   -0.0010840277243276016
-0.006570835551677011   -0.008777240001830569   -0.0011887772447208248
-0.004954779204614253   -0.00480608213846946   -0.0008426871504401699
-0.004170229972973803   -0.008684115503129922   -0.00099915931104591
-0.006570835551677011   -0.008777240001830569   -0.0011887772447208248
-0.003013406427058491   -0.00456495705549216   -0.0008471780216450799
-0.004954779204614253   -0.00480608213846946   -0.0008426871504401699
-0.006642046919392927   -0.008833760202054577   -0.0010840277243276016
-0.0030244989290952027   -0.004611602140775096   -0.0007577058199371358
-0.005069661919225373   -0.004841352201116193   -0.0007081859155367751
-0.006642046919392927   -0.008833760202054577   -0.0010840277243276016
-0.004170229972973803   -0.008684115503129922   -0.00099915931104591
-0.0030244989290952027   -0.004611602140775096   -0.0007577058199371358
-0.004161475005476138   -0.008714412317946677   -0.000936396106841642
-0.005069661919225373   -0.004841352201116193   -0.0007081859155367751
-0.0030146836582182696   -0.004635918184435399   -0.000674003787673297
-0.004161475005476138   -0.008714412317946677   -0.000936396106841642
-0.0030244989290952027   -0.004611602140775096   -0.0007577058199371358
-0.005069661919225373   -0.004841352201116193   -0.0007081859155367751
-0.004161475005476138   -0.008714412317946677   -0.000936396106841642
-0.0067230703170891104   -0.008874593575948315   -0.000987697035096523
-0.006642046919392927   -0.008833760202054577   -0.0010840277243276016
-0.005069661919225373   -0.004841352201116193   -0.0007081859155367751
-0.004161475005476138   -0.008714412317946677   -0.000936396106841642
-0.006642046919392927   -0.008833760202054577   -0.0010840277243276016
-0.0030244989290952027   -0.004611602140775096   -0.0007577058199371358
-0.0030105712731443883   -0.0044885494813340105   -0.0009403341884780559
-0.004152227419721941   -0.008572422695232049   -0.0011382040278022395
-0.00139814679990394   -0.004418505979809091   -0.0008028777407332454
-0.003013406427058491   -0.00456495705549216   -0.0008471780216450799
-0.004152227419721941   -0.008572422695232049   -0.0011382040278022395
-0.001980182540090354   -0.008515097950911028   -0.0010249844080973695
-0.00139814679990394   -0.004418505979809091   -0.0008028777407332454
-0.001974344156373092   -0.008557114224874538   -0.0009841219667844029
-0.003013406427058491   -0.00456495705549216   -0.0008471780216450799
-0.0013853505972087662   -0.004467066297957314   -0.0007550722642928443
-0.001974344156373092   -0.008557114224874538   -0.0009841219667844029
-0.00139814679990394   -0.004418505979809091   -0.0008028777407332454
-0.003013406427058491   -0.00456495705549216   -0.0008471780216450799
-0.001974344156373092   -0.008557114224874538   -0.0009841219667844029
-0.004160445005870024   -0.008638238795669748   -0.0010660547901427601
-0.004152227419721941   -0.008572422695232049   -0.0011382040278022395
-0.003013406427058491   -0.00456495705549216   -0.0008471780216450799
-0.001974344156373092   -0.008557114224874538   -0.0009841219667844029
-0.004152227419721941   -0.008572422695232049   -0.0011382040278022395
-0.00139814679990394   -0.004418505979809091   -0.0008028777407332454
-0.003013406427058491   -0.00456495705549216   -0.0008471780216450799
-0.004160445005870024   -0.008638238795669748   -0.0010660547901427601
-0.0013853505972087662   -0.004467066297957314   -0.0007550722642928443
-0.0030244989290952027   -0.004611602140775096   -0.0007577058199371358
-0.004160445005870024   -0.008638238795669748   -0.0010660547901427601
-0.001974344156373092   -0.008557114224874538   -0.0009841219667844029
-0.0013853505972087662   -0.004467066297957314   -0.0007550722642928443
-0.001967395560905009   -0.008581823558555413   -0.0009482567866407984
-0.0030244989290952027   -0.004611602140775096   -0.0007577058199371358
-0.0013739284270503696   -0.004490643220905493   -0.0007117672044321954
-0.001967395560905009   -0.008581823558555413   -0.0009482567866407984
-0.0013853505972087662   -0.004467066297957314   -0.0007550722642928443
-0.0030244989290952027   -0.004611602140775096   -0.0007577058199371358
-0.001967395560905009   -0.008581823558555413   -0.0009482567866407984
-0.004170229972973803   -0.008684115503129922   -0.00099915931104591
-0.004160445005870024   -0.008638238795669748   -0.0010660547901427601
-0.0030244989290952027   -0.004611602140775096   -0.0007577058199371358
-0.001967395560905009   -0.008581823558555413   -0.0009482567866407984
-0.004160445005870024   -0.008638238795669748   -0.0010660547901427601
-0.0013853505972087662   -0.004467066297957314   -0.0007550722642928443
-0.0030244989290952027   -0.004611602140775096   -0.0007577058199371358
-0.004170229972973803   -0.008684115503129922   -0.00099915931104591
-0.0013739284270503696   -0.004490643220905493   -0.0007117672044321954
-0.0030146836582182696   -0.004635918184435399   -0.000674003787673297
-0.004170229972973803   -0.008684115503129922   -0.00099915931104591
-0.001967395560905009   -0.008581823558555413   -0.0009482567866407984
-0.0013739284270503696   -0.004490643220905493   -0.0007117672044321954
-0.001956522750015435   -0.00858957900538711   -0.000917376557340654
-0.0030146836582182696   -0.004635918184435399   -0.000674003787673297
-0.0013572255202926816   -0.004490123605171296   -0.0006741024311859523
-0.001956522750015435   -0.00858957900538711   -0.000917376557340654
-0.0013739284270503696   -0.004490643220905493   -0.0007117672044321954
-0.0030146836582182696   -0.004635918184435399   -0.000674003787673297
-0.001956522750015435   -0.00858957900538711   -0.000917376557340654
-0.004161475005476138   -0.008714412317946677   -0.000936396106841642
-0.004170229972973803   -0.008684115503129922   -0.00099915931104591
-0.0030146836582182696   -0.004635918184435399   -0.000674003787673297
-0.001956522750015435   -0.00858957900538711   -0.000917376557340654
-0.004170229972973803   -0.008684115503129922   -0.00099915931104591
-0.0013739284270503696   -0.004490643220905493   -0.0007117672044321954
-0.00139814679990394   -0.004418505979809091   -0.0008028777407332454
-0.001980182540090354   -0.008515097950911028   -0.0010249844080973695
0.00015625137573072165   -0.004420635470127106   -0.0007161450548672499
-0.0013853505972087662   -0.004467066297957314   -0.0007550722642928443
-0.001980182540090354   -0.008515097950911028   -0.0010249844080973695
0.00012769512927342195   -0.008512031639412247   -0.0009549705364117477
0.00015625137573072165   -0.004420635470127106   -0.0007161450548672499
0.0001377271809995267   -0.008530599145770867   -0.0009452329781819315
-0.0013853505972087662   -0.004467066297957314   -0.0007550722642928443
0.00017185206793716347   -0.004443530254372834   -0.0007128438700137875
0.0001377271809995267   -0.008530599145770867   -0.0009452329781819315
0.00015625137573072165   -0.004420635470127106   -0.0007161450548672499
-0.0013853505972087662   -0.004467066297957314   -0.0007550722642928443
0.0001377271809995267   -0.008530599145770867   -0.0009452329781819315
-0.001974344156373092   -0.008557114224874538   -0.0009841219667844029
-0.001980182540090354   -0.008515097950911028   -0.0010249844080973695
-0.0013853505972087662   -0.004467066297957314   -0.0007550722642928443
0.0001377271809995267   -0.008530599145770867   -0.0009452329781819315
-0.001980182540090354   -0.008515097950911028   -0.0010249844080973695
0.00015625137573072165   -0.004420635470127106   -0.0007161450548672499
-0.0013853505972087662   -0.004467066297957314   -0.0007550722642928443
-0.001974344156373092   -0.008557114224874538   -0.0009841219667844029
0.00017185206793716347   -0.004443530254372834   -0.0007128438700137875
-0.0013739284270503696   -0.004490643220905493   -0.0007117672044321954
-0.001974344156373092   -0.008557114224874538   -0.0009841219667844029
0.0001377271809995267   -0.008530599145770867   -0.0009452329781819315
0.00017185206793716347   -0.004443530254372834   -0.0007128438700137875
0.00014447215126343955   -0.00853192741039989   -0.000940365152437731
-0.0013739284270503696   -0.004490643220905493   -0.0007117672044321954
0.00018258207859946952   -0.004442024746682187   -0.0007146477909746973
0.00014447215126343955   -0.00853192741039989   -0.000940365152437731
0.00017185206793716347   -0.004443530254372834   -0.0007128438700137875
-0.0013739284270503696   -0.004490643220905493   -0.0007117672044321954
0.00014447215126343955   -0.00853192741039989   -0.000940365152437731
-0.001967395560905009   -0.008581823558555413   -0.0009482567866407984
-0.001974344156373092   -0.008557114224874538   -0.0009841219667844029
-0.0013739284270503696   -0.004490643220905493   -0.0007117672044321954
0.00014447215126343955   -0.00853192741039989   -0.000940365152437731
-0.001974344156373092   -0.008557114224874538   -0.0009841219667844029
0.00017185206793716347   -0.004443530254372834   -0.0007128438700137875
-0.0013739284270503696   -0.004490643220905493   -0.0007117672044321954
-0.001967395560905009   -0.008581823558555413   -0.0009482567866407984
0.00018258207859946952   -0.004442024746682187   -0.0007146477909746973
-0.0013572255202926816   -0.004490123605171296   -0.0006741024311859523
-0.001967395560905009   -0.008581823558555413   -0.0009482567866407984
0.00014447215126343955   -0.00853192741039989   -0.000940365152437731
0.00018258207859946952   -0.004442024746682187   -0.0007146477909746973
0.00014960435258311577   -0.008515760613765251   -0.0009406596303653525
-0.0013572255202926816   -0.004490123605171296   -0.0006741024311859523
0.00019403909034944273   -0.004415377945850767   -0.0007216366157647644
0.00014960435258311577   -0.008515760613765251   -0.0009406596303653525
0.00018258207859946952   -0.004442024746682187   -0.0007146477909746973
-0.0013572255202926816   -0.004490123605171296   -0.0006741024311859523
0.00014960435258311577   -0.008515760613765251   -0.0009406596303653525
-0.001956522750015435   -0.00858957900538711   -0.000917376557340654
-0.001967395560905009   -0.008581823558555413   -0.0009482567866407984
-0.0013572255202926816   -0.004490123605171296   -0.0006741024311859523
0.00014960435258311577   -0.008515760613765251   -0.0009406596303653525
-0.001967395560905009   -0.008581823558555413   -0.0009482567866407984
0.00018258207859946952   -0.004442024746682187   -0.0007146477909746973
0.00015625137573072165   -0.004420635470127106   -0.0007161450548672499
0.00012769512927342195   -0.008512031639412247   -0.0009549705364117477
0.001803885921635604   -0.004492347145028591   -0.0006759595581122472
0.00017185206793716347   -0.004443530254372834   -0.0007128438700137875
0.00012769512927342195   -0.008512031639412247   -0.0009549705364117477
0.002325788069462785   -0.0085599905656033   -0.0009269921440670962
0.001803885921635604   -0.004492347145028591   -0.0006759595581122472
0.0023347510523234094   -0.008557033910487115   -0.0009490186580325535
0.00017185206793716347   -0.004443530254372834   -0.0007128438700137875
0.0018131385408114683   -0.004491891829924838   -0.0007186007566919725
0.0023347510523234094   -0.008557033910487115   -0.0009490186580325535
0.001803885921635604   -0.004492347145028591   -0.0006759595581122472
0.00017185206793716347   -0.004443530254372834   -0.0007128438700137875
0.0023347510523234094   -0.008557033910487115   -0.0009490186580325535
0.0001377271809995267   -0.008530599145770867   -0.0009452329781819315
0.00012769512927342195   -0.008512031639412247   -0.0009549705364117477
0.00017185206793716347   -0.004443530254372834   -0.0007128438700137875
0.0023347510523234094   -0.008557033910487115   -0.0009490186580325535
0.00012769512927342195   -0.008512031639412247   -0.0009549705364117477
0.001803885921635604   -0.004492347145028591   -0.0006759595581122472
0.00017185206793716347   -0.004443530254372834   -0.0007128438700137875
0.0001377271809995267   -0.008530599145770867   -0.0009452329781819315
0.0018131385408114683   -0.004491891829924838   -0.0007186007566919725
0.00018258207859946952   -0.004442024746682187   -0.0007146477909746973
0.0001377271809995267   -0.008530599145770867   -0.0009452329781819315
0.0023347510523234094   -0.008557033910487115   -0.0009490186580325535
0.0018131385408114683   -0.004491891829924838   -0.0007186007566919725
0.0023298457084389317   -0.008537237931592511   -0.0009755570921130288
0.00018258207859946952   -0.004442024746682187   -0.0007146477909746973
0.0018056000436345704   -0.004467532767174584   -0.0007670171972747986
0.0023298457084389317   -0.008537237931592511   -0.0009755570921130288
0.0018131385408114683   -0.004491891829924838   -0.0007186007566919725
0.00018258207859946952   -0.004442024746682187   -0.0007146477909746973
0.0023298457084389317   -0.008537237931592511   -0.0009755570921130288
0.00014447215126343955   -0.00853192741039989   -0.000940365152437731
0.0001377271809995267   -0.008530599145770867   -0.0009452329781819315
0.00018258207859946952   -0.004442024746682187   -0.0007146477909746973
0.0023298457084389317   -0.008537237931592511   -0.0009755570921130288
0.0001377271809995267   -0.008530599145770867   -0.0009452329781819315
0.0018131385408114683   -0.004491891829924838   -0.0007186007566919725
0.00018258207859946952   -0.004442024746682187   -0.0007146477909746973
0.00014447215126343955   -0.00853192741039989   -0.000940365152437731
0.0018056000436345704   -0.004467532767174584   -0.0007670171972747986
0.00019403909034944273   -0.004415377945850767   -0.0007216366157647644
0.00014447215126343955   -0.00853192741039989   -0.000940365152437731
0.0023298457084389317   -0.008537237931592511   -0.0009755570921130288
0.0018056000436345704   -0.004467532767174584   -0.0007670171972747986
0.002321932394182359   -0.008496399351898446   -0.0010071447187569597
0.00019403909034944273   -0.004415377945850767   -0.0007216366157647644
0.001801584693419177   -0.004412642683198948   -0.0008194146765001575
0.002321932394182359   -0.008496399351898446   -0.0010071447187569597
0.0018056000436345704   -0.004467532767174584   -0.0007670171972747986
0.00019403909034944273   -0.004415377945850767   -0.0007216366157647644
0.002321932394182359   -0.008496399351898446   -0.0010071447187569597
0.00014960435258311577   -0.008515760613765251   -0.0009406596303653525
0.00014447215126343955   -0.00853192741039989   -0.000940365152437731
0.00019403909034944273   -0.004415377945850767   -0.0007216366157647644
0.002321932394182359   -0.008496399351898446   -0.0010071447187569597
0.00014447215126343955   -0.00853192741039989   -0.000940365152437731
0.0018056000436345704   -0.004467532767174584   -0.0007670171972747986
0.001803885921635604   -0.004492347145028591   -0.0006759595581122472
0.002325788069462785   -0.0085599905656033   -0.0009269921440670962
0.003793201164306151   -0.004625492671393109   -0.0006657048282151328
0.0018131385408114683   -0.004491891829924838   -0.0007186007566919725
0.002325788069462785   -0.0085599905656033   -0.0009269921440670962
0.004829609772668604   -0.008646777769289734   -0.0009282853443085178
0.003793201164306151   -0.004625492671393109   -0.0006657048282151328
0.004789081636938713   -0.008631369605214306   -0.000986065676433347
0.0018131385408114683   -0.004491891829924838   -0.0007186007566919725
0.0037172769989979224   -0.004612540026511001   -0.0007617501961256291
0.004789081636938713   -0.008631369605214306   -0.000986065676433347
0.003793201164306151   -0.004625492671393109   -0.0006657048282151328
0.0018131385408114683   -0.004491891829924838   -0.0007186007566919725
0.004789081636938713   -0.008631369605214306   -0.000986065676433347
0.0023347510523234094   -0.008557033910487115   -0.0009490186580325535
0.002325788069462785   -0.0085599905656033   -0.0009269921440670962
0.0018131385408114683   -0.004491891829924838   -0.0007186007566919725
0.004789081636938713   -0.008631369605214306   -0.000986065676433347
0.002325788069462785   -0.0085599905656033   -0.0009269921440670962
0.003793201164306151   -0.004625492671393109   -0.0006657048282151328
0.0018131385408114683   -0.004491891829924838   -0.0007186007566919725
0.0023347510523234094   -0.008557033910487115   -0.0009490186580325535
0.0037172769989979224   -0.004612540026511001   -0.0007617501961256291
0.0018056000436345704   -0.004467532767174584   -0.0007670171972747986
0.0023347510523234094   -0.008557033910487115   -0.0009490186580325535
0.004789081636938713   -0.008631369605214306   -0.000986065676433347
0.0037172769989979224   -0.004612540026511001   -0.0007617501961256291
0.004748417185480643   -0.008600950013918284   -0.0010519829095219219
0.0018056000436345704   -0.004467532767174584   -0.0007670171972747986
0.0036493184727919314   -0.004575033199842215   -0.0008699370310037129
0.004748417185480643   -0.008600950013918284   -0.0010519829095219219
0.0037172769989979224   -0.004612540026511001   -0.0007617501961256291
0.0018056000436345704   -0.004467532767174584   -0.0007670171972747986
0.004748417185480643   -0.008600950013918284   -0.0010519829095219219
0.0023298457084389317   -0.008537237931592511   -0.0009755570921130288
0.0023347510523234094   -0.008557033910487115   -0.0009490186580325535
0.0018056000436345704   -0.004467532767174584   -0.0007670171972747986
0.004748417185480643   -0.008600950013918284   -0.0010519829095219219
0.0023347510523234094   -0.008557033910487115   -0.0009490186580325535
0.0037172769989979224   -0.004612540026511001   -0.0007617501961256291
0.0018056000436345704   -0.004467532767174584   -0.0007670171972747986
0.0023298457084389317   -0.008537237931592511   -0.0009755570921130288
0.0036493184727919314   -0.004575033199842215   -0.0008699370310037129
0.001801584693419177   -0.004412642683198948   -0.0008194146765001575
0.0023298457084389317   -0.008537237931592511   -0.0009755570921130288
0.004748417185480643   -0.008600950013918284   -0.0010519829095219219
0.0036493184727919314   -0.004575033199842215   -0.0008699370310037129
0.004675213921951618   -0.008537462522678141   -0.0011260460596692438
0.001801584693419177   -0.004412642683198948   -0.0008194146765001575
0.0035469544856089118   -0.004491862487200356   -0.0009826394206201529
0.004675213921951618   -0.008537462522678141   -0.0011260460596692438
0.0036493184727919314   -0.004575033199842215   -0.0008699370310037129
0.001801584693419177   -0.004412642683198948   -0.0008194146765001575
0.004675213921951618   -0.008537462522678141   -0.0011260460596692438
0.002321932394182359   -0.008496399351898446   -0.0010071447187569597
0.0023298457084389317   -0.008537237931592511   -0.0009755570921130288
0.001801584693419177   -0.004412642683198948   -0.0008194146765001575
0.004675213921951618   -0.008537462522678141   -0.0011260460596692438
0.0023298457084389317   -0.008537237931592511   -0.0009755570921130288
0.0036493184727919314   -0.004575033199842215   -0.0008699370310037129
-0.006457230371150196   -0.00868724042887768   -0.001301224886591724
-0.007704459026254333   -0.013479873608595766   -0.0013887191532999234
-0.004152227419721941   -0.008572422695232049   -0.0011382040278022395
-0.006570835551677011   -0.008777240001830569   -0.0011887772447208248
-0.007704459026254333   -0.013479873608595766   -0.0013887191532999234
-0.005002711362830047   -0.013407017265548014   -0.0012561431230693077
-0.004152227419721941   -0.008572422695232049   -0.0011382040278022395
-0.005007808540633347   -0.013463497713608703   -0.001204599687236567
-0.006570835551677011   -0.008777240001830569   -0.0011887772447208248
-0.004160445005870024   -0.008638238795669748   -0.0010660547901427601
-0.005007808540633347   -0.013463497713608703   -0.001204599687236567
-0.004152227419721941   -0.008572422695232049   -0.0011382040278022395
-0.006570835551677011   -0.008777240001830569   -0.0011887772447208248
-0.005007808540633347   -0.013463497713608703   -0.001204599687236567
-0.007780461533518564   -0.013556329938172025   -0.0013142899126265353
-0.007704459026254333   -0.013479873608595766   -0.0013887191532999234
-0.006570835551677011   -0.008777240001830569   -0.0011887772447208248
-0.005007808540633347   -0.013463497713608703   -0.001204599687236567
-0.007704459026254333   -0.013479873608595766   -0.0013887191532999234
-0.004152227419721941   -0.008572422695232049   -0.0011382040278022395
-0.006570835551677011   -0.008777240001830569   -0.0011887772447208248
-0.007780461533518564   -0.013556329938172025   -0.0013142899126265353
-0.004160445005870024   -0.008638238795669748   -0.0010660547901427601
-0.006642046919392927   -0.008833760202054577   -0.0010840277243276016
-0.007780461533518564   -0.013556329938172025   -0.0013142899126265353
-0.005007808540633347   -0.013463497713608703   -0.001204599687236567
-0.004160445005870024   -0.008638238795669748   -0.0010660547901427601
-0.005011150681362431   -0.013508354400806192   -0.001158208772277606
-0.006642046919392927   -0.008833760202054577   -0.0010840277243276016
-0.004170229972973803   -0.008684115503129922   -0.00099915931104591
-0.005011150681362431   -0.013508354400806192   -0.001158208772277606
-0.004160445005870024   -0.008638238795669748   -0.0010660547901427601
-0.006642046919392927   -0.008833760202054577   -0.0010840277243276016
-0.005011150681362431   -0.013508354400806192   -0.001158208772277606
-0.007823616647376321   -0.013610520107297613   -0.001247042097417973
-0.007780461533518564   -0.013556329938172025   -0.0013142899126265353
-0.006642046919392927   -0.008833760202054577   -0.0010840277243276016
-0.005011150681362431   -0.013508354400806192   -0.001158208772277606
-0.007780461533518564   -0.013556329938172025   -0.0013142899126265353
-0.004160445005870024   -0.008638238795669748   -0.0010660547901427601
-0.006642046919392927   -0.008833760202054577   -0.0010840277243276016
-0.007823616647376321   -0.013610520107297613   -0.001247042097417973
-0.004170229972973803   -0.008684115503129922   -0.00099915931104591
-0.0067230703170891104   -0.008874593575948315   -0.000987697035096523
-0.007823616647376321   -0.013610520107297613   -0.001247042097417973
-0.005011150681362431   -0.013508354400806192   -0.001158208772277606
-0.004170229972973803   -0.008684115503129922   -0.00099915931104591
-0.0049998510814741005   -0.013545315971498034   -0.0011162796255308688
-0.0067230703170891104   -0.008874593575948315   -0.000987697035096523
-0.004161475005476138   -0.008714412317946677   -0.000936396106841642
-0.0049998510814741005   -0.013545315971498034   -0.0011162796255308688
-0.004170229972973803   -0.008684115503129922   -0.00099915931104591
-0.0067230703170891104   -0.008874593575948315   -0.000987697035096523
-0.0049998510814741005   -0.013545315971498034   -0.0011162796255308688
-0.007867992087709911   -0.013659258639929082   -0.0011878346877079642
-0.007823616647376321   -0.013610520107297613   -0.001247042097417973
-0.0067230703170891104   -0.008874593575948315   -0.000987697035096523
-0.0049998510814741005   -0.013545315971498034   -0.0011162796255308688
-0.007823616647376321   -0.013610520107297613   -0.001247042097417973
-0.004170229972973803   -0.008684115503129922   -0.00099915931104591
-0.004152227419721941   -0.008572422695232049   -0.0011382040278022395
-0.005002711362830047   -0.013407017265548014   -0.0012561431230693077
-0.001980182540090354   -0.008515097950911028   -0.0010249844080973695
-0.004160445005870024   -0.008638238795669748   -0.0010660547901427601
-0.005002711362830047   -0.013407017265548014   -0.0012561431230693077
-0.0024706652182173916   -0.013369226924157065   -0.0011643711120625634
-0.001980182540090354   -0.008515097950911028   -0.0010249844080973695
-0.002465077157359736   -0.013404600272274138   -0.001130234564515301
-0.004160445005870024   -0.008638238795669748   -0.0010660547901427601
-0.001974344156373092   -0.008557114224874538   -0.0009841219667844029
-0.002465077157359736   -0.013404600272274138   -0.001130234564515301
-0.001980182540090354   -0.008515097950911028   -0.0010249844080973695
-0.004160445005870024   -0.008638238795669748   -0.0010660547901427601
-0.002465077157359736   -0.013404600272274138   -0.001130234564515301
-0.005007808540633347   -0.013463497713608703   -0.001204599687236567
-0.005002711362830047   -0.013407017265548014   -0.0012561431230693077
-0.004160445005870024   -0.008638238795669748   -0.0010660547901427601
-0.002465077157359736   -0.013404600272274138   -0.001130234564515301
-0.005002711362830047   -0.013407017265548014   -0.0012561431230693077
-0.001980182540090354   -0.008515097950911028   -0.0010249844080973695
-0.004160445005870024   -0.008638238795669748   -0.0010660547901427601
-0.005007808540633347   -0.013463497713608703   -0.001204599687236567
-0.001974344156373092   -0.008557114224874538   -0.0009841219667844029
-0.004170229972973803   -0.008684115503129922   -0.00099915931104591
-0.005007808540633347   -0.013463497713608703   -0.001204599687236567
-0.002465077157359736   -0.013404600272274138   -0.001130234564515301
-0.001974344156373092   -0.008557114224874538   -0.0009841219667844029
-0.002457783136852722   -0.013430224728930835   -0.0011011684285554331
-0.004170229972973803   -0.008684115503129922   -0.00099915931104591
-0.001967395560905009   -0.008581823558555413   -0.0009482567866407984
-0.002457783136852722   -0.013430224728930835   -0.0011011684285554331
-0.001974344156373092   -0.008557114224874538   -0.0009841219667844029
-0.004170229972973803   -0.008684115503129922   -0.00099915931104591
-0.002457783136852722   -0.013430224728930835   -0.0011011684285554331
-0.005011150681362431   -0.013508354400806192   -0.001158208772277606
-0.005007808540633347   -0.013463497713608703   -0.001204599687236567
-0.004170229972973803   -0.008684115503129922   -0.00099915931104591
-0.002457783136852722   -0.013430224728930835   -0.0011011684285554331
-0.005007808540633347   -0.013463497713608703   -0.001204599687236567
-0.001974344156373092   -0.008557114224874538   -0.0009841219667844029
-0.004170229972973803   -0.008684115503129922   -0.00099915931104591
-0.005011150681362431   -0.013508354400806192   -0.001158208772277606
-0.001967395560905009   -0.008581823558555413   -0.0009482567866407984
-0.004161475005476138   -0.008714412317946677   -0.000936396106841642
-0.005011150681362431   -0.013508354400806192   -0.001158208772277606
-0.002457783136852722   -0.013430224728930835   -0.0011011684285554331
-0.001967395560905009   -0.008581823558555413   -0.0009482567866407984
-0.002447328416409214   -0.013446269243266452   -0.0010772601100442862
-0.004161475005476138   -0.008714412317946677   -0.000936396106841642
-0.001956522750015435   -0.00858957900538711   -0.000917376557340654
-0.002447328416409214   -0.013446269243266452   -0.0010772601100442862
-0.001967395560905009   -0.008581823558555413   -0.0009482567866407984
-0.004161475005476138   -0.008714412317946677   -0.000936396106841642
-0.002447328416409214   -0.013446269243266452   -0.0010772601100442862
-0.0049998510814741005   -0.013545315971498034   -0.0011162796255308688
-0.005011150681362431   -0.013508354400806192   -0.001158208772277606
-0.004161475005476138   -0.008714412317946677   -0.000936396106841642
-0.002447328416409214   -0.013446269243266452   -0.0010772601100442862
-0.005011150681362431   -0.013508354400806192   -0.001158208772277606
-0.001967395560905009   -0.008581823558555413   -0.0009482567866407984
-0.001980182540090354   -0.008515097950911028   -0.0010249844080973695
-0.0024706652182173916   -0.013369226924157065   -0.0011643711120625634
0.00012769512927342195   -0.008512031639412247   -0.0009549705364117477
-0.001974344156373092   -0.008557114224874538   -0.0009841219667844029
-0.0024706652182173916   -0.013369226924157065   -0.0011643711120625634
-7.599355560996794e-06   -0.0133626438610796   -0.0011111183267895376
0.00012769512927342195   -0.008512031639412247   -0.0009549705364117477
2.155466504212763e-06   -0.01337676820302711   -0.0010945349892872987
-0.001974344156373092   -0.008557114224874538   -0.0009841219667844029
0.0001377271809995267   -0.008530599145770867   -0.0009452329781819315
2.155466504212763e-06   -0.01337676820302711   -0.0010945349892872987
0.00012769512927342195   -0.008512031639412247   -0.0009549705364117477
-0.001974344156373092   -0.008557114224874538   -0.0009841219667844029
2.155466504212763e-06   -0.01337676820302711   -0.0010945349892872987
-0.002465077157359736   -0.013404600272274138   -0.001130234564515301
-0.0024706652182173916   -0.013369226924157065   -0.0011643711120625634
-0.001974344156373092   -0.008557114224874538   -0.0009841219667844029
2.155466504212763e-06   -0.01337676820302711   -0.0010945349892872987
-0.0024706652182173916   -0.013369226924157065   -0.0011643711120625634
0.00012769512927342195   -0.008512031639412247   -0.0009549705364117477
-0.001974344156373092   -0.008557114224874538   -0.0009841219667844029
-0.002465077157359736   -0.013404600272274138   -0.001130234564515301
0.0001377271809995267   -0.008530599145770867   -0.0009452329781819315
-0.001967395560905009   -0.008581823558555413   -0.0009482567866407984
-0.002465077157359736   -0.013404600272274138   -0.001130234564515301
2.155466504212763e-06   -0.01337676820302711   -0.0010945349892872987
0.0001377271809995267   -0.008530599145770867   -0.0009452329781819315
9.355332139310798e-06   -0.013381075292336987   -0.0010829610442910378
-0.001967395560905009   -0.008581823558555413   -0.0009482567866407984
0.00014447215126343955   -0.00853192741039989   -0.000940365152437731
9.355332139310798e-06   -0.013381075292336987   -0.0010829610442910378
0.0001377271809995267   -0.008530599145770867   -0.0009452329781819315
-0.001967395560905009   -0.008581823558555413   -0.0009482567866407984
9.355332139310798e-06   -0.013381075292336987   -0.0010829610442910378
-0.002457783136852722   -0.013430224728930835   -0.0011011684285554331
-0.002465077157359736   -0.013404600272274138   -0.001130234564515301
-0.001967395560905009   -0.008581823558555413   -0.0009482567866407984
9.355332139310798e-06   -0.013381075292336987   -0.0010829610442910378
-0.002465077157359736   -0.013404600272274138   -0.001130234564515301
0.0001377271809995267   -0.008530599145770867   -0.0009452329781819315
-0.001967395560905009   -0.008581823558555413   -0.0009482567866407984
-0.002457783136852722   -0.013430224728930835   -0.0011011684285554331
0.00014447215126343955   -0.00853192741039989   -0.000940365152437731
-0.001956522750015435   -0.00858957900538711   -0.000917376557340654
-0.002457783136852722   -0.013430224728930835   -0.0011011684285554331
9.355332139310798e-06   -0.013381075292336987   -0.0010829610442910378
0.00014447215126343955   -0.00853192741039989   -0.000940365152437731
1.4268551878997889e-05   -0.013375429741927194   -0.001076615428311503
-0.001956522750015435   -0.00858957900538711   -0.000917376557340654
0.00014960435258311577   -0.008515760613765251   -0.0009406596303653525
1.4268551878997889e-05   -0.013375429741927194   -0.001076615428311503
0.00014447215126343955   -0.00853192741039989   -0.000940365152437731
-0.001956522750015435   -0.00858957900538711   -0.000917376557340654
1.4268551878997889e-05   -0.013375429741927194   -0.001076615428311503
-0.002447328416409214   -0.013446269243266452   -0.0010772601100442862
-0.002457783136852722   -0.013430224728930835   -0.0011011684285554331
-0.001956522750015435   -0.00858957900538711   -0.000917376557340654
1.4268551878997889e-05   -0.013375429741927194   -0.001076615428311503
-0.002457783136852722   -0.013430224728930835   -0.0011011684285554331
0.00014447215126343955   -0.00853192741039989   -0.000940365152437731
0.00012769512927342195   -0.008512031639412247   -0.0009549705364117477
-7.599355560996794e-06   -0.0133626438610796   -0.0011111183267895376
0.002325788069462785   -0.0085599905656033   -0.0009269921440670962
0.0001377271809995267   -0.008530599145770867   -0.0009452329781819315
-7.599355560996794e-06   -0.0133626438610796   -0.0011111183267895376
0.0025402189300218966   -0.013384579683816589   -0.0010962037503622804
0.002325788069462785   -0.0085599905656033   -0.0009269921440670962
0.002552026854941711   -0.01337866194289313   -0.0010975364205742409
0.0001377271809995267   -0.008530599145770867   -0.0009452329781819315
0.0023347510523234094   -0.008557033910487115   -0.0009490186580325535
0.002552026854941711   -0.01337866194289313   -0.0010975364205742409
0.002325788069462785   -0.0085599905656033   -0.0009269921440670962
0.0001377271809995267   -0.008530599145770867   -0.0009452329781819315
0.002552026854941711   -0.01337866194289313   -0.0010975364205742409
2.155466504212763e-06   -0.01337676820302711   -0.0010945349892872987
-7.599355560996794e-06   -0.0133626438610796   -0.0011111183267895376
0.0001377271809995267   -0.008530599145770867   -0.0009452329781819315
0.002552026854941711   -0.01337866194289313   -0.0010975364205742409
-7.599355560996794e-06   -0.0133626438610796   -0.0011111183267895376
0.002325788069462785   -0.0085599905656033   -0.0009269921440670962
0.0001377271809995267   -0.008530599145770867   -0.0009452329781819315
2.155466504212763e-06   -0.01337676820302711   -0.0010945349892872987
0.0023347510523234094   -0.008557033910487115   -0.0009490186580325535
0.00014447215126343955   -0.00853192741039989   -0.000940365152437731
2.155466504212763e-06   -0.01337676820302711   -0.0010945349892872987
0.002552026854941711   -0.01337866194289313   -0.0010975364205742409
0.0023347510523234094   -0.008557033910487115   -0.0009490186580325535
0.002553900630793794   -0.013363713423416777   -0.0011036063921826356
0.00014447215126343955   -0.00853192741039989   -0.000940365152437731
0.0023298457084389317   -0.008537237931592511   -0.0009755570921130288
0.002553900630793794   -0.013363713423416777   -0.0011036063921826356
0.0023347510523234094   -0.008557033910487115   -0.0009490186580325535
0.00014447215126343955   -0.00853192741039989   -0.000940365152437731
0.002553900630793794   -0.013363713423416777   -0.0011036063921826356
9.355332139310798e-06   -0.013381075292336987   -0.0010829610442910378
2.155466504212763e-06   -0.01337676820302711   -0.0010945349892872987
0.00014447215126343955   -0.00853192741039989   -0.000940365152437731
0.002553900630793794   -0.013363713423416777   -0.0011036063921826356
2.155466504212763e-06   -0.01337676820302711   -0.0010945349892872987
0.0023347510523234094   -0.008557033910487115   -0.0009490186580325535
0.00014447215126343955   -0.00853192741039989   -0.000940365152437731
9.355332139310798e-06   -0.013381075292336987   -0.0010829610442910378
0.0023298457084389317   -0.008537237931592511   -0.0009755570921130288
0.00014960435258311577   -0.008515760613765251   -0.0009406596303653525
9.355332139310798e-06   -0.013381075292336987   -0.0010829610442910378
0.002553900630793794   -0.013363713423416777   -0.0011036063921826356
0.0023298457084389317   -0.008537237931592511   -0.0009755570921130288
0.002549323980108726   -0.013336026868437108   -0.0011145972813775065
0.00014960435258311577   -0.008515760613765251   -0.0009406596303653525
0.002321932394182359   -0.008496399351898446   -0.0010071447187569597
0.002549323980108726   -0.013336026868437108   -0.0011145972813775065
0.0023298457084389317   -0.008537237931592511   -0.0009755570921130288
0.00014960435258311577   -0.008515760613765251   -0.0009406596303653525
0.002549323980108726   -0.013336026868437108   -0.0011145972813775065
1.4268551878997889e-05   -0.013375429741927194   -0.001076615428311503
9.355332139310798e-06   -0.013381075292336987   -0.0010829610442910378
0.00014960435258311577   -0.008515760613765251   -0.0009406596303653525
0.002549323980108726   -0.013336026868437108   -0.0011145972813775065
9.355332139310798e-06   -0.013381075292336987   -0.0010829610442910378
0.0023298457084389317   -0.008537237931592511   -0.0009755570921130288
0.002325788069462785   -0.0085599905656033   -0.0009269921440670962
0.0025402189300218966   -0.013384579683816589   -0.0010962037503622804
0.004829609772668604   -0.008646777769289734   -0.0009282853443085178
0.0023347510523234094   -0.008557033910487115   -0.0009490186580325535
0.0025402189300218966   -0.013384579683816589   -0.0010962037503622804
0.005353542024224817   -0.013424730090628419   -0.001111420241031078
0.004829609772668604   -0.008646777769289734   -0.0009282853443085178
0.00535016861080459   -0.013405201668636537   -0.0011319784485414538
0.0023347510523234094   -0.008557033910487115   -0.0009490186580325535
0.004789081636938713   -0.008631369605214306   -0.000986065676433347
0.00535016861080459   -0.013405201668636537   -0.0011319784485414538
0.004829609772668604   -0.008646777769289734   -0.0009282853443085178
0.0023347510523234094   -0.008557033910487115   -0.0009490186580325535
0.00535016861080459   -0.013405201668636537   -0.0011319784485414538
0.002552026854941711   -0.01337866194289313   -0.0010975364205742409
0.0025402189300218966   -0.013384579683816589   -0.0010962037503622804
0.0023347510523234094   -0.008557033910487115   -0.0009490186580325535
0.00535016861080459   -0.013405201668636537   -0.0011319784485414538
0.0025402189300218966   -0.013384579683816589   -0.0010962037503622804
0.004829609772668604   -0.008646777769289734   -0.0009282853443085178
0.0023347510523234094   -0.008557033910487115   -0.0009490186580325535
0.002552026854941711   -0.01337866194289313   -0.0010975364205742409
0.004789081636938713   -0.008631369605214306   -0.000986065676433347
0.0023298457084389317   -0.008537237931592511   -0.0009755570921130288
0.002552026854941711   -0.01337866194289313   -0.0010975364205742409
0.00535016861080459   -0.013405201668636537   -0.0011319784485414538
0.004789081636938713   -0.008631369605214306   -0.000986065676433347
0.005338151100504805   -0.013380888625062344   -0.0011602291723978011
0.0023298457084389317   -0.008537237931592511   -0.0009755570921130288
0.004748417185480643   -0.008600950013918284   -0.0010519829095219219
0.005338151100504805   -0.013380888625062344   -0.0011602291723978011
0.004789081636938713   -0.008631369605214306   -0.000986065676433347
0.0023298457084389317   -0.008537237931592511   -0.0009755570921130288
0.005338151100504805   -0.013380888625062344   -0.0011602291723978011
0.002553900630793794   -0.013363713423416777   -0.0011036063921826356
0.002552026854941711   -0.01337866194289313   -0.0010975364205742409
0.0023298457084389317   -0.008537237931592511   -0.0009755570921130288
0.005338151100504805   -0.013380888625062344   -0.0011602291723978011
0.002552026854941711   -0.01337866194289313   -0.0010975364205742409
0.004789081636938713   -0.008631369605214306   -0.000986065676433347
0.0023298457084389317   -0.008537237931592511   -0.0009755570921130288
0.002553900630793794   -0.013363713423416777   -0.0011036063921826356
0.004748417185480643   -0.008600950013918284   -0.0010519829095219219
0.002321932394182359   -0.008496399351898446   -0.0010071447187569597
0.002553900630793794   -0.013363713423416777   -0.0011036063921826356
0.005338151100504805   -0.013380888625062344   -0.0011602291723978011
0.004748417185480643   -0.008600950013918284   -0.0010519829095219219
0.005303086608327719   -0.013334853177041611   -0.0011961164934896757
0.002321932394182359   -0.008496399351898446   -0.0010071447187569597
0.004675213921951618   -0.008537462522678141   -0.0011260460596692438
0.005303086608327719   -0.013334853177041611   -0.0011961164934896757
0.004748417185480643   -0.008600950013918284   -0.0010519829095219219
0.002321932394182359   -0.008496399351898446   -0.0010071447187569597
0.005303086608327719   -0.013334853177041611   -0.0011961164934896757
0.002549323980108726   -0.013336026868437108   -0.0011145972813775065
0.002553900630793794   -0.013363713423416777   -0.0011036063921826356
0.002321932394182359   -0.008496399351898446   -0.0010071447187569597
0.005303086608327719   -0.013334853177041611   -0.0011961164934896757
0.002553900630793794   -0.013363713423416777   -0.0011036063921826356
0.004748417185480643   -0.008600950013918284   -0.0010519829095219219
-0.007704459026254333   -0.013479873608595766   -0.0013887191532999234
-0.008456579094800689   -0.018689558140832327   -0.001415247244210224
-0.005002711362830047   -0.013407017265548014   -0.0012561431230693077
-0.007780461533518564   -0.013556329938172025   -0.0013142899126265353
-0.008456579094800689   -0.018689558140832327   -0.001415247244210224
-0.005559772191759857   -0.018660045604231183   -0.0013099461987452704
-0.005002711362830047   -0.013407017265548014   -0.0012561431230693077
-0.005556771099726509   -0.018708097510683776   -0.001278401412171605
-0.007780461533518564   -0.013556329938172025   -0.0013142899126265353
-0.005007808540633347   -0.013463497713608703   -0.001204599687236567
-0.005556771099726509   -0.018708097510683776   -0.001278401412171605
-0.005002711362830047   -0.013407017265548014   -0.0012561431230693077
-0.007780461533518564   -0.013556329938172025   -0.0013142899126265353
-0.005556771099726509   -0.018708097510683776   -0.001278401412171605
-0.008491502458271313   -0.01875419531843136   -0.0013770835528431806
-0.008456579094800689   -0.018689558140832327   -0.001415247244210224
-0.007780461533518564   -0.013556329938172025   -0.0013142899126265353
-0.005556771099726509   -0.018708097510683776   -0.001278401412171605
-0.008456579094800689   -0.018689558140832327   -0.001415247244210224
-0.005002711362830047   -0.013407017265548014   -0.0012561431230693077
-0.007780461533518564   -0.013556329938172025   -0.0013142899126265353
-0.008491502458271313   -0.01875419531843136   -0.0013770835528431806
-0.005007808540633347   -0.013463497713608703   -0.001204599687236567
-0.007823616647376321   -0.013610520107297613   -0.001247042097417973
-0.008491502458271313   -0.01875419531843136   -0.0013770835528431806
-0.005556771099726509   -0.018708097510683776   -0.001278401412171605
-0.005007808540633347   -0.013463497713608703   -0.001204599687236567
-0.005548525933435539   -0.018752519565528755   -0.0012520974742514404
-0.007823616647376321   -0.013610520107297613   -0.001247042097417973
-0.005011150681362431   -0.013508354400806192   -0.001158208772277606
-0.005548525933435539   -0.018752519565528755   -0.0012520974742514404
-0.005007808540633347   -0.013463497713608703   -0.001204599687236567
-0.007823616647376321   -0.013610520107297613   -0.001247042097417973
-0.005548525933435539   -0.018752519565528755   -0.0012520974742514404
-0.008501975395115336   -0.018807029285904768   -0.001346460316241585
-0.008491502458271313   -0.01875419531843136   -0.0013770835528431806
-0.007823616647376321   -0.013610520107297613   -0.001247042097417973
-0.005548525933435539   -0.018752519565528755   -0.0012520974742514404
-0.008491502458271313   -0.01875419531843136   -0.0013770835528431806
-0.005007808540633347   -0.013463497713608703   -0.001204599687236567
-0.007823616647376321   -0.013610520107297613   -0.001247042097417973
-0.008501975395115336   -0.018807029285904768   -0.001346460316241585
-0.005011150681362431   -0.013508354400806192   -0.001158208772277606
-0.007867992087709911   -0.013659258639929082   -0.0011878346877079642
-0.008501975395115336   -0.018807029285904768   -0.001346460316241585
-0.005548525933435539   -0.018752519565528755   -0.0012520974742514404
-0.005011150681362431   -0.013508354400806192   -0.001158208772277606
-0.00552940859532905   -0.018796706733525403   -0.001230659100863598
-0.007867992087709911   -0.013659258639929082   -0.0011878346877079642
-0.0049998510814741005   -0.013545315971498034   -0.0011162796255308688
-0.00552940859532905   -0.018796706733525403   -0.001230659100863598
-0.005011150681362431   -0.013508354400806192   -0.001158208772277606
-0.007867992087709911   -0.013659258639929082   -0.0011878346877079642
-0.00552940859532905   -0.018796706733525403   -0.001230659100863598
-0.008504755560983925   -0.018864557142542728   -0.001324034214893938
-0.008501975395115336   -0.018807029285904768   -0.001346460316241585
-0.007867992087709911   -0.013659258639929082   -0.0011878346877079642
-0.00552940859532905   -0.018796706733525403   -0.001230659100863598
-0.008501975395115336   -0.018807029285904768   -0.001346460316241585
-0.005011150681362431   -0.013508354400806192   -0.001158208772277606
-0.005002711362830047   -0.013407017265548014   -0.0012561431230693077
-0.005559772191759857   -0.018660045604231183   -0.0013099461987452704
-0.0024706652182173916   -0.013369226924157065   -0.0011643711120625634
-0.005007808540633347   -0.013463497713608703   -0.001204599687236567
-0.005559772191759857   -0.018660045604231183   -0.0013099461987452704
-0.0028690274711251486   -0.01864292821928788   -0.0012382857256360118
-0.0024706652182173916   -0.013369226924157065   -0.0011643711120625634
-0.002858202485627377   -0.018671944939898714   -0.0012106542174804222
-0.005007808540633347   -0.013463497713608703   -0.001204599687236567
-0.002465077157359736   -0.013404600272274138   -0.001130234564515301
-0.002858202485627377   -0.018671944939898714   -0.0012106542174804222
-0.0024706652182173916   -0.013369226924157065   -0.0011643711120625634
-0.005007808540633347   -0.013463497713608703   -0.001204599687236567
-0.002858202485627377   -0.018671944939898714   -0.0012106542174804222
-0.005556771099726509   -0.018708097510683776   -0.001278401412171605
-0.005559772191759857   -0.018660045604231183   -0.0013099461987452704
-0.005007808540633347   -0.013463497713608703   -0.001204599687236567
-0.002858202485627377   -0.018671944939898714   -0.0012106542174804222
-0.005559772191759857   -0.018660045604231183   -0.0013099461987452704
-0.0024706652182173916   -0.013369226924157065   -0.0011643711120625634
-0.005007808540633347   -0.013463497713608703   -0.001204599687236567
-0.005556771099726509   -0.018708097510683776   -0.001278401412171605
-0.002465077157359736   -0.013404600272274138   -0.001130234564515301
-0.005011150681362431   -0.013508354400806192   -0.001158208772277606
-0.005556771099726509   -0.018708097510683776   -0.001278401412171605
-0.002858202485627377   -0.018671944939898714   -0.0012106542174804222
-0.002465077157359736   -0.013404600272274138   -0.001130234564515301
-0.002845115801375906   -0.018698640219835846   -0.001188263602472138
-0.005011150681362431   -0.013508354400806192   -0.001158208772277606
-0.002457783136852722   -0.013430224728930835   -0.0011011684285554331
-0.002845115801375906   -0.018698640219835846   -0.001188263602472138
-0.002465077157359736   -0.013404600272274138   -0.001130234564515301
-0.005011150681362431   -0.013508354400806192   -0.001158208772277606
-0.002845115801375906   -0.018698640219835846   -0.001188263602472138
-0.005548525933435539   -0.018752519565528755   -0.0012520974742514404
-0.005556771099726509   -0.018708097510683776   -0.001278401412171605
-0.005011150681362431   -0.013508354400806192   -0.001158208772277606
-0.002845115801375906   -0.018698640219835846   -0.001188263602472138
-0.005556771099726509   -0.018708097510683776   -0.001278401412171605
-0.002465077157359736   -0.013404600272274138   -0.001130234564515301
-0.005011150681362431   -0.013508354400806192   -0.001158208772277606
-0.005548525933435539   -0.018752519565528755   -0.0012520974742514404
-0.002457783136852722   -0.013430224728930835   -0.0011011684285554331
-0.0049998510814741005   -0.013545315971498034   -0.0011162796255308688
-0.005548525933435539   -0.018752519565528755   -0.0012520974742514404
-0.002845115801375906   -0.018698640219835846   -0.001188263602472138
-0.002457783136852722   -0.013430224728930835   -0.0011011684285554331
-0.0028295350979201258   -0.018723103424124223   -0.0011712439572274169
-0.0049998510814741005   -0.013545315971498034   -0.0011162796255308688
-0.002447328416409214   -0.013446269243266452   -0.0010772601100442862
-0.0028295350979201258   -0.018723103424124223   -0.0011712439572274169
-0.002457783136852722   -0.013430224728930835   -0.0011011684285554331
-0.0049998510814741005   -0.013545315971498034   -0.0011162796255308688
-0.0028295350979201258   -0.018723103424124223   -0.0011712439572274169
-0.00552940859532905   -0.018796706733525403   -0.001230659100863598
-0.005548525933435539   -0.018752519565528755   -0.0012520974742514404
-0.0049998510814741005   -0.013545315971498034   -0.0011162796255308688
-0.0028295350979201258   -0.018723103424124223   -0.0011712439572274169
-0.005548525933435539   -0.018752519565528755   -0.0012520974742514404
-0.002457783136852722   -0.013430224728930835   -0.0011011684285554331
-0.0024706652182173916   -0.013369226924157065   -0.0011643711120625634
-0.0028690274711251486   -0.01864292821928788   -0.0012382857256360118
-7.599355560996794e-06   -0.0133626438610796   -0.0011111183267895376
-0.002465077157359736   -0.013404600272274138   -0.001130234564515301
-0.0028690274711251486   -0.01864292821928788   -0.0012382857256360118
-0.0002511383899973367   -0.01863300270187755   -0.0012014345662189774
-7.599355560996794e-06   -0.0133626438610796   -0.0011111183267895376
-0.00023629549725170487   -0.01864260138538354   -0.0011780020744198891
-0.002465077157359736   -0.013404600272274138   -0.001130234564515301
2.155466504212763e-06   -0.01337676820302711   -0.0010945349892872987
-0.00023629549725170487   -0.01864260138538354   -0.0011780020744198891
-7.599355560996794e-06   -0.0133626438610796   -0.0011111183267895376
-0.002465077157359736   -0.013404600272274138   -0.001130234564515301
-0.00023629549725170487   -0.01864260138538354   -0.0011780020744198891
-0.002858202485627377   -0.018671944939898714   -0.0012106542174804222
-0.0028690274711251486   -0.01864292821928788   -0.0012382857256360118
-0.002465077157359736   -0.013404600272274138   -0.001130234564515301
-0.00023629549725170487   -0.01864260138538354   -0.0011780020744198891
-0.0028690274711251486   -0.01864292821928788   -0.0012382857256360118
-7.599355560996794e-06   -0.0133626438610796   -0.0011111183267895376
-0.002465077157359736   -0.013404600272274138   -0.001130234564515301
-0.002858202485627377   -0.018671944939898714   -0.0012106542174804222
2.155466504212763e-06   -0.01337676820302711   -0.0010945349892872987
-0.002457783136852722   -0.013430224728930835   -0.0011011684285554331
-0.002858202485627377   -0.018671944939898714   -0.0012106542174804222
-0.00023629549725170487   -0.01864260138538354   -0.0011780020744198891
2.155466504212763e-06   -0.01337676820302711   -0.0010945349892872987
-0.00022334256110918398   -0.01864970990642805   -0.0011597687700328234
-0.002457783136852722   -0.013430224728930835   -0.0011011684285554331
9.355332139310798e-06   -0.013381075292336987   -0.0010829610442910378
-0.00022334256110918398   -0.01864970990642805   -0.0011597687700328234
2.155466504212763e-06   -0.01337676820302711   -0.0010945349892872987
-0.002457783136852722   -0.013430224728930835   -0.0011011684285554331
-0.00022334256110918398   -0.01864970990642805   -0.0011597687700328234
-0.002845115801375906   -0.018698640219835846   -0.001188263602472138
-0.002858202485627377   -0.018671944939898714   -0.0012106542174804222
-0.002457783136852722   -0.013430224728930835   -0.0011011684285554331
-0.00022334256110918398   -0.01864970990642805   -0.0011597687700328234
-0.002858202485627377   -0.018671944939898714   -0.0012106542174804222
2.155466504212763e-06   -0.01337676820302711   -0.0010945349892872987
-0.002457783136852722   -0.013430224728930835   -0.0011011684285554331
-0.002845115801375906   -0.018698640219835846   -0.001188263602472138
9.355332139310798e-06   -0.013381075292336987   -0.0010829610442910378
-0.002447328416409214   -0.013446269243266452   -0.0010772601100442862
-0.002845115801375906   -0.018698640219835846   -0.001188263602472138
-0.00022334256110918398   -0.01864970990642805   -0.0011597687700328234
9.355332139310798e-06   -0.013381075292336987   -0.0010829610442910378
-0.00021326889231911074   -0.0186542891452375   -0.0011469219839203883
-0.002447328416409214   -0.013446269243266452   -0.0010772601100442862
1.4268551878997889e-05   -0.013375429741927194   -0.001076615428311503
-0.00021326889231911074   -0.0186542891452375   -0.0011469219839203883
9.355332139310798e-06   -0.013381075292336987   -0.0010829610442910378
-0.002447328416409214   -0.013446269243266452   -0.0010772601100442862
-0.00021326889231911074   -0.0186542891452375   -0.0011469219839203883
-0.0028295350979201258   -0.018723103424124223   -0.0011712439572274169
-0.002845115801375906   -0.018698640219835846   -0.001188263602472138
-0.002447328416409214   -0.013446269243266452   -0.0010772601100442862
-0.00021326889231911074   -0.0186542891452375   -0.0011469219839203883
-0.002845115801375906   -0.018698640219835846   -0.001188263602472138
9.355332139310798e-06   -0.013381075292336987   -0.0010829610442910378
-7.599355560996794e-06   -0.0133626438610796   -0.0011111183267895376
-0.0002511383899973367   -0.01863300270187755   -0.0012014345662189774
0.0025402189300218966   -0.013384579683816589   -0.0010962037503622804
2.155466504212763e-06   -0.01337676820302711   -0.0010945349892872987
-0.0002511383899973367   -0.01863300270187755   -0.0012014345662189774
0.0024464781636350103   -0.018628552874234833   -0.001199751630968213
0.0025402189300218966   -0.013384579683816589   -0.0010962037503622804
0.0024659570144107026   -0.018619318545828965   -0.0011807246701046512
2.155466504212763e-06   -0.01337676820302711   -0.0010945349892872987
0.002552026854941711   -0.01337866194289313   -0.0010975364205742409
0.0024659570144107026   -0.018619318545828965   -0.0011807246701046512
0.0025402189300218966   -0.013384579683816589   -0.0010962037503622804
2.155466504212763e-06   -0.01337676820302711   -0.0010945349892872987
0.0024659570144107026   -0.018619318545828965   -0.0011807246701046512
-0.00023629549725170487   -0.01864260138538354   -0.0011780020744198891
-0.0002511383899973367   -0.01863300270187755   -0.0012014345662189774
2.155466504212763e-06   -0.01337676820302711   -0.0010945349892872987
0.0024659570144107026   -0.018619318545828965   -0.0011807246701046512
-0.0002511383899973367   -0.01863300270187755   -0.0012014345662189774
0.0025402189300218966   -0.013384579683816589   -0.0010962037503622804
2.155466504212763e-06   -0.01337676820302711   -0.0010945349892872987
-0.00023629549725170487   -0.01864260138538354   -0.0011780020744198891
0.002552026854941711   -0.01337866194289313   -0.0010975364205742409
9.355332139310798e-06   -0.013381075292336987   -0.0010829610442910378
-0.00023629549725170487   -0.01864260138538354   -0.0011780020744198891
0.0024659570144107026   -0.018619318545828965   -0.0011807246701046512
0.002552026854941711   -0.01337866194289313   -0.0010975364205742409
0.0024793314023370625   -0.018608703014686857   -0.0011667451327432175
9.355332139310798e-06   -0.013381075292336987   -0.0010829610442910378
0.002553900630793794   -0.013363713423416777   -0.0011036063921826356
0.0024793314023370625   -0.018608703014686857   -0.0011667451327432175
0.002552026854941711   -0.01337866194289313   -0.0010975364205742409
9.355332139310798e-06   -0.013381075292336987   -0.0010829610442910378
0.0024793314023370625   -0.018608703014686857   -0.0011667451327432175
-0.00022334256110918398   -0.01864970990642805   -0.0011597687700328234
-0.00023629549725170487   -0.01864260138538354   -0.0011780020744198891
9.355332139310798e-06   -0.013381075292336987   -0.0010829610442910378
0.0024793314023370625   -0.018608703014686857   -0.0011667451327432175
-0.00023629549725170487   -0.01864260138538354   -0.0011780020744198891
0.002552026854941711   -0.01337866194289313   -0.0010975364205742409
9.355332139310798e-06   -0.013381075292336987   -0.0010829610442910378
-0.00022334256110918398   -0.01864970990642805   -0.0011597687700328234
0.002553900630793794   -0.013363713423416777   -0.0011036063921826356
1.4268551878997889e-05   -0.013375429741927194   -0.001076615428311503
-0.00022334256110918398   -0.01864970990642805   -0.0011597687700328234
0.0024793314023370625   -0.018608703014686857   -0.0011667451327432175
0.002553900630793794   -0.013363713423416777   -0.0011036063921826356
0.0024827655395854805   -0.018593270666615182   -0.0011577115494290893
1.4268551878997889e-05   -0.013375429741927194   -0.001076615428311503
0.002549323980108726   -0.013336026868437108   -0.0011145972813775065
0.0024827655395854805   -0.018593270666615182   -0.0011577115494290893
0.002553900630793794   -0.013363713423416777   -0.0011036063921826356
1.4268551878997889e-05   -0.013375429741927194   -0.001076615428311503
0.0024827655395854805   -0.018593270666615182   -0.0011577115494290893
-0.00021326889231911074   -0.0186542891452375   -0.0011469219839203883
-0.00022334256110918398   -0.01864970990642805   -0.0011597687700328234
1.4268551878997889e-05   -0.013375429741927194   -0.001076615428311503
0.0024827655395854805   -0.018593270666615182   -0.0011577115494290893
-0.00022334256110918398   -0.01864970990642805   -0.0011597687700328234
0.002553900630793794   -0.013363713423416777   -0.0011036063921826356
0.0025402189300218966   -0.013384579683816589   -0.0010962037503622804
0.0024464781636350103   -0.018628552874234833   -0.001199751630968213
0.005353542024224817   -0.013424730090628419   -0.001111420241031078
0.002552026854941711   -0.01337866194289313   -0.0010975364205742409
0.0024464781636350103   -0.018628552874234833   -0.001199751630968213
0.005369175933167537   -0.01862215082861324   -0.00122984866661123
0.005353542024224817   -0.013424730090628419   -0.001111420241031078
0.005407001187432917   -0.018598001882557915   -0.0012139420282201749
0.002552026854941711   -0.01337866194289313   -0.0010975364205742409
0.00535016861080459   -0.013405201668636537   -0.0011319784485414538
0.005407001187432917   -0.018598001882557915   -0.0012139420282201749
0.005353542024224817   -0.013424730090628419   -0.001111420241031078
0.002552026854941711   -0.01337866194289313   -0.0010975364205742409
0.005407001187432917   -0.018598001882557915   -0.0012139420282201749
0.0024659570144107026   -0.018619318545828965   -0.0011807246701046512
0.0024464781636350103   -0.018628552874234833   -0.001199751630968213
0.002552026854941711   -0.01337866194289313   -0.0010975364205742409
0.005407001187432917   -0.018598001882557915   -0.0012139420282201749
0.0024464781636350103   -0.018628552874234833   -0.001199751630968213
0.005353542024224817   -0.013424730090628419   -0.001111420241031078
0.002552026854941711   -0.01337866194289313   -0.0010975364205742409
0.0024659570144107026   -0.018619318545828965   -0.0011807246701046512
0.00535016861080459   -0.013405201668636537   -0.0011319784485414538
0.002553900630793794   -0.013363713423416777   -0.0011036063921826356
0.0024659570144107026   -0.018619318545828965   -0.0011807246701046512
0.005407001187432917   -0.018598001882557915   -0.0012139420282201749
0.00535016861080459   -0.013405201668636537   -0.0011319784485414538
0.005427530732481366   -0.01857901345391922   -0.0012057142741760563
0.002553900630793794   -0.013363713423416777   -0.0011036063921826356
0.005338151100504805   -0.013380888625062344   -0.0011602291723978011
0.005427530732481366   -0.01857901345391922   -0.0012057142741760563
0.00535016861080459   -0.013405201668636537   -0.0011319784485414538
0.002553900630793794   -0.013363713423416777   -0.0011036063921826356
0.005427530732481366   -0.01857901345391922   -0.0012057142741760563
0.0024793314023370625   -0.018608703014686857   -0.0011667451327432175
0.0024659570144107026   -0.018619318545828965   -0.0011807246701046512
0.002553900630793794   -0.013363713423416777   -0.0011036063921826356
0.005427530732481366   -0.01857901345391922   -0.0012057142741760563
0.0024659570144107026   -0.018619318545828965   -0.0011807246701046512
0.00535016861080459   -0.013405201668636537   -0.0011319784485414538
0.002553900630793794   -0.013363713423416777   -0.0011036063921826356
0.0024793314023370625   -0.018608703014686857   -0.0011667451327432175
0.005338151100504805   -0.013380888625062344   -0.0011602291723978011
0.002549323980108726   -0.013336026868437108   -0.0011145972813775065
0.0024793314023370625   -0.018608703014686857   -0.0011667451327432175
0.005427530732481366   -0.01857901345391922   -0.0012057142741760563
0.005338151100504805   -0.013380888625062344   -0.0011602291723978011
0.005433636141967564   -0.01854880311673874   -0.001205296675590373
0.002549323980108726   -0.013336026868437108   -0.0011145972813775065
0.005303086608327719   -0.013334853177041611   -0.0011961164934896757
0.005433636141967564   -0.01854880311673874   -0.001205296675590373
0.005338151100504805   -0.013380888625062344   -0.0011602291723978011
0.002549323980108726   -0.013336026868437108   -0.0011145972813775065
0.005433636141967564   -0.01854880311673874   -0.001205296675590373
0.0024827655395854805   -0.018593270666615182   -0.0011577115494290893
0.0024793314023370625   -0.018608703014686857   -0.0011667451327432175
0.002549323980108726   -0.013336026868437108   -0.0011145972813775065
0.005433636141967564   -0.01854880311673874   -0.001205296675590373
0.0024793314023370625   -0.018608703014686857   -0.0011667451327432175
0.005338151100504805   -0.013380888625062344   -0.0011602291723978011
-0.008456579094800689   -0.018689558140832327   -0.001415247244210224
-0.008715515727461038   -0.023986310711975944   -0.0013923904756806672
-0.005559772191759857   -0.018660045604231183   -0.0013099461987452704
-0.008491502458271313   -0.01875419531843136   -0.0013770835528431806
-0.008715515727461038   -0.023986310711975944   -0.0013923904756806672
-0.005825162866939721   -0.02400030833882763   -0.0013147876910079431
-0.005559772191759857   -0.018660045604231183   -0.0013099461987452704
-0.005809041887916757   -0.024039805912550605   -0.001302869714282908
-0.008491502458271313   -0.01875419531843136   -0.0013770835528431806
-0.005556771099726509   -0.018708097510683776   -0.001278401412171605
-0.005809041887916757   -0.024039805912550605   -0.001302869714282908
-0.005559772191759857   -0.018660045604231183   -0.0013099461987452704
-0.008491502458271313   -0.01875419531843136   -0.0013770835528431806
-0.005809041887916757   -0.024039805912550605   -0.001302869714282908
-0.008704680288727562   -0.02403919003974034   -0.0013902091215247513
-0.008715515727461038   -0.023986310711975944   -0.0013923904756806672
-0.008491502458271313   -0.01875419531843136   -0.0013770835528431806
-0.005809041887916757   -0.024039805912550605   -0.001302869714282908
-0.008715515727461038   -0.023986310711975944   -0.0013923904756806672
-0.005559772191759857   -0.018660045604231183   -0.0013099461987452704
-0.008491502458271313   -0.01875419531843136   -0.0013770835528431806
-0.008704680288727562   -0.02403919003974034   -0.0013902091215247513
-0.005556771099726509   -0.018708097510683776   -0.001278401412171605
-0.008501975395115336   -0.018807029285904768   -0.001346460316241585
-0.008704680288727562   -0.02403919003974034   -0.0013902091215247513
-0.005809041887916757   -0.024039805912550605   -0.001302869714282908
-0.005556771099726509   -0.018708097510683776   -0.001278401412171605
-0.005784210811655804   -0.024083685564110606   -0.001296329339068689
-0.008501975395115336   -0.018807029285904768   -0.001346460316241585
-0.005548525933435539   -0.018752519565528755   -0.0012520974742514404
-0.005784210811655804   -0.024083685564110606   -0.001296329339068689
-0.005556771099726509   -0.018708097510683776   -0.001278401412171605
-0.008501975395115336   -0.018807029285904768   -0.001346460316241585
-0.005784210811655804   -0.024083685564110606   -0.001296329339068689
-0.00867741376105167   -0.024090676685482707   -0.0013960611029792199
-0.008704680288727562   -0.02403919003974034   -0.0013902091215247513
-0.008501975395115336   -0.018807029285904768   -0.001346460316241585
-0.005784210811655804   -0.024083685564110606   -0.001296329339068689
-0.008704680288727562   -0.02403919003974034   -0.0013902091215247513
-0.005556771099726509   -0.018708097510683776   -0.001278401412171605
-0.008501975395115336   -0.018807029285904768   -0.001346460316241585
-0.00867741376105167   -0.024090676685482707   -0.0013960611029792199
-0.005548525933435539   -0.018752519565528755   -0.0012520974742514404
-0.008504755560983925   -0.018864557142542728   -0.001324034214893938
-0.00867741376105167   -0.024090676685482707   -0.0013960611029792199
-0.005784210811655804   -0.024083685564110606   -0.001296329339068689
-0.005548525933435539   -0.018752519565528755   -0.0012520974742514404
-0.0057522404888774425   -0.02413497694151497   -0.0012950707950263065
-0.008504755560983925   -0.018864557142542728   -0.001324034214893938
-0.00552940859532905   -0.018796706733525403   -0.001230659100863598
-0.0057522404888774425   -0.02413497694151497   -0.0012950707950263065
-0.005548525933435539   -0.018752519565528755   -0.0012520974742514404
-0.008504755560983925   -0.018864557142542728   -0.001324034214893938
-0.0057522404888774425   -0.02413497694151497   -0.0012950707950263065
-0.0086335976736269   -0.02415712684274632   -0.0014103633771353106
-0.00867741376105167   -0.024090676685482707   -0.0013960611029792199
-0.008504755560983925   -0.018864557142542728   -0.001324034214893938
-0.0057522404888774425   -0.02413497694151497   -0.0012950707950263065
-0.00867741376105167   -0.024090676685482707   -0.0013960611029792199
-0.005548525933435539   -0.018752519565528755   -0.0012520974742514404
-0.005559772191759857   -0.018660045604231183   -0.0013099461987452704
-0.005825162866939721   -0.02400030833882763   -0.0013147876910079431
-0.0028690274711251486   -0.01864292821928788   -0.0012382857256360118
-0.005556771099726509   -0.018708097510683776   -0.001278401412171605
-0.005825162866939721   -0.02400030833882763   -0.0013147876910079431
-0.003177114799318892   -0.02400321937220616   -0.0012632402183761749
-0.0028690274711251486   -0.01864292821928788   -0.0012382857256360118
-0.0031557558428430507   -0.024025808406244107   -0.0012419043620173983
-0.005556771099726509   -0.018708097510683776   -0.001278401412171605
-0.002858202485627377   -0.018671944939898714   -0.0012106542174804222
-0.0031557558428430507   -0.024025808406244107   -0.0012419043620173983
-0.0028690274711251486   -0.01864292821928788   -0.0012382857256360118
-0.005556771099726509   -0.018708097510683776   -0.001278401412171605
-0.0031557558428430507   -0.024025808406244107   -0.0012419043620173983
-0.005809041887916757   -0.024039805912550605   -0.001302869714282908
-0.005825162866939721   -0.02400030833882763   -0.0013147876910079431
-0.005556771099726509   -0.018708097510683776   -0.001278401412171605
-0.0031557558428430507   -0.024025808406244107   -0.0012419043620173983
-0.005825162866939721   -0.02400030833882763   -0.0013147876910079431
-0.0028690274711251486   -0.01864292821928788   -0.0012382857256360118
-0.005556771099726509   -0.018708097510683776   -0.001278401412171605
-0.005809041887916757   -0.024039805912550605   -0.001302869714282908
-0.002858202485627377   -0.018671944939898714   -0.0012106542174804222
-0.005548525933435539   -0.018752519565528755   -0.0012520974742514404
-0.005809041887916757   -0.024039805912550605   -0.001302869714282908
-0.0031557558428430507   -0.024025808406244107   -0.0012419043620173983
-0.002858202485627377   -0.018671944939898714   -0.0012106542174804222
-0.003131707472067918   -0.02405338443326402   -0.0012259631796239618
-0.005548525933435539   -0.018752519565528755   -0.0012520974742514404
-0.002845115801375906   -0.018698640219835846   -0.001188263602472138
-0.003131707472067918   -0.02405338443326402   -0.0012259631796239618
-0.002858202485627377   -0.018671944939898714   -0.0012106542174804222
-0.005548525933435539   -0.018752519565528755   -0.0012520974742514404
-0.003131707472067918   -0.02405338443326402   -0.0012259631796239618
-0.005784210811655804   -0.024083685564110606   -0.001296329339068689
-0.005809041887916757   -0.024039805912550605   -0.001302869714282908
-0.005548525933435539   -0.018752519565528755   -0.0012520974742514404
-0.003131707472067918   -0.02405338443326402   -0.0012259631796239618
-0.005809041887916757   -0.024039805912550605   -0.001302869714282908
-0.002858202485627377   -0.018671944939898714   -0.0012106542174804222
-0.005548525933435539   -0.018752519565528755   -0.0012520974742514404
-0.005784210811655804   -0.024083685564110606   -0.001296329339068689
-0.002845115801375906   -0.018698640219835846   -0.001188263602472138
-0.00552940859532905   -0.018796706733525403   -0.001230659100863598
-0.005784210811655804   -0.024083685564110606   -0.001296329339068689
-0.003131707472067918   -0.02405338443326402   -0.0012259631796239618
-0.002845115801375906   -0.018698640219835846   -0.001188263602472138
-0.0031058261272383643   -0.02408603367584722   -0.0012155961252357478
-0.00552940859532905   -0.018796706733525403   -0.001230659100863598
-0.0028295350979201258   -0.018723103424124223   -0.0011712439572274169
-0.0031058261272383643   -0.02408603367584722   -0.0012155961252357478
-0.002845115801375906   -0.018698640219835846   -0.001188263602472138
-0.00552940859532905   -0.018796706733525403   -0.001230659100863598
-0.0031058261272383643   -0.02408603367584722   -0.0012155961252357478
-0.0057522404888774425   -0.02413497694151497   -0.0012950707950263065
-0.005784210811655804   -0.024083685564110606   -0.001296329339068689
-0.00552940859532905   -0.018796706733525403   -0.001230659100863598
-0.0031058261272383643   -0.02408603367584722   -0.0012155961252357478
-0.005784210811655804   -0.024083685564110606   -0.001296329339068689
-0.002845115801375906   -0.018698640219835846   -0.001188263602472138
-0.0028690274711251486   -0.01864292821928788   -0.0012382857256360118
-0.003177114799318892   -0.02400321937220616   -0.0012632402183761749
-0.0002511383899973367   -0.01863300270187755   -0.0012014345662189774
-0.002858202485627377   -0.018671944939898714   -0.0012106542174804222
-0.003177114799318892   -0.02400321937220616   -0.0012632402183761749
-0.0006038716493852662   -0.02398902907396501   -0.001242418110196932
-0.0002511383899973367   -0.01863300270187755   -0.0012014345662189774
-0.0005786921213285269   -0.023994110150463408   -0.0012121347164304316
-0.002858202485627377   -0.018671944939898714   -0.0012106542174804222
-0.00023629549725170487   -0.01864260138538354   -0.0011780020744198891
-0.0005786921213285269   -0.023994110150463408   -0.0012121347164304316
-0.0002511383899973367   -0.01863300270187755   -0.0012014345662189774
-0.002858202485627377   -0.018671944939898714   -0.0012106542174804222
-0.0005786921213285269   -0.023994110150463408   -0.0012121347164304316
-0.0031557558428430507   -0.024025808406244107   -0.0012419043620173983
-0.003177114799318892   -0.02400321937220616   -0.0012632402183761749
-0.002858202485627377   -0.018671944939898714   -0.0012106542174804222
-0.0005786921213285269   -0.023994110150463408   -0.0012121347164304316
-0.003177114799318892   -0.02400321937220616   -0.0012632402183761749
-0.0002511383899973367   -0.01863300270187755   -0.0012014345662189774
-0.002858202485627377   -0.018671944939898714   -0.0012106542174804222
-0.0031557558428430507   -0.024025808406244107   -0.0012419043620173983
-0.00023629549725170487   -0.01864260138538354   -0.0011780020744198891
-0.002845115801375906   -0.018698640219835846   -0.001188263602472138
-0.0031557558428430507   -0.024025808406244107   -0.0012419043620173983
-0.0005786921213285269   -0.023994110150463408   -0.0012121347164304316
-0.00023629549725170487   -0.01864260138538354   -0.0011780020744198891
-0.000554843561630106   -0.024003798347390286   -0.0011872115779124727
-0.002845115801375906   -0.018698640219835846   -0.001188263602472138
-0.00022334256110918398   -0.01864970990642805   -0.0011597687700328234
-0.000554843561630106   -0.024003798347390286   -0.0011872115779124727
-0.00023629549725170487   -0.01864260138538354   -0.0011780020744198891
-0.002845115801375906   -0.018698640219835846   -0.001188263602472138
-0.000554843561630106   -0.024003798347390286   -0.0011872115779124727
-0.003131707472067918   -0.02405338443326402   -0.0012259631796239618
-0.0031557558428430507   -0.024025808406244107   -0.0012419043620173983
-0.002845115801375906   -0.018698640219835846   -0.001188263602472138
-0.000554843561630106   -0.024003798347390286   -0.0011872115779124727
-0.0031557558428430507   -0.024025808406244107   -0.0012419043620173983
-0.00023629549725170487   -0.01864260138538354   -0.0011780020744198891
-0.002845115801375906   -0.018698640219835846   -0.001188263602472138
-0.003131707472067918   -0.02405338443326402   -0.0012259631796239618
-0.00022334256110918398   -0.01864970990642805   -0.0011597687700328234
-0.0028295350979201258   -0.018723103424124223   -0.0011712439572274169
-0.003131707472067918   -0.02405338443326402   -0.0012259631796239618
-0.000554843561630106   -0.024003798347390286   -0.0011872115779124727
-0.00022334256110918398   -0.01864970990642805   -0.0011597687700328234
-0.0005345000584370168   -0.024018309771764043   -0.0011678338746565515
-0.0028295350979201258   -0.018723103424124223   -0.0011712439572274169
-0.00021326889231911074   -0.0186542891452375   -0.0011469219839203883
-0.0005345000584370168   -0.024018309771764043   -0.0011678338746565515
-0.00022334256110918398   -0.01864970990642805   -0.0011597687700328234
-0.0028295350979201258   -0.018723103424124223   -0.0011712439572274169
-0.0005345000584370168   -0.024018309771764043   -0.0011678338746565515
-0.0031058261272383643   -0.02408603367584722   -0.0012155961252357478
-0.003131707472067918   -0.02405338443326402   -0.0012259631796239618
-0.0028295350979201258   -0.018723103424124223   -0.0011712439572274169
-0.0005345000584370168   -0.024018309771764043   -0.0011678338746565515
-0.003131707472067918   -0.02405338443326402   -0.0012259631796239618
-0.00022334256110918398   -0.01864970990642805   -0.0011597687700328234
-0.0002511383899973367   -0.01863300270187755   -0.0012014345662189774
-0.0006038716493852662   -0.02398902907396501   -0.001242418110196932
0.0024464781636350103   -0.018628552874234833   -0.001199751630968213
-0.00023629549725170487   -0.01864260138538354   -0.0011780020744198891
-0.0006038716493852662   -0.02398902907396501   -0.001242418110196932
0.0020463795399077245   -0.023957556922664994   -0.0012533550563417649
0.0024464781636350103   -0.018628552874234833   -0.001199751630968213
0.002078412197438413   -0.02394505423200769   -0.0012142679291771404
-0.00023629549725170487   -0.01864260138538354   -0.0011780020744198891
0.0024659570144107026   -0.018619318545828965   -0.0011807246701046512
0.002078412197438413   -0.02394505423200769   -0.0012142679291771404
0.0024464781636350103   -0.018628552874234833   -0.001199751630968213
-0.00023629549725170487   -0.01864260138538354   -0.0011780020744198891
0.002078412197438413   -0.02394505423200769   -0.0012142679291771404
-0.0005786921213285269   -0.023994110150463408   -0.0012121347164304316
-0.0006038716493852662   -0.02398902907396501   -0.001242418110196932
-0.00023629549725170487   -0.01864260138538354   -0.0011780020744198891
0.002078412197438413   -0.02394505423200769   -0.0012142679291771404
-0.0006038716493852662   -0.02398902907396501   -0.001242418110196932
0.0024464781636350103   -0.018628552874234833   -0.001199751630968213
-0.00023629549725170487   -0.01864260138538354   -0.0011780020744198891
-0.0005786921213285269   -0.023994110150463408   -0.0012121347164304316
0.0024659570144107026   -0.018619318545828965   -0.0011807246701046512
-0.00022334256110918398   -0.01864970990642805   -0.0011597687700328234
-0.0005786921213285269   -0.023994110150463408   -0.0012121347164304316
0.002078412197438413   -0.02394505423200769   -0.0012142679291771404
0.0024659570144107026   -0.018619318545828965   -0.0011807246701046512
0.002108117252751441   -0.023938541347698662   -0.0011805226344073893
-0.00022334256110918398   -0.01864970990642805   -0.0011597687700328234
0.0024793314023370625   -0.018608703014686857   -0.0011667451327432175
0.002108117252751441   -0.023938541347698662   -0.0011805226344073893
0.0024659570144107026   -0.018619318545828965   -0.0011807246701046512
-0.00022334256110918398   -0.01864970990642805   -0.0011597687700328234
0.002108117252751441   -0.023938541347698662   -0.0011805226344073893
-0.000554843561630106   -0.024003798347390286   -0.0011872115779124727
-0.0005786921213285269   -0.023994110150463408   -0.0012121347164304316
-0.00022334256110918398   -0.01864970990642805   -0.0011597687700328234
0.002108117252751441   -0.023938541347698662   -0.0011805226344073893
-0.0005786921213285269   -0.023994110150463408   -0.0012121347164304316
0.0024659570144107026   -0.018619318545828965   -0.0011807246701046512
-0.00022334256110918398   -0.01864970990642805   -0.0011597687700328234
-0.000554843561630106   -0.024003798347390286   -0.0011872115779124727
0.0024793314023370625   -0.018608703014686857   -0.0011667451327432175
-0.00021326889231911074   -0.0186542891452375   -0.0011469219839203883
-0.000554843561630106   -0.024003798347390286   -0.0011872115779124727
0.002108117252751441   -0.023938541347698662   -0.0011805226344073893
0.0024793314023370625   -0.018608703014686857   -0.0011667451327432175
0.0021243534599873185   -0.023934928132240983   -0.0011517703823383757
-0.00021326889231911074   -0.0186542891452375   -0.0011469219839203883
0.0024827655395854805   -0.018593270666615182   -0.0011577115494290893
0.0021243534599873185   -0.023934928132240983   -0.0011517703823383757
0.0024793314023370625   -0.018608703014686857   -0.0011667451327432175
-0.00021326889231911074   -0.0186542891452375   -0.0011469219839203883
0.0021243534599873185   -0.023934928132240983   -0.0011517703823383757
-0.0005345000584370168   -0.024018309771764043   -0.0011678338746565515
-0.000554843561630106   -0.024003798347390286   -0.0011872115779124727
-0.00021326889231911074   -0.0186542891452375   -0.0011469219839203883
0.0021243534599873185   -0.023934928132240983   -0.0011517703823383757
-0.000554843561630106   -0.024003798347390286   -0.0011872115779124727
0.0024793314023370625   -0.018608703014686857   -0.0011667451327432175
0.0024464781636350103   -0.018628552874234833   -0.001199751630968213
0.0020463795399077245   -0.023957556922664994   -0.0012533550563417649
0.005369175933167537   -0.01862215082861324   -0.00122984866661123
0.0024659570144107026   -0.018619318545828965   -0.0011807246701046512
0.0020463795399077245   -0.023957556922664994   -0.0012533550563417649
0.0048826137783948755   -0.02390454538838508   -0.0012978118444403241
0.005369175933167537   -0.01862215082861324   -0.00122984866661123
0.004965716341420169   -0.023876073351467044   -0.0012463604333604614
0.0024659570144107026   -0.018619318545828965   -0.0011807246701046512
0.005407001187432917   -0.018598001882557915   -0.0012139420282201749
0.004965716341420169   -0.023876073351467044   -0.0012463604333604614
0.005369175933167537   -0.01862215082861324   -0.00122984866661123
0.0024659570144107026   -0.018619318545828965   -0.0011807246701046512
0.004965716341420169   -0.023876073351467044   -0.0012463604333604614
0.002078412197438413   -0.02394505423200769   -0.0012142679291771404
0.0020463795399077245   -0.023957556922664994   -0.0012533550563417649
0.0024659570144107026   -0.018619318545828965   -0.0011807246701046512
0.004965716341420169   -0.023876073351467044   -0.0012463604333604614
0.0020463795399077245   -0.023957556922664994   -0.0012533550563417649
0.005369175933167537   -0.01862215082861324   -0.00122984866661123
0.0024659570144107026   -0.018619318545828965   -0.0011807246701046512
0.002078412197438413   -0.02394505423200769   -0.0012142679291771404
0.005407001187432917   -0.018598001882557915   -0.0012139420282201749
0.0024793314023370625   -0.018608703014686857   -0.0011667451327432175
0.002078412197438413   -0.02394505423200769   -0.0012142679291771404
0.004965716341420169   -0.023876073351467044   -0.0012463604333604614
0.005407001187432917   -0.018598001882557915   -0.0012139420282201749
0.005023072567844537   -0.02386225111902243   -0.00120252703735204
0.0024793314023370625   -0.018608703014686857   -0.0011667451327432175
0.005427530732481366   -0.01857901345391922   -0.0012057142741760563
0.005023072567844537   -0.02386225111902243   -0.00120252703735204
0.005407001187432917   -0.018598001882557915   -0.0012139420282201749
0.0024793314023370625   -0.018608703014686857   -0.0011667451327432175
0.005023072567844537   -0.02386225111902243   -0.00120252703735204
0.002108117252751441   -0.023938541347698662   -0.0011805226344073893
0.002078412197438413   -0.02394505423200769   -0.0012142679291771404
0.0024793314023370625   -0.018608703014686857   -0.0011667451327432175
0.005023072567844537   -0.02386225111902243   -0.00120252703735204
0.002078412197438413   -0.02394505423200769   -0.0012142679291771404
0.005407001187432917   -0.018598001882557915   -0.0012139420282201749
0.0024793314023370625   -0.018608703014686857   -0.0011667451327432175
0.002108117252751441   -0.023938541347698662   -0.0011805226344073893
0.005427530732481366   -0.01857901345391922   -0.0012057142741760563
0.0024827655395854805   -0.018593270666615182   -0.0011577115494290893
0.002108117252751441   -0.023938541347698662   -0.0011805226344073893
0.005023072567844537   -0.02386225111902243   -0.00120252703735204
0.005427530732481366   -0.01857901345391922   -0.0012057142741760563
0.0050743353471526965   -0.023847389590103053   -0.001166630510458395
0.0024827655395854805   -0.018593270666615182   -0.0011577115494290893
0.005433636141967564   -0.01854880311673874   -0.001205296675590373
0.0050743353471526965   -0.023847389590103053   -0.001166630510458395
0.005427530732481366   -0.01857901345391922   -0.0012057142741760563
0.0024827655395854805   -0.018593270666615182   -0.0011577115494290893
0.0050743353471526965   -0.023847389590103053   -0.001166630510458395
0.0021243534599873185   -0.023934928132240983   -0.0011517703823383757
0.002108117252751441   -0.023938541347698662   -0.0011805226344073893
0.0024827655395854805   -0.018593270666615182   -0.0011577115494290893
0.0050743353471526965   -0.023847389590103053   -0.001166630510458395
0.002108117252751441   -0.023938541347698662   -0.0011805226344073893
0.005427530732481366   -0.01857901345391922   -0.0012057142741760563
-0.008715515727461038   -0.023986310711975944   -0.0013923904756806672
-0.00847906762640405   -0.029038130756576356   -0.0013321297966153462
-0.005825162866939721   -0.02400030833882763   -0.0013147876910079431
-0.008704680288727562   -0.02403919003974034   -0.0013902091215247513
-0.00847906762640405   -0.029038130756576356   -0.0013321297966153462
-0.005800354106203254   -0.029096249226893713   -0.0012855860092199334
-0.005825162866939721   -0.02400030833882763   -0.0013147876910079431
-0.005766287349358785   -0.029125667067323162   -0.0012927130077909816
-0.008704680288727562   -0.02403919003974034   -0.0013902091215247513
-0.005809041887916757   -0.024039805912550605   -0.001302869714282908
-0.005766287349358785   -0.029125667067323162   -0.0012927130077909816
-0.005825162866939721   -0.02400030833882763   -0.0013147876910079431
-0.008704680288727562   -0.02403919003974034   -0.0013902091215247513
-0.005766287349358785   -0.029125667067323162   -0.0012927130077909816
-0.00841753281228425   -0.02907786222398635   -0.001365875178652301
-0.00847906762640405   -0.029038130756576356   -0.0013321297966153462
-0.008704680288727562   -0.02403919003974034   -0.0013902091215247513
-0.005766287349358785   -0.029125667067323162   -0.0012927130077909816
-0.00847906762640405   -0.029038130756576356   -0.0013321297966153462
-0.005825162866939721   -0.02400030833882763   -0.0013147876910079431
-0.008704680288727562   -0.02403919003974034   -0.0013902091215247513
-0.00841753281228425   -0.02907786222398635   -0.001365875178652301
-0.005809041887916757   -0.024039805912550605   -0.001302869714282908
-0.00867741376105167   -0.024090676685482707   -0.0013960611029792199
-0.00841753281228425   -0.02907786222398635   -0.001365875178652301
-0.005766287349358785   -0.029125667067323162   -0.0012927130077909816
-0.005809041887916757   -0.024039805912550605   -0.001302869714282908
-0.005720269311464472   -0.029167695715585706   -0.0013053315172704084
-0.00867741376105167   -0.024090676685482707   -0.0013960611029792199
-0.005784210811655804   -0.024083685564110606   -0.001296329339068689
-0.005720269311464472   -0.029167695715585706   -0.0013053315172704084
-0.005809041887916757   -0.024039805912550605   -0.001302869714282908
-0.00867741376105167   -0.024090676685482707   -0.0013960611029792199
-0.005720269311464472   -0.029167695715585706   -0.0013053315172704084
-0.008347518445535503   -0.029126809765383926   -0.001408253282260485
-0.00841753281228425   -0.02907786222398635   -0.001365875178652301
-0.00867741376105167   -0.024090676685482707   -0.0013960611029792199
-0.005720269311464472   -0.029167695715585706   -0.0013053315172704084
-0.00841753281228425   -0.02907786222398635   -0.001365875178652301
-0.005809041887916757   -0.024039805912550605   -0.001302869714282908
-0.00867741376105167   -0.024090676685482707   -0.0013960611029792199
-0.008347518445535503   -0.029126809765383926   -0.001408253282260485
-0.005784210811655804   -0.024083685564110606   -0.001296329339068689
-0.0086335976736269   -0.02415712684274632   -0.0014103633771353106
-0.008347518445535503   -0.029126809765383926   -0.001408253282260485
-0.005720269311464472   -0.029167695715585706   -0.0013053315172704084
-0.005784210811655804   -0.024083685564110606   -0.001296329339068689
-0.005670939920081753   -0.029224906107841453   -0.0013235961222625976
-0.0086335976736269   -0.02415712684274632   -0.0014103633771353106
-0.0057522404888774425   -0.02413497694151497   -0.0012950707950263065
-0.005670939920081753   -0.029224906107841453   -0.0013235961222625976
-0.005784210811655804   -0.024083685564110606   -0.001296329339068689
-0.0086335976736269   -0.02415712684274632   -0.0014103633771353106
-0.005670939920081753   -0.029224906107841453   -0.0013235961222625976
-0.008252342267678405   -0.029201412088987612   -0.0014594347799571183
-0.008347518445535503   -0.029126809765383926   -0.001408253282260485
-0.0086335976736269   -0.02415712684274632   -0.0014103633771353106
-0.005670939920081753   -0.029224906107841453   -0.0013235961222625976
-0.008347518445535503   -0.029126809765383926   -0.001408253282260485
-0.005784210811655804   -0.024083685564110606   -0.001296329339068689
-0.005825162866939721   -0.02400030833882763   -0.0013147876910079431
-0.005800354106203254   -0.029096249226893713   -0.0012855860092199334
-0.003177114799318892   -0.02400321937220616   -0.0012632402183761749
-0.005809041887916757   -0.024039805912550605   -0.001302869714282908
-0.005800354106203254   -0.029096249226893713   -0.0012855860092199334
-0.003397962477029435   -0.029119061232278448   -0.0012558415407947828
-0.003177114799318892   -0.02400321937220616   -0.0012632402183761749
-0.003360923606083326   -0.02913429193757677   -0.0012402973398781374
-0.005809041887916757   -0.024039805912550605   -0.001302869714282908
-0.0031557558428430507   -0.024025808406244107   -0.0012419043620173983
-0.003360923606083326   -0.02913429193757677   -0.0012402973398781374
-0.003177114799318892   -0.02400321937220616   -0.0012632402183761749
-0.005809041887916757   -0.024039805912550605   -0.001302869714282908
-0.003360923606083326   -0.02913429193757677   -0.0012402973398781374
-0.005766287349358785   -0.029125667067323162   -0.0012927130077909816
-0.005800354106203254   -0.029096249226893713   -0.0012855860092199334
-0.005809041887916757   -0.024039805912550605   -0.001302869714282908
-0.003360923606083326   -0.02913429193757677   -0.0012402973398781374
-0.005800354106203254   -0.029096249226893713   -0.0012855860092199334
-0.003177114799318892   -0.02400321937220616   -0.0012632402183761749
-0.005809041887916757   -0.024039805912550605   -0.001302869714282908
-0.005766287349358785   -0.029125667067323162   -0.0012927130077909816
-0.0031557558428430507   -0.024025808406244107   -0.0012419043620173983
-0.005784210811655804   -0.024083685564110606   -0.001296329339068689
-0.005766287349358785   -0.029125667067323162   -0.0012927130077909816
-0.003360923606083326   -0.02913429193757677   -0.0012402973398781374
-0.0031557558428430507   -0.024025808406244107   -0.0012419043620173983
-0.0033211032977548565   -0.029161635668871394   -0.0012301763503911344
-0.005784210811655804   -0.024083685564110606   -0.001296329339068689
-0.003131707472067918   -0.02405338443326402   -0.0012259631796239618
-0.0033211032977548565   -0.029161635668871394   -0.0012301763503911344
-0.0031557558428430507   -0.024025808406244107   -0.0012419043620173983
-0.005784210811655804   -0.024083685564110606   -0.001296329339068689
-0.0033211032977548565   -0.029161635668871394   -0.0012301763503911344
-0.005720269311464472   -0.029167695715585706   -0.0013053315172704084
-0.005766287349358785   -0.029125667067323162   -0.0012927130077909816
-0.005784210811655804   -0.024083685564110606   -0.001296329339068689
-0.0033211032977548565   -0.029161635668871394   -0.0012301763503911344
-0.005766287349358785   -0.029125667067323162   -0.0012927130077909816
-0.0031557558428430507   -0.024025808406244107   -0.0012419043620173983
-0.005784210811655804   -0.024083685564110606   -0.001296329339068689
-0.005720269311464472   -0.029167695715585706   -0.0013053315172704084
-0.003131707472067918   -0.02405338443326402   -0.0012259631796239618
-0.0057522404888774425   -0.02413497694151497   -0.0012950707950263065
-0.005720269311464472   -0.029167695715585706   -0.0013053315172704084
-0.0033211032977548565   -0.029161635668871394   -0.0012301763503911344
-0.003131707472067918   -0.02405338443326402   -0.0012259631796239618
-0.0032801739516836585   -0.02920143216350207   -0.001225748506081051
-0.0057522404888774425   -0.02413497694151497   -0.0012950707950263065
-0.0031058261272383643   -0.02408603367584722   -0.0012155961252357478
-0.0032801739516836585   -0.02920143216350207   -0.001225748506081051
-0.003131707472067918   -0.02405338443326402   -0.0012259631796239618
-0.0057522404888774425   -0.02413497694151497   -0.0012950707950263065
-0.0032801739516836585   -0.02920143216350207   -0.001225748506081051
-0.005670939920081753   -0.029224906107841453   -0.0013235961222625976
-0.005720269311464472   -0.029167695715585706   -0.0013053315172704084
-0.0057522404888774425   -0.02413497694151497   -0.0012950707950263065
-0.0032801739516836585   -0.02920143216350207   -0.001225748506081051
-0.005720269311464472   -0.029167695715585706   -0.0013053315172704084
-0.003131707472067918   -0.02405338443326402   -0.0012259631796239618
-0.003177114799318892   -0.02400321937220616   -0.0012632402183761749
-0.003397962477029435   -0.029119061232278448   -0.0012558415407947828
-0.0006038716493852662   -0.02398902907396501   -0.001242418110196932
-0.0031557558428430507   -0.024025808406244107   -0.0012419043620173983
-0.003397962477029435   -0.029119061232278448   -0.0012558415407947828
-0.001068128924008058   -0.02910118413860509   -0.0012512380821971946
-0.0006038716493852662   -0.02398902907396501   -0.001242418110196932
-0.0010271719442727823   -0.0291013743463395   -0.0012138003046697945
-0.0031557558428430507   -0.024025808406244107   -0.0012419043620173983
-0.0005786921213285269   -0.023994110150463408   -0.0012121347164304316
-0.0010271719442727823   -0.0291013743463395   -0.0012138003046697945
-0.0006038716493852662   -0.02398902907396501   -0.001242418110196932
-0.0031557558428430507   -0.024025808406244107   -0.0012419043620173983
-0.0010271719442727823   -0.0291013743463395   -0.0012138003046697945
-0.003360923606083326   -0.02913429193757677   -0.0012402973398781374
-0.003397962477029435   -0.029119061232278448   -0.0012558415407947828
-0.0031557558428430507   -0.024025808406244107   -0.0012419043620173983
-0.0010271719442727823   -0.0291013743463395   -0.0012138003046697945
-0.003397962477029435   -0.029119061232278448   -0.0012558415407947828
-0.0006038716493852662   -0.02398902907396501   -0.001242418110196932
-0.0031557558428430507   -0.024025808406244107   -0.0012419043620173983
-0.003360923606083326   -0.02913429193757677   -0.0012402973398781374
-0.0005786921213285269   -0.023994110150463408   -0.0012121347164304316
-0.003131707472067918   -0.02405338443326402   -0.0012259631796239618
-0.003360923606083326   -0.02913429193757677   -0.0012402973398781374
-0.0010271719442727823   -0.0291013743463395   -0.0012138003046697945
-0.0005786921213285269   -0.023994110150463408   -0.0012121347164304316
-0.0009872726907312543   -0.02911280811039376   -0.001181802335388983
-0.003131707472067918   -0.02405338443326402   -0.0012259631796239618
-0.000554843561630106   -0.024003798347390286   -0.0011872115779124727
-0.0009872726907312543   -0.02911280811039376   -0.001181802335388983
-0.0005786921213285269   -0.023994110150463408   -0.0012121347164304316
-0.003131707472067918   -0.02405338443326402   -0.0012259631796239618
-0.0009872726907312543   -0.02911280811039376   -0.001181802335388983
-0.0033211032977548565   -0.029161635668871394   -0.0012301763503911344
-0.003360923606083326   -0.02913429193757677   -0.0012402973398781374
-0.003131707472067918   -0.02405338443326402   -0.0012259631796239618
-0.0009872726907312543   -0.02911280811039376   -0.001181802335388983
-0.003360923606083326   -0.02913429193757677   -0.0012402973398781374
-0.0005786921213285269   -0.023994110150463408   -0.0012121347164304316
-0.003131707472067918   -0.02405338443326402   -0.0012259631796239618
-0.0033211032977548565   -0.029161635668871394   -0.0012301763503911344
-0.000554843561630106   -0.024003798347390286   -0.0011872115779124727
-0.0031058261272383643   -0.02408603367584722   -0.0012155961252357478
-0.0033211032977548565   -0.029161635668871394   -0.0012301763503911344
-0.0009872726907312543   -0.02911280811039376   -0.001181802335388983
-0.000554843561630106   -0.024003798347390286   -0.0011872115779124727
-0.0009516276569505645   -0.029136418097084293   -0.001155431843143589
-0.0031058261272383643   -0.02408603367584722   -0.0012155961252357478
-0.0005345000584370168   -0.024018309771764043   -0.0011678338746565515
-0.0009516276569505645   -0.029136418097084293   -0.001155431843143589
-0.000554843561630106   -0.024003798347390286   -0.0011872115779124727
-0.0031058261272383643   -0.02408603367584722   -0.0012155961252357478
-0.0009516276569505645   -0.029136418097084293   -0.001155431843143589
-0.0032801739516836585   -0.02920143216350207   -0.001225748506081051
-0.0033211032977548565   -0.029161635668871394   -0.0012301763503911344
-0.0031058261272383643   -0.02408603367584722   -0.0012155961252357478
-0.0009516276569505645   -0.029136418097084293   -0.001155431843143589
-0.0033211032977548565   -0.029161635668871394   -0.0012301763503911344
-0.000554843561630106   -0.024003798347390286   -0.0011872115779124727
-0.0006038716493852662   -0.02398902907396501   -0.001242418110196932
-0.001068128924008058   -0.02910118413860509   -0.0012512380821971946
0.0020463795399077245   -0.023957556922664994   -0.0012533550563417649
-0.0005786921213285269   -0.023994110150463408   -0.0012121347164304316
-0.001068128924008058   -0.02910118413860509   -0.0012512380821971946
0.0013411681921557863   -0.02904373789952958   -0.0012737431474294156
0.0020463795399077245   -0.023957556922664994   -0.0012533550563417649
0.001391262872424786   -0.029027871423423047   -0.0012146016592508662
-0.0005786921213285269   -0.023994110150463408   -0.0012121347164304316
0.002078412197438413   -0.02394505423200769   -0.0012142679291771404
0.001391262872424786   -0.029027871423423047   -0.0012146016592508662
0.0020463795399077245   -0.023957556922664994   -0.0012533550563417649
-0.0005786921213285269   -0.023994110150463408   -0.0012121347164304316
0.001391262872424786   -0.029027871423423047   -0.0012146016592508662
-0.0010271719442727823   -0.0291013743463395   -0.0012138003046697945
-0.001068128924008058   -0.02910118413860509   -0.0012512380821971946
-0.0005786921213285269   -0.023994110150463408   -0.0012121347164304316
0.001391262872424786   -0.029027871423423047   -0.0012146016592508662
-0.001068128924008058   -0.02910118413860509   -0.0012512380821971946
0.0020463795399077245   -0.023957556922664994   -0.0012533550563417649
-0.0005786921213285269   -0.023994110150463408   -0.0012121347164304316
-0.0010271719442727823   -0.0291013743463395   -0.0012138003046697945
0.002078412197438413   -0.02394505423200769   -0.0012142679291771404
-0.000554843561630106   -0.024003798347390286   -0.0011872115779124727
-0.0010271719442727823   -0.0291013743463395   -0.0012138003046697945
0.001391262872424786   -0.029027871423423047   -0.0012146016592508662
0.002078412197438413   -0.02394505423200769   -0.0012142679291771404
0.0014426909838130206   -0.029024858302599155   -0.0011612440527948634
-0.000554843561630106   -0.024003798347390286   -0.0011872115779124727
0.002108117252751441   -0.023938541347698662   -0.0011805226344073893
0.0014426909838130206   -0.029024858302599155   -0.0011612440527948634
0.002078412197438413   -0.02394505423200769   -0.0012142679291771404
-0.000554843561630106   -0.024003798347390286   -0.0011872115779124727
0.0014426909838130206   -0.029024858302599155   -0.0011612440527948634
-0.0009872726907312543   -0.02911280811039376   -0.001181802335388983
-0.0010271719442727823   -0.0291013743463395   -0.0012138003046697945
-0.000554843561630106   -0.024003798347390286   -0.0011872115779124727
0.0014426909838130206   -0.029024858302599155   -0.0011612440527948634
-0.0010271719442727823   -0.0291013743463395   -0.0012138003046697945
0.002078412197438413   -0.02394505423200769   -0.0012142679291771404
-0.000554843561630106   -0.024003798347390286   -0.0011872115779124727
-0.0009872726907312543   -0.02911280811039376   -0.001181802335388983
0.002108117252751441   -0.023938541347698662   -0.0011805226344073893
-0.0005345000584370168   -0.024018309771764043   -0.0011678338746565515
-0.0009872726907312543   -0.02911280811039376   -0.001181802335388983
0.0014426909838130206   -0.029024858302599155   -0.0011612440527948634
0.002108117252751441   -0.023938541347698662   -0.0011805226344073893
0.0014770002097796331   -0.029032339880223808   -0.001112906236218807
-0.0005345000584370168   -0.024018309771764043   -0.0011678338746565515
0.0021243534599873185   -0.023934928132240983   -0.0011517703823383757
0.0014770002097796331   -0.029032339880223808   -0.001112906236218807
0.002108117252751441   -0.023938541347698662   -0.0011805226344073893
-0.0005345000584370168   -0.024018309771764043   -0.0011678338746565515
0.0014770002097796331   -0.029032339880223808   -0.001112906236218807
-0.0009516276569505645   -0.029136418097084293   -0.001155431843143589
-0.0009872726907312543   -0.02911280811039376   -0.001181802335388983
-0.0005345000584370168   -0.024018309771764043   -0.0011678338746565515
0.0014770002097796331   -0.029032339880223808   -0.001112906236218807
-0.0009872726907312543   -0.02911280811039376   -0.001181802335388983
0.002108117252751441   -0.023938541347698662   -0.0011805226344073893
0.0020463795399077245   -0.023957556922664994   -0.0012533550563417649
0.0013411681921557863   -0.02904373789952958   -0.0012737431474294156
0.0048826137783948755   -0.02390454538838508   -0.0012978118444403241
0.002078412197438413   -0.02394505423200769   -0.0012142679291771404
0.0013411681921557863   -0.02904373789952958   -0.0012737431474294156
0.0039023063938058494   -0.028944923265552133   -0.001331254862680683
0.0048826137783948755   -0.02390454538838508   -0.0012978118444403241
0.0040356536280478205   -0.028912357628687747   -0.0012451055005975966
0.002078412197438413   -0.02394505423200769   -0.0012142679291771404
0.004965716341420169   -0.023876073351467044   -0.0012463604333604614
0.0040356536280478205   -0.028912357628687747   -0.0012451055005975966
0.0048826137783948755   -0.02390454538838508   -0.0012978118444403241
0.002078412197438413   -0.02394505423200769   -0.0012142679291771404
0.0040356536280478205   -0.028912357628687747   -0.0012451055005975966
0.001391262872424786   -0.029027871423423047   -0.0012146016592508662
0.0013411681921557863   -0.02904373789952958   -0.0012737431474294156
0.002078412197438413   -0.02394505423200769   -0.0012142679291771404
0.0040356536280478205   -0.028912357628687747   -0.0012451055005975966
0.0013411681921557863   -0.02904373789952958   -0.0012737431474294156
0.0048826137783948755   -0.02390454538838508   -0.0012978118444403241
0.002078412197438413   -0.02394505423200769   -0.0012142679291771404
0.001391262872424786   -0.029027871423423047   -0.0012146016592508662
0.004965716341420169   -0.023876073351467044   -0.0012463604333604614
0.002108117252751441   -0.023938541347698662   -0.0011805226344073893
0.001391262872424786   -0.029027871423423047   -0.0012146016592508662
0.0040356536280478205   -0.028912357628687747   -0.0012451055005975966
0.004965716341420169   -0.023876073351467044   -0.0012463604333604614
0.004134533487823515   -0.02890335150450927   -0.0011666572085588627
0.002108117252751441   -0.023938541347698662   -0.0011805226344073893
0.005023072567844537   -0.02386225111902243   -0.00120252703735204
0.004134533487823515   -0.02890335150450927   -0.0011666572085588627
0.004965716341420169   -0.023876073351467044   -0.0012463604333604614
0.002108117252751441   -0.023938541347698662   -0.0011805226344073893
0.004134533487823515   -0.02890335150450927   -0.0011666572085588627
0.0014426909838130206   -0.029024858302599155   -0.0011612440527948634
0.001391262872424786   -0.029027871423423047   -0.0012146016592508662
0.002108117252751441   -0.023938541347698662   -0.0011805226344073893
0.004134533487823515   -0.02890335150450927   -0.0011666572085588627
0.001391262872424786   -0.029027871423423047   -0.0012146016592508662
0.004965716341420169   -0.023876073351467044   -0.0012463604333604614
0.002108117252751441   -0.023938541347698662   -0.0011805226344073893
0.0014426909838130206   -0.029024858302599155   -0.0011612440527948634
0.005023072567844537   -0.02386225111902243   -0.00120252703735204
0.0021243534599873185   -0.023934928132240983   -0.0011517703823383757
0.0014426909838130206   -0.029024858302599155   -0.0011612440527948634
0.004134533487823515   -0.02890335150450927   -0.0011666572085588627
0.005023072567844537   -0.02386225111902243   -0.00120252703735204
0.0042350283774031435   -0.02890331684378151   -0.0010962677266278592
0.0021243534599873185   -0.023934928132240983   -0.0011517703823383757
0.0050743353471526965   -0.023847389590103053   -0.001166630510458395
0.0042350283774031435   -0.02890331684378151   -0.0010962677266278592
0.005023072567844537   -0.02386225111902243   -0.00120252703735204
0.0021243534599873185   -0.023934928132240983   -0.0011517703823383757
0.0042350283774031435   -0.02890331684378151   -0.0010962677266278592
0.0014770002097796331   -0.029032339880223808   -0.001112906236218807
0.0014426909838130206   -0.029024858302599155   -0.0011612440527948634
0.0021243534599873185   -0.023934928132240983   -0.0011517703823383757
0.0042350283774031435   -0.02890331684378151   -0.0010962677266278592
0.0014426909838130206   -0.029024858302599155   -0.0011612440527948634
0.005023072567844537   -0.02386225111902243   -0.00120252703735204
-0.00847906762640405   -0.029038130756576356   -0.0013321297966153462
-0.007739136806260346   -0.03350351221843969   -0.001242920518342127
-0.005800354106203254   -0.029096249226893713   -0.0012855860092199334
-0.00841753281228425   -0.02907786222398635   -0.001365875178652301
-0.007739136806260346   -0.03350351221843969   -0.001242920518342127
-0.005485832977103551   -0.033607973867862406   -0.0012355540886514076
-0.005800354106203254   -0.029096249226893713   -0.0012855860092199334
-0.005429908282188615   -0.033623057407431524   -0.001260311085556009
-0.00841753281228425   -0.02907786222398635   -0.001365875178652301
-0.005766287349358785   -0.029125667067323162   -0.0012927130077909816
-0.005429908282188615   -0.033623057407431524   -0.001260311085556009
-0.005800354106203254   -0.029096249226893713   -0.0012855860092199334
-0.00841753281228425   -0.02907786222398635   -0.001365875178652301
-0.005429908282188615   -0.033623057407431524   -0.001260311085556009
-0.00762236472709296   -0.03352586439265703   -0.0013123617523103435
-0.007739136806260346   -0.03350351221843969   -0.001242920518342127
-0.00841753281228425   -0.02907786222398635   -0.001365875178652301
-0.005429908282188615   -0.033623057407431524   -0.001260311085556009
-0.007739136806260346   -0.03350351221843969   -0.001242920518342127
-0.005800354106203254   -0.029096249226893713   -0.0012855860092199334
-0.00841753281228425   -0.02907786222398635   -0.001365875178652301
-0.00762236472709296   -0.03352586439265703   -0.0013123617523103435
-0.005766287349358785   -0.029125667067323162   -0.0012927130077909816
-0.008347518445535503   -0.029126809765383926   -0.001408253282260485
-0.00762236472709296   -0.03352586439265703   -0.0013123617523103435
-0.005429908282188615   -0.033623057407431524   -0.001260311085556009
-0.005766287349358785   -0.029125667067323162   -0.0012927130077909816
-0.005359653235591187   -0.03365932339778711   -0.0012906200072002672
-0.008347518445535503   -0.029126809765383926   -0.001408253282260485
-0.005720269311464472   -0.029167695715585706   -0.0013053315172704084
-0.005359653235591187   -0.03365932339778711   -0.0012906200072002672
-0.005766287349358785   -0.029125667067323162   -0.0012927130077909816
-0.008347518445535503   -0.029126809765383926   -0.001408253282260485
-0.005359653235591187   -0.03365932339778711   -0.0012906200072002672
-0.0075060413689010935   -0.033568430756279535   -0.001390841255286682
-0.00762236472709296   -0.03352586439265703   -0.0013123617523103435
-0.008347518445535503   -0.029126809765383926   -0.001408253282260485
-0.005359653235591187   -0.03365932339778711   -0.0012906200072002672
-0.00762236472709296   -0.03352586439265703   -0.0013123617523103435
-0.005766287349358785   -0.029125667067323162   -0.0012927130077909816
-0.008347518445535503   -0.029126809765383926   -0.001408253282260485
-0.0075060413689010935   -0.033568430756279535   -0.001390841255286682
-0.005720269311464472   -0.029167695715585706   -0.0013053315172704084
-0.008252342267678405   -0.029201412088987612   -0.0014594347799571183
-0.0075060413689010935   -0.033568430756279535   -0.001390841255286682
-0.005359653235591187   -0.03365932339778711   -0.0012906200072002672
-0.005720269311464472   -0.029167695715585706   -0.0013053315172704084
-0.005290362858726772   -0.03371883432380312   -0.0013264282688688724
-0.008252342267678405   -0.029201412088987612   -0.0014594347799571183
-0.005670939920081753   -0.029224906107841453   -0.0013235961222625976
-0.005290362858726772   -0.03371883432380312   -0.0013264282688688724
-0.005720269311464472   -0.029167695715585706   -0.0013053315172704084
-0.008252342267678405   -0.029201412088987612   -0.0014594347799571183
-0.005290362858726772   -0.03371883432380312   -0.0013264282688688724
-0.007357081993858622   -0.03364780577636186   -0.0014782045017437434
-0.0075060413689010935   -0.033568430756279535   -0.001390841255286682
-0.008252342267678405   -0.029201412088987612   -0.0014594347799571183
-0.005290362858726772   -0.03371883432380312   -0.0013264282688688724
-0.0075060413689010935   -0.033568430756279535   -0.001390841255286682
-0.005720269311464472   -0.029167695715585706   -0.0013053315172704084
-0.005800354106203254   -0.029096249226893713   -0.0012855860092199334
-0.005485832977103551   -0.033607973867862406   -0.0012355540886514076
-0.003397962477029435   -0.029119061232278448   -0.0012558415407947828
-0.005766287349358785   -0.029125667067323162   -0.0012927130077909816
-0.005485832977103551   -0.033607973867862406   -0.0012355540886514076
-0.003532877930847957   -0.03365661536850424   -0.0012327198015628191
-0.003397962477029435   -0.029119061232278448   -0.0012558415407947828
-0.0034755543224189844   -0.03366151672480464   -0.0012215698774255643
-0.005766287349358785   -0.029125667067323162   -0.0012927130077909816
-0.003360923606083326   -0.02913429193757677   -0.0012402973398781374
-0.0034755543224189844   -0.03366151672480464   -0.0012215698774255643
-0.003397962477029435   -0.029119061232278448   -0.0012558415407947828
-0.005766287349358785   -0.029125667067323162   -0.0012927130077909816
-0.0034755543224189844   -0.03366151672480464   -0.0012215698774255643
-0.005429908282188615   -0.033623057407431524   -0.001260311085556009
-0.005485832977103551   -0.033607973867862406   -0.0012355540886514076
-0.005766287349358785   -0.029125667067323162   -0.0012927130077909816
-0.0034755543224189844   -0.03366151672480464   -0.0012215698774255643
-0.005485832977103551   -0.033607973867862406   -0.0012355540886514076
-0.003397962477029435   -0.029119061232278448   -0.0012558415407947828
-0.005766287349358785   -0.029125667067323162   -0.0012927130077909816
-0.005429908282188615   -0.033623057407431524   -0.001260311085556009
-0.003360923606083326   -0.02913429193757677   -0.0012402973398781374
-0.005720269311464472   -0.029167695715585706   -0.0013053315172704084
-0.005429908282188615   -0.033623057407431524   -0.001260311085556009
-0.0034755543224189844   -0.03366151672480464   -0.0012215698774255643
-0.003360923606083326   -0.02913429193757677   -0.0012402973398781374
-0.003416368174861785   -0.033685344440372175   -0.0012158071957553314
-0.005720269311464472   -0.029167695715585706   -0.0013053315172704084
-0.0033211032977548565   -0.029161635668871394   -0.0012301763503911344
-0.003416368174861785   -0.033685344440372175   -0.0012158071957553314
-0.003360923606083326   -0.02913429193757677   -0.0012402973398781374
-0.005720269311464472   -0.029167695715585706   -0.0013053315172704084
-0.003416368174861785   -0.033685344440372175   -0.0012158071957553314
-0.005359653235591187   -0.03365932339778711   -0.0012906200072002672
-0.005429908282188615   -0.033623057407431524   -0.001260311085556009
-0.005720269311464472   -0.029167695715585706   -0.0013053315172704084
-0.003416368174861785   -0.033685344440372175   -0.0012158071957553314
-0.005429908282188615   -0.033623057407431524   -0.001260311085556009
-0.003360923606083326   -0.02913429193757677   -0.0012402973398781374
-0.005720269311464472   -0.029167695715585706   -0.0013053315172704084
-0.005359653235591187   -0.03365932339778711   -0.0012906200072002672
-0.0033211032977548565   -0.029161635668871394   -0.0012301763503911344
-0.005670939920081753   -0.029224906107841453   -0.0013235961222625976
-0.005359653235591187   -0.03365932339778711   -0.0012906200072002672
-0.003416368174861785   -0.033685344440372175   -0.0012158071957553314
-0.0033211032977548565   -0.029161635668871394   -0.0012301763503911344
-0.0033572674394584585   -0.033729186603180125   -0.0012153714449548855
-0.005670939920081753   -0.029224906107841453   -0.0013235961222625976
-0.0032801739516836585   -0.02920143216350207   -0.001225748506081051
-0.0033572674394584585   -0.033729186603180125   -0.0012153714449548855
-0.0033211032977548565   -0.029161635668871394   -0.0012301763503911344
-0.005670939920081753   -0.029224906107841453   -0.0013235961222625976
-0.0033572674394584585   -0.033729186603180125   -0.0012153714449548855
-0.005290362858726772   -0.03371883432380312   -0.0013264282688688724
-0.005359653235591187   -0.03365932339778711   -0.0012906200072002672
-0.005670939920081753   -0.029224906107841453   -0.0013235961222625976
-0.0033572674394584585   -0.033729186603180125   -0.0012153714449548855
-0.005359653235591187   -0.03365932339778711   -0.0012906200072002672
-0.0033211032977548565   -0.029161635668871394   -0.0012301763503911344
-0.003397962477029435   -0.029119061232278448   -0.0012558415407947828
-0.003532877930847957   -0.03365661536850424   -0.0012327198015628191
-0.001068128924008058   -0.02910118413860509   -0.0012512380821971946
-0.003360923606083326   -0.02913429193757677   -0.0012402973398781374
-0.003532877930847957   -0.03365661536850424   -0.0012327198015628191
-0.0016445610952476248   -0.0336472115425422   -0.001246958461808702
-0.001068128924008058   -0.02910118413860509   -0.0012512380821971946
-0.001581777473999475   -0.033640655675789125   -0.0012011555745158468
-0.003360923606083326   -0.02913429193757677   -0.0012402973398781374
-0.0010271719442727823   -0.0291013743463395   -0.0012138003046697945
-0.001581777473999475   -0.033640655675789125   -0.0012011555745158468
-0.001068128924008058   -0.02910118413860509   -0.0012512380821971946
-0.003360923606083326   -0.02913429193757677   -0.0012402973398781374
-0.001581777473999475   -0.033640655675789125   -0.0012011555745158468
-0.0034755543224189844   -0.03366151672480464   -0.0012215698774255643
-0.003532877930847957   -0.03365661536850424   -0.0012327198015628191
-0.003360923606083326   -0.02913429193757677   -0.0012402973398781374
-0.001581777473999475   -0.033640655675789125   -0.0012011555745158468
-0.003532877930847957   -0.03365661536850424   -0.0012327198015628191
-0.001068128924008058   -0.02910118413860509   -0.0012512380821971946
-0.003360923606083326   -0.02913429193757677   -0.0012402973398781374
-0.0034755543224189844   -0.03366151672480464   -0.0012215698774255643
-0.0010271719442727823   -0.0291013743463395   -0.0012138003046697945
-0.0033211032977548565   -0.029161635668871394   -0.0012301763503911344
-0.0034755543224189844   -0.03366151672480464   -0.0012215698774255643
-0.001581777473999475   -0.033640655675789125   -0.0012011555745158468
-0.0010271719442727823   -0.0291013743463395   -0.0012138003046697945
-0.0015208138197230086   -0.03365124651884765   -0.0011610964847762278
-0.0033211032977548565   -0.029161635668871394   -0.0012301763503911344
-0.0009872726907312543   -0.02911280811039376   -0.001181802335388983
-0.0015208138197230086   -0.03365124651884765   -0.0011610964847762278
-0.0010271719442727823   -0.0291013743463395   -0.0012138003046697945
-0.0033211032977548565   -0.029161635668871394   -0.0012301763503911344
-0.0015208138197230086   -0.03365124651884765   -0.0011610964847762278
-0.003416368174861785   -0.033685344440372175   -0.0012158071957553314
-0.0034755543224189844   -0.03366151672480464   -0.0012215698774255643
-0.0033211032977548565   -0.029161635668871394   -0.0012301763503911344
-0.0015208138197230086   -0.03365124651884765   -0.0011610964847762278
-0.0034755543224189844   -0.03366151672480464   -0.0012215698774255643
-0.0010271719442727823   -0.0291013743463395   -0.0012138003046697945
-0.0033211032977548565   -0.029161635668871394   -0.0012301763503911344
-0.003416368174861785   -0.033685344440372175   -0.0012158071957553314
-0.0009872726907312543   -0.02911280811039376   -0.001181802335388983
-0.0032801739516836585   -0.02920143216350207   -0.001225748506081051
-0.003416368174861785   -0.033685344440372175   -0.0012158071957553314
-0.0015208138197230086   -0.03365124651884765   -0.0011610964847762278
-0.0009872726907312543   -0.02911280811039376   -0.001181802335388983
-0.0014657062396883024   -0.03368141464881768   -0.0011262883954607935
-0.0032801739516836585   -0.02920143216350207   -0.001225748506081051
-0.0009516276569505645   -0.029136418097084293   -0.001155431843143589
-0.0014657062396883024   -0.03368141464881768   -0.0011262883954607935
-0.0009872726907312543   -0.02911280811039376   -0.001181802335388983
-0.0032801739516836585   -0.02920143216350207   -0.001225748506081051
-0.0014657062396883024   -0.03368141464881768   -0.0011262883954607935
-0.0033572674394584585   -0.033729186603180125   -0.0012153714449548855
-0.003416368174861785   -0.033685344440372175   -0.0012158071957553314
-0.0032801739516836585   -0.02920143216350207   -0.001225748506081051
-0.0014657062396883024   -0.03368141464881768   -0.0011262883954607935
-0.003416368174861785   -0.033685344440372175   -0.0012158071957553314
-0.0009872726907312543   -0.02911280811039376   -0.001181802335388983
-0.001068128924008058   -0.02910118413860509   -0.0012512380821971946
-0.0016445610952476248   -0.0336472115425422   -0.001246958461808702
0.0013411681921557863   -0.02904373789952958   -0.0012737431474294156
-0.0010271719442727823   -0.0291013743463395   -0.0012138003046697945
-0.0016445610952476248   -0.0336472115425422   -0.001246958461808702
0.0003308675131893666   -0.03357767440632692   -0.0012813064683565277
0.0013411681921557863   -0.02904373789952958   -0.0012737431474294156
0.0004073036614331848   -0.03355660776071182   -0.0012009525441068216
-0.0010271719442727823   -0.0291013743463395   -0.0012138003046697945
0.001391262872424786   -0.029027871423423047   -0.0012146016592508662
0.0004073036614331848   -0.03355660776071182   -0.0012009525441068216
0.0013411681921557863   -0.02904373789952958   -0.0012737431474294156
-0.0010271719442727823   -0.0291013743463395   -0.0012138003046697945
0.0004073036614331848   -0.03355660776071182   -0.0012009525441068216
-0.001581777473999475   -0.033640655675789125   -0.0012011555745158468
-0.0016445610952476248   -0.0336472115425422   -0.001246958461808702
-0.0010271719442727823   -0.0291013743463395   -0.0012138003046697945
0.0004073036614331848   -0.03355660776071182   -0.0012009525441068216
-0.0016445610952476248   -0.0336472115425422   -0.001246958461808702
0.0013411681921557863   -0.02904373789952958   -0.0012737431474294156
-0.0010271719442727823   -0.0291013743463395   -0.0012138003046697945
-0.001581777473999475   -0.033640655675789125   -0.0012011555745158468
0.001391262872424786   -0.029027871423423047   -0.0012146016592508662
-0.0009872726907312543   -0.02911280811039376   -0.001181802335388983
-0.001581777473999475   -0.033640655675789125   -0.0012011555745158468
0.0004073036614331848   -0.03355660776071182   -0.0012009525441068216
0.001391262872424786   -0.029027871423423047   -0.0012146016592508662
0.0004879538093935241   -0.033554707798395915   -0.0011278715279407915
-0.0009872726907312543   -0.02911280811039376   -0.001181802335388983
0.0014426909838130206   -0.029024858302599155   -0.0011612440527948634
0.0004879538093935241   -0.033554707798395915   -0.0011278715279407915
0.001391262872424786   -0.029027871423423047   -0.0012146016592508662
-0.0009872726907312543   -0.02911280811039376   -0.001181802335388983
0.0004879538093935241   -0.033554707798395915   -0.0011278715279407915
-0.0015208138197230086   -0.03365124651884765   -0.0011610964847762278
-0.001581777473999475   -0.033640655675789125   -0.0012011555745158468
-0.0009872726907312543   -0.02911280811039376   -0.001181802335388983
0.0004879538093935241   -0.033554707798395915   -0.0011278715279407915
-0.001581777473999475   -0.033640655675789125   -0.0012011555745158468
0.001391262872424786   -0.029027871423423047   -0.0012146016592508662
-0.0009872726907312543   -0.02911280811039376   -0.001181802335388983
-0.0015208138197230086   -0.03365124651884765   -0.0011610964847762278
0.0014426909838130206   -0.029024858302599155   -0.0011612440527948634
-0.0009516276569505645   -0.029136418097084293   -0.001155431843143589
-0.0015208138197230086   -0.03365124651884765   -0.0011610964847762278
0.0004879538093935241   -0.033554707798395915   -0.0011278715279407915
0.0014426909838130206   -0.029024858302599155   -0.0011612440527948634
0.0005469361555711744   -0.03357108811582232   -0.0010597945180267204
-0.0009516276569505645   -0.029136418097084293   -0.001155431843143589
0.0014770002097796331   -0.029032339880223808   -0.001112906236218807
0.0005469361555711744   -0.03357108811582232   -0.0010597945180267204
0.0014426909838130206   -0.029024858302599155   -0.0011612440527948634
-0.0009516276569505645   -0.029136418097084293   -0.001155431843143589
0.0005469361555711744   -0.03357108811582232   -0.0010597945180267204
-0.0014657062396883024   -0.03368141464881768   -0.0011262883954607935
-0.0015208138197230086   -0.03365124651884765   -0.0011610964847762278
-0.0009516276569505645   -0.029136418097084293   -0.001155431843143589
0.0005469361555711744   -0.03357108811582232   -0.0010597945180267204
-0.0015208138197230086   -0.03365124651884765   -0.0011610964847762278
0.0014426909838130206   -0.029024858302599155   -0.0011612440527948634
0.0013411681921557863   -0.02904373789952958   -0.0012737431474294156
0.0003308675131893666   -0.03357767440632692   -0.0012813064683565277
0.0039023063938058494   -0.028944923265552133   -0.001331254862680683
0.001391262872424786   -0.029027871423423047   -0.0012146016592508662
0.0003308675131893666   -0.03357767440632692   -0.0012813064683565277
0.002434278319009473   -0.03344145241803121   -0.001354272052399435
0.0039023063938058494   -0.028944923265552133   -0.001331254862680683
0.0026286458461659045   -0.03340109986110941   -0.0012312484293717139
0.001391262872424786   -0.029027871423423047   -0.0012146016592508662
0.0040356536280478205   -0.028912357628687747   -0.0012451055005975966
0.0026286458461659045   -0.03340109986110941   -0.0012312484293717139
0.0039023063938058494   -0.028944923265552133   -0.001331254862680683
0.001391262872424786   -0.029027871423423047   -0.0012146016592508662
0.0026286458461659045   -0.03340109986110941   -0.0012312484293717139
0.0004073036614331848   -0.03355660776071182   -0.0012009525441068216
0.0003308675131893666   -0.03357767440632692   -0.0012813064683565277
0.001391262872424786   -0.029027871423423047   -0.0012146016592508662
0.0026286458461659045   -0.03340109986110941   -0.0012312484293717139
0.0003308675131893666   -0.03357767440632692   -0.0012813064683565277
0.0039023063938058494   -0.028944923265552133   -0.001331254862680683
0.001391262872424786   -0.029027871423423047   -0.0012146016592508662
0.0004073036614331848   -0.03355660776071182   -0.0012009525441068216
0.0040356536280478205   -0.028912357628687747   -0.0012451055005975966
0.0014426909838130206   -0.029024858302599155   -0.0011612440527948634
0.0004073036614331848   -0.03355660776071182   -0.0012009525441068216
0.0026286458461659045   -0.03340109986110941   -0.0012312484293717139
0.0040356536280478205   -0.028912357628687747   -0.0012451055005975966
0.002777728389531872   -0.03339410954894727   -0.0011172470899410674
0.0014426909838130206   -0.029024858302599155   -0.0011612440527948634
0.004134533487823515   -0.02890335150450927   -0.0011666572085588627
0.002777728389531872   -0.03339410954894727   -0.0011172470899410674
0.0040356536280478205   -0.028912357628687747   -0.0012451055005975966
0.0014426909838130206   -0.029024858302599155   -0.0011612440527948634
0.002777728389531872   -0.03339410954894727   -0.0011172470899410674
0.0004879538093935241   -0.033554707798395915   -0.0011278715279407915
0.0004073036614331848   -0.03355660776071182   -0.0012009525441068216
0.0014426909838130206   -0.029024858302599155   -0.0011612440527948634
0.002777728389531872   -0.03339410954894727   -0.0011172470899410674
0.0004073036614331848   -0.03355660776071182   -0.0012009525441068216
0.0040356536280478205   -0.028912357628687747   -0.0012451055005975966
0.0014426909838130206   -0.029024858302599155   -0.0011612440527948634
0.0004879538093935241   -0.033554707798395915   -0.0011278715279407915
0.004134533487823515   -0.02890335150450927   -0.0011666572085588627
0.0014770002097796331   -0.029032339880223808   -0.001112906236218807
0.0004879538093935241   -0.033554707798395915   -0.0011278715279407915
0.002777728389531872   -0.03339410954894727   -0.0011172470899410674
0.004134533487823515   -0.02890335150450927   -0.0011666572085588627
0.0029325145219614786   -0.0334061990709535   -0.0010131935165534293
0.0014770002097796331   -0.029032339880223808   -0.001112906236218807
0.0042350283774031435   -0.02890331684378151   -0.0010962677266278592
0.0029325145219614786   -0.0334061990709535   -0.0010131935165534293
0.004134533487823515   -0.02890335150450927   -0.0011666572085588627
0.0014770002097796331   -0.029032339880223808   -0.001112906236218807
0.0029325145219614786   -0.0334061990709535   -0.0010131935165534293
0.0005469361555711744   -0.03357108811582232   -0.0010597945180267204
0.0004879538093935241   -0.033554707798395915   -0.0011278715279407915
0.0014770002097796331   -0.029032339880223808   -0.001112906236218807
0.0029325145219614786   -0.0334061990709535   -0.0010131935165534293
0.0004879538093935241   -0.033554707798395915   -0.0011278715279407915
0.004134533487823515   -0.02890335150450927   -0.0011666572085588627
-0.007739136806260346   -0.03350351221843969   -0.001242920518342127
-0.006488624769745828   -0.0370064504331368   -0.0011282400639674739
-0.005485832977103551   -0.033607973867862406   -0.0012355540886514076
-0.00762236472709296   -0.03352586439265703   -0.0013123617523103435
-0.006488624769745828   -0.0370064504331368   -0.0011282400639674739
-0.004884232502952886   -0.037160705924547635   -0.0011744172895613338
-0.005485832977103551   -0.033607973867862406   -0.0012355540886514076
-0.004804112391085159   -0.03715290724239372   -0.0012124940466682074
-0.00762236472709296   -0.03352586439265703   -0.0013123617523103435
-0.005429908282188615   -0.033623057407431524   -0.001260311085556009
-0.004804112391085159   -0.03715290724239372   -0.0012124940466682074
-0.005485832977103551   -0.033607973867862406   -0.0012355540886514076
-0.00762236472709296   -0.03352586439265703   -0.0013123617523103435
-0.004804112391085159   -0.03715290724239372   -0.0012124940466682074
-0.006315270110838557   -0.03700220449981211   -0.001230876532618828
-0.006488624769745828   -0.0370064504331368   -0.0011282400639674739
-0.00762236472709296   -0.03352586439265703   -0.0013123617523103435
-0.004804112391085159   -0.03715290724239372   -0.0012124940466682074
-0.006488624769745828   -0.0370064504331368   -0.0011282400639674739
-0.005485832977103551   -0.033607973867862406   -0.0012355540886514076
-0.00762236472709296   -0.03352586439265703   -0.0013123617523103435
-0.006315270110838557   -0.03700220449981211   -0.001230876532618828
-0.005429908282188615   -0.033623057407431524   -0.001260311085556009
-0.0075060413689010935   -0.033568430756279535   -0.001390841255286682
-0.006315270110838557   -0.03700220449981211   -0.001230876532618828
-0.004804112391085159   -0.03715290724239372   -0.0012124940466682074
-0.005429908282188615   -0.033623057407431524   -0.001260311085556009
-0.0047097769658094495   -0.03717536767201908   -0.0012562240659543878
-0.0075060413689010935   -0.033568430756279535   -0.001390841255286682
-0.005359653235591187   -0.03365932339778711   -0.0012906200072002672
-0.0047097769658094495   -0.03717536767201908   -0.0012562240659543878
-0.005429908282188615   -0.033623057407431524   -0.001260311085556009
-0.0075060413689010935   -0.033568430756279535   -0.001390841255286682
-0.0047097769658094495   -0.03717536767201908   -0.0012562240659543878
-0.006155578291940078   -0.03702991362182932   -0.0013414823459452177
-0.006315270110838557   -0.03700220449981211   -0.001230876532618828
-0.0075060413689010935   -0.033568430756279535   -0.001390841255286682
-0.0047097769658094495   -0.03717536767201908   -0.0012562240659543878
-0.006315270110838557   -0.03700220449981211   -0.001230876532618828
-0.005429908282188615   -0.033623057407431524   -0.001260311085556009
-0.0075060413689010935   -0.033568430756279535   -0.001390841255286682
-0.006155578291940078   -0.03702991362182932   -0.0013414823459452177
-0.005359653235591187   -0.03365932339778711   -0.0012906200072002672
-0.007357081993858622   -0.03364780577636186   -0.0014782045017437434
-0.006155578291940078   -0.03702991362182932   -0.0013414823459452177
-0.0047097769658094495   -0.03717536767201908   -0.0012562240659543878
-0.005359653235591187   -0.03365932339778711   -0.0012906200072002672
-0.004624201839459926   -0.03722861438105848   -0.0013052478767737728
-0.007357081993858622   -0.03364780577636186   -0.0014782045017437434
-0.005290362858726772   -0.03371883432380312   -0.0013264282688688724
-0.004624201839459926   -0.03722861438105848   -0.0013052478767737728
-0.005359653235591187   -0.03365932339778711   -0.0012906200072002672
-0.007357081993858622   -0.03364780577636186   -0.0014782045017437434
-0.004624201839459926   -0.03722861438105848   -0.0013052478767737728
-0.005960736314151367   -0.037103572038598175   -0.0014595997058202532
-0.006155578291940078   -0.03702991362182932   -0.0013414823459452177
-0.007357081993858622   -0.03364780577636186   -0.0014782045017437434
-0.004624201839459926   -0.03722861438105848   -0.0013052478767737728
-0.006155578291940078   -0.03702991362182932   -0.0013414823459452177
-0.005359653235591187   -0.03365932339778711   -0.0012906200072002672
-0.005485832977103551   -0.033607973867862406   -0.0012355540886514076
-0.004884232502952886   -0.037160705924547635   -0.0011744172895613338
-0.003532877930847957   -0.03365661536850424   -0.0012327198015628191
-0.005429908282188615   -0.033623057407431524   -0.001260311085556009
-0.004884232502952886   -0.037160705924547635   -0.0011744172895613338
-0.003571145710446748   -0.03726000184435188   -0.0012105791553823453
-0.003532877930847957   -0.03365661536850424   -0.0012327198015628191
-0.0034890261616779958   -0.03724735644154459   -0.0011989488445919316
-0.005429908282188615   -0.033623057407431524   -0.001260311085556009
-0.0034755543224189844   -0.03366151672480464   -0.0012215698774255643
-0.0034890261616779958   -0.03724735644154459   -0.0011989488445919316
-0.003532877930847957   -0.03365661536850424   -0.0012327198015628191
-0.005429908282188615   -0.033623057407431524   -0.001260311085556009
-0.0034890261616779958   -0.03724735644154459   -0.0011989488445919316
-0.004804112391085159   -0.03715290724239372   -0.0012124940466682074
-0.004884232502952886   -0.037160705924547635   -0.0011744172895613338
-0.005429908282188615   -0.033623057407431524   -0.001260311085556009
-0.0034890261616779958   -0.03724735644154459   -0.0011989488445919316
-0.004884232502952886   -0.037160705924547635   -0.0011744172895613338
-0.003532877930847957   -0.03365661536850424   -0.0012327198015628191
-0.005429908282188615   -0.033623057407431524   -0.001260311085556009
-0.004804112391085159   -0.03715290724239372   -0.0012124940466682074
-0.0034755543224189844   -0.03366151672480464   -0.0012215698774255643
-0.005359653235591187   -0.03365932339778711   -0.0012906200072002672
-0.004804112391085159   -0.03715290724239372   -0.0012124940466682074
-0.0034890261616779958   -0.03724735644154459   -0.0011989488445919316
-0.0034755543224189844   -0.03366151672480464   -0.0012215698774255643
-0.0034080032874969765   -0.03726086160271997   -0.0011928163304856555
-0.005359653235591187   -0.03365932339778711   -0.0012906200072002672
-0.003416368174861785   -0.033685344440372175   -0.0012158071957553314
-0.0034080032874969765   -0.03726086160271997   -0.0011928163304856555
-0.0034755543224189844   -0.03366151672480464   -0.0012215698774255643
-0.005359653235591187   -0.03365932339778711   -0.0012906200072002672
-0.0034080032874969765   -0.03726086160271997   -0.0011928163304856555
-0.0047097769658094495   -0.03717536767201908   -0.0012562240659543878
-0.004804112391085159   -0.03715290724239372   -0.0012124940466682074
-0.005359653235591187   -0.03365932339778711   -0.0012906200072002672
-0.0034080032874969765   -0.03726086160271997   -0.0011928163304856555
-0.004804112391085159   -0.03715290724239372   -0.0012124940466682074
-0.0034755543224189844   -0.03366151672480464   -0.0012215698774255643
-0.005359653235591187   -0.03365932339778711   -0.0012906200072002672
-0.0047097769658094495   -0.03717536767201908   -0.0012562240659543878
-0.003416368174861785   -0.033685344440372175   -0.0012158071957553314
-0.005290362858726772   -0.03371883432380312   -0.0013264282688688724
-0.0047097769658094495   -0.03717536767201908   -0.0012562240659543878
-0.0034080032874969765   -0.03726086160271997   -0.0011928163304856555
-0.003416368174861785   -0.033685344440372175   -0.0012158071957553314
-0.0033333901695237517   -0.037301361686891195   -0.0011933230100028072
-0.005290362858726772   -0.03371883432380312   -0.0013264282688688724
-0.0033572674394584585   -0.033729186603180125   -0.0012153714449548855
-0.0033333901695237517   -0.037301361686891195   -0.0011933230100028072
-0.003416368174861785   -0.033685344440372175   -0.0012158071957553314
-0.005290362858726772   -0.03371883432380312   -0.0013264282688688724
-0.0033333901695237517   -0.037301361686891195   -0.0011933230100028072
-0.004624201839459926   -0.03722861438105848   -0.0013052478767737728
-0.0047097769658094495   -0.03717536767201908   -0.0012562240659543878
-0.005290362858726772   -0.03371883432380312   -0.0013264282688688724
-0.0033333901695237517   -0.037301361686891195   -0.0011933230100028072
-0.0047097769658094495   -0.03717536767201908   -0.0012562240659543878
-0.003416368174861785   -0.033685344440372175   -0.0012158071957553314
-0.003532877930847957   -0.03365661536850424   -0.0012327198015628191
-0.003571145710446748   -0.03726000184435188   -0.0012105791553823453
-0.0016445610952476248   -0.0336472115425422   -0.001246958461808702
-0.0034755543224189844   -0.03366151672480464   -0.0012215698774255643
-0.003571145710446748   -0.03726000184435188   -0.0012105791553823453
-0.0023132501954322474   -0.03731110633604498   -0.0012535449909130945
-0.0016445610952476248   -0.0336472115425422   -0.001246958461808702
-0.0022207010648382566   -0.03729272115372494   -0.001194996431944009
-0.0034755543224189844   -0.03366151672480464   -0.0012215698774255643
-0.001581777473999475   -0.033640655675789125   -0.0012011555745158468
-0.0022207010648382566   -0.03729272115372494   -0.001194996431944009
-0.0016445610952476248   -0.0336472115425422   -0.001246958461808702
-0.0034755543224189844   -0.03366151672480464   -0.0012215698774255643
-0.0022207010648382566   -0.03729272115372494   -0.001194996431944009
-0.0034890261616779958   -0.03724735644154459   -0.0011989488445919316
-0.003571145710446748   -0.03726000184435188   -0.0012105791553823453
-0.0034755543224189844   -0.03366151672480464   -0.0012215698774255643
-0.0022207010648382566   -0.03729272115372494   -0.001194996431944009
-0.003571145710446748   -0.03726000184435188   -0.0012105791553823453
-0.0016445610952476248   -0.0336472115425422   -0.001246958461808702
-0.0034755543224189844   -0.03366151672480464   -0.0012215698774255643
-0.0034890261616779958   -0.03724735644154459   -0.0011989488445919316
-0.001581777473999475   -0.033640655675789125   -0.0012011555745158468
-0.003416368174861785   -0.033685344440372175   -0.0012158071957553314
-0.0034890261616779958   -0.03724735644154459   -0.0011989488445919316
-0.0022207010648382566   -0.03729272115372494   -0.001194996431944009
-0.001581777473999475   -0.033640655675789125   -0.0012011555745158468
-0.0021324308988376157   -0.03729738912202396   -0.0011413325374542884
-0.003416368174861785   -0.033685344440372175   -0.0012158071957553314
-0.0015208138197230086   -0.03365124651884765   -0.0011610964847762278
-0.0021324308988376157   -0.03729738912202396   -0.0011413325374542884
-0.001581777473999475   -0.033640655675789125   -0.0012011555745158468
-0.003416368174861785   -0.033685344440372175   -0.0012158071957553314
-0.0021324308988376157   -0.03729738912202396   -0.0011413325374542884
-0.0034080032874969765   -0.03726086160271997   -0.0011928163304856555
-0.0034890261616779958   -0.03724735644154459   -0.0011989488445919316
-0.003416368174861785   -0.033685344440372175   -0.0012158071957553314
-0.0021324308988376157   -0.03729738912202396   -0.0011413325374542884
-0.0034890261616779958   -0.03724735644154459   -0.0011989488445919316
-0.001581777473999475   -0.033640655675789125   -0.0012011555745158468
-0.003416368174861785   -0.033685344440372175   -0.0012158071957553314
-0.0034080032874969765   -0.03726086160271997   -0.0011928163304856555
-0.0015208138197230086   -0.03365124651884765   -0.0011610964847762278
-0.0033572674394584585   -0.033729186603180125   -0.0012153714449548855
-0.0034080032874969765   -0.03726086160271997   -0.0011928163304856555
-0.0021324308988376157   -0.03729738912202396   -0.0011413325374542884
-0.0015208138197230086   -0.03365124651884765   -0.0011610964847762278
-0.002058925637061075   -0.03732949510005499   -0.0010955478233019267
-0.0033572674394584585   -0.033729186603180125   -0.0012153714449548855
-0.0014657062396883024   -0.03368141464881768   -0.0011262883954607935
-0.002058925637061075   -0.03732949510005499   -0.0010955478233019267
-0.0015208138197230086   -0.03365124651884765   -0.0011610964847762278
-0.0033572674394584585   -0.033729186603180125   -0.0012153714449548855
-0.002058925637061075   -0.03732949510005499   -0.0010955478233019267
-0.0033333901695237517   -0.037301361686891195   -0.0011933230100028072
-0.0034080032874969765   -0.03726086160271997   -0.0011928163304856555
-0.0033572674394584585   -0.033729186603180125   -0.0012153714449548855
-0.002058925637061075   -0.03732949510005499   -0.0010955478233019267
-0.0034080032874969765   -0.03726086160271997   -0.0011928163304856555
-0.0015208138197230086   -0.03365124651884765   -0.0011610964847762278
-0.0016445610952476248   -0.0336472115425422   -0.001246958461808702
-0.0023132501954322474   -0.03731110633604498   -0.0012535449909130945
0.0003308675131893666   -0.03357767440632692   -0.0012813064683565277
-0.001581777473999475   -0.033640655675789125   -0.0012011555745158468
-0.0023132501954322474   -0.03731110633604498   -0.0012535449909130945
-0.0009772612576291707   -0.037295913975149336   -0.0013043545773969811
0.0003308675131893666   -0.03357767440632692   -0.0012813064683565277
-0.0008584322219639696   -0.03726705297709399   -0.0012008623567636035
-0.001581777473999475   -0.033640655675789125   -0.0012011555745158468
0.0004073036614331848   -0.03355660776071182   -0.0012009525441068216
-0.0008584322219639696   -0.03726705297709399   -0.0012008623567636035
0.0003308675131893666   -0.03357767440632692   -0.0012813064683565277
-0.001581777473999475   -0.033640655675789125   -0.0012011555745158468
-0.0008584322219639696   -0.03726705297709399   -0.0012008623567636035
-0.0022207010648382566   -0.03729272115372494   -0.001194996431944009
-0.0023132501954322474   -0.03731110633604498   -0.0012535449909130945
-0.001581777473999475   -0.033640655675789125   -0.0012011555745158468
-0.0008584322219639696   -0.03726705297709399   -0.0012008623567636035
-0.0023132501954322474   -0.03731110633604498   -0.0012535449909130945
0.0003308675131893666   -0.03357767440632692   -0.0012813064683565277
-0.001581777473999475   -0.033640655675789125   -0.0012011555745158468
-0.0022207010648382566   -0.03729272115372494   -0.001194996431944009
0.0004073036614331848   -0.03355660776071182   -0.0012009525441068216
-0.0015208138197230086   -0.03365124651884765   -0.0011610964847762278
-0.0022207010648382566   -0.03729272115372494   -0.001194996431944009
-0.0008584322219639696   -0.03726705297709399   -0.0012008623567636035
0.0004073036614331848   -0.03355660776071182   -0.0012009525441068216
-0.0007367238706345473   -0.037262091651313584   -0.001102580705628754
-0.0015208138197230086   -0.03365124651884765   -0.0011610964847762278
0.0004879538093935241   -0.033554707798395915   -0.0011278715279407915
-0.0007367238706345473   -0.037262091651313584   -0.001102580705628754
0.0004073036614331848   -0.03355660776071182   -0.0012009525441068216
-0.0015208138197230086   -0.03365124651884765   -0.0011610964847762278
-0.0007367238706345473   -0.037262091651313584   -0.001102580705628754
-0.0021324308988376157   -0.03729738912202396   -0.0011413325374542884
-0.0022207010648382566   -0.03729272115372494   -0.001194996431944009
-0.0015208138197230086   -0.03365124651884765   -0.0011610964847762278
-0.0007367238706345473   -0.037262091651313584   -0.001102580705628754
-0.0022207010648382566   -0.03729272115372494   -0.001194996431944009
0.0004073036614331848   -0.03355660776071182   -0.0012009525441068216
-0.0015208138197230086   -0.03365124651884765   -0.0011610964847762278
-0.0021324308988376157   -0.03729738912202396   -0.0011413325374542884
0.0004879538093935241   -0.033554707798395915   -0.0011278715279407915
-0.0014657062396883024   -0.03368141464881768   -0.0011262883954607935
-0.0021324308988376157   -0.03729738912202396   -0.0011413325374542884
-0.0007367238706345473   -0.037262091651313584   -0.001102580705628754
0.0004879538093935241   -0.033554707798395915   -0.0011278715279407915
-0.0006467082987607094   -0.037286083019677486   -0.0010132080313882176
-0.0014657062396883024   -0.03368141464881768   -0.0011262883954607935
0.0005469361555711744   -0.03357108811582232   -0.0010597945180267204
-0.0006467082987607094   -0.037286083019677486   -0.0010132080313882176
0.0004879538093935241   -0.033554707798395915   -0.0011278715279407915
-0.0014657062396883024   -0.03368141464881768   -0.0011262883954607935
-0.0006467082987607094   -0.037286083019677486   -0.0010132080313882176
-0.002058925637061075   -0.03732949510005499   -0.0010955478233019267
-0.0021324308988376157   -0.03729738912202396   -0.0011413325374542884
-0.0014657062396883024   -0.03368141464881768   -0.0011262883954607935
-0.0006467082987607094   -0.037286083019677486   -0.0010132080313882176
-0.0021324308988376157   -0.03729738912202396   -0.0011413325374542884
0.0004879538093935241   -0.033554707798395915   -0.0011278715279407915
0.0003308675131893666   -0.03357767440632692   -0.0012813064683565277
-0.0009772612576291707   -0.037295913975149336   -0.0013043545773969811
0.002434278319009473   -0.03344145241803121   -0.001354272052399435
0.0004073036614331848   -0.03355660776071182   -0.0012009525441068216
-0.0009772612576291707   -0.037295913975149336   -0.0013043545773969811
0.00045740509753085885   -0.03716687861434913   -0.0014077912509467647
0.002434278319009473   -0.03344145241803121   -0.001354272052399435
0.0007360206482358086   -0.03710429403596999   -0.001238616348468898
0.0004073036614331848   -0.03355660776071182   -0.0012009525441068216
0.0026286458461659045   -0.03340109986110941   -0.0012312484293717139
0.0007360206482358086   -0.03710429403596999   -0.001238616348468898
0.002434278319009473   -0.03344145241803121   -0.001354272052399435
0.0004073036614331848   -0.03355660776071182   -0.0012009525441068216
0.0007360206482358086   -0.03710429403596999   -0.001238616348468898
-0.0008584322219639696   -0.03726705297709399   -0.0012008623567636035
-0.0009772612576291707   -0.037295913975149336   -0.0013043545773969811
0.0004073036614331848   -0.03355660776071182   -0.0012009525441068216
0.0007360206482358086   -0.03710429403596999   -0.001238616348468898
-0.0009772612576291707   -0.037295913975149336   -0.0013043545773969811
0.002434278319009473   -0.03344145241803121   -0.001354272052399435
0.0004073036614331848   -0.03355660776071182   -0.0012009525441068216
-0.0008584322219639696   -0.03726705297709399   -0.0012008623567636035
0.0026286458461659045   -0.03340109986110941   -0.0012312484293717139
0.0004879538093935241   -0.033554707798395915   -0.0011278715279407915
-0.0008584322219639696   -0.03726705297709399   -0.0012008623567636035
0.0007360206482358086   -0.03710429403596999   -0.001238616348468898
0.0026286458461659045   -0.03340109986110941   -0.0012312484293717139
0.0009548846260852788   -0.03709172691109079   -0.0010796316103647934
0.0004879538093935241   -0.033554707798395915   -0.0011278715279407915
0.002777728389531872   -0.03339410954894727   -0.0011172470899410674
0.0009548846260852788   -0.03709172691109079   -0.0010796316103647934
0.0026286458461659045   -0.03340109986110941   -0.0012312484293717139
0.0004879538093935241   -0.033554707798395915   -0.0011278715279407915
0.0009548846260852788   -0.03709172691109079   -0.0010796316103647934
-0.0007367238706345473   -0.037262091651313584   -0.001102580705628754
-0.0008584322219639696   -0.03726705297709399   -0.0012008623567636035
0.0004879538093935241   -0.033554707798395915   -0.0011278715279407915
0.0009548846260852788   -0.03709172691109079   -0.0010796316103647934
-0.0008584322219639696   -0.03726705297709399   -0.0012008623567636035
0.0026286458461659045   -0.03340109986110941   -0.0012312484293717139
0.0004879538093935241   -0.033554707798395915   -0.0011278715279407915
-0.0007367238706345473   -0.037262091651313584   -0.001102580705628754
0.002777728389531872   -0.03339410954894727   -0.0011172470899410674
0.0005469361555711744   -0.03357108811582232   -0.0010597945180267204
-0.0007367238706345473   -0.037262091651313584   -0.001102580705628754
0.0009548846260852788   -0.03709172691109079   -0.0010796316103647934
0.002777728389531872   -0.03339410954894727   -0.0011172470899410674
0.0011827511912943028   -0.03710283276189334   -0.0009342657379265676
0.0005469361555711744   -0.03357108811582232   -0.0010597945180267204
0.0029325145219614786   -0.0334061990709535   -0.0010131935165534293
0.0011827511912943028   -0.03710283276189334   -0.0009342657379265676
0.002777728389531872   -0.03339410954894727   -0.0011172470899410674
0.0005469361555711744   -0.03357108811582232   -0.0010597945180267204
0.0011827511912943028   -0.03710283276189334   -0.0009342657379265676
-0.0006467082987607094   -0.037286083019677486   -0.0010132080313882176
-0.0007367238706345473   -0.037262091651313584   -0.001102580705628754
0.0005469361555711744   -0.03357108811582232   -0.0010597945180267204
0.0011827511912943028   -0.03710283276189334   -0.0009342657379265676
-0.0007367238706345473   -0.037262091651313584   -0.001102580705628754
0.002777728389531872   -0.03339410954894727   -0.0011172470899410674
-0.006488624769745828   -0.0370064504331368   -0.0011282400639674739
-0.004773503062621296   -0.03909165653720586   -0.0009933497154021018
-0.004884232502952886   -0.037160705924547635   -0.0011744172895613338
-0.006315270110838557   -0.03700220449981211   -0.001230876532618828
-0.004773503062621296   -0.03909165653720586   -0.0009933497154021018
-0.004023221689049226   -0.039286408336371245   -0.0011099096844542698
-0.004884232502952886   -0.037160705924547635   -0.0011744172895613338
-0.0039224342201746405   -0.039248268676980065   -0.00115054586873585
-0.006315270110838557   -0.03700220449981211   -0.001230876532618828
-0.004804112391085159   -0.03715290724239372   -0.0012124940466682074
-0.0039224342201746405   -0.039248268676980065   -0.00115054586873585
-0.004884232502952886   -0.037160705924547635   -0.0011744172895613338
-0.006315270110838557   -0.03700220449981211   -0.001230876532618828
-0.0039224342201746405   -0.039248268676980065   -0.00115054586873585
-0.004557888944249407   -0.03904864268536901   -0.0011164013281739292
-0.004773503062621296   -0.03909165653720586   -0.0009933497154021018
-0.006315270110838557   -0.03700220449981211   -0.001230876532618828
-0.0039224342201746405   -0.039248268676980065   -0.00115054586873585
-0.004773503062621296   -0.03909165653720586   -0.0009933497154021018
-0.004884232502952886   -0.037160705924547635   -0.0011744172895613338
-0.006315270110838557   -0.03700220449981211   -0.001230876532618828
-0.004557888944249407   -0.03904864268536901   -0.0011164013281739292
-0.004804112391085159   -0.03715290724239372   -0.0012124940466682074
-0.006155578291940078   -0.03702991362182932   -0.0013414823459452177
-0.004557888944249407   -0.03904864268536901   -0.0011164013281739292
-0.0039224342201746405   -0.039248268676980065   -0.00115054586873585
-0.004804112391085159   -0.03715290724239372   -0.0012124940466682074
-0.003810638460328227   -0.03925060932878853   -0.0011916018165034946
-0.006155578291940078   -0.03702991362182932   -0.0013414823459452177
-0.0047097769658094495   -0.03717536767201908   -0.0012562240659543878
-0.003810638460328227   -0.03925060932878853   -0.0011916018165034946
-0.004804112391085159   -0.03715290724239372   -0.0012124940466682074
-0.006155578291940078   -0.03702991362182932   -0.0013414823459452177
-0.003810638460328227   -0.03925060932878853   -0.0011916018165034946
-0.004371898233484072   -0.039052835114968536   -0.0012390192149024097
-0.004557888944249407   -0.03904864268536901   -0.0011164013281739292
-0.006155578291940078   -0.03702991362182932   -0.0013414823459452177
-0.003810638460328227   -0.03925060932878853   -0.0011916018165034946
-0.004557888944249407   -0.03904864268536901   -0.0011164013281739292
-0.004804112391085159   -0.03715290724239372   -0.0012124940466682074
-0.006155578291940078   -0.03702991362182932   -0.0013414823459452177
-0.004371898233484072   -0.039052835114968536   -0.0012390192149024097
-0.0047097769658094495   -0.03717536767201908   -0.0012562240659543878
-0.005960736314151367   -0.037103572038598175   -0.0014595997058202532
-0.004371898233484072   -0.039052835114968536   -0.0012390192149024097
-0.003810638460328227   -0.03925060932878853   -0.0011916018165034946
-0.0047097769658094495   -0.03717536767201908   -0.0012562240659543878
-0.0037068756408980383   -0.039293639616630335   -0.0012332483551208513
-0.005960736314151367   -0.037103572038598175   -0.0014595997058202532
-0.004624201839459926   -0.03722861438105848   -0.0013052478767737728
-0.0037068756408980383   -0.039293639616630335   -0.0012332483551208513
-0.0047097769658094495   -0.03717536767201908   -0.0012562240659543878
-0.005960736314151367   -0.037103572038598175   -0.0014595997058202532
-0.0037068756408980383   -0.039293639616630335   -0.0012332483551208513
-0.004151156466580689   -0.03910699354402919   -0.0013642654761319671
-0.004371898233484072   -0.039052835114968536   -0.0012390192149024097
-0.005960736314151367   -0.037103572038598175   -0.0014595997058202532
-0.0037068756408980383   -0.039293639616630335   -0.0012332483551208513
-0.004371898233484072   -0.039052835114968536   -0.0012390192149024097
-0.0047097769658094495   -0.03717536767201908   -0.0012562240659543878
-0.004884232502952886   -0.037160705924547635   -0.0011744172895613338
-0.004023221689049226   -0.039286408336371245   -0.0011099096844542698
-0.003571145710446748   -0.03726000184435188   -0.0012105791553823453
-0.004804112391085159   -0.03715290724239372   -0.0012124940466682074
-0.004023221689049226   -0.039286408336371245   -0.0011099096844542698
-0.0034719599389430237   -0.039480192968982884   -0.0012128091364565598
-0.003571145710446748   -0.03726000184435188   -0.0012105791553823453
-0.0033657879274135963   -0.03944097166768241   -0.0011848209434606515
-0.004804112391085159   -0.03715290724239372   -0.0012124940466682074
-0.0034890261616779958   -0.03724735644154459   -0.0011989488445919316
-0.0033657879274135963   -0.03944097166768241   -0.0011848209434606515
-0.003571145710446748   -0.03726000184435188   -0.0012105791553823453
-0.004804112391085159   -0.03715290724239372   -0.0012124940466682074
-0.0033657879274135963   -0.03944097166768241   -0.0011848209434606515
-0.0039224342201746405   -0.039248268676980065   -0.00115054586873585
-0.004023221689049226   -0.039286408336371245   -0.0011099096844542698
-0.004804112391085159   -0.03715290724239372   -0.0012124940466682074
-0.0033657879274135963   -0.03944097166768241   -0.0011848209434606515
-0.004023221689049226   -0.039286408336371245   -0.0011099096844542698
-0.003571145710446748   -0.03726000184435188   -0.0012105791553823453
-0.004804112391085159   -0.03715290724239372   -0.0012124940466682074
-0.0039224342201746405   -0.039248268676980065   -0.00115054586873585
-0.0034890261616779958   -0.03724735644154459   -0.0011989488445919316
-0.0047097769658094495   -0.03717536767201908   -0.0012562240659543878
-0.0039224342201746405   -0.039248268676980065   -0.00115054586873585
-0.0033657879274135963   -0.03944097166768241   -0.0011848209434606515
-0.0034890261616779958   -0.03724735644154459   -0.0011989488445919316
-0.003263058174290909   -0.039440607725653096   -0.0011564963972361152
-0.0047097769658094495   -0.03717536767201908   -0.0012562240659543878
-0.0034080032874969765   -0.03726086160271997   -0.0011928163304856555
-0.003263058174290909   -0.039440607725653096   -0.0011564963972361152
-0.0034890261616779958   -0.03724735644154459   -0.0011989488445919316
-0.0047097769658094495   -0.03717536767201908   -0.0012562240659543878
-0.003263058174290909   -0.039440607725653096   -0.0011564963972361152
-0.003810638460328227   -0.03925060932878853   -0.0011916018165034946
-0.0039224342201746405   -0.039248268676980065   -0.00115054586873585
-0.0047097769658094495   -0.03717536767201908   -0.0012562240659543878
-0.003263058174290909   -0.039440607725653096   -0.0011564963972361152
-0.0039224342201746405   -0.039248268676980065   -0.00115054586873585
-0.0034890261616779958   -0.03724735644154459   -0.0011989488445919316
-0.0047097769658094495   -0.03717536767201908   -0.0012562240659543878
-0.003810638460328227   -0.03925060932878853   -0.0011916018165034946
-0.0034080032874969765   -0.03726086160271997   -0.0011928163304856555
-0.004624201839459926   -0.03722861438105848   -0.0013052478767737728
-0.003810638460328227   -0.03925060932878853   -0.0011916018165034946
-0.003263058174290909   -0.039440607725653096   -0.0011564963972361152
-0.0034080032874969765   -0.03726086160271997   -0.0011928163304856555
-0.003156018302399845   -0.03947831109495759   -0.0011293190854659155
-0.004624201839459926   -0.03722861438105848   -0.0013052478767737728
-0.0033333901695237517   -0.037301361686891195   -0.0011933230100028072
-0.003156018302399845   -0.03947831109495759   -0.0011293190854659155
-0.0034080032874969765   -0.03726086160271997   -0.0011928163304856555
-0.004624201839459926   -0.03722861438105848   -0.0013052478767737728
-0.003156018302399845   -0.03947831109495759   -0.0011293190854659155
-0.0037068756408980383   -0.039293639616630335   -0.0012332483551208513
-0.003810638460328227   -0.03925060932878853   -0.0011916018165034946
-0.004624201839459926   -0.03722861438105848   -0.0013052478767737728
-0.003156018302399845   -0.03947831109495759   -0.0011293190854659155
-0.003810638460328227   -0.03925060932878853   -0.0011916018165034946
-0.0034080032874969765   -0.03726086160271997   -0.0011928163304856555
-0.003571145710446748   -0.03726000184435188   -0.0012105791553823453
-0.0034719599389430237   -0.039480192968982884   -0.0012128091364565598
-0.0023132501954322474   -0.03731110633604498   -0.0012535449909130945
-0.0034890261616779958   -0.03724735644154459   -0.0011989488445919316
-0.0034719599389430237   -0.039480192968982884   -0.0012128091364565598
-0.0029678883072836145   -0.039712276291989757   -0.0013263646401662078
-0.0023132501954322474   -0.03731110633604498   -0.0012535449909130945
-0.0028378404890294926   -0.03967805441914338   -0.0012259384746396416
-0.0034890261616779958   -0.03724735644154459   -0.0011989488445919316
-0.0022207010648382566   -0.03729272115372494   -0.001194996431944009
-0.0028378404890294926   -0.03967805441914338   -0.0012259384746396416
-0.0023132501954322474   -0.03731110633604498   -0.0012535449909130945
-0.0034890261616779958   -0.03724735644154459   -0.0011989488445919316
-0.0028378404890294926   -0.03967805441914338   -0.0012259384746396416
-0.0033657879274135963   -0.03944097166768241   -0.0011848209434606515
-0.0034719599389430237   -0.039480192968982884   -0.0012128091364565598
-0.0034890261616779958   -0.03724735644154459   -0.0011989488445919316
-0.0028378404890294926   -0.03967805441914338   -0.0012259384746396416
-0.0034719599389430237   -0.039480192968982884   -0.0012128091364565598
-0.0023132501954322474   -0.03731110633604498   -0.0012535449909130945
-0.0034890261616779958   -0.03724735644154459   -0.0011989488445919316
-0.0033657879274135963   -0.03944097166768241   -0.0011848209434606515
-0.0022207010648382566   -0.03729272115372494   -0.001194996431944009
-0.0034080032874969765   -0.03726086160271997   -0.0011928163304856555
-0.0033657879274135963   -0.03944097166768241   -0.0011848209434606515
-0.0028378404890294926   -0.03967805441914338   -0.0012259384746396416
-0.0022207010648382566   -0.03729272115372494   -0.001194996431944009
-0.002717219728262062   -0.039676420708582114   -0.0011257799974028018
-0.0034080032874969765   -0.03726086160271997   -0.0011928163304856555
-0.0021324308988376157   -0.03729738912202396   -0.0011413325374542884
-0.002717219728262062   -0.039676420708582114   -0.0011257799974028018
-0.0022207010648382566   -0.03729272115372494   -0.001194996431944009
-0.0034080032874969765   -0.03726086160271997   -0.0011928163304856555
-0.002717219728262062   -0.039676420708582114   -0.0011257799974028018
-0.003263058174290909   -0.039440607725653096   -0.0011564963972361152
-0.0033657879274135963   -0.03944097166768241   -0.0011848209434606515
-0.0034080032874969765   -0.03726086160271997   -0.0011928163304856555
-0.002717219728262062   -0.039676420708582114   -0.0011257799974028018
-0.0033657879274135963   -0.03944097166768241   -0.0011848209434606515
-0.0022207010648382566   -0.03729272115372494   -0.001194996431944009
-0.0034080032874969765   -0.03726086160271997   -0.0011928163304856555
-0.003263058174290909   -0.039440607725653096   -0.0011564963972361152
-0.0021324308988376157   -0.03729738912202396   -0.0011413325374542884
-0.0033333901695237517   -0.037301361686891195   -0.0011933230100028072
-0.003263058174290909   -0.039440607725653096   -0.0011564963972361152
-0.002717219728262062   -0.039676420708582114   -0.0011257799974028018
-0.0021324308988376157   -0.03729738912202396   -0.0011413325374542884
-0.0025878745656221576   -0.03970566705414096   -0.0010255200626337739
-0.0033333901695237517   -0.037301361686891195   -0.0011933230100028072
-0.002058925637061075   -0.03732949510005499   -0.0010955478233019267
-0.0025878745656221576   -0.03970566705414096   -0.0010255200626337739
-0.0021324308988376157   -0.03729738912202396   -0.0011413325374542884
-0.0033333901695237517   -0.037301361686891195   -0.0011933230100028072
-0.0025878745656221576   -0.03970566705414096   -0.0010255200626337739
-0.003156018302399845   -0.03947831109495759   -0.0011293190854659155
-0.003263058174290909   -0.039440607725653096   -0.0011564963972361152
-0.0033333901695237517   -0.037301361686891195   -0.0011933230100028072
-0.0025878745656221576   -0.03970566705414096   -0.0010255200626337739
-0.003263058174290909   -0.039440607725653096   -0.0011564963972361152
-0.0021324308988376157   -0.03729738912202396   -0.0011413325374542884
-0.0023132501954322474   -0.03731110633604498   -0.0012535449909130945
-0.0029678883072836145   -0.039712276291989757   -0.0013263646401662078
-0.0009772612576291707   -0.037295913975149336   -0.0013043545773969811
-0.0022207010648382566   -0.03729272115372494   -0.001194996431944009
-0.0029678883072836145   -0.039712276291989757   -0.0013263646401662078
-0.0024717890103575554   -0.04   -0.0014145299323227378
-0.0009772612576291707   -0.037295913975149336   -0.0013043545773969811
-0.0023079598335165896   -0.04   -0.0012612690285641595
-0.0022207010648382566   -0.03729272115372494   -0.001194996431944009
-0.0008584322219639696   -0.03726705297709399   -0.0012008623567636035
-0.0023079598335165896   -0.04   -0.0012612690285641595
-0.0009772612576291707   -0.037295913975149336   -0.0013043545773969811
-0.0022207010648382566   -0.03729272115372494   -0.001194996431944009
-0.0023079598335165896   -0.04   -0.0012612690285641595
-0.0028378404890294926   -0.03967805441914338   -0.0012259384746396416
-0.0029678883072836145   -0.039712276291989757   -0.0013263646401662078
-0.0022207010648382566   -0.03729272115372494   -0.001194996431944009
-0.0023079598335165896   -0.04   -0.0012612690285641595
-0.0029678883072836145   -0.039712276291989757   -0.0013263646401662078
-0.0009772612576291707   -0.037295913975149336   -0.0013043545773969811
-0.0022207010648382566   -0.03729272115372494   -0.001194996431944009
-0.0028378404890294926   -0.03967805441914338   -0.0012259384746396416
-0.0008584322219639696   -0.03726705297709399   -0.0012008623567636035
-0.0021324308988376157   -0.03729738912202396   -0.0011413325374542884
-0.0028378404890294926   -0.03967805441914338   -0.0012259384746396416
-0.0023079598335165896   -0.04   -0.0012612690285641595
-0.0008584322219639696   -0.03726705297709399   -0.0012008623567636035
-0.0021431389522504436   -0.04   -0.0011061978151203644
-0.0021324308988376157   -0.03729738912202396   -0.0011413325374542884
-0.0007367238706345473   -0.037262091651313584   -0.001102580705628754
-0.0021431389522504436   -0.04   -0.0011061978151203644
-0.0008584322219639696   -0.03726705297709399   -0.0012008623567636035
-0.0021324308988376157   -0.03729738912202396   -0.0011413325374542884
-0.0021431389522504436   -0.04   -0.0011061978151203644
-0.002717219728262062   -0.039676420708582114   -0.0011257799974028018
-0.0028378404890294926   -0.03967805441914338   -0.0012259384746396416
-0.0021324308988376157   -0.03729738912202396   -0.0011413325374542884
-0.0021431389522504436   -0.04   -0.0011061978151203644
-0.0028378404890294926   -0.03967805441914338   -0.0012259384746396416
-0.0008584322219639696   -0.03726705297709399   -0.0012008623567636035
-0.0021324308988376157   -0.03729738912202396   -0.0011413325374542884
-0.002717219728262062   -0.039676420708582114   -0.0011257799974028018
-0.0007367238706345473   -0.037262091651313584   -0.001102580705628754
-0.002058925637061075   -0.03732949510005499   -0.0010955478233019267
-0.002717219728262062   -0.039676420708582114   -0.0011257799974028018
-0.0021431389522504436   -0.04   -0.0011061978151203644
-0.0007367238706345473   -0.037262091651313584   -0.001102580705628754
-0.0019822898011172467   -0.04   -0.0009531950346499281
-0.002058925637061075   -0.03732949510005499   -0.0010955478233019267
-0.0006467082987607094   -0.037286083019677486   -0.0010132080313882176
-0.0019822898011172467   -0.04   -0.0009531950346499281
-0.0007367238706345473   -0.037262091651313584   -0.001102580705628754
-0.002058925637061075   -0.03732949510005499   -0.0010955478233019267
-0.0019822898011172467   -0.04   -0.0009531950346499281
-0.0025878745656221576   -0.03970566705414096   -0.0010255200626337739
-0.002717219728262062   -0.039676420708582114   -0.0011257799974028018
-0.002058925637061075   -0.03732949510005499   -0.0010955478233019267
-0.0019822898011172467   -0.04   -0.0009531950346499281
-0.002717219728262062   -0.039676420708582114   -0.0011257799974028018
-0.0007367238706345473   -0.037262091651313584   -0.001102580705628754
-0.0009772612576291707   -0.037295913975149336   -0.0013043545773969811
-0.0024717890103575554   -0.04   -0.0014145299323227378
0.00045740509753085885   -0.03716687861434913   -0.0014077912509467647
-0.0008584322219639696   -0.03726705297709399   -0.0012008623567636035
-0.0024717890103575554   -0.04   -0.0014145299323227378
-0.002109599799754927   -0.04   -0.0015213001254369063
0.00045740509753085885   -0.03716687861434913   -0.0014077912509467647
-0.0017653413461096003   -0.04   -0.0012991933307110336
-0.0008584322219639696   -0.03726705297709399   -0.0012008623567636035
0.0007360206482358086   -0.03710429403596999   -0.001238616348468898
-0.0017653413461096003   -0.04   -0.0012991933307110336
0.00045740509753085885   -0.03716687861434913   -0.0014077912509467647
-0.0008584322219639696   -0.03726705297709399   -0.0012008623567636035
-0.0017653413461096003   -0.04   -0.0012991933307110336
-0.0023079598335165896   -0.04   -0.0012612690285641595
-0.0024717890103575554   -0.04   -0.0014145299323227378
-0.0008584322219639696   -0.03726705297709399   -0.0012008623567636035
-0.0017653413461096003   -0.04   -0.0012991933307110336
-0.0024717890103575554   -0.04   -0.0014145299323227378
0.00045740509753085885   -0.03716687861434913   -0.0014077912509467647
-0.0008584322219639696   -0.03726705297709399   -0.0012008623567636035
-0.0023079598335165896   -0.04   -0.0012612690285641595
0.0007360206482358086   -0.03710429403596999   -0.001238616348468898
-0.0007367238706345473   -0.037262091651313584   -0.001102580705628754
-0.0023079598335165896   -0.04   -0.0012612690285641595
-0.0017653413461096003   -0.04   -0.0012991933307110336
0.0007360206482358086   -0.03710429403596999   -0.001238616348468898
-0.0014908176816020224   -0.04   -0.0010867421710105765
-0.0007367238706345473   -0.037262091651313584   -0.001102580705628754
0.0009548846260852788   -0.03709172691109079   -0.0010796316103647934
-0.0014908176816020224   -0.04   -0.0010867421710105765
0.0007360206482358086   -0.03710429403596999   -0.001238616348468898
-0.0007367238706345473   -0.037262091651313584   -0.001102580705628754
-0.0014908176816020224   -0.04   -0.0010867421710105765
-0.0021431389522504436   -0.04   -0.0011061978151203644
-0.0023079598335165896   -0.04   -0.0012612690285641595
-0.0007367238706345473   -0.037262091651313584   -0.001102580705628754
-0.0014908176816020224   -0.04   -0.0010867421710105765
-0.0023079598335165896   -0.04   -0.0012612690285641595
0.0007360206482358086   -0.03710429403596999   -0.001238616348468898
-0.0007367238706345473   -0.037262091651313584   -0.001102580705628754
-0.0021431389522504436   -0.04   -0.0011061978151203644
0.0009548846260852788   -0.03709172691109079   -0.0010796316103647934
-0.0006467082987607094   -0.037286083019677486   -0.0010132080313882176
-0.0021431389522504436   -0.04   -0.0011061978151203644
-0.0014908176816020224   -0.04   -0.0010867421710105765
0.0009548846260852788   -0.03709172691109079   -0.0010796316103647934
-0.0011517669610128338   -0.04   -0.0008661751592363468
-0.0006467082987607094   -0.037286083019677486   -0.0010132080313882176
0.0011827511912943028   -0.03710283276189334   -0.0009342657379265676
-0.0011517669610128338   -0.04   -0.0008661751592363468
0.0009548846260852788   -0.03709172691109079   -0.0010796316103647934
-0.0006467082987607094   -0.037286083019677486   -0.0010132080313882176
-0.0011517669610128338   -0.04   -0.0008661751592363468
-0.0019822898011172467   -0.04   -0.0009531950346499281
-0.0021431389522504436   -0.04   -0.0011061978151203644
-0.0006467082987607094   -0.037286083019677486   -0.0010132080313882176
-0.0011517669610128338   -0.04   -0.0008661751592363468
-0.0021431389522504436   -0.04   -0.0011061978151203644
0.0009548846260852788   -0.03709172691109079   -0.0010796316103647934
-0.004773503062621296   -0.03909165653720586   -0.0009933497154021018
-0.0028760904036966134   -0.0392117701037082   -0.0008505436860811095
-0.004023221689049226   -0.039286408336371245   -0.0011099096844542698
-0.004557888944249407   -0.03904864268536901   -0.0011164013281739292
-0.0028760904036966134   -0.0392117701037082   -0.0008505436860811095
-0.003040226950942392   -0.039362513433883264   -0.0010006705213787203
-0.004023221689049226   -0.039286408336371245   -0.0011099096844542698
-0.0029638738942123002   -0.03931035233339897   -0.001055883995054002
-0.004557888944249407   -0.03904864268536901   -0.0011164013281739292
-0.0039224342201746405   -0.039248268676980065   -0.00115054586873585
-0.0029638738942123002   -0.03931035233339897   -0.001055883995054002
-0.004023221689049226   -0.039286408336371245   -0.0011099096844542698
-0.004557888944249407   -0.03904864268536901   -0.0011164013281739292
-0.0029638738942123002   -0.03931035233339897   -0.001055883995054002
-0.0026803605318493702   -0.039144741166870126   -0.000979878447536544
-0.0028760904036966134   -0.0392117701037082   -0.0008505436860811095
-0.004557888944249407   -0.03904864268536901   -0.0011164013281739292
-0.0029638738942123002   -0.03931035233339897   -0.001055883995054002
-0.0028760904036966134   -0.0392117701037082   -0.0008505436860811095
-0.004023221689049226   -0.039286408336371245   -0.0011099096844542698
-0.004557888944249407   -0.03904864268536901   -0.0011164013281739292
-0.0026803605318493702   -0.039144741166870126   -0.000979878447536544
-0.0039224342201746405   -0.039248268676980065   -0.00115054586873585
-0.004371898233484072   -0.039052835114968536   -0.0012390192149024097
-0.0026803605318493702   -0.039144741166870126   -0.000979878447536544
-0.0029638738942123002   -0.03931035233339897   -0.001055883995054002
-0.0039224342201746405   -0.039248268676980065   -0.00115054586873585
-0.002874209816215609   -0.03929155792826465   -0.0011068972200750445
-0.004371898233484072   -0.039052835114968536   -0.0012390192149024097
-0.003810638460328227   -0.03925060932878853   -0.0011916018165034946
-0.002874209816215609   -0.03929155792826465   -0.0011068972200750445
-0.0039224342201746405   -0.039248268676980065   -0.00115054586873585
-0.004371898233484072   -0.039052835114968536   -0.0012390192149024097
-0.002874209816215609   -0.03929155792826465   -0.0011068972200750445
-0.0025174730797368353   -0.039124629804964214   -0.0011040050678051178
-0.0026803605318493702   -0.039144741166870126   -0.000979878447536544
-0.004371898233484072   -0.039052835114968536   -0.0012390192149024097
-0.002874209816215609   -0.03929155792826465   -0.0011068972200750445
-0.0026803605318493702   -0.039144741166870126   -0.000979878447536544
-0.0039224342201746405   -0.039248268676980065   -0.00115054586873585
-0.004371898233484072   -0.039052835114968536   -0.0012390192149024097
-0.0025174730797368353   -0.039124629804964214   -0.0011040050678051178
-0.003810638460328227   -0.03925060932878853   -0.0011916018165034946
-0.004151156466580689   -0.03910699354402919   -0.0013642654761319671
-0.0025174730797368353   -0.039124629804964214   -0.0011040050678051178
-0.002874209816215609   -0.03929155792826465   -0.0011068972200750445
-0.003810638460328227   -0.03925060932878853   -0.0011916018165034946
-0.0027974632191564565   -0.03930642282702997   -0.001153451083501172
-0.004151156466580689   -0.03910699354402919   -0.0013642654761319671
-0.0037068756408980383   -0.039293639616630335   -0.0012332483551208513
-0.0027974632191564565   -0.03930642282702997   -0.001153451083501172
-0.003810638460328227   -0.03925060932878853   -0.0011916018165034946
-0.004151156466580689   -0.03910699354402919   -0.0013642654761319671
-0.0027974632191564565   -0.03930642282702997   -0.001153451083501172
-0.0023329398288655743   -0.03914315169847928   -0.0012223878621784574
-0.0025174730797368353   -0.039124629804964214   -0.0011040050678051178
-0.004151156466580689   -0.03910699354402919   -0.0013642654761319671
-0.0027974632191564565   -0.03930642282702997   -0.001153451083501172
-0.0025174730797368353   -0.039124629804964214   -0.0011040050678051178
-0.003810638460328227   -0.03925060932878853   -0.0011916018165034946
-0.004023221689049226   -0.039286408336371245   -0.0011099096844542698
-0.003040226950942392   -0.039362513433883264   -0.0010006705213787203
-0.0034719599389430237   -0.039480192968982884   -0.0012128091364565598
-0.0039224342201746405   -0.039248268676980065   -0.00115054586873585
-0.003040226950942392   -0.039362513433883264   -0.0010006705213787203
-0.0032666736740161527   -0.039454951044210346   -0.00112059033813396
-0.0034719599389430237   -0.039480192968982884   -0.0012128091364565598
-0.0031991658614765246   -0.039408341660192574   -0.00112192906426528
-0.0039224342201746405   -0.039248268676980065   -0.00115054586873585
-0.0033657879274135963   -0.03944097166768241   -0.0011848209434606515
-0.0031991658614765246   -0.039408341660192574   -0.00112192906426528
-0.0034719599389430237   -0.039480192968982884   -0.0012128091364565598
-0.0039224342201746405   -0.039248268676980065   -0.00115054586873585
-0.0031991658614765246   -0.039408341660192574   -0.00112192906426528
-0.0029638738942123002   -0.03931035233339897   -0.001055883995054002
-0.003040226950942392   -0.039362513433883264   -0.0010006705213787203
-0.0039224342201746405   -0.039248268676980065   -0.00115054586873585
-0.0031991658614765246   -0.039408341660192574   -0.00112192906426528
-0.003040226950942392   -0.039362513433883264   -0.0010006705213787203
-0.0034719599389430237   -0.039480192968982884   -0.0012128091364565598
-0.0039224342201746405   -0.039248268676980065   -0.00115054586873585
-0.0029638738942123002   -0.03931035233339897   -0.001055883995054002
-0.0033657879274135963   -0.03944097166768241   -0.0011848209434606515
-0.003810638460328227   -0.03925060932878853   -0.0011916018165034946
-0.0029638738942123002   -0.03931035233339897   -0.001055883995054002
-0.0031991658614765246   -0.039408341660192574   -0.00112192906426528
-0.0033657879274135963   -0.03944097166768241   -0.0011848209434606515
-0.0031240531498557254   -0.03939194749834555   -0.001117823259392189
-0.003810638460328227   -0.03925060932878853   -0.0011916018165034946
-0.003263058174290909   -0.039440607725653096   -0.0011564963972361152
-0.0031240531498557254   -0.03939194749834555   -0.001117823259392189
-0.0033657879274135963   -0.03944097166768241   -0.0011848209434606515
-0.003810638460328227   -0.03925060932878853   -0.0011916018165034946
-0.0031240531498557254   -0.03939194749834555   -0.001117823259392189
-0.002874209816215609   -0.03929155792826465   -0.0011068972200750445
-0.0029638738942123002   -0.03931035233339897   -0.001055883995054002
-0.003810638460328227   -0.03925060932878853   -0.0011916018165034946
-0.0031240531498557254   -0.03939194749834555   -0.001117823259392189
-0.0029638738942123002   -0.03931035233339897   -0.001055883995054002
-0.0033657879274135963   -0.03944097166768241   -0.0011848209434606515
-0.003810638460328227   -0.03925060932878853   -0.0011916018165034946
-0.002874209816215609   -0.03929155792826465   -0.0011068972200750445
-0.003263058174290909   -0.039440607725653096   -0.0011564963972361152
-0.0037068756408980383   -0.039293639616630335   -0.0012332483551208513
-0.002874209816215609   -0.03929155792826465   -0.0011068972200750445
-0.0031240531498557254   -0.03939194749834555   -0.001117823259392189
-0.003263058174290909   -0.039440607725653096   -0.0011564963972361152
-0.0030477159608460124   -0.039404426941442   -0.0011094434550210435
-0.0037068756408980383   -0.039293639616630335   -0.0012332483551208513
-0.003156018302399845   -0.03947831109495759   -0.0011293190854659155
-0.0030477159608460124   -0.039404426941442   -0.0011094434550210435
-0.003263058174290909   -0.039440607725653096   -0.0011564963972361152
-0.0037068756408980383   -0.039293639616630335   -0.0012332483551208513
-0.0030477159608460124   -0.039404426941442   -0.0011094434550210435
-0.0027974632191564565   -0.03930642282702997   -0.001153451083501172
-0.002874209816215609   -0.03929155792826465   -0.0011068972200750445
-0.0037068756408980383   -0.039293639616630335   -0.0012332483551208513
-0.0030477159608460124   -0.039404426941442   -0.0011094434550210435
-0.002874209816215609   -0.03929155792826465   -0.0011068972200750445
-0.003263058174290909   -0.039440607725653096   -0.0011564963972361152
-0.0034719599389430237   -0.039480192968982884   -0.0012128091364565598
-0.0032666736740161527   -0.039454951044210346   -0.00112059033813396
-0.0029678883072836145   -0.039712276291989757   -0.0013263646401662078
-0.0033657879274135963   -0.03944097166768241   -0.0011848209434606515
-0.0032666736740161527   -0.039454951044210346   -0.00112059033813396
-0.003509982515592422   -0.03949263204464803   -0.0012387409373818363
-0.0029678883072836145   -0.039712276291989757   -0.0013263646401662078
-0.0034400474350953095   -0.03944809295786169   -0.0011882653426776373
-0.0033657879274135963   -0.03944097166768241   -0.0011848209434606515
-0.0028378404890294926   -0.03967805441914338   -0.0012259384746396416
-0.0034400474350953095   -0.03944809295786169   -0.0011882653426776373
-0.0029678883072836145   -0.039712276291989757   -0.0013263646401662078
-0.0033657879274135963   -0.03944097166768241   -0.0011848209434606515
-0.0034400474350953095   -0.03944809295786169   -0.0011882653426776373
-0.0031991658614765246   -0.039408341660192574   -0.00112192906426528
-0.0032666736740161527   -0.039454951044210346   -0.00112059033813396
-0.0033657879274135963   -0.03944097166768241   -0.0011848209434606515
-0.0034400474350953095   -0.03944809295786169   -0.0011882653426776373
-0.0032666736740161527   -0.039454951044210346   -0.00112059033813396
-0.0029678883072836145   -0.039712276291989757   -0.0013263646401662078
-0.0033657879274135963   -0.03944097166768241   -0.0011848209434606515
-0.0031991658614765246   -0.039408341660192574   -0.00112192906426528
-0.0028378404890294926   -0.03967805441914338   -0.0012259384746396416
-0.003263058174290909   -0.039440607725653096   -0.0011564963972361152
-0.0031991658614765246   -0.039408341660192574   -0.00112192906426528
-0.0034400474350953095   -0.03944809295786169   -0.0011882653426776373
-0.0028378404890294926   -0.03967805441914338   -0.0012259384746396416
-0.003356243016055062   -0.03943425299532094   -0.0011311561134558076
-0.003263058174290909   -0.039440607725653096   -0.0011564963972361152
-0.002717219728262062   -0.039676420708582114   -0.0011257799974028018
-0.003356243016055062   -0.03943425299532094   -0.0011311561134558076
-0.0028378404890294926   -0.03967805441914338   -0.0012259384746396416
-0.003263058174290909   -0.039440607725653096   -0.0011564963972361152
-0.003356243016055062   -0.03943425299532094   -0.0011311561134558076
-0.0031240531498557254   -0.03939194749834555   -0.001117823259392189
-0.0031991658614765246   -0.039408341660192574   -0.00112192906426528
-0.003263058174290909   -0.039440607725653096   -0.0011564963972361152
-0.003356243016055062   -0.03943425299532094   -0.0011311561134558076
-0.0031991658614765246   -0.039408341660192574   -0.00112192906426528
-0.0028378404890294926   -0.03967805441914338   -0.0012259384746396416
-0.003263058174290909   -0.039440607725653096   -0.0011564963972361152
-0.0031240531498557254   -0.03939194749834555   -0.001117823259392189
-0.002717219728262062   -0.039676420708582114   -0.0011257799974028018
-0.003156018302399845   -0.03947831109495759   -0.0011293190854659155
-0.0031240531498557254   -0.03939194749834555   -0.001117823259392189
-0.003356243016055062   -0.03943425299532094   -0.0011311561134558076
-0.002717219728262062   -0.039676420708582114   -0.0011257799974028018
-0.0032701098112136893   -0.03944638486954735   -0.0010703762924670534
-0.003156018302399845   -0.03947831109495759   -0.0011293190854659155
-0.0025878745656221576   -0.03970566705414096   -0.0010255200626337739
-0.0032701098112136893   -0.03944638486954735   -0.0010703762924670534
-0.002717219728262062   -0.039676420708582114   -0.0011257799974028018
-0.003156018302399845   -0.03947831109495759   -0.0011293190854659155
-0.0032701098112136893   -0.03944638486954735   -0.0010703762924670534
-0.0030477159608460124   -0.039404426941442   -0.0011094434550210435
-0.0031240531498557254   -0.03939194749834555   -0.001117823259392189
-0.003156018302399845   -0.03947831109495759   -0.0011293190854659155
-0.0032701098112136893   -0.03944638486954735   -0.0010703762924670534
-0.0031240531498557254   -0.03939194749834555   -0.001117823259392189
-0.002717219728262062   -0.039676420708582114   -0.0011257799974028018
-0.0029678883072836145   -0.039712276291989757   -0.0013263646401662078
-0.003509982515592422   -0.03949263204464803   -0.0012387409373818363
-0.0024717890103575554   -0.04   -0.0014145299323227378
-0.0028378404890294926   -0.03967805441914338   -0.0012259384746396416
-0.003509982515592422   -0.03949263204464803   -0.0012387409373818363
-0.0038627230387102635   -0.03944871271738015   -0.0013513136890710492
-0.0024717890103575554   -0.04   -0.0014145299323227378
-0.0037714101627981324   -0.03940648710852166   -0.001251433378598593
-0.0028378404890294926   -0.03967805441914338   -0.0012259384746396416
-0.0023079598335165896   -0.04   -0.0012612690285641595
-0.0037714101627981324   -0.03940648710852166   -0.001251433378598593
-0.0024717890103575554   -0.04   -0.0014145299323227378
-0.0028378404890294926   -0.03967805441914338   -0.0012259384746396416
-0.0037714101627981324   -0.03940648710852166   -0.001251433378598593
-0.0034400474350953095   -0.03944809295786169   -0.0011882653426776373
-0.003509982515592422   -0.03949263204464803   -0.0012387409373818363
-0.0028378404890294926   -0.03967805441914338   -0.0012259384746396416
-0.0037714101627981324   -0.03940648710852166   -0.001251433378598593
-0.003509982515592422   -0.03949263204464803   -0.0012387409373818363
-0.0024717890103575554   -0.04   -0.0014145299323227378
-0.0028378404890294926   -0.03967805441914338   -0.0012259384746396416
-0.0034400474350953095   -0.03944809295786169   -0.0011882653426776373
-0.0023079598335165896   -0.04   -0.0012612690285641595
-0.002717219728262062   -0.039676420708582114   -0.0011257799974028018
-0.0034400474350953095   -0.03944809295786169   -0.0011882653426776373
-0.0037714101627981324   -0.03940648710852166   -0.001251433378598593
-0.0023079598335165896   -0.04   -0.0012612690285641595
-0.0036507330893512033   -0.03939712591224259   -0.0011441365362473335
-0.002717219728262062   -0.039676420708582114   -0.0011257799974028018
-0.0021431389522504436   -0.04   -0.0011061978151203644
-0.0036507330893512033   -0.03939712591224259   -0.0011441365362473335
-0.0023079598335165896   -0.04   -0.0012612690285641595
-0.002717219728262062   -0.039676420708582114   -0.0011257799974028018
-0.0036507330893512033   -0.03939712591224259   -0.0011441365362473335
-0.003356243016055062   -0.03943425299532094   -0.0011311561134558076
-0.0034400474350953095   -0.03944809295786169   -0.0011882653426776373
-0.002717219728262062   -0.039676420708582114   -0.0011257799974028018
-0.0036507330893512033   -0.03939712591224259   -0.0011441365362473335
-0.0034400474350953095   -0.03944809295786169   -0.0011882653426776373
-0.0023079598335165896   -0.04   -0.0012612690285641595
-0.002717219728262062   -0.039676420708582114   -0.0011257799974028018
-0.003356243016055062   -0.03943425299532094   -0.0011311561134558076
-0.0021431389522504436   -0.04   -0.0011061978151203644
-0.0025878745656221576   -0.03970566705414096   -0.0010255200626337739
-0.003356243016055062   -0.03943425299532094   -0.0011311561134558076
-0.0036507330893512033   -0.03939712591224259   -0.0011441365362473335
-0.0021431389522504436   -0.04   -0.0011061978151203644
-0.0035375111492282193   -0.03941435656414335   -0.0010327624744161407
-0.0025878745656221576   -0.03970566705414096   -0.0010255200626337739
-0.0019822898011172467   -0.04   -0.0009531950346499281
-0.0035375111492282193   -0.03941435656414335   -0.0010327624744161407
-0.0021431389522504436   -0.04   -0.0011061978151203644
-0.0025878745656221576   -0.03970566705414096   -0.0010255200626337739
-0.0035375111492282193   -0.03941435656414335   -0.0010327624744161407
-0.0032701098112136893   -0.03944638486954735   -0.0010703762924670534
-0.003356243016055062   -0.03943425299532094   -0.0011311561134558076
-0.0025878745656221576   -0.03970566705414096   -0.0010255200626337739
-0.0035375111492282193   -0.03941435656414335   -0.0010327624744161407
-0.003356243016055062   -0.03943425299532094   -0.0011311561134558076
-0.0021431389522504436   -0.04   -0.0011061978151203644
-0.0024717890103575554   -0.04   -0.0014145299323227378
-0.0038627230387102635   -0.03944871271738015   -0.0013513136890710492
-0.002109599799754927   -0.04   -0.0015213001254369063
-0.0023079598335165896   -0.04   -0.0012612690285641595
-0.0038627230387102635   -0.03944871271738015   -0.0013513136890710492
-0.004552716253751077   -0.03925605110667648   -0.001471286115532424
-0.002109599799754927   -0.04   -0.0015213001254369063
-0.004307937698344096   -0.03922015895971414   -0.0013074610378729357
-0.0023079598335165896   -0.04   -0.0012612690285641595
-0.0017653413461096003   -0.04   -0.0012991933307110336
-0.004307937698344096   -0.03922015895971414   -0.0013074610378729357
-0.002109599799754927   -0.04   -0.0015213001254369063
-0.0023079598335165896   -0.04   -0.0012612690285641595
-0.004307937698344096   -0.03922015895971414   -0.0013074610378729357
-0.0037714101627981324   -0.03940648710852166   -0.001251433378598593
-0.0038627230387102635   -0.03944871271738015   -0.0013513136890710492
-0.0023079598335165896   -0.04   -0.0012612690285641595
-0.004307937698344096   -0.03922015895971414   -0.0013074610378729357
-0.0038627230387102635   -0.03944871271738015   -0.0013513136890710492
-0.002109599799754927   -0.04   -0.0015213001254369063
-0.0023079598335165896   -0.04   -0.0012612690285641595
-0.0037714101627981324   -0.03940648710852166   -0.001251433378598593
-0.0017653413461096003   -0.04   -0.0012991933307110336
-0.0021431389522504436   -0.04   -0.0011061978151203644
-0.0037714101627981324   -0.03940648710852166   -0.001251433378598593
-0.004307937698344096   -0.03922015895971414   -0.0013074610378729357
-0.0017653413461096003   -0.04   -0.0012991933307110336
-0.004083450431595017   -0.03921543544421858   -0.0011327863206247373
-0.0021431389522504436   -0.04   -0.0011061978151203644
-0.0014908176816020224   -0.04   -0.0010867421710105765
-0.004083450431595017   -0.03921543544421858   -0.0011327863206247373
-0.0017653413461096003   -0.04   -0.0012991933307110336
-0.0021431389522504436   -0.04   -0.0011061978151203644
-0.004083450431595017   -0.03921543544421858   -0.0011327863206247373
-0.0036507330893512033   -0.03939712591224259   -0.0011441365362473335
-0.0037714101627981324   -0.03940648710852166   -0.001251433378598593
-0.0021431389522504436   -0.04   -0.0011061978151203644
-0.004083450431595017   -0.03921543544421858   -0.0011327863206247373
-0.0037714101627981324   -0.03940648710852166   -0.001251433378598593
-0.0017653413461096003   -0.04   -0.0012991933307110336
-0.0021431389522504436   -0.04   -0.0011061978151203644
-0.0036507330893512033   -0.03939712591224259   -0.0011441365362473335
-0.0014908176816020224   -0.04   -0.0010867421710105765
-0.0019822898011172467   -0.04   -0.0009531950346499281
-0.0036507330893512033   -0.03939712591224259   -0.0011441365362473335
-0.004083450431595017   -0.03921543544421858   -0.0011327863206247373
-0.0014908176816020224   -0.04   -0.0010867421710105765
-0.0037998699568559955   -0.039262458071422146   -0.0009502664200460542
-0.0019822898011172467   -0.04   -0.0009531950346499281
-0.0011517669610128338   -0.04   -0.0008661751592363468
-0.0037998699568559955   -0.039262458071422146   -0.0009502664200460542
-0.0014908176816020224   -0.04   -0.0010867421710105765
-0.0019822898011172467   -0.04   -0.0009531950346499281
-0.0037998699568559955   -0.039262458071422146   -0.0009502664200460542
-0.0035375111492282193   -0.03941435656414335   -0.0010327624744161407
-0.0036507330893512033   -0.03939712591224259   -0.0011441365362473335
-0.0019822898011172467   -0.04   -0.0009531950346499281
-0.0037998699568559955   -0.039262458071422146   -0.0009502664200460542
-0.0036507330893512033   -0.03939712591224259   -0.0011441365362473335
-0.0014908176816020224   -0.04   -0.0010867421710105765
-0.0028760904036966134   -0.0392117701037082   -0.0008505436860811095
-0.0012023338000023054   -0.03775419275547615   -0.0007340810295267732
-0.003040226950942392   -0.039362513433883264   -0.0010006705213787203
-0.0026803605318493702   -0.039144741166870126   -0.000979878447536544
-0.0012023338000023054   -0.03775419275547615   -0.0007340810295267732
-0.0021947274423095146   -0.03786843525501431   -0.0008936801831430638
-0.003040226950942392   -0.039362513433883264   -0.0010006705213787203
-0.002140402085236252   -0.03780528289350947   -0.0009430310211092679
-0.0026803605318493702   -0.039144741166870126   -0.000979878447536544
-0.0029638738942123002   -0.03931035233339897   -0.001055883995054002
-0.002140402085236252   -0.03780528289350947   -0.0009430310211092679
-0.003040226950942392   -0.039362513433883264   -0.0010006705213787203
-0.0026803605318493702   -0.039144741166870126   -0.000979878447536544
-0.002140402085236252   -0.03780528289350947   -0.0009430310211092679
-0.00104580661107172   -0.03767594983506057   -0.0008461997180111754
-0.0012023338000023054   -0.03775419275547615   -0.0007340810295267732
-0.0026803605318493702   -0.039144741166870126   -0.000979878447536544
-0.002140402085236252   -0.03780528289350947   -0.0009430310211092679
-0.0012023338000023054   -0.03775419275547615   -0.0007340810295267732
-0.003040226950942392   -0.039362513433883264   -0.0010006705213787203
-0.0026803605318493702   -0.039144741166870126   -0.000979878447536544
-0.00104580661107172   -0.03767594983506057   -0.0008461997180111754
-0.0029638738942123002   -0.03931035233339897   -0.001055883995054002
-0.0025174730797368353   -0.039124629804964214   -0.0011040050678051178
-0.00104580661107172   -0.03767594983506057   -0.0008461997180111754
-0.002140402085236252   -0.03780528289350947   -0.0009430310211092679
-0.0029638738942123002   -0.03931035233339897   -0.001055883995054002
-0.0020791164746564936   -0.03777076064946305   -0.0009880004136489982
-0.0025174730797368353   -0.039124629804964214   -0.0011040050678051178
-0.002874209816215609   -0.03929155792826465   -0.0011068972200750445
-0.0020791164746564936   -0.03777076064946305   -0.0009880004136489982
-0.0029638738942123002   -0.03931035233339897   -0.001055883995054002
-0.0025174730797368353   -0.039124629804964214   -0.0011040050678051178
-0.0020791164746564936   -0.03777076064946305   -0.0009880004136489982
-0.0009226257654113818   -0.037639219959192866   -0.0009518280122743078
-0.00104580661107172   -0.03767594983506057   -0.0008461997180111754
-0.0025174730797368353   -0.039124629804964214   -0.0011040050678051178
-0.0020791164746564936   -0.03777076064946305   -0.0009880004136489982
-0.00104580661107172   -0.03767594983506057   -0.0008461997180111754
-0.0029638738942123002   -0.03931035233339897   -0.001055883995054002
-0.0025174730797368353   -0.039124629804964214   -0.0011040050678051178
-0.0009226257654113818   -0.037639219959192866   -0.0009518280122743078
-0.002874209816215609   -0.03929155792826465   -0.0011068972200750445
-0.0023329398288655743   -0.03914315169847928   -0.0012223878621784574
-0.0009226257654113818   -0.037639219959192866   -0.0009518280122743078
-0.0020791164746564936   -0.03777076064946305   -0.0009880004136489982
-0.002874209816215609   -0.03929155792826465   -0.0011068972200750445
-0.002032165511491643   -0.03776389816558115   -0.0010287325969290059
-0.0023329398288655743   -0.03914315169847928   -0.0012223878621784574
-0.0027974632191564565   -0.03930642282702997   -0.001153451083501172
-0.002032165511491643   -0.03776389816558115   -0.0010287325969290059
-0.002874209816215609   -0.03929155792826465   -0.0011068972200750445
-0.0023329398288655743   -0.03914315169847928   -0.0012223878621784574
-0.002032165511491643   -0.03776389816558115   -0.0010287325969290059
-0.0007878146220744308   -0.037633346928230824   -0.0010506969499133514
-0.0009226257654113818   -0.037639219959192866   -0.0009518280122743078
-0.0023329398288655743   -0.03914315169847928   -0.0012223878621784574
-0.002032165511491643   -0.03776389816558115   -0.0010287325969290059
-0.0009226257654113818   -0.037639219959192866   -0.0009518280122743078
-0.002874209816215609   -0.03929155792826465   -0.0011068972200750445
-0.003040226950942392   -0.039362513433883264   -0.0010006705213787203
-0.0021947274423095146   -0.03786843525501431   -0.0008936801831430638
-0.0032666736740161527   -0.039454951044210346   -0.00112059033813396
-0.0029638738942123002   -0.03931035233339897   -0.001055883995054002
-0.0021947274423095146   -0.03786843525501431   -0.0008936801831430638
-0.00317644060944335   -0.03790855248161406   -0.0010236563333677108
-0.0032666736740161527   -0.039454951044210346   -0.00112059033813396
-0.003130843715698926   -0.037853474693799016   -0.001026260778950299
-0.0029638738942123002   -0.03931035233339897   -0.001055883995054002
-0.0031991658614765246   -0.039408341660192574   -0.00112192906426528
-0.003130843715698926   -0.037853474693799016   -0.001026260778950299
-0.0032666736740161527   -0.039454951044210346   -0.00112059033813396
-0.0029638738942123002   -0.03931035233339897   -0.001055883995054002
-0.003130843715698926   -0.037853474693799016   -0.001026260778950299
-0.002140402085236252   -0.03780528289350947   -0.0009430310211092679
-0.0021947274423095146   -0.03786843525501431   -0.0008936801831430638
-0.0029638738942123002   -0.03931035233339897   -0.001055883995054002
-0.003130843715698926   -0.037853474693799016   -0.001026260778950299
-0.0021947274423095146   -0.03786843525501431   -0.0008936801831430638
-0.0032666736740161527   -0.039454951044210346   -0.00112059033813396
-0.0029638738942123002   -0.03931035233339897   -0.001055883995054002
-0.002140402085236252   -0.03780528289350947   -0.0009430310211092679
-0.0031991658614765246   -0.039408341660192574   -0.00112192906426528
-0.002874209816215609   -0.03929155792826465   -0.0011068972200750445
-0.002140402085236252   -0.03780528289350947   -0.0009430310211092679
-0.003130843715698926   -0.037853474693799016   -0.001026260778950299
-0.0031991658614765246   -0.039408341660192574   -0.00112192906426528
-0.0030836698616926   -0.037824199519220905   -0.0010248056545198421
-0.002874209816215609   -0.03929155792826465   -0.0011068972200750445
-0.0031240531498557254   -0.03939194749834555   -0.001117823259392189
-0.0030836698616926   -0.037824199519220905   -0.0010248056545198421
-0.0031991658614765246   -0.039408341660192574   -0.00112192906426528
-0.002874209816215609   -0.03929155792826465   -0.0011068972200750445
-0.0030836698616926   -0.037824199519220905   -0.0010248056545198421
-0.0020791164746564936   -0.03777076064946305   -0.0009880004136489982
-0.002140402085236252   -0.03780528289350947   -0.0009430310211092679
-0.002874209816215609   -0.03929155792826465   -0.0011068972200750445
-0.0030836698616926   -0.037824199519220905   -0.0010248056545198421
-0.002140402085236252   -0.03780528289350947   -0.0009430310211092679
-0.0031991658614765246   -0.039408341660192574   -0.00112192906426528
-0.002874209816215609   -0.03929155792826465   -0.0011068972200750445
-0.0020791164746564936   -0.03777076064946305   -0.0009880004136489982
-0.0031240531498557254   -0.03939194749834555   -0.001117823259392189
-0.0027974632191564565   -0.03930642282702997   -0.001153451083501172
-0.0020791164746564936   -0.03777076064946305   -0.0009880004136489982
-0.0030836698616926   -0.037824199519220905   -0.0010248056545198421
-0.0031240531498557254   -0.03939194749834555   -0.001117823259392189
-0.0030381928280204355   -0.03781951536868068   -0.0010192613242348458
-0.0027974632191564565   -0.03930642282702997   -0.001153451083501172
-0.0030477159608460124   -0.039404426941442   -0.0011094434550210435
-0.0030381928280204355   -0.03781951536868068   -0.0010192613242348458
-0.0031240531498557254   -0.03939194749834555   -0.001117823259392189
-0.0027974632191564565   -0.03930642282702997   -0.001153451083501172
-0.0030381928280204355   -0.03781951536868068   -0.0010192613242348458
-0.002032165511491643   -0.03776389816558115   -0.0010287325969290059
-0.0020791164746564936   -0.03777076064946305   -0.0009880004136489982
-0.0027974632191564565   -0.03930642282702997   -0.001153451083501172
-0.0030381928280204355   -0.03781951536868068   -0.0010192613242348458
-0.0020791164746564936   -0.03777076064946305   -0.0009880004136489982
-0.0031240531498557254   -0.03939194749834555   -0.001117823259392189
-0.0032666736740161527   -0.039454951044210346   -0.00112059033813396
-0.00317644060944335   -0.03790855248161406   -0.0010236563333677108
-0.003509982515592422   -0.03949263204464803   -0.0012387409373818363
-0.0031991658614765246   -0.039408341660192574   -0.00112192906426528
-0.00317644060944335   -0.03790855248161406   -0.0010236563333677108
-0.004151675274521621   -0.03787248015774305   -0.001145352059791363
-0.003509982515592422   -0.03949263204464803   -0.0012387409373818363
-0.004106439414557975   -0.037823518844767645   -0.001103114615603882
-0.0031991658614765246   -0.039408341660192574   -0.00112192906426528
-0.0034400474350953095   -0.03944809295786169   -0.0011882653426776373
-0.004106439414557975   -0.037823518844767645   -0.001103114615603882
-0.003509982515592422   -0.03949263204464803   -0.0012387409373818363
-0.0031991658614765246   -0.039408341660192574   -0.00112192906426528
-0.004106439414557975   -0.037823518844767645   -0.001103114615603882
-0.003130843715698926   -0.037853474693799016   -0.001026260778950299
-0.00317644060944335   -0.03790855248161406   -0.0010236563333677108
-0.0031991658614765246   -0.039408341660192574   -0.00112192906426528
-0.004106439414557975   -0.037823518844767645   -0.001103114615603882
-0.00317644060944335   -0.03790855248161406   -0.0010236563333677108
-0.003509982515592422   -0.03949263204464803   -0.0012387409373818363
-0.0031991658614765246   -0.039408341660192574   -0.00112192906426528
-0.003130843715698926   -0.037853474693799016   -0.001026260778950299
-0.0034400474350953095   -0.03944809295786169   -0.0011882653426776373
-0.0031240531498557254   -0.03939194749834555   -0.001117823259392189
-0.003130843715698926   -0.037853474693799016   -0.001026260778950299
-0.004106439414557975   -0.037823518844767645   -0.001103114615603882
-0.0034400474350953095   -0.03944809295786169   -0.0011882653426776373
-0.004055677390757326   -0.037799936889339955   -0.0010568815355514291
-0.0031240531498557254   -0.03939194749834555   -0.001117823259392189
-0.003356243016055062   -0.03943425299532094   -0.0011311561134558076
-0.004055677390757326   -0.037799936889339955   -0.0010568815355514291
-0.0034400474350953095   -0.03944809295786169   -0.0011882653426776373
-0.0031240531498557254   -0.03939194749834555   -0.001117823259392189
-0.004055677390757326   -0.037799936889339955   -0.0010568815355514291
-0.0030836698616926   -0.037824199519220905   -0.0010248056545198421
-0.003130843715698926   -0.037853474693799016   -0.001026260778950299
-0.0031240531498557254   -0.03939194749834555   -0.001117823259392189
-0.004055677390757326   -0.037799936889339955   -0.0010568815355514291
-0.003130843715698926   -0.037853474693799016   -0.001026260778950299
-0.0034400474350953095   -0.03944809295786169   -0.0011882653426776373
-0.0031240531498557254   -0.03939194749834555   -0.001117823259392189
-0.0030836698616926   -0.037824199519220905   -0.0010248056545198421
-0.003356243016055062   -0.03943425299532094   -0.0011311561134558076
-0.0030477159608460124   -0.039404426941442   -0.0011094434550210435
-0.0030836698616926   -0.037824199519220905   -0.0010248056545198421
-0.004055677390757326   -0.037799936889339955   -0.0010568815355514291
-0.003356243016055062   -0.03943425299532094   -0.0011311561134558076
-0.004004746683362804   -0.03779933771874309   -0.0010061667043027378
-0.0030477159608460124   -0.039404426941442   -0.0011094434550210435
-0.0032701098112136893   -0.03944638486954735   -0.0010703762924670534
-0.004004746683362804   -0.03779933771874309   -0.0010061667043027378
-0.003356243016055062   -0.03943425299532094   -0.0011311561134558076
-0.0030477159608460124   -0.039404426941442   -0.0011094434550210435
-0.004004746683362804   -0.03779933771874309   -0.0010061667043027378
-0.0030381928280204355   -0.03781951536868068   -0.0010192613242348458
-0.0030836698616926   -0.037824199519220905   -0.0010248056545198421
-0.0030477159608460124   -0.039404426941442   -0.0011094434550210435
-0.004004746683362804   -0.03779933771874309   -0.0010061667043027378
-0.0030836698616926   -0.037824199519220905   -0.0010248056545198421
-0.003356243016055062   -0.03943425299532094   -0.0011311561134558076
-0.003509982515592422   -0.03949263204464803   -0.0012387409373818363
-0.004151675274521621   -0.03787248015774305   -0.001145352059791363
-0.0038627230387102635   -0.03944871271738015   -0.0013513136890710492
-0.0034400474350953095   -0.03944809295786169   -0.0011882653426776373
-0.004151675274521621   -0.03787248015774305   -0.001145352059791363
-0.005222278171201113   -0.03775551406408462   -0.0012572961516909788
-0.0038627230387102635   -0.03944871271738015   -0.0013513136890710492
-0.005166787616184954   -0.03771264920225706   -0.0011711713742158314
-0.0034400474350953095   -0.03944809295786169   -0.0011882653426776373
-0.0037714101627981324   -0.03940648710852166   -0.001251433378598593
-0.005166787616184954   -0.03771264920225706   -0.0011711713742158314
-0.0038627230387102635   -0.03944871271738015   -0.0013513136890710492
-0.0034400474350953095   -0.03944809295786169   -0.0011882653426776373
-0.005166787616184954   -0.03771264920225706   -0.0011711713742158314
-0.004106439414557975   -0.037823518844767645   -0.001103114615603882
-0.004151675274521621   -0.03787248015774305   -0.001145352059791363
-0.0034400474350953095   -0.03944809295786169   -0.0011882653426776373
-0.005166787616184954   -0.03771264920225706   -0.0011711713742158314
-0.004151675274521621   -0.03787248015774305   -0.001145352059791363
-0.0038627230387102635   -0.03944871271738015   -0.0013513136890710492
-0.0034400474350953095   -0.03944809295786169   -0.0011882653426776373
-0.004106439414557975   -0.037823518844767645   -0.001103114615603882
-0.0037714101627981324   -0.03940648710852166   -0.001251433378598593
-0.003356243016055062   -0.03943425299532094   -0.0011311561134558076
-0.004106439414557975   -0.037823518844767645   -0.001103114615603882
-0.005166787616184954   -0.03771264920225706   -0.0011711713742158314
-0.0037714101627981324   -0.03940648710852166   -0.001251433378598593
-0.005090062611658079   -0.03769473806894158   -0.0010813559005526706
-0.003356243016055062   -0.03943425299532094   -0.0011311561134558076
-0.0036507330893512033   -0.03939712591224259   -0.0011441365362473335
-0.005090062611658079   -0.03769473806894158   -0.0010813559005526706
-0.0037714101627981324   -0.03940648710852166   -0.001251433378598593
-0.003356243016055062   -0.03943425299532094   -0.0011311561134558076
-0.005090062611658079   -0.03769473806894158   -0.0010813559005526706
-0.004055677390757326   -0.037799936889339955   -0.0010568815355514291
-0.004106439414557975   -0.037823518844767645   -0.001103114615603882
-0.003356243016055062   -0.03943425299532094   -0.0011311561134558076
-0.005090062611658079   -0.03769473806894158   -0.0010813559005526706
-0.004106439414557975   -0.037823518844767645   -0.001103114615603882
-0.0037714101627981324   -0.03940648710852166   -0.001251433378598593
-0.003356243016055062   -0.03943425299532094   -0.0011311561134558076
-0.004055677390757326   -0.037799936889339955   -0.0010568815355514291
-0.0036507330893512033   -0.03939712591224259   -0.0011441365362473335
-0.0032701098112136893   -0.03944638486954735   -0.0010703762924670534
-0.004055677390757326   -0.037799936889339955   -0.0010568815355514291
-0.005090062611658079   -0.03769473806894158   -0.0010813559005526706
-0.0036507330893512033   -0.03939712591224259   -0.0011441365362473335
-0.00502328755275471   -0.03770179934633921   -0.000985378017338547
-0.0032701098112136893   -0.03944638486954735   -0.0010703762924670534
-0.0035375111492282193   -0.03941435656414335   -0.0010327624744161407
-0.00502328755275471   -0.03770179934633921   -0.000985378017338547
-0.0036507330893512033   -0.03939712591224259   -0.0011441365362473335
-0.0032701098112136893   -0.03944638486954735   -0.0010703762924670534
-0.00502328755275471   -0.03770179934633921   -0.000985378017338547
-0.004004746683362804   -0.03779933771874309   -0.0010061667043027378
-0.004055677390757326   -0.037799936889339955   -0.0010568815355514291
-0.0032701098112136893   -0.03944638486954735   -0.0010703762924670534
-0.00502328755275471   -0.03770179934633921   -0.000985378017338547
-0.004055677390757326   -0.037799936889339955   -0.0010568815355514291
-0.0036507330893512033   -0.03939712591224259   -0.0011441365362473335
-0.0038627230387102635   -0.03944871271738015   -0.0013513136890710492
-0.005222278171201113   -0.03775551406408462   -0.0012572961516909788
-0.004552716253751077   -0.03925605110667648   -0.001471286115532424
-0.0037714101627981324   -0.03940648710852166   -0.001251433378598593
-0.005222278171201113   -0.03775551406408462   -0.0012572961516909788
-0.006600782486969959   -0.037565287757319966   -0.0013652289091717461
-0.004552716253751077   -0.03925605110667648   -0.001471286115532424
-0.00642039554980776   -0.0375186093824173   -0.001229200553838073
-0.0037714101627981324   -0.03940648710852166   -0.001251433378598593
-0.004307937698344096   -0.03922015895971414   -0.0013074610378729357
-0.00642039554980776   -0.0375186093824173   -0.001229200553838073
-0.004552716253751077   -0.03925605110667648   -0.001471286115532424
-0.0037714101627981324   -0.03940648710852166   -0.001251433378598593
-0.00642039554980776   -0.0375186093824173   -0.001229200553838073
-0.005166787616184954   -0.03771264920225706   -0.0011711713742158314
-0.005222278171201113   -0.03775551406408462   -0.0012572961516909788
-0.0037714101627981324   -0.03940648710852166   -0.001251433378598593
-0.00642039554980776   -0.0375186093824173   -0.001229200553838073
-0.005222278171201113   -0.03775551406408462   -0.0012572961516909788
-0.004552716253751077   -0.03925605110667648   -0.001471286115532424
-0.0037714101627981324   -0.03940648710852166   -0.001251433378598593
-0.005166787616184954   -0.03771264920225706   -0.0011711713742158314
-0.004307937698344096   -0.03922015895971414   -0.0013074610378729357
-0.0036507330893512033   -0.03939712591224259   -0.0011441365362473335
-0.005166787616184954   -0.03771264920225706   -0.0011711713742158314
-0.00642039554980776   -0.0375186093824173   -0.001229200553838073
-0.004307937698344096   -0.03922015895971414   -0.0013074610378729357
-0.006259047797288543   -0.037502042220009246   -0.001085406751085037
-0.0036507330893512033   -0.03939712591224259   -0.0011441365362473335
-0.004083450431595017   -0.03921543544421858   -0.0011327863206247373
-0.006259047797288543   -0.037502042220009246   -0.001085406751085037
-0.004307937698344096   -0.03922015895971414   -0.0013074610378729357
-0.0036507330893512033   -0.03939712591224259   -0.0011441365362473335
-0.006259047797288543   -0.037502042220009246   -0.001085406751085037
-0.005090062611658079   -0.03769473806894158   -0.0010813559005526706
-0.005166787616184954   -0.03771264920225706   -0.0011711713742158314
-0.0036507330893512033   -0.03939712591224259   -0.0011441365362473335
-0.006259047797288543   -0.037502042220009246   -0.001085406751085037
-0.005166787616184954   -0.03771264920225706   -0.0011711713742158314
-0.004307937698344096   -0.03922015895971414   -0.0013074610378729357
-0.0036507330893512033   -0.03939712591224259   -0.0011441365362473335
-0.005090062611658079   -0.03769473806894158   -0.0010813559005526706
-0.004083450431595017   -0.03921543544421858   -0.0011327863206247373
-0.0035375111492282193   -0.03941435656414335   -0.0010327624744161407
-0.005090062611658079   -0.03769473806894158   -0.0010813559005526706
-0.006259047797288543   -0.037502042220009246   -0.001085406751085037
-0.004083450431595017   -0.03921543544421858   -0.0011327863206247373
-0.006049977135169058   -0.0375242454740616   -0.0009352003207382296
-0.0035375111492282193   -0.03941435656414335   -0.0010327624744161407
-0.0037998699568559955   -0.039262458071422146   -0.0009502664200460542
-0.006049977135169058   -0.0375242454740616   -0.0009352003207382296
-0.004083450431595017   -0.03921543544421858   -0.0011327863206247373
-0.0035375111492282193   -0.03941435656414335   -0.0010327624744161407
-0.006049977135169058   -0.0375242454740616   -0.0009352003207382296
-0.00502328755275471   -0.03770179934633921   -0.000985378017338547
-0.005090062611658079   -0.03769473806894158   -0.0010813559005526706
-0.0035375111492282193   -0.03941435656414335   -0.0010327624744161407
-0.006049977135169058   -0.0375242454740616   -0.0009352003207382296
-0.005090062611658079   -0.03769473806894158   -0.0010813559005526706
-0.004083450431595017   -0.03921543544421858   -0.0011327863206247373
-0.0012023338000023054   -0.03775419275547615   -0.0007340810295267732
0.00016048587685212298   -0.03505298474007952   -0.0006065124274802503
-0.0021947274423095146   -0.03786843525501431   -0.0008936801831430638
-0.00104580661107172   -0.03767594983506057   -0.0008461997180111754
0.00016048587685212298   -0.03505298474007952   -0.0006065124274802503
-0.0015208325978363173   -0.03513717092876003   -0.0007633254494514543
-0.0021947274423095146   -0.03786843525501431   -0.0008936801831430638
-0.001491896754936687   -0.0350709583824057   -0.0008026266423630404
-0.00104580661107172   -0.03767594983506057   -0.0008461997180111754
-0.002140402085236252   -0.03780528289350947   -0.0009430310211092679
-0.001491896754936687   -0.0350709583824057   -0.0008026266423630404
-0.0021947274423095146   -0.03786843525501431   -0.0008936801831430638
-0.00104580661107172   -0.03767594983506057   -0.0008461997180111754
-0.001491896754936687   -0.0350709583824057   -0.0008026266423630404
0.0002703584505532812   -0.03497341131103806   -0.0006961604193674339
0.00016048587685212298   -0.03505298474007952   -0.0006065124274802503
-0.00104580661107172   -0.03767594983506057   -0.0008461997180111754
-0.001491896754936687   -0.0350709583824057   -0.0008026266423630404
0.00016048587685212298   -0.03505298474007952   -0.0006065124274802503
-0.0021947274423095146   -0.03786843525501431   -0.0008936801831430638
-0.00104580661107172   -0.03767594983506057   -0.0008461997180111754
0.0002703584505532812   -0.03497341131103806   -0.0006961604193674339
-0.002140402085236252   -0.03780528289350947   -0.0009430310211092679
-0.0009226257654113818   -0.037639219959192866   -0.0009518280122743078
0.0002703584505532812   -0.03497341131103806   -0.0006961604193674339
-0.001491896754936687   -0.0350709583824057   -0.0008026266423630404
-0.002140402085236252   -0.03780528289350947   -0.0009430310211092679
-0.0014588476843842024   -0.035028185312957184   -0.0008374211299284896
-0.0009226257654113818   -0.037639219959192866   -0.0009518280122743078
-0.0020791164746564936   -0.03777076064946305   -0.0009880004136489982
-0.0014588476843842024   -0.035028185312957184   -0.0008374211299284896
-0.002140402085236252   -0.03780528289350947   -0.0009430310211092679
-0.0009226257654113818   -0.037639219959192866   -0.0009518280122743078
-0.0014588476843842024   -0.035028185312957184   -0.0008374211299284896
0.0003512420930291213   -0.034927978072511696   -0.0007794999688618312
0.0002703584505532812   -0.03497341131103806   -0.0006961604193674339
-0.0009226257654113818   -0.037639219959192866   -0.0009518280122743078
-0.0014588476843842024   -0.035028185312957184   -0.0008374211299284896
0.0002703584505532812   -0.03497341131103806   -0.0006961604193674339
-0.002140402085236252   -0.03780528289350947   -0.0009430310211092679
-0.0009226257654113818   -0.037639219959192866   -0.0009518280122743078
0.0003512420930291213   -0.034927978072511696   -0.0007794999688618312
-0.0020791164746564936   -0.03777076064946305   -0.0009880004136489982
-0.0007878146220744308   -0.037633346928230824   -0.0010506969499133514
0.0003512420930291213   -0.034927978072511696   -0.0007794999688618312
-0.0014588476843842024   -0.035028185312957184   -0.0008374211299284896
-0.0020791164746564936   -0.03777076064946305   -0.0009880004136489982
-0.0014390769889444399   -0.035007569553463534   -0.000868154554120218
-0.0007878146220744308   -0.037633346928230824   -0.0010506969499133514
-0.002032165511491643   -0.03776389816558115   -0.0010287325969290059
-0.0014390769889444399   -0.035007569553463534   -0.000868154554120218
-0.0020791164746564936   -0.03777076064946305   -0.0009880004136489982
-0.0007878146220744308   -0.037633346928230824   -0.0010506969499133514
-0.0014390769889444399   -0.035007569553463534   -0.000868154554120218
0.00043810101323070867   -0.034906409196634604   -0.0008565046861635887
0.0003512420930291213   -0.034927978072511696   -0.0007794999688618312
-0.0007878146220744308   -0.037633346928230824   -0.0010506969499133514
-0.0014390769889444399   -0.035007569553463534   -0.000868154554120218
0.0003512420930291213   -0.034927978072511696   -0.0007794999688618312
-0.0020791164746564936   -0.03777076064946305   -0.0009880004136489982
-0.0021947274423095146   -0.03786843525501431   -0.0008936801831430638
-0.0015208325978363173   -0.03513717092876003   -0.0007633254494514543
-0.00317644060944335   -0.03790855248161406   -0.0010236563333677108
-0.002140402085236252   -0.03780528289350947   -0.0009430310211092679
-0.0015208325978363173   -0.03513717092876003   -0.0007633254494514543
-0.003149246992425434   -0.035153321364816977   -0.0008922420254477735
-0.00317644060944335   -0.03790855248161406   -0.0010236563333677108
-0.0031280485908283524   -0.035096552206368856   -0.0008931698539831722
-0.002140402085236252   -0.03780528289350947   -0.0009430310211092679
-0.003130843715698926   -0.037853474693799016   -0.001026260778950299
-0.0031280485908283524   -0.035096552206368856   -0.0008931698539831722
-0.00317644060944335   -0.03790855248161406   -0.0010236563333677108
-0.002140402085236252   -0.03780528289350947   -0.0009430310211092679
-0.0031280485908283524   -0.035096552206368856   -0.0008931698539831722
-0.001491896754936687   -0.0350709583824057   -0.0008026266423630404
-0.0015208325978363173   -0.03513717092876003   -0.0007633254494514543
-0.002140402085236252   -0.03780528289350947   -0.0009430310211092679
-0.0031280485908283524   -0.035096552206368856   -0.0008931698539831722
-0.0015208325978363173   -0.03513717092876003   -0.0007633254494514543
-0.00317644060944335   -0.03790855248161406   -0.0010236563333677108
-0.002140402085236252   -0.03780528289350947   -0.0009430310211092679
-0.001491896754936687   -0.0350709583824057   -0.0008026266423630404
-0.003130843715698926   -0.037853474693799016   -0.001026260778950299
-0.0020791164746564936   -0.03777076064946305   -0.0009880004136489982
-0.001491896754936687   -0.0350709583824057   -0.0008026266423630404
-0.0031280485908283524   -0.035096552206368856   -0.0008931698539831722
-0.003130843715698926   -0.037853474693799016   -0.001026260778950299
-0.003106237291503981   -0.035060755384414166   -0.0008897758510142618
-0.0020791164746564936   -0.03777076064946305   -0.0009880004136489982
-0.0030836698616926   -0.037824199519220905   -0.0010248056545198421
-0.003106237291503981   -0.035060755384414166   -0.0008897758510142618
-0.003130843715698926   -0.037853474693799016   -0.001026260778950299
-0.0020791164746564936   -0.03777076064946305   -0.0009880004136489982
-0.003106237291503981   -0.035060755384414166   -0.0008897758510142618
-0.0014588476843842024   -0.035028185312957184   -0.0008374211299284896
-0.001491896754936687   -0.0350709583824057   -0.0008026266423630404
-0.0020791164746564936   -0.03777076064946305   -0.0009880004136489982
-0.003106237291503981   -0.035060755384414166   -0.0008897758510142618
-0.001491896754936687   -0.0350709583824057   -0.0008026266423630404
-0.003130843715698926   -0.037853474693799016   -0.001026260778950299
-0.0020791164746564936   -0.03777076064946305   -0.0009880004136489982
-0.0014588476843842024   -0.035028185312957184   -0.0008374211299284896
-0.0030836698616926   -0.037824199519220905   -0.0010248056545198421
-0.002032165511491643   -0.03776389816558115   -0.0010287325969290059
-0.0014588476843842024   -0.035028185312957184   -0.0008374211299284896
-0.003106237291503981   -0.035060755384414166   -0.0008897758510142618
-0.0030836698616926   -0.037824199519220905   -0.0010248056545198421
-0.0030871651662148954   -0.03504559624611489   -0.0008823539510273722
-0.002032165511491643   -0.03776389816558115   -0.0010287325969290059
-0.0030381928280204355   -0.03781951536868068   -0.0010192613242348458
-0.0030871651662148954   -0.03504559624611489   -0.0008823539510273722
-0.0030836698616926   -0.037824199519220905   -0.0010248056545198421
-0.002032165511491643   -0.03776389816558115   -0.0010287325969290059
-0.0030871651662148954   -0.03504559624611489   -0.0008823539510273722
-0.0014390769889444399   -0.035007569553463534   -0.000868154554120218
-0.0014588476843842024   -0.035028185312957184   -0.0008374211299284896
-0.002032165511491643   -0.03776389816558115   -0.0010287325969290059
-0.0030871651662148954   -0.03504559624611489   -0.0008823539510273722
-0.0014588476843842024   -0.035028185312957184   -0.0008374211299284896
-0.0030836698616926   -0.037824199519220905   -0.0010248056545198421
-0.00317644060944335   -0.03790855248161406   -0.0010236563333677108
-0.003149246992425434   -0.035153321364816977   -0.0008922420254477735
-0.004151675274521621   -0.03787248015774305   -0.001145352059791363
-0.003130843715698926   -0.037853474693799016   -0.001026260778950299
-0.003149246992425434   -0.035153321364816977   -0.0008922420254477735
-0.0047524693675343455   -0.03510127380263462   -0.0010085814151187353
-0.004151675274521621   -0.03787248015774305   -0.001145352059791363
-0.004732740990281724   -0.03505231797872475   -0.0009720561261820991
-0.003130843715698926   -0.037853474693799016   -0.001026260778950299
-0.004106439414557975   -0.037823518844767645   -0.001103114615603882
-0.004732740990281724   -0.03505231797872475   -0.0009720561261820991
-0.004151675274521621   -0.03787248015774305   -0.001145352059791363
-0.003130843715698926   -0.037853474693799016   -0.001026260778950299
-0.004732740990281724   -0.03505231797872475   -0.0009720561261820991
-0.0031280485908283524   -0.035096552206368856   -0.0008931698539831722
-0.003149246992425434   -0.035153321364816977   -0.0008922420254477735
-0.003130843715698926   -0.037853474693799016   -0.001026260778950299
-0.004732740990281724   -0.03505231797872475   -0.0009720561261820991
-0.003149246992425434   -0.035153321364816977   -0.0008922420254477735
-0.004151675274521621   -0.03787248015774305   -0.001145352059791363
-0.003130843715698926   -0.037853474693799016   -0.001026260778950299
-0.0031280485908283524   -0.035096552206368856   -0.0008931698539831722
-0.004106439414557975   -0.037823518844767645   -0.001103114615603882
-0.0030836698616926   -0.037824199519220905   -0.0010248056545198421
-0.0031280485908283524   -0.035096552206368856   -0.0008931698539831722
-0.004732740990281724   -0.03505231797872475   -0.0009720561261820991
-0.004106439414557975   -0.037823518844767645   -0.001103114615603882
-0.004708894396468769   -0.0350241058743505   -0.0009313062043262477
-0.0030836698616926   -0.037824199519220905   -0.0010248056545198421
-0.004055677390757326   -0.037799936889339955   -0.0010568815355514291
-0.004708894396468769   -0.0350241058743505   -0.0009313062043262477
-0.004106439414557975   -0.037823518844767645   -0.001103114615603882
-0.0030836698616926   -0.037824199519220905   -0.0010248056545198421
-0.004708894396468769   -0.0350241058743505   -0.0009313062043262477
-0.003106237291503981   -0.035060755384414166   -0.0008897758510142618
-0.0031280485908283524   -0.035096552206368856   -0.0008931698539831722
-0.0030836698616926   -0.037824199519220905   -0.0010248056545198421
-0.004708894396468769   -0.0350241058743505   -0.0009313062043262477
-0.0031280485908283524   -0.035096552206368856   -0.0008931698539831722
-0.004106439414557975   -0.037823518844767645   -0.001103114615603882
-0.0030836698616926   -0.037824199519220905   -0.0010248056545198421
-0.003106237291503981   -0.035060755384414166   -0.0008897758510142618
-0.004055677390757326   -0.037799936889339955   -0.0010568815355514291
-0.0030381928280204355   -0.03781951536868068   -0.0010192613242348458
-0.003106237291503981   -0.035060755384414166   -0.0008897758510142618
-0.004708894396468769   -0.0350241058743505   -0.0009313062043262477
-0.004055677390757326   -0.037799936889339955   -0.0010568815355514291
-0.00468572685720794   -0.035015695227890414   -0.0008864609103229784
-0.0030381928280204355   -0.03781951536868068   -0.0010192613242348458
-0.004004746683362804   -0.03779933771874309   -0.0010061667043027378
-0.00468572685720794   -0.035015695227890414   -0.0008864609103229784
-0.004055677390757326   -0.037799936889339955   -0.0010568815355514291
-0.0030381928280204355   -0.03781951536868068   -0.0010192613242348458
-0.00468572685720794   -0.035015695227890414   -0.0008864609103229784
-0.0030871651662148954   -0.03504559624611489   -0.0008823539510273722
-0.003106237291503981   -0.035060755384414166   -0.0008897758510142618
-0.0030381928280204355   -0.03781951536868068   -0.0010192613242348458
-0.00468572685720794   -0.035015695227890414   -0.0008864609103229784
-0.003106237291503981   -0.035060755384414166   -0.0008897758510142618
-0.004055677390757326   -0.037799936889339955   -0.0010568815355514291
-0.004151675274521621   -0.03787248015774305   -0.001145352059791363
-0.0047524693675343455   -0.03510127380263462   -0.0010085814151187353
-0.005222278171201113   -0.03775551406408462   -0.0012572961516909788
-0.004106439414557975   -0.037823518844767645   -0.001103114615603882
-0.0047524693675343455   -0.03510127380263462   -0.0010085814151187353
-0.0064320425054464805   -0.0349828166006533   -0.0011119699300213696
-0.005222278171201113   -0.03775551406408462   -0.0012572961516909788
-0.006406154692249491   -0.03494128217661822   -0.0010379254885596741
-0.004106439414557975   -0.037823518844767645   -0.001103114615603882
-0.005166787616184954   -0.03771264920225706   -0.0011711713742158314
-0.006406154692249491   -0.03494128217661822   -0.0010379254885596741
-0.005222278171201113   -0.03775551406408462   -0.0012572961516909788
-0.004106439414557975   -0.037823518844767645   -0.001103114615603882
-0.006406154692249491   -0.03494128217661822   -0.0010379254885596741
-0.004732740990281724   -0.03505231797872475   -0.0009720561261820991
-0.0047524693675343455   -0.03510127380263462   -0.0010085814151187353
-0.004106439414557975   -0.037823518844767645   -0.001103114615603882
-0.006406154692249491   -0.03494128217661822   -0.0010379254885596741
-0.0047524693675343455   -0.03510127380263462   -0.0010085814151187353
-0.005222278171201113   -0.03775551406408462   -0.0012572961516909788
-0.004106439414557975   -0.037823518844767645   -0.001103114615603882
-0.004732740990281724   -0.03505231797872475   -0.0009720561261820991
-0.005166787616184954   -0.03771264920225706   -0.0011711713742158314
-0.004055677390757326   -0.037799936889339955   -0.0010568815355514291
-0.004732740990281724   -0.03505231797872475   -0.0009720561261820991
-0.006406154692249491   -0.03494128217661822   -0.0010379254885596741
-0.005166787616184954   -0.03771264920225706   -0.0011711713742158314
-0.00636220203118596   -0.03491994595600211   -0.0009603110930162485
-0.004055677390757326   -0.037799936889339955   -0.0010568815355514291
-0.005090062611658079   -0.03769473806894158   -0.0010813559005526706
-0.00636220203118596   -0.03491994595600211   -0.0009603110930162485
-0.005166787616184954   -0.03771264920225706   -0.0011711713742158314
-0.004055677390757326   -0.037799936889339955   -0.0010568815355514291
-0.00636220203118596   -0.03491994595600211   -0.0009603110930162485
-0.004708894396468769   -0.0350241058743505   -0.0009313062043262477
-0.004732740990281724   -0.03505231797872475   -0.0009720561261820991
-0.004055677390757326   -0.037799936889339955   -0.0010568815355514291
-0.00636220203118596   -0.03491994595600211   -0.0009603110930162485
-0.004732740990281724   -0.03505231797872475   -0.0009720561261820991
-0.005166787616184954   -0.03771264920225706   -0.0011711713742158314
-0.004055677390757326   -0.037799936889339955   -0.0010568815355514291
-0.004708894396468769   -0.0350241058743505   -0.0009313062043262477
-0.005090062611658079   -0.03769473806894158   -0.0010813559005526706
-0.004004746683362804   -0.03779933771874309   -0.0010061667043027378
-0.004708894396468769   -0.0350241058743505   -0.0009313062043262477
-0.00636220203118596   -0.03491994595600211   -0.0009603110930162485
-0.005090062611658079   -0.03769473806894158   -0.0010813559005526706
-0.006326638426321619   -0.034919963386182064   -0.0008780020807313951
-0.004004746683362804   -0.03779933771874309   -0.0010061667043027378
-0.00502328755275471   -0.03770179934633921   -0.000985378017338547
-0.006326638426321619   -0.034919963386182064   -0.0008780020807313951
-0.005090062611658079   -0.03769473806894158   -0.0010813559005526706
-0.004004746683362804   -0.03779933771874309   -0.0010061667043027378
-0.006326638426321619   -0.034919963386182064   -0.0008780020807313951
-0.00468572685720794   -0.035015695227890414   -0.0008864609103229784
-0.004708894396468769   -0.0350241058743505   -0.0009313062043262477
-0.004004746683362804   -0.03779933771874309   -0.0010061667043027378
-0.006326638426321619   -0.034919963386182064   -0.0008780020807313951
-0.004708894396468769   -0.0350241058743505   -0.0009313062043262477
-0.005090062611658079   -0.03769473806894158   -0.0010813559005526706
-0.005222278171201113   -0.03775551406408462   -0.0012572961516909788
-0.0064320425054464805   -0.0349828166006533   -0.0011119699300213696
-0.006600782486969959   -0.037565287757319966   -0.0013652289091717461
-0.005166787616184954   -0.03771264920225706   -0.0011711713742158314
-0.0064320425054464805   -0.0349828166006533   -0.0011119699300213696
-0.008390536890493312   -0.03481187846100323   -0.0012087066050851096
-0.006600782486969959   -0.037565287757319966   -0.0013652289091717461
-0.008256783437473294   -0.034768406197908976   -0.0010927293280452032
-0.005166787616184954   -0.03771264920225706   -0.0011711713742158314
-0.00642039554980776   -0.0375186093824173   -0.001229200553838073
-0.008256783437473294   -0.034768406197908976   -0.0010927293280452032
-0.006600782486969959   -0.037565287757319966   -0.0013652289091717461
-0.005166787616184954   -0.03771264920225706   -0.0011711713742158314
-0.008256783437473294   -0.034768406197908976   -0.0010927293280452032
-0.006406154692249491   -0.03494128217661822   -0.0010379254885596741
-0.0064320425054464805   -0.0349828166006533   -0.0011119699300213696
-0.005166787616184954   -0.03771264920225706   -0.0011711713742158314
-0.008256783437473294   -0.034768406197908976   -0.0010927293280452032
-0.0064320425054464805   -0.0349828166006533   -0.0011119699300213696
-0.006600782486969959   -0.037565287757319966   -0.0013652289091717461
-0.005166787616184954   -0.03771264920225706   -0.0011711713742158314
-0.006406154692249491   -0.03494128217661822   -0.0010379254885596741
-0.00642039554980776   -0.0375186093824173   -0.001229200553838073
-0.005090062611658079   -0.03769473806894158   -0.0010813559005526706
-0.006406154692249491   -0.03494128217661822   -0.0010379254885596741
-0.008256783437473294   -0.034768406197908976   -0.0010927293280452032
-0.00642039554980776   -0.0375186093824173   -0.001229200553838073
-0.008140916027322835   -0.03474893770801104   -0.000970849778569031
-0.005090062611658079   -0.03769473806894158   -0.0010813559005526706
-0.006259047797288543   -0.037502042220009246   -0.001085406751085037
-0.008140916027322835   -0.03474893770801104   -0.000970849778569031
-0.00642039554980776   -0.0375186093824173   -0.001229200553838073
-0.005090062611658079   -0.03769473806894158   -0.0010813559005526706
-0.008140916027322835   -0.03474893770801104   -0.000970849778569031
-0.00636220203118596   -0.03491994595600211   -0.0009603110930162485
-0.006406154692249491   -0.03494128217661822   -0.0010379254885596741
-0.005090062611658079   -0.03769473806894158   -0.0010813559005526706
-0.008140916027322835   -0.03474893770801104   -0.000970849778569031
-0.006406154692249491   -0.03494128217661822   -0.0010379254885596741
-0.00642039554980776   -0.0375186093824173   -0.001229200553838073
-0.005090062611658079   -0.03769473806894158   -0.0010813559005526706
-0.00636220203118596   -0.03491994595600211   -0.0009603110930162485
-0.006259047797288543   -0.037502042220009246   -0.001085406751085037
-0.00502328755275471   -0.03770179934633921   -0.000985378017338547
-0.00636220203118596   -0.03491994595600211   -0.0009603110930162485
-0.008140916027322835   -0.03474893770801104   -0.000970849778569031
-0.006259047797288543   -0.037502042220009246   -0.001085406751085037
-0.007984905725592595   -0.03476205235266829   -0.0008438415422056731
-0.00502328755275471   -0.03770179934633921   -0.000985378017338547
-0.006049977135169058   -0.0375242454740616   -0.0009352003207382296
-0.007984905725592595   -0.03476205235266829   -0.0008438415422056731
-0.006259047797288543   -0.037502042220009246   -0.001085406751085037
-0.00502328755275471   -0.03770179934633921   -0.000985378017338547
-0.007984905725592595   -0.03476205235266829   -0.0008438415422056731
-0.006326638426321619   -0.034919963386182064   -0.0008780020807313951
-0.00636220203118596   -0.03491994595600211   -0.0009603110930162485
-0.00502328755275471   -0.03770179934633921   -0.000985378017338547
-0.007984905725592595   -0.03476205235266829   -0.0008438415422056731
-0.00636220203118596   -0.03491994595600211   -0.0009603110930162485
-0.006259047797288543   -0.037502042220009246   -0.001085406751085037
0.00016048587685212298   -0.03505298474007952   -0.0006065124274802503
0.0012001014260115855   -0.031372819265671543   -0.00046193533808011177
-0.0015208325978363173   -0.03513717092876003   -0.0007633254494514543
0.0002703584505532812   -0.03497341131103806   -0.0006961604193674339
0.0012001014260115855   -0.031372819265671543   -0.00046193533808011177
-0.0010318583632410317   -0.031428828891539286   -0.0006116713869412185
-0.0015208325978363173   -0.03513717092876003   -0.0007633254494514543
-0.0010256412865380714   -0.03136296486283513   -0.0006390800744992915
0.0002703584505532812   -0.03497341131103806   -0.0006961604193674339
-0.001491896754936687   -0.0350709583824057   -0.0008026266423630404
-0.0010256412865380714   -0.03136296486283513   -0.0006390800744992915
-0.0015208325978363173   -0.03513717092876003   -0.0007633254494514543
0.0002703584505532812   -0.03497341131103806   -0.0006961604193674339
-0.0010256412865380714   -0.03136296486283513   -0.0006390800744992915
0.0012659832859302955   -0.03129512022633127   -0.000528598936152465
0.0012001014260115855   -0.031372819265671543   -0.00046193533808011177
0.0002703584505532812   -0.03497341131103806   -0.0006961604193674339
-0.0010256412865380714   -0.03136296486283513   -0.0006390800744992915
0.0012001014260115855   -0.031372819265671543   -0.00046193533808011177
-0.0015208325978363173   -0.03513717092876003   -0.0007633254494514543
0.0002703584505532812   -0.03497341131103806   -0.0006961604193674339
0.0012659832859302955   -0.03129512022633127   -0.000528598936152465
-0.001491896754936687   -0.0350709583824057   -0.0008026266423630404
0.0003512420930291213   -0.034927978072511696   -0.0007794999688618312
0.0012659832859302955   -0.03129512022633127   -0.000528598936152465
-0.0010256412865380714   -0.03136296486283513   -0.0006390800744992915
-0.001491896754936687   -0.0350709583824057   -0.0008026266423630404
-0.0010177016341319834   -0.0313156712279654   -0.0006623528596020528
0.0003512420930291213   -0.034927978072511696   -0.0007794999688618312
-0.0014588476843842024   -0.035028185312957184   -0.0008374211299284896
-0.0010177016341319834   -0.0313156712279654   -0.0006623528596020528
-0.001491896754936687   -0.0350709583824057   -0.0008026266423630404
0.0003512420930291213   -0.034927978072511696   -0.0007794999688618312
-0.0010177016341319834   -0.0313156712279654   -0.0006623528596020528
0.0013082712695989369   -0.031244685105613176   -0.0005894138350219563
0.0012659832859302955   -0.03129512022633127   -0.000528598936152465
0.0003512420930291213   -0.034927978072511696   -0.0007794999688618312
-0.0010177016341319834   -0.0313156712279654   -0.0006623528596020528
0.0012659832859302955   -0.03129512022633127   -0.000528598936152465
-0.001491896754936687   -0.0350709583824057   -0.0008026266423630404
0.0003512420930291213   -0.034927978072511696   -0.0007794999688618312
0.0013082712695989369   -0.031244685105613176   -0.0005894138350219563
-0.0014588476843842024   -0.035028185312957184   -0.0008374211299284896
0.00043810101323070867   -0.034906409196634604   -0.0008565046861635887
0.0013082712695989369   -0.031244685105613176   -0.0005894138350219563
-0.0010177016341319834   -0.0313156712279654   -0.0006623528596020528
-0.0014588476843842024   -0.035028185312957184   -0.0008374211299284896
-0.0010211349634714525   -0.03128540916816805   -0.0006817907557426827
0.00043810101323070867   -0.034906409196634604   -0.0008565046861635887
-0.0014390769889444399   -0.035007569553463534   -0.000868154554120218
-0.0010211349634714525   -0.03128540916816805   -0.0006817907557426827
-0.0014588476843842024   -0.035028185312957184   -0.0008374211299284896
0.00043810101323070867   -0.034906409196634604   -0.0008565046861635887
-0.0010211349634714525   -0.03128540916816805   -0.0006817907557426827
0.001351945412501764   -0.031211580973040505   -0.0006445063916936093
0.0013082712695989369   -0.031244685105613176   -0.0005894138350219563
0.00043810101323070867   -0.034906409196634604   -0.0008565046861635887
-0.0010211349634714525   -0.03128540916816805   -0.0006817907557426827
0.0013082712695989369   -0.031244685105613176   -0.0005894138350219563
-0.0014588476843842024   -0.035028185312957184   -0.0008374211299284896
-0.0015208325978363173   -0.03513717092876003   -0.0007633254494514543
-0.0010318583632410317   -0.031428828891539286   -0.0006116713869412185
-0.003149246992425434   -0.035153321364816977   -0.0008922420254477735
-0.001491896754936687   -0.0350709583824057   -0.0008026266423630404
-0.0010318583632410317   -0.031428828891539286   -0.0006116713869412185
-0.0031812090401115993   -0.03142931192073438   -0.0007347942081875423
-0.003149246992425434   -0.035153321364816977   -0.0008922420254477735
-0.0031813881435487474   -0.03137370688625412   -0.0007321968401476035
-0.001491896754936687   -0.0350709583824057   -0.0008026266423630404
-0.0031280485908283524   -0.035096552206368856   -0.0008931698539831722
-0.0031813881435487474   -0.03137370688625412   -0.0007321968401476035
-0.003149246992425434   -0.035153321364816977   -0.0008922420254477735
-0.001491896754936687   -0.0350709583824057   -0.0008026266423630404
-0.0031813881435487474   -0.03137370688625412   -0.0007321968401476035
-0.0010256412865380714   -0.03136296486283513   -0.0006390800744992915
-0.0010318583632410317   -0.031428828891539286   -0.0006116713869412185
-0.001491896754936687   -0.0350709583824057   -0.0008026266423630404
-0.0031813881435487474   -0.03137370688625412   -0.0007321968401476035
-0.0010318583632410317   -0.031428828891539286   -0.0006116713869412185
-0.003149246992425434   -0.035153321364816977   -0.0008922420254477735
-0.001491896754936687   -0.0350709583824057   -0.0008026266423630404
-0.0010256412865380714   -0.03136296486283513   -0.0006390800744992915
-0.0031280485908283524   -0.035096552206368856   -0.0008931698539831722
-0.0014588476843842024   -0.035028185312957184   -0.0008374211299284896
-0.0010256412865380714   -0.03136296486283513   -0.0006390800744992915
-0.0031813881435487474   -0.03137370688625412   -0.0007321968401476035
-0.0031280485908283524   -0.035096552206368856   -0.0008931698539831722
-0.0031814168235828103   -0.031334466236845875   -0.0007254753391535775
-0.0014588476843842024   -0.035028185312957184   -0.0008374211299284896
-0.003106237291503981   -0.035060755384414166   -0.0008897758510142618
-0.0031814168235828103   -0.031334466236845875   -0.0007254753391535775
-0.0031280485908283524   -0.035096552206368856   -0.0008931698539831722
-0.0014588476843842024   -0.035028185312957184   -0.0008374211299284896
-0.0031814168235828103   -0.031334466236845875   -0.0007254753391535775
-0.0010177016341319834   -0.0313156712279654   -0.0006623528596020528
-0.0010256412865380714   -0.03136296486283513   -0.0006390800744992915
-0.0014588476843842024   -0.035028185312957184   -0.0008374211299284896
-0.0031814168235828103   -0.031334466236845875   -0.0007254753391535775
-0.0010256412865380714   -0.03136296486283513   -0.0006390800744992915
-0.0031280485908283524   -0.035096552206368856   -0.0008931698539831722
-0.0014588476843842024   -0.035028185312957184   -0.0008374211299284896
-0.0010177016341319834   -0.0313156712279654   -0.0006623528596020528
-0.003106237291503981   -0.035060755384414166   -0.0008897758510142618
-0.0014390769889444399   -0.035007569553463534   -0.000868154554120218
-0.0010177016341319834   -0.0313156712279654   -0.0006623528596020528
-0.0031814168235828103   -0.031334466236845875   -0.0007254753391535775
-0.003106237291503981   -0.035060755384414166   -0.0008897758510142618
-0.0031843078430621842   -0.03131162071926537   -0.0007148493089960246
-0.0014390769889444399   -0.035007569553463534   -0.000868154554120218
-0.0030871651662148954   -0.03504559624611489   -0.0008823539510273722
-0.0031843078430621842   -0.03131162071926537   -0.0007148493089960246
-0.003106237291503981   -0.035060755384414166   -0.0008897758510142618
-0.0014390769889444399   -0.035007569553463534   -0.000868154554120218
-0.0031843078430621842   -0.03131162071926537   -0.0007148493089960246
-0.0010211349634714525   -0.03128540916816805   -0.0006817907557426827
-0.0010177016341319834   -0.0313156712279654   -0.0006623528596020528
-0.0014390769889444399   -0.035007569553463534   -0.000868154554120218
-0.0031843078430621842   -0.03131162071926537   -0.0007148493089960246
-0.0010177016341319834   -0.0313156712279654   -0.0006623528596020528
-0.003106237291503981   -0.035060755384414166   -0.0008897758510142618
-0.003149246992425434   -0.035153321364816977   -0.0008922420254477735
-0.0031812090401115993   -0.03142931192073438   -0.0007347942081875423
-0.0047524693675343455   -0.03510127380263462   -0.0010085814151187353
-0.0031280485908283524   -0.035096552206368856   -0.0008931698539831722
-0.0031812090401115993   -0.03142931192073438   -0.0007347942081875423
-0.005294430684189048   -0.03137566394126539   -0.0008425303920521708
-0.0047524693675343455   -0.03510127380263462   -0.0010085814151187353
-0.005296213757873818   -0.03132903564991659   -0.000810293913019498
-0.0031280485908283524   -0.035096552206368856   -0.0008931698539831722
-0.004732740990281724   -0.03505231797872475   -0.0009720561261820991
-0.005296213757873818   -0.03132903564991659   -0.000810293913019498
-0.0047524693675343455   -0.03510127380263462   -0.0010085814151187353
-0.0031280485908283524   -0.035096552206368856   -0.0008931698539831722
-0.005296213757873818   -0.03132903564991659   -0.000810293913019498
-0.0031813881435487474   -0.03137370688625412   -0.0007321968401476035
-0.0031812090401115993   -0.03142931192073438   -0.0007347942081875423
-0.0031280485908283524   -0.035096552206368856   -0.0008931698539831722
-0.005296213757873818   -0.03132903564991659   -0.000810293913019498
-0.0031812090401115993   -0.03142931192073438   -0.0007347942081875423
-0.0047524693675343455   -0.03510127380263462   -0.0010085814151187353
-0.0031280485908283524   -0.035096552206368856   -0.0008931698539831722
-0.0031813881435487474   -0.03137370688625412   -0.0007321968401476035
-0.004732740990281724   -0.03505231797872475   -0.0009720561261820991
-0.003106237291503981   -0.035060755384414166   -0.0008897758510142618
-0.0031813881435487474   -0.03137370688625412   -0.0007321968401476035
-0.005296213757873818   -0.03132903564991659   -0.000810293913019498
-0.004732740990281724   -0.03505231797872475   -0.0009720561261820991
-0.005294405536947041   -0.031298627512774575   -0.0007740163289326101
-0.003106237291503981   -0.035060755384414166   -0.0008897758510142618
-0.004708894396468769   -0.0350241058743505   -0.0009313062043262477
-0.005294405536947041   -0.031298627512774575   -0.0007740163289326101
-0.004732740990281724   -0.03505231797872475   -0.0009720561261820991
-0.003106237291503981   -0.035060755384414166   -0.0008897758510142618
-0.005294405536947041   -0.031298627512774575   -0.0007740163289326101
-0.0031814168235828103   -0.031334466236845875   -0.0007254753391535775
-0.0031813881435487474   -0.03137370688625412   -0.0007321968401476035
-0.003106237291503981   -0.035060755384414166   -0.0008897758510142618
-0.005294405536947041   -0.031298627512774575   -0.0007740163289326101
-0.0031813881435487474   -0.03137370688625412   -0.0007321968401476035
-0.004732740990281724   -0.03505231797872475   -0.0009720561261820991
-0.003106237291503981   -0.035060755384414166   -0.0008897758510142618
-0.0031814168235828103   -0.031334466236845875   -0.0007254753391535775
-0.004708894396468769   -0.0350241058743505   -0.0009313062043262477
-0.0030871651662148954   -0.03504559624611489   -0.0008823539510273722
-0.0031814168235828103   -0.031334466236845875   -0.0007254753391535775
-0.005294405536947041   -0.031298627512774575   -0.0007740163289326101
-0.004708894396468769   -0.0350241058743505   -0.0009313062043262477
-0.00529325821932886   -0.03128416040309982   -0.0007338140162671137
-0.0030871651662148954   -0.03504559624611489   -0.0008823539510273722
-0.00468572685720794   -0.035015695227890414   -0.0008864609103229784
-0.00529325821932886   -0.03128416040309982   -0.0007338140162671137
-0.004708894396468769   -0.0350241058743505   -0.0009313062043262477
-0.0030871651662148954   -0.03504559624611489   -0.0008823539510273722
-0.00529325821932886   -0.03128416040309982   -0.0007338140162671137
-0.0031843078430621842   -0.03131162071926537   -0.0007148493089960246
-0.0031814168235828103   -0.031334466236845875   -0.0007254753391535775
-0.0030871651662148954   -0.03504559624611489   -0.0008823539510273722
-0.00529325821932886   -0.03128416040309982   -0.0007338140162671137
-0.0031814168235828103   -0.031334466236845875   -0.0007254753391535775
-0.004708894396468769   -0.0350241058743505   -0.0009313062043262477
-0.0047524693675343455   -0.03510127380263462   -0.0010085814151187353
-0.005294430684189048   -0.03137566394126539   -0.0008425303920521708
-0.0064320425054464805   -0.0349828166006533   -0.0011119699300213696
-0.004732740990281724   -0.03505231797872475   -0.0009720561261820991
-0.005294430684189048   -0.03137566394126539   -0.0008425303920521708
-0.00747327258997141   -0.0312698704533151   -0.0009351371218057839
-0.0064320425054464805   -0.0349828166006533   -0.0011119699300213696
-0.007470547514741601   -0.031231806672619315   -0.000872902061590815
-0.004732740990281724   -0.03505231797872475   -0.0009720561261820991
-0.006406154692249491   -0.03494128217661822   -0.0010379254885596741
-0.007470547514741601   -0.031231806672619315   -0.000872902061590815
-0.0064320425054464805   -0.0349828166006533   -0.0011119699300213696
-0.004732740990281724   -0.03505231797872475   -0.0009720561261820991
-0.007470547514741601   -0.031231806672619315   -0.000872902061590815
-0.005296213757873818   -0.03132903564991659   -0.000810293913019498
-0.005294430684189048   -0.03137566394126539   -0.0008425303920521708
-0.004732740990281724   -0.03505231797872475   -0.0009720561261820991
-0.007470547514741601   -0.031231806672619315   -0.000872902061590815
-0.005294430684189048   -0.03137566394126539   -0.0008425303920521708
-0.0064320425054464805   -0.0349828166006533   -0.0011119699300213696
-0.004732740990281724   -0.03505231797872475   -0.0009720561261820991
-0.005296213757873818   -0.03132903564991659   -0.000810293913019498
-0.006406154692249491   -0.03494128217661822   -0.0010379254885596741
-0.004708894396468769   -0.0350241058743505   -0.0009313062043262477
-0.005296213757873818   -0.03132903564991659   -0.000810293913019498
-0.007470547514741601   -0.031231806672619315   -0.000872902061590815
-0.006406154692249491   -0.03494128217661822   -0.0010379254885596741
-0.00745206794519088   -0.031209408846519335   -0.0008072370402121284
-0.004708894396468769   -0.0350241058743505   -0.0009313062043262477
-0.00636220203118596   -0.03491994595600211   -0.0009603110930162485
-0.00745206794519088   -0.031209408846519335   -0.0008072370402121284
-0.006406154692249491   -0.03494128217661822   -0.0010379254885596741
-0.004708894396468769   -0.0350241058743505   -0.0009313062043262477
-0.00745206794519088   -0.031209408846519335   -0.0008072370402121284
-0.005294405536947041   -0.031298627512774575   -0.0007740163289326101
-0.005296213757873818   -0.03132903564991659   -0.000810293913019498
-0.004708894396468769   -0.0350241058743505   -0.0009313062043262477
-0.00745206794519088   -0.031209408846519335   -0.0008072370402121284
-0.005296213757873818   -0.03132903564991659   -0.000810293913019498
-0.006406154692249491   -0.03494128217661822   -0.0010379254885596741
-0.004708894396468769   -0.0350241058743505   -0.0009313062043262477
-0.005294405536947041   -0.031298627512774575   -0.0007740163289326101
-0.00636220203118596   -0.03491994595600211   -0.0009603110930162485
-0.00468572685720794   -0.035015695227890414   -0.0008864609103229784
-0.005294405536947041   -0.031298627512774575   -0.0007740163289326101
-0.00745206794519088   -0.031209408846519335   -0.0008072370402121284
-0.00636220203118596   -0.03491994595600211   -0.0009603110930162485
-0.007439765631770732   -0.03120429765472301   -0.0007373287269674711
-0.00468572685720794   -0.035015695227890414   -0.0008864609103229784
-0.006326638426321619   -0.034919963386182064   -0.0008780020807313951
-0.007439765631770732   -0.03120429765472301   -0.0007373287269674711
-0.00636220203118596   -0.03491994595600211   -0.0009603110930162485
-0.00468572685720794   -0.035015695227890414   -0.0008864609103229784
-0.007439765631770732   -0.03120429765472301   -0.0007373287269674711
-0.00529325821932886   -0.03128416040309982   -0.0007338140162671137
-0.005294405536947041   -0.031298627512774575   -0.0007740163289326101
-0.00468572685720794   -0.035015695227890414   -0.0008864609103229784
-0.007439765631770732   -0.03120429765472301   -0.0007373287269674711
-0.005294405536947041   -0.031298627512774575   -0.0007740163289326101
-0.00636220203118596   -0.03491994595600211   -0.0009603110930162485
-0.0064320425054464805   -0.0349828166006533   -0.0011119699300213696
-0.00747327258997141   -0.0312698704533151   -0.0009351371218057839
-0.008390536890493312   -0.03481187846100323   -0.0012087066050851096
-0.006406154692249491   -0.03494128217661822   -0.0010379254885596741
-0.00747327258997141   -0.0312698704533151   -0.0009351371218057839
-0.009907099373977168   -0.03112367320055782   -0.0010188319468067862
-0.008390536890493312   -0.03481187846100323   -0.0012087066050851096
-0.0098150336605933   -0.031086223875737187   -0.0009235124926562226
-0.006406154692249491   -0.03494128217661822   -0.0010379254885596741
-0.008256783437473294   -0.034768406197908976   -0.0010927293280452032
-0.0098150336605933   -0.031086223875737187   -0.0009235124926562226
-0.008390536890493312   -0.03481187846100323   -0.0012087066050851096
-0.006406154692249491   -0.03494128217661822   -0.0010379254885596741
-0.0098150336605933   -0.031086223875737187   -0.0009235124926562226
-0.007470547514741601   -0.031231806672619315   -0.000872902061590815
-0.00747327258997141   -0.0312698704533151   -0.0009351371218057839
-0.006406154692249491   -0.03494128217661822   -0.0010379254885596741
-0.0098150336605933   -0.031086223875737187   -0.0009235124926562226
-0.00747327258997141   -0.0312698704533151   -0.0009351371218057839
-0.008390536890493312   -0.03481187846100323   -0.0012087066050851096
-0.006406154692249491   -0.03494128217661822   -0.0010379254885596741
-0.007470547514741601   -0.031231806672619315   -0.000872902061590815
-0.008256783437473294   -0.034768406197908976   -0.0010927293280452032
-0.00636220203118596   -0.03491994595600211   -0.0009603110930162485
-0.007470547514741601   -0.031231806672619315   -0.000872902061590815
-0.0098150336605933   -0.031086223875737187   -0.0009235124926562226
-0.008256783437473294   -0.034768406197908976   -0.0010927293280452032
-0.009736435604018035   -0.031066754000125523   -0.0008224149628521116
-0.00636220203118596   -0.03491994595600211   -0.0009603110930162485
-0.008140916027322835   -0.03474893770801104   -0.000970849778569031
-0.009736435604018035   -0.031066754000125523   -0.0008224149628521116
-0.008256783437473294   -0.034768406197908976   -0.0010927293280452032
-0.00636220203118596   -0.03491994595600211   -0.0009603110930162485
-0.009736435604018035   -0.031066754000125523   -0.0008224149628521116
-0.00745206794519088   -0.031209408846519335   -0.0008072370402121284
-0.007470547514741601   -0.031231806672619315   -0.000872902061590815
-0.00636220203118596   -0.03491994595600211   -0.0009603110930162485
-0.009736435604018035   -0.031066754000125523   -0.0008224149628521116
-0.007470547514741601   -0.031231806672619315   -0.000872902061590815
-0.008256783437473294   -0.034768406197908976   -0.0010927293280452032
-0.00636220203118596   -0.03491994595600211   -0.0009603110930162485
-0.00745206794519088   -0.031209408846519335   -0.0008072370402121284
-0.008140916027322835   -0.03474893770801104   -0.000970849778569031
-0.006326638426321619   -0.034919963386182064   -0.0008780020807313951
-0.00745206794519088   -0.031209408846519335   -0.0008072370402121284
-0.009736435604018035   -0.031066754000125523   -0.0008224149628521116
-0.008140916027322835   -0.03474893770801104   -0.000970849778569031
-0.009623196130881483   -0.031074651607604933   -0.0007163374974579967
-0.006326638426321619   -0.034919963386182064   -0.0008780020807313951
-0.007984905725592595   -0.03476205235266829   -0.0008438415422056731
-0.009623196130881483   -0.031074651607604933   -0.0007163374974579967
-0.008140916027322835   -0.03474893770801104   -0.000970849778569031
-0.006326638426321619   -0.034919963386182064   -0.0008780020807313951
-0.009623196130881483   -0.031074651607604933   -0.0007163374974579967
-0.007439765631770732   -0.03120429765472301   -0.0007373287269674711
-0.00745206794519088   -0.031209408846519335   -0.0008072370402121284
-0.006326638426321619   -0.034919963386182064   -0.0008780020807313951
-0.009623196130881483   -0.031074651607604933   -0.0007163374974579967
-0.00745206794519088   -0.031209408846519335   -0.0008072370402121284
-0.008140916027322835   -0.03474893770801104   -0.000970849778569031
0.0012001014260115855   -0.031372819265671543   -0.00046193533808011177
0.0019211413783498834   -0.026934894623361013   -0.00030794115478828153
-0.0010318583632410317   -0.031428828891539286   -0.0006116713869412185
0.0012659832859302955   -0.03129512022633127   -0.000528598936152465
0.0019211413783498834   -0.026934894623361013   -0.00030794115478828153
-0.0007323710097177109   -0.0269628382465556   -0.00044878177289759975
-0.0010318583632410317   -0.031428828891539286   -0.0006116713869412185
-0.0007444866807839247   -0.02689860536711757   -0.00046373730115130006
0.0012659832859302955   -0.03129512022633127   -0.000528598936152465
-0.0010256412865380714   -0.03136296486283513   -0.0006390800744992915
-0.0007444866807839247   -0.02689860536711757   -0.00046373730115130006
-0.0010318583632410317   -0.031428828891539286   -0.0006116713869412185
0.0012659832859302955   -0.03129512022633127   -0.000528598936152465
-0.0007444866807839247   -0.02689860536711757   -0.00046373730115130006
0.0019479223882155976   -0.02686003124877571   -0.0003519704997915633
0.0019211413783498834   -0.026934894623361013   -0.00030794115478828153
0.0012659832859302955   -0.03129512022633127   -0.000528598936152465
-0.0007444866807839247   -0.02689860536711757   -0.00046373730115130006
0.0019211413783498834   -0.026934894623361013   -0.00030794115478828153
-0.0010318583632410317   -0.031428828891539286   -0.0006116713869412185
0.0012659832859302955   -0.03129512022633127   -0.000528598936152465
0.0019479223882155976   -0.02686003124877571   -0.0003519704997915633
-0.0010256412865380714   -0.03136296486283513   -0.0006390800744992915
0.0013082712695989369   -0.031244685105613176   -0.0005894138350219563
0.0019479223882155976   -0.02686003124877571   -0.0003519704997915633
-0.0007444866807839247   -0.02689860536711757   -0.00046373730115130006
-0.0010256412865380714   -0.03136296486283513   -0.0006390800744992915
-0.0007571753065428726   -0.026848205882160227   -0.00047498264506579753
0.0013082712695989369   -0.031244685105613176   -0.0005894138350219563
-0.0010177016341319834   -0.0313156712279654   -0.0006623528596020528
-0.0007571753065428726   -0.026848205882160227   -0.00047498264506579753
-0.0010256412865380714   -0.03136296486283513   -0.0006390800744992915
0.0013082712695989369   -0.031244685105613176   -0.0005894138350219563
-0.0007571753065428726   -0.026848205882160227   -0.00047498264506579753
0.001956606061688741   -0.026805995912394825   -0.0003905217927003237
0.0019479223882155976   -0.02686003124877571   -0.0003519704997915633
0.0013082712695989369   -0.031244685105613176   -0.0005894138350219563
-0.0007571753065428726   -0.026848205882160227   -0.00047498264506579753
0.0019479223882155976   -0.02686003124877571   -0.0003519704997915633
-0.0010256412865380714   -0.03136296486283513   -0.0006390800744992915
0.0013082712695989369   -0.031244685105613176   -0.0005894138350219563
0.001956606061688741   -0.026805995912394825   -0.0003905217927003237
-0.0010177016341319834   -0.0313156712279654   -0.0006623528596020528
0.001351945412501764   -0.031211580973040505   -0.0006445063916936093
0.001956606061688741   -0.026805995912394825   -0.0003905217927003237
-0.0007571753065428726   -0.026848205882160227   -0.00047498264506579753
-0.0010177016341319834   -0.0313156712279654   -0.0006623528596020528
-0.000779115794099653   -0.026810026380249055   -0.0004826422538602936
0.001351945412501764   -0.031211580973040505   -0.0006445063916936093
-0.0010211349634714525   -0.03128540916816805   -0.0006817907557426827
-0.000779115794099653   -0.026810026380249055   -0.0004826422538602936
-0.0010177016341319834   -0.0313156712279654   -0.0006623528596020528
0.001351945412501764   -0.031211580973040505   -0.0006445063916936093
-0.000779115794099653   -0.026810026380249055   -0.0004826422538602936
0.0019620996916916767   -0.026763086214990486   -0.0004238565384773618
0.001956606061688741   -0.026805995912394825   -0.0003905217927003237
0.001351945412501764   -0.031211580973040505   -0.0006445063916936093
-0.000779115794099653   -0.026810026380249055   -0.0004826422538602936
0.001956606061688741   -0.026805995912394825   -0.0003905217927003237
-0.0010177016341319834   -0.0313156712279654   -0.0006623528596020528
-0.0010318583632410317   -0.031428828891539286   -0.0006116713869412185
-0.0007323710097177109   -0.0269628382465556   -0.00044878177289759975
-0.0031812090401115993   -0.03142931192073438   -0.0007347942081875423
-0.0010256412865380714   -0.03136296486283513   -0.0006390800744992915
-0.0007323710097177109   -0.0269628382465556   -0.00044878177289759975
-0.0032769495660233973   -0.026949007696966804   -0.0005643200038244762
-0.0031812090401115993   -0.03142931192073438   -0.0007347942081875423
-0.00329399048058278   -0.026895494767683183   -0.0005574744422379062
-0.0010256412865380714   -0.03136296486283513   -0.0006390800744992915
-0.0031813881435487474   -0.03137370688625412   -0.0007321968401476035
-0.00329399048058278   -0.026895494767683183   -0.0005574744422379062
-0.0031812090401115993   -0.03142931192073438   -0.0007347942081875423
-0.0010256412865380714   -0.03136296486283513   -0.0006390800744992915
-0.00329399048058278   -0.026895494767683183   -0.0005574744422379062
-0.0007444866807839247   -0.02689860536711757   -0.00046373730115130006
-0.0007323710097177109   -0.0269628382465556   -0.00044878177289759975
-0.0010256412865380714   -0.03136296486283513   -0.0006390800744992915
-0.00329399048058278   -0.026895494767683183   -0.0005574744422379062
-0.0007323710097177109   -0.0269628382465556   -0.00044878177289759975
-0.0031812090401115993   -0.03142931192073438   -0.0007347942081875423
-0.0010256412865380714   -0.03136296486283513   -0.0006390800744992915
-0.0007444866807839247   -0.02689860536711757   -0.00046373730115130006
-0.0031813881435487474   -0.03137370688625412   -0.0007321968401476035
-0.0010177016341319834   -0.0313156712279654   -0.0006623528596020528
-0.0007444866807839247   -0.02689860536711757   -0.00046373730115130006
-0.00329399048058278   -0.026895494767683183   -0.0005574744422379062
-0.0031813881435487474   -0.03137370688625412   -0.0007321968401476035
-0.0033112676462378533   -0.026853835478514238   -0.0005468051724329974
-0.0010177016341319834   -0.0313156712279654   -0.0006623528596020528
-0.0031814168235828103   -0.031334466236845875   -0.0007254753391535775
-0.0033112676462378533   -0.026853835478514238   -0.0005468051724329974
-0.0031813881435487474   -0.03137370688625412   -0.0007321968401476035
-0.0010177016341319834   -0.0313156712279654   -0.0006623528596020528
-0.0033112676462378533   -0.026853835478514238   -0.0005468051724329974
-0.0007571753065428726   -0.026848205882160227   -0.00047498264506579753
-0.0007444866807839247   -0.02689860536711757   -0.00046373730115130006
-0.0010177016341319834   -0.0313156712279654   -0.0006623528596020528
-0.0033112676462378533   -0.026853835478514238   -0.0005468051724329974
-0.0007444866807839247   -0.02689860536711757   -0.00046373730115130006
-0.0031813881435487474   -0.03137370688625412   -0.0007321968401476035
-0.0010177016341319834   -0.0313156712279654   -0.0006623528596020528
-0.0007571753065428726   -0.026848205882160227   -0.00047498264506579753
-0.0031814168235828103   -0.031334466236845875   -0.0007254753391535775
-0.0010211349634714525   -0.03128540916816805   -0.0006817907557426827
-0.0007571753065428726   -0.026848205882160227   -0.00047498264506579753
-0.0033112676462378533   -0.026853835478514238   -0.0005468051724329974
-0.0031814168235828103   -0.031334466236845875   -0.0007254753391535775
-0.0033312687072863134   -0.026824228965193778   -0.000532501800630962
-0.0010211349634714525   -0.03128540916816805   -0.0006817907557426827
-0.0031843078430621842   -0.03131162071926537   -0.0007148493089960246
-0.0033312687072863134   -0.026824228965193778   -0.000532501800630962
-0.0031814168235828103   -0.031334466236845875   -0.0007254753391535775
-0.0010211349634714525   -0.03128540916816805   -0.0006817907557426827
-0.0033312687072863134   -0.026824228965193778   -0.000532501800630962
-0.000779115794099653   -0.026810026380249055   -0.0004826422538602936
-0.0007571753065428726   -0.026848205882160227   -0.00047498264506579753
-0.0010211349634714525   -0.03128540916816805   -0.0006817907557426827
-0.0033312687072863134   -0.026824228965193778   -0.000532501800630962
-0.0007571753065428726   -0.026848205882160227   -0.00047498264506579753
-0.0031814168235828103   -0.031334466236845875   -0.0007254753391535775
-0.0031812090401115993   -0.03142931192073438   -0.0007347942081875423
-0.0032769495660233973   -0.026949007696966804   -0.0005643200038244762
-0.005294430684189048   -0.03137566394126539   -0.0008425303920521708
-0.0031813881435487474   -0.03137370688625412   -0.0007321968401476035
-0.0032769495660233973   -0.026949007696966804   -0.0005643200038244762
-0.0057787556886811425   -0.026896105812096345   -0.0006629774229632824
-0.005294430684189048   -0.03137566394126539   -0.0008425303920521708
-0.005797192859465247   -0.02685229886390687   -0.0006344467249386746
-0.0031813881435487474   -0.03137370688625412   -0.0007321968401476035
-0.005296213757873818   -0.03132903564991659   -0.000810293913019498
-0.005797192859465247   -0.02685229886390687   -0.0006344467249386746
-0.005294430684189048   -0.03137566394126539   -0.0008425303920521708
-0.0031813881435487474   -0.03137370688625412   -0.0007321968401476035
-0.005797192859465247   -0.02685229886390687   -0.0006344467249386746
-0.00329399048058278   -0.026895494767683183   -0.0005574744422379062
-0.0032769495660233973   -0.026949007696966804   -0.0005643200038244762
-0.0031813881435487474   -0.03137370688625412   -0.0007321968401476035
-0.005797192859465247   -0.02685229886390687   -0.0006344467249386746
-0.0032769495660233973   -0.026949007696966804   -0.0005643200038244762
-0.005294430684189048   -0.03137566394126539   -0.0008425303920521708
-0.0031813881435487474   -0.03137370688625412   -0.0007321968401476035
-0.00329399048058278   -0.026895494767683183   -0.0005574744422379062
-0.005296213757873818   -0.03132903564991659   -0.000810293913019498
-0.0031814168235828103   -0.031334466236845875   -0.0007254753391535775
-0.00329399048058278   -0.026895494767683183   -0.0005574744422379062
-0.005797192859465247   -0.02685229886390687   -0.0006344467249386746
-0.005296213757873818   -0.03132903564991659   -0.000810293913019498
-0.0058124318176228235   -0.0268202331061918   -0.0006021624498089786
-0.0031814168235828103   -0.031334466236845875   -0.0007254753391535775
-0.005294405536947041   -0.031298627512774575   -0.0007740163289326101
-0.0058124318176228235   -0.0268202331061918   -0.0006021624498089786
-0.005296213757873818   -0.03132903564991659   -0.000810293913019498
-0.0031814168235828103   -0.031334466236845875   -0.0007254753391535775
-0.0058124318176228235   -0.0268202331061918   -0.0006021624498089786
-0.0033112676462378533   -0.026853835478514238   -0.0005468051724329974
-0.00329399048058278   -0.026895494767683183   -0.0005574744422379062
-0.0031814168235828103   -0.031334466236845875   -0.0007254753391535775
-0.0058124318176228235   -0.0268202331061918   -0.0006021624498089786
-0.00329399048058278   -0.026895494767683183   -0.0005574744422379062
-0.005296213757873818   -0.03132903564991659   -0.000810293913019498
-0.0031814168235828103   -0.031334466236845875   -0.0007254753391535775
-0.0033112676462378533   -0.026853835478514238   -0.0005468051724329974
-0.005294405536947041   -0.031298627512774575   -0.0007740163289326101
-0.0031843078430621842   -0.03131162071926537   -0.0007148493089960246
-0.0033112676462378533   -0.026853835478514238   -0.0005468051724329974
-0.0058124318176228235   -0.0268202331061918   -0.0006021624498089786
-0.005294405536947041   -0.031298627512774575   -0.0007740163289326101
-0.005828125777206342   -0.026799857521616934   -0.0005662334412282241
-0.0031843078430621842   -0.03131162071926537   -0.0007148493089960246
-0.00529325821932886   -0.03128416040309982   -0.0007338140162671137
-0.005828125777206342   -0.026799857521616934   -0.0005662334412282241
-0.005294405536947041   -0.031298627512774575   -0.0007740163289326101
-0.0031843078430621842   -0.03131162071926537   -0.0007148493089960246
-0.005828125777206342   -0.026799857521616934   -0.0005662334412282241
-0.0033312687072863134   -0.026824228965193778   -0.000532501800630962
-0.0033112676462378533   -0.026853835478514238   -0.0005468051724329974
-0.0031843078430621842   -0.03131162071926537   -0.0007148493089960246
-0.005828125777206342   -0.026799857521616934   -0.0005662334412282241
-0.0033112676462378533   -0.026853835478514238   -0.0005468051724329974
-0.005294405536947041   -0.031298627512774575   -0.0007740163289326101
-0.005294430684189048   -0.03137566394126539   -0.0008425303920521708
-0.0057787556886811425   -0.026896105812096345   -0.0006629774229632824
-0.00747327258997141   -0.0312698704533151   -0.0009351371218057839
-0.005296213757873818   -0.03132903564991659   -0.000810293913019498
-0.0057787556886811425   -0.026896105812096345   -0.0006629774229632824
-0.008340038625933471   -0.026805166885611978   -0.000745174285620534
-0.00747327258997141   -0.0312698704533151   -0.0009351371218057839
-0.008355199931049944   -0.026770817196859947   -0.0006946581947893556
-0.005296213757873818   -0.03132903564991659   -0.000810293913019498
-0.007470547514741601   -0.031231806672619315   -0.000872902061590815
-0.008355199931049944   -0.026770817196859947   -0.0006946581947893556
-0.00747327258997141   -0.0312698704533151   -0.0009351371218057839
-0.005296213757873818   -0.03132903564991659   -0.000810293913019498
-0.008355199931049944   -0.026770817196859947   -0.0006946581947893556
-0.005797192859465247   -0.02685229886390687   -0.0006344467249386746
-0.0057787556886811425   -0.026896105812096345   -0.0006629774229632824
-0.005296213757873818   -0.03132903564991659   -0.000810293913019498
-0.008355199931049944   -0.026770817196859947   -0.0006946581947893556
-0.0057787556886811425   -0.026896105812096345   -0.0006629774229632824
-0.00747327258997141   -0.0312698704533151   -0.0009351371218057839
-0.005296213757873818   -0.03132903564991659   -0.000810293913019498
-0.005797192859465247   -0.02685229886390687   -0.0006344467249386746
-0.007470547514741601   -0.031231806672619315   -0.000872902061590815
-0.005294405536947041   -0.031298627512774575   -0.0007740163289326101
-0.005797192859465247   -0.02685229886390687   -0.0006344467249386746
-0.008355199931049944   -0.026770817196859947   -0.0006946581947893556
-0.007470547514741601   -0.031231806672619315   -0.000872902061590815
-0.008356830046274192   -0.02674752807587181   -0.0006409070700552637
-0.005294405536947041   -0.031298627512774575   -0.0007740163289326101
-0.00745206794519088   -0.031209408846519335   -0.0008072370402121284
-0.008356830046274192   -0.02674752807587181   -0.0006409070700552637
-0.007470547514741601   -0.031231806672619315   -0.000872902061590815
-0.005294405536947041   -0.031298627512774575   -0.0007740163289326101
-0.008356830046274192   -0.02674752807587181   -0.0006409070700552637
-0.0058124318176228235   -0.0268202331061918   -0.0006021624498089786
-0.005797192859465247   -0.02685229886390687   -0.0006344467249386746
-0.005294405536947041   -0.031298627512774575   -0.0007740163289326101
-0.008356830046274192   -0.02674752807587181   -0.0006409070700552637
-0.005797192859465247   -0.02685229886390687   -0.0006344467249386746
-0.007470547514741601   -0.031231806672619315   -0.000872902061590815
-0.005294405536947041   -0.031298627512774575   -0.0007740163289326101
-0.0058124318176228235   -0.0268202331061918   -0.0006021624498089786
-0.00745206794519088   -0.031209408846519335   -0.0008072370402121284
-0.00529325821932886   -0.03128416040309982   -0.0007338140162671137
-0.0058124318176228235   -0.0268202331061918   -0.0006021624498089786
-0.008356830046274192   -0.02674752807587181   -0.0006409070700552637
-0.00745206794519088   -0.031209408846519335   -0.0008072370402121284
-0.008362374935466795   -0.02673698914113315   -0.0005832330884653129
-0.00529325821932886   -0.03128416040309982   -0.0007338140162671137
-0.007439765631770732   -0.03120429765472301   -0.0007373287269674711
-0.008362374935466795   -0.02673698914113315   -0.0005832330884653129
-0.00745206794519088   -0.031209408846519335   -0.0008072370402121284
-0.00529325821932886   -0.03128416040309982   -0.0007338140162671137
-0.008362374935466795   -0.02673698914113315   -0.0005832330884653129
-0.005828125777206342   -0.026799857521616934   -0.0005662334412282241
-0.0058124318176228235   -0.0268202331061918   -0.0006021624498089786
-0.00529325821932886   -0.03128416040309982   -0.0007338140162671137
-0.008362374935466795   -0.02673698914113315   -0.0005832330884653129
-0.0058124318176228235   -0.0268202331061918   -0.0006021624498089786
-0.00745206794519088   -0.031209408846519335   -0.0008072370402121284
-0.00747327258997141   -0.0312698704533151   -0.0009351371218057839
-0.008340038625933471   -0.026805166885611978   -0.000745174285620534
-0.009907099373977168   -0.03112367320055782   -0.0010188319468067862
-0.007470547514741601   -0.031231806672619315   -0.000872902061590815
-0.008340038625933471   -0.026805166885611978   -0.000745174285620534
-0.011133604045523106   -0.026685504944310715   -0.0008154107872131047
-0.009907099373977168   -0.03112367320055782   -0.0010188319468067862
-0.011079018701038494   -0.026654123504300586   -0.0007415306948660928
-0.007470547514741601   -0.031231806672619315   -0.000872902061590815
-0.0098150336605933   -0.031086223875737187   -0.0009235124926562226
-0.011079018701038494   -0.026654123504300586   -0.0007415306948660928
-0.009907099373977168   -0.03112367320055782   -0.0010188319468067862
-0.007470547514741601   -0.031231806672619315   -0.000872902061590815
-0.011079018701038494   -0.026654123504300586   -0.0007415306948660928
-0.008355199931049944   -0.026770817196859947   -0.0006946581947893556
-0.008340038625933471   -0.026805166885611978   -0.000745174285620534
-0.007470547514741601   -0.031231806672619315   -0.000872902061590815
-0.011079018701038494   -0.026654123504300586   -0.0007415306948660928
-0.008340038625933471   -0.026805166885611978   -0.000745174285620534
-0.009907099373977168   -0.03112367320055782   -0.0010188319468067862
-0.007470547514741601   -0.031231806672619315   -0.000872902061590815
-0.008355199931049944   -0.026770817196859947   -0.0006946581947893556
-0.0098150336605933   -0.031086223875737187   -0.0009235124926562226
-0.00745206794519088   -0.031209408846519335   -0.0008072370402121284
-0.008355199931049944   -0.026770817196859947   -0.0006946581947893556
-0.011079018701038494   -0.026654123504300586   -0.0007415306948660928
-0.0098150336605933   -0.031086223875737187   -0.0009235124926562226
-0.011033066756691707   -0.026634560840961975   -0.0006619947531293645
-0.00745206794519088   -0.031209408846519335   -0.0008072370402121284
-0.009736435604018035   -0.031066754000125523   -0.0008224149628521116
-0.011033066756691707   -0.026634560840961975   -0.0006619947531293645
-0.0098150336605933   -0.031086223875737187   -0.0009235124926562226
-0.00745206794519088   -0.031209408846519335   -0.0008072370402121284
-0.011033066756691707   -0.026634560840961975   -0.0006619947531293645
-0.008356830046274192   -0.02674752807587181   -0.0006409070700552637
-0.008355199931049944   -0.026770817196859947   -0.0006946581947893556
-0.00745206794519088   -0.031209408846519335   -0.0008072370402121284
-0.011033066756691707   -0.026634560840961975   -0.0006619947531293645
-0.008355199931049944   -0.026770817196859947   -0.0006946581947893556
-0.0098150336605933   -0.031086223875737187   -0.0009235124926562226
-0.00745206794519088   -0.031209408846519335   -0.0008072370402121284
-0.008356830046274192   -0.02674752807587181   -0.0006409070700552637
-0.009736435604018035   -0.031066754000125523   -0.0008224149628521116
-0.007439765631770732   -0.03120429765472301   -0.0007373287269674711
-0.008356830046274192   -0.02674752807587181   -0.0006409070700552637
-0.011033066756691707   -0.026634560840961975   -0.0006619947531293645
-0.009736435604018035   -0.031066754000125523   -0.0008224149628521116
-0.010957648860166482   -0.02663660360132227   -0.000577510357122851
-0.007439765631770732   -0.03120429765472301   -0.0007373287269674711
-0.009623196130881483   -0.031074651607604933   -0.0007163374974579967
-0.010957648860166482   -0.02663660360132227   -0.000577510357122851
-0.009736435604018035   -0.031066754000125523   -0.0008224149628521116
-0.007439765631770732   -0.03120429765472301   -0.0007373287269674711
-0.010957648860166482   -0.02663660360132227   -0.000577510357122851
-0.008362374935466795   -0.02673698914113315   -0.0005832330884653129
-0.008356830046274192   -0.02674752807587181   -0.0006409070700552637
-0.007439765631770732   -0.03120429765472301   -0.0007373287269674711
-0.010957648860166482   -0.02663660360132227   -0.000577510357122851
-0.008356830046274192   -0.02674752807587181   -0.0006409070700552637
-0.009736435604018035   -0.031066754000125523   -0.0008224149628521116
0.0019211413783498834   -0.026934894623361013   -0.00030794115478828153
0.002326646089856466   -0.02194456298701987   -0.000157527366258378
-0.0007323710097177109   -0.0269628382465556   -0.00044878177289759975
0.0019479223882155976   -0.02686003124877571   -0.0003519704997915633
0.002326646089856466   -0.02194456298701987   -0.000157527366258378
-0.0006243671725972527   -0.021944595721582055   -0.00028798361753580527
-0.0007323710097177109   -0.0269628382465556   -0.00044878177289759975
-0.000650276680913956   -0.021882528848609625   -0.0002902632957701916
0.0019479223882155976   -0.02686003124877571   -0.0003519704997915633
-0.0007444866807839247   -0.02689860536711757   -0.00046373730115130006
-0.000650276680913956   -0.021882528848609625   -0.0002902632957701916
-0.0007323710097177109   -0.0269628382465556   -0.00044878177289759975
0.0019479223882155976   -0.02686003124877571   -0.0003519704997915633
-0.000650276680913956   -0.021882528848609625   -0.0002902632957701916
0.002319273235889946   -0.02187294103650556   -0.00017906261321091508
0.002326646089856466   -0.02194456298701987   -0.000157527366258378
0.0019479223882155976   -0.02686003124877571   -0.0003519704997915633
-0.000650276680913956   -0.021882528848609625   -0.0002902632957701916
0.002326646089856466   -0.02194456298701987   -0.000157527366258378
-0.0007323710097177109   -0.0269628382465556   -0.00044878177289759975
0.0019479223882155976   -0.02686003124877571   -0.0003519704997915633
0.002319273235889946   -0.02187294103650556   -0.00017906261321091508
-0.0007444866807839247   -0.02689860536711757   -0.00046373730115130006
0.001956606061688741   -0.026805995912394825   -0.0003905217927003237
0.002319273235889946   -0.02187294103650556   -0.00017906261321091508
-0.000650276680913956   -0.021882528848609625   -0.0002902632957701916
-0.0007444866807839247   -0.02689860536711757   -0.00046373730115130006
-0.0006790758489873364   -0.021829452695404487   -0.0002892353214009162
0.001956606061688741   -0.026805995912394825   -0.0003905217927003237
-0.0007571753065428726   -0.026848205882160227   -0.00047498264506579753
-0.0006790758489873364   -0.021829452695404487   -0.0002892353214009162
-0.0007444866807839247   -0.02689860536711757   -0.00046373730115130006
0.001956606061688741   -0.026805995912394825   -0.0003905217927003237
-0.0006790758489873364   -0.021829452695404487   -0.0002892353214009162
0.0022989990143252037   -0.02181577861999088   -0.00019529614990700987
0.002319273235889946   -0.02187294103650556   -0.00017906261321091508
0.001956606061688741   -0.026805995912394825   -0.0003905217927003237
-0.0006790758489873364   -0.021829452695404487   -0.0002892353214009162
0.002319273235889946   -0.02187294103650556   -0.00017906261321091508
-0.0007444866807839247   -0.02689860536711757   -0.00046373730115130006
0.001956606061688741   -0.026805995912394825   -0.0003905217927003237
0.0022989990143252037   -0.02181577861999088   -0.00019529614990700987
-0.0007571753065428726   -0.026848205882160227   -0.00047498264506579753
0.0019620996916916767   -0.026763086214990486   -0.0004238565384773618
0.0022989990143252037   -0.02181577861999088   -0.00019529614990700987
-0.0006790758489873364   -0.021829452695404487   -0.0002892353214009162
-0.0007571753065428726   -0.026848205882160227   -0.00047498264506579753
-0.0007149929439682399   -0.021783964325727   -0.0002847692935388042
0.0019620996916916767   -0.026763086214990486   -0.0004238565384773618
-0.000779115794099653   -0.026810026380249055   -0.0004826422538602936
-0.0007149929439682399   -0.021783964325727   -0.0002847692935388042
-0.0007571753065428726   -0.026848205882160227   -0.00047498264506579753
0.0019620996916916767   -0.026763086214990486   -0.0004238565384773618
-0.0007149929439682399   -0.021783964325727   -0.0002847692935388042
0.0022705252889982323   -0.021763547056362374   -0.00020659840317378567
0.0022989990143252037   -0.02181577861999088   -0.00019529614990700987
0.0019620996916916767   -0.026763086214990486   -0.0004238565384773618
-0.0007149929439682399   -0.021783964325727   -0.0002847692935388042
0.0022989990143252037   -0.02181577861999088   -0.00019529614990700987
-0.0007571753065428726   -0.026848205882160227   -0.00047498264506579753
-0.0007323710097177109   -0.0269628382465556   -0.00044878177289759975
-0.0006243671725972527   -0.021944595721582055   -0.00028798361753580527
-0.0032769495660233973   -0.026949007696966804   -0.0005643200038244762
-0.0007444866807839247   -0.02689860536711757   -0.00046373730115130006
-0.0006243671725972527   -0.021944595721582055   -0.00028798361753580527
-0.0034396498923944386   -0.0219180585009464   -0.00039515151332076106
-0.0032769495660233973   -0.026949007696966804   -0.0005643200038244762
-0.0034688273781514024   -0.021866744333477846   -0.0003836784667104964
-0.0007444866807839247   -0.02689860536711757   -0.00046373730115130006
-0.00329399048058278   -0.026895494767683183   -0.0005574744422379062
-0.0034688273781514024   -0.021866744333477846   -0.0003836784667104964
-0.0032769495660233973   -0.026949007696966804   -0.0005643200038244762
-0.0007444866807839247   -0.02689860536711757   -0.00046373730115130006
-0.0034688273781514024   -0.021866744333477846   -0.0003836784667104964
-0.000650276680913956   -0.021882528848609625   -0.0002902632957701916
-0.0006243671725972527   -0.021944595721582055   -0.00028798361753580527
-0.0007444866807839247   -0.02689860536711757   -0.00046373730115130006
-0.0034688273781514024   -0.021866744333477846   -0.0003836784667104964
-0.0006243671725972527   -0.021944595721582055   -0.00028798361753580527
-0.0032769495660233973   -0.026949007696966804   -0.0005643200038244762
-0.0007444866807839247   -0.02689860536711757   -0.00046373730115130006
-0.000650276680913956   -0.021882528848609625   -0.0002902632957701916
-0.00329399048058278   -0.026895494767683183   -0.0005574744422379062
-0.0007571753065428726   -0.026848205882160227   -0.00047498264506579753
-0.000650276680913956   -0.021882528848609625   -0.0002902632957701916
-0.0034688273781514024   -0.021866744333477846   -0.0003836784667104964
-0.00329399048058278   -0.026895494767683183   -0.0005574744422379062
-0.0034986035044574804   -0.02182274799993145   -0.0003687555286735438
-0.0007571753065428726   -0.026848205882160227   -0.00047498264506579753
-0.0033112676462378533   -0.026853835478514238   -0.0005468051724329974
-0.0034986035044574804   -0.02182274799993145   -0.0003687555286735438
-0.00329399048058278   -0.026895494767683183   -0.0005574744422379062
-0.0007571753065428726   -0.026848205882160227   -0.00047498264506579753
-0.0034986035044574804   -0.02182274799993145   -0.0003687555286735438
-0.0006790758489873364   -0.021829452695404487   -0.0002892353214009162
-0.000650276680913956   -0.021882528848609625   -0.0002902632957701916
-0.0007571753065428726   -0.026848205882160227   -0.00047498264506579753
-0.0034986035044574804   -0.02182274799993145   -0.0003687555286735438
-0.000650276680913956   -0.021882528848609625   -0.0002902632957701916
-0.00329399048058278   -0.026895494767683183   -0.0005574744422379062
-0.0007571753065428726   -0.026848205882160227   -0.00047498264506579753
-0.0006790758489873364   -0.021829452695404487   -0.0002892353214009162
-0.0033112676462378533   -0.026853835478514238   -0.0005468051724329974
-0.000779115794099653   -0.026810026380249055   -0.0004826422538602936
-0.0006790758489873364   -0.021829452695404487   -0.0002892353214009162
-0.0034986035044574804   -0.02182274799993145   -0.0003687555286735438
-0.0033112676462378533   -0.026853835478514238   -0.0005468051724329974
-0.0035309261738684437   -0.021786498026301126   -0.00035054956042435966
-0.000779115794099653   -0.026810026380249055   -0.0004826422538602936
-0.0033312687072863134   -0.026824228965193778   -0.000532501800630962
-0.0035309261738684437   -0.021786498026301126   -0.00035054956042435966
-0.0033112676462378533   -0.026853835478514238   -0.0005468051724329974
-0.000779115794099653   -0.026810026380249055   -0.0004826422538602936
-0.0035309261738684437   -0.021786498026301126   -0.00035054956042435966
-0.0007149929439682399   -0.021783964325727   -0.0002847692935388042
-0.0006790758489873364   -0.021829452695404487   -0.0002892353214009162
-0.000779115794099653   -0.026810026380249055   -0.0004826422538602936
-0.0035309261738684437   -0.021786498026301126   -0.00035054956042435966
-0.0006790758489873364   -0.021829452695404487   -0.0002892353214009162
-0.0033112676462378533   -0.026853835478514238   -0.0005468051724329974
-0.0032769495660233973   -0.026949007696966804   -0.0005643200038244762
-0.0034396498923944386   -0.0219180585009464   -0.00039515151332076106
-0.0057787556886811425   -0.026896105812096345   -0.0006629774229632824
-0.00329399048058278   -0.026895494767683183   -0.0005574744422379062
-0.0034396498923944386   -0.0219180585009464   -0.00039515151332076106
-0.0062073573420549895   -0.021868084062452154   -0.0004852840357337139
-0.0057787556886811425   -0.026896105812096345   -0.0006629774229632824
-0.006237456370140698   -0.021826649347324933   -0.0004600983368550124
-0.00329399048058278   -0.026895494767683183   -0.0005574744422379062
-0.005797192859465247   -0.02685229886390687   -0.0006344467249386746
-0.006237456370140698   -0.021826649347324933   -0.0004600983368550124
-0.0057787556886811425   -0.026896105812096345   -0.0006629774229632824
-0.00329399048058278   -0.026895494767683183   -0.0005574744422379062
-0.006237456370140698   -0.021826649347324933   -0.0004600983368550124
-0.0034688273781514024   -0.021866744333477846   -0.0003836784667104964
-0.0034396498923944386   -0.0219180585009464   -0.00039515151332076106
-0.00329399048058278   -0.026895494767683183   -0.0005574744422379062
-0.006237456370140698   -0.021826649347324933   -0.0004600983368550124
-0.0034396498923944386   -0.0219180585009464   -0.00039515151332076106
-0.0057787556886811425   -0.026896105812096345   -0.0006629774229632824
-0.00329399048058278   -0.026895494767683183   -0.0005574744422379062
-0.0034688273781514024   -0.021866744333477846   -0.0003836784667104964
-0.005797192859465247   -0.02685229886390687   -0.0006344467249386746
-0.0033112676462378533   -0.026853835478514238   -0.0005468051724329974
-0.0034688273781514024   -0.021866744333477846   -0.0003836784667104964
-0.006237456370140698   -0.021826649347324933   -0.0004600983368550124
-0.005797192859465247   -0.02685229886390687   -0.0006344467249386746
-0.006264732999971102   -0.021792480884738456   -0.0004315447805202078
-0.0033112676462378533   -0.026853835478514238   -0.0005468051724329974
-0.0058124318176228235   -0.0268202331061918   -0.0006021624498089786
-0.006264732999971102   -0.021792480884738456   -0.0004315447805202078
-0.005797192859465247   -0.02685229886390687   -0.0006344467249386746
-0.0033112676462378533   -0.026853835478514238   -0.0005468051724329974
-0.006264732999971102   -0.021792480884738456   -0.0004315447805202078
-0.0034986035044574804   -0.02182274799993145   -0.0003687555286735438
-0.0034688273781514024   -0.021866744333477846   -0.0003836784667104964
-0.0033112676462378533   -0.026853835478514238   -0.0005468051724329974
-0.006264732999971102   -0.021792480884738456   -0.0004315447805202078
-0.0034688273781514024   -0.021866744333477846   -0.0003836784667104964
-0.005797192859465247   -0.02685229886390687   -0.0006344467249386746
-0.0033112676462378533   -0.026853835478514238   -0.0005468051724329974
-0.0034986035044574804   -0.02182274799993145   -0.0003687555286735438
-0.0058124318176228235   -0.0268202331061918   -0.0006021624498089786
-0.0033312687072863134   -0.026824228965193778   -0.000532501800630962
-0.0034986035044574804   -0.02182274799993145   -0.0003687555286735438
-0.006264732999971102   -0.021792480884738456   -0.0004315447805202078
-0.0058124318176228235   -0.0268202331061918   -0.0006021624498089786
-0.006292272161932196   -0.02176563257909249   -0.00039974984066145665
-0.0033312687072863134   -0.026824228965193778   -0.000532501800630962
-0.005828125777206342   -0.026799857521616934   -0.0005662334412282241
-0.006292272161932196   -0.02176563257909249   -0.00039974984066145665
-0.0058124318176228235   -0.0268202331061918   -0.0006021624498089786
-0.0033312687072863134   -0.026824228965193778   -0.000532501800630962
-0.006292272161932196   -0.02176563257909249   -0.00039974984066145665
-0.0035309261738684437   -0.021786498026301126   -0.00035054956042435966
-0.0034986035044574804   -0.02182274799993145   -0.0003687555286735438
-0.0033312687072863134   -0.026824228965193778   -0.000532501800630962
-0.006292272161932196   -0.02176563257909249   -0.00039974984066145665
-0.0034986035044574804   -0.02182274799993145   -0.0003687555286735438
-0.0058124318176228235   -0.0268202331061918   -0.0006021624498089786
-0.0057787556886811425   -0.026896105812096345   -0.0006629774229632824
-0.0062073573420549895   -0.021868084062452154   -0.0004852840357337139
-0.008340038625933471   -0.026805166885611978   -0.000745174285620534
-0.005797192859465247   -0.02685229886390687   -0.0006344467249386746
-0.0062073573420549895   -0.021868084062452154   -0.0004852840357337139
-0.009030007781524187   -0.02179361865839983   -0.0005586161929545244
-0.008340038625933471   -0.026805166885611978   -0.000745174285620534
-0.009057898865166015   -0.021762131883924736   -0.0005196102438117372
-0.005797192859465247   -0.02685229886390687   -0.0006344467249386746
-0.008355199931049944   -0.026770817196859947   -0.0006946581947893556
-0.009057898865166015   -0.021762131883924736   -0.0005196102438117372
-0.008340038625933471   -0.026805166885611978   -0.000745174285620534
-0.005797192859465247   -0.02685229886390687   -0.0006344467249386746
-0.009057898865166015   -0.021762131883924736   -0.0005196102438117372
-0.006237456370140698   -0.021826649347324933   -0.0004600983368550124
-0.0062073573420549895   -0.021868084062452154   -0.0004852840357337139
-0.005797192859465247   -0.02685229886390687   -0.0006344467249386746
-0.009057898865166015   -0.021762131883924736   -0.0005196102438117372
-0.0062073573420549895   -0.021868084062452154   -0.0004852840357337139
-0.008340038625933471   -0.026805166885611978   -0.000745174285620534
-0.005797192859465247   -0.02685229886390687   -0.0006344467249386746
-0.006237456370140698   -0.021826649347324933   -0.0004600983368550124
-0.008355199931049944   -0.026770817196859947   -0.0006946581947893556
-0.0058124318176228235   -0.0268202331061918   -0.0006021624498089786
-0.006237456370140698   -0.021826649347324933   -0.0004600983368550124
-0.009057898865166015   -0.021762131883924736   -0.0005196102438117372
-0.008355199931049944   -0.026770817196859947   -0.0006946581947893556
-0.009074582357135845   -0.021737029381910272   -0.00047768655099889837
-0.0058124318176228235   -0.0268202331061918   -0.0006021624498089786
-0.008356830046274192   -0.02674752807587181   -0.0006409070700552637
-0.009074582357135845   -0.021737029381910272   -0.00047768655099889837
-0.008355199931049944   -0.026770817196859947   -0.0006946581947893556
-0.0058124318176228235   -0.0268202331061918   -0.0006021624498089786
-0.009074582357135845   -0.021737029381910272   -0.00047768655099889837
-0.006264732999971102   -0.021792480884738456   -0.0004315447805202078
-0.006237456370140698   -0.021826649347324933   -0.0004600983368550124
-0.0058124318176228235   -0.0268202331061918   -0.0006021624498089786
-0.009074582357135845   -0.021737029381910272   -0.00047768655099889837
-0.006237456370140698   -0.021826649347324933   -0.0004600983368550124
-0.008355199931049944   -0.026770817196859947   -0.0006946581947893556
-0.0058124318176228235   -0.0268202331061918   -0.0006021624498089786
-0.006264732999971102   -0.021792480884738456   -0.0004315447805202078
-0.008356830046274192   -0.02674752807587181   -0.0006409070700552637
-0.005828125777206342   -0.026799857521616934   -0.0005662334412282241
-0.006264732999971102   -0.021792480884738456   -0.0004315447805202078
-0.009074582357135845   -0.021737029381910272   -0.00047768655099889837
-0.008356830046274192   -0.02674752807587181   -0.0006409070700552637
-0.009093016814039989   -0.02171989236491668   -0.0004322439200225365
-0.005828125777206342   -0.026799857521616934   -0.0005662334412282241
-0.008362374935466795   -0.02673698914113315   -0.0005832330884653129
-0.009093016814039989   -0.02171989236491668   -0.0004322439200225365
-0.008356830046274192   -0.02674752807587181   -0.0006409070700552637
-0.005828125777206342   -0.026799857521616934   -0.0005662334412282241
-0.009093016814039989   -0.02171989236491668   -0.0004322439200225365
-0.006292272161932196   -0.02176563257909249   -0.00039974984066145665
-0.006264732999971102   -0.021792480884738456   -0.0004315447805202078
-0.005828125777206342   -0.026799857521616934   -0.0005662334412282241
-0.009093016814039989   -0.02171989236491668   -0.0004322439200225365
-0.006264732999971102   -0.021792480884738456   -0.0004315447805202078
-0.008356830046274192   -0.02674752807587181   -0.0006409070700552637
-0.008340038625933471   -0.026805166885611978   -0.000745174285620534
-0.009030007781524187   -0.02179361865839983   -0.0005586161929545244
-0.011133604045523106   -0.026685504944310715   -0.0008154107872131047
-0.008355199931049944   -0.026770817196859947   -0.0006946581947893556
-0.009030007781524187   -0.02179361865839983   -0.0005586161929545244
-0.012060437383620722   -0.021701648826400126   -0.0006167287038599021
-0.011133604045523106   -0.026685504944310715   -0.0008154107872131047
-0.012038535824217106   -0.02167522603138702   -0.0005645429344611978
-0.008355199931049944   -0.026770817196859947   -0.0006946581947893556
-0.011079018701038494   -0.026654123504300586   -0.0007415306948660928
-0.012038535824217106   -0.02167522603138702   -0.0005645429344611978
-0.011133604045523106   -0.026685504944310715   -0.0008154107872131047
-0.008355199931049944   -0.026770817196859947   -0.0006946581947893556
-0.012038535824217106   -0.02167522603138702   -0.0005645429344611978
-0.009057898865166015   -0.021762131883924736   -0.0005196102438117372
-0.009030007781524187   -0.02179361865839983   -0.0005586161929545244
-0.008355199931049944   -0.026770817196859947   -0.0006946581947893556
-0.012038535824217106   -0.02167522603138702   -0.0005645429344611978
-0.009030007781524187   -0.02179361865839983   -0.0005586161929545244
-0.011133604045523106   -0.026685504944310715   -0.0008154107872131047
-0.008355199931049944   -0.026770817196859947   -0.0006946581947893556
-0.009057898865166015   -0.021762131883924736   -0.0005196102438117372
-0.011079018701038494   -0.026654123504300586   -0.0007415306948660928
-0.008356830046274192   -0.02674752807587181   -0.0006409070700552637
-0.009057898865166015   -0.021762131883924736   -0.0005196102438117372
-0.012038535824217106   -0.02167522603138702   -0.0005645429344611978
-0.011079018701038494   -0.026654123504300586   -0.0007415306948660928
-0.012020673063101188   -0.021654398659797604   -0.0005070025160495284
-0.008356830046274192   -0.02674752807587181   -0.0006409070700552637
-0.011033066756691707   -0.026634560840961975   -0.0006619947531293645
-0.012020673063101188   -0.021654398659797604   -0.0005070025160495284
-0.011079018701038494   -0.026654123504300586   -0.0007415306948660928
-0.008356830046274192   -0.02674752807587181   -0.0006409070700552637
-0.012020673063101188   -0.021654398659797604   -0.0005070025160495284
-0.009074582357135845   -0.021737029381910272   -0.00047768655099889837
-0.009057898865166015   -0.021762131883924736   -0.0005196102438117372
-0.008356830046274192   -0.02674752807587181   -0.0006409070700552637
-0.012020673063101188   -0.021654398659797604   -0.0005070025160495284
-0.009057898865166015   -0.021762131883924736   -0.0005196102438117372
-0.011079018701038494   -0.026654123504300586   -0.0007415306948660928
-0.008356830046274192   -0.02674752807587181   -0.0006409070700552637
-0.009074582357135845   -0.021737029381910272   -0.00047768655099889837
-0.011033066756691707   -0.026634560840961975   -0.0006619947531293645
-0.008362374935466795   -0.02673698914113315   -0.0005832330884653129
-0.009074582357135845   -0.021737029381910272   -0.00047768655099889837
-0.012020673063101188   -0.021654398659797604   -0.0005070025160495284
-0.011033066756691707   -0.026634560840961975   -0.0006619947531293645
-0.011978816678681637   -0.02164896130078557   -0.0004447168364580816
-0.008362374935466795   -0.02673698914113315   -0.0005832330884653129
-0.010957648860166482   -0.02663660360132227   -0.000577510357122851
-0.011978816678681637   -0.02164896130078557   -0.0004447168364580816
-0.011033066756691707   -0.026634560840961975   -0.0006619947531293645
-0.008362374935466795   -0.02673698914113315   -0.0005832330884653129
-0.011978816678681637   -0.02164896130078557   -0.0004447168364580816
-0.009093016814039989   -0.02171989236491668   -0.0004322439200225365
-0.009074582357135845   -0.021737029381910272   -0.00047768655099889837
-0.008362374935466795   -0.02673698914113315   -0.0005832330884653129
-0.011978816678681637   -0.02164896130078557   -0.0004447168364580816
-0.009074582357135845   -0.021737029381910272   -0.00047768655099889837
-0.011033066756691707   -0.026634560840961975   -0.0006619947531293645
0.002326646089856466   -0.02194456298701987   -0.000157527366258378
0.002415213411334379   -0.016599871582487578   -2.5933070987979042e-05
-0.0006243671725972527   -0.021944595721582055   -0.00028798361753580527
0.002319273235889946   -0.02187294103650556   -0.00017906261321091508
0.002415213411334379   -0.016599871582487578   -2.5933070987979042e-05
-0.0007082235260935968   -0.01657299775578888   -0.00014292378194533654
-0.0006243671725972527   -0.021944595721582055   -0.00028798361753580527
-0.0007440139374028889   -0.01651369858978463   -0.00013246308848891927
0.002319273235889946   -0.02187294103650556   -0.00017906261321091508
-0.000650276680913956   -0.021882528848609625   -0.0002902632957701916
-0.0007440139374028889   -0.01651369858978463   -0.00013246308848891927
-0.0006243671725972527   -0.021944595721582055   -0.00028798361753580527
0.002319273235889946   -0.02187294103650556   -0.00017906261321091508
-0.0007440139374028889   -0.01651369858978463   -0.00013246308848891927
0.0023778607172615695   -0.01653165416669392   -2.448253559067206e-05
0.002415213411334379   -0.016599871582487578   -2.5933070987979042e-05
0.002319273235889946   -0.02187294103650556   -0.00017906261321091508
-0.0007440139374028889   -0.01651369858978463   -0.00013246308848891927
0.002415213411334379   -0.016599871582487578   -2.5933070987979042e-05
-0.0006243671725972527   -0.021944595721582055   -0.00028798361753580527
0.002319273235889946   -0.02187294103650556   -0.00017906261321091508
0.0023778607172615695   -0.01653165416669392   -2.448253559067206e-05
-0.000650276680913956   -0.021882528848609625   -0.0002902632957701916
0.0022989990143252037   -0.02181577861999088   -0.00019529614990700987
0.0023778607172615695   -0.01653165416669392   -2.448253559067206e-05
-0.0007440139374028889   -0.01651369858978463   -0.00013246308848891927
-0.000650276680913956   -0.021882528848609625   -0.0002902632957701916
-0.0007850379153498239   -0.01645797859523196   -0.00011898754347843595
0.0022989990143252037   -0.02181577861999088   -0.00019529614990700987
-0.0006790758489873364   -0.021829452695404487   -0.0002892353214009162
-0.0007850379153498239   -0.01645797859523196   -0.00011898754347843595
-0.000650276680913956   -0.021882528848609625   -0.0002902632957701916
0.0022989990143252037   -0.02181577861999088   -0.00019529614990700987
-0.0007850379153498239   -0.01645797859523196   -0.00011898754347843595
0.0023315226750377865   -0.01647107243061633   -1.6882413392810064e-05
0.0023778607172615695   -0.01653165416669392   -2.448253559067206e-05
0.0022989990143252037   -0.02181577861999088   -0.00019529614990700987
-0.0007850379153498239   -0.01645797859523196   -0.00011898754347843595
0.0023778607172615695   -0.01653165416669392   -2.448253559067206e-05
-0.000650276680913956   -0.021882528848609625   -0.0002902632957701916
0.0022989990143252037   -0.02181577861999088   -0.00019529614990700987
0.0023315226750377865   -0.01647107243061633   -1.6882413392810064e-05
-0.0006790758489873364   -0.021829452695404487   -0.0002892353214009162
0.0022705252889982323   -0.021763547056362374   -0.00020659840317378567
0.0023315226750377865   -0.01647107243061633   -1.6882413392810064e-05
-0.0007850379153498239   -0.01645797859523196   -0.00011898754347843595
-0.0006790758489873364   -0.021829452695404487   -0.0002892353214009162
-0.0008312037156045673   -0.01640506248446233   -0.00010174347021212936
0.0022705252889982323   -0.021763547056362374   -0.00020659840317378567
-0.0007149929439682399   -0.021783964325727   -0.0002847692935388042
-0.0008312037156045673   -0.01640506248446233   -0.00010174347021212936
-0.0006790758489873364   -0.021829452695404487   -0.0002892353214009162
0.0022705252889982323   -0.021763547056362374   -0.00020659840317378567
-0.0008312037156045673   -0.01640506248446233   -0.00010174347021212936
0.0022703115513789804   -0.01640789068781445   -3.4076983831114125e-06
0.0023315226750377865   -0.01647107243061633   -1.6882413392810064e-05
0.0022705252889982323   -0.021763547056362374   -0.00020659840317378567
-0.0008312037156045673   -0.01640506248446233   -0.00010174347021212936
0.0023315226750377865   -0.01647107243061633   -1.6882413392810064e-05
-0.0006790758489873364   -0.021829452695404487   -0.0002892353214009162
-0.0006243671725972527   -0.021944595721582055   -0.00028798361753580527
-0.0007082235260935968   -0.01657299775578888   -0.00014292378194533654
-0.0034396498923944386   -0.0219180585009464   -0.00039515151332076106
-0.000650276680913956   -0.021882528848609625   -0.0002902632957701916
-0.0007082235260935968   -0.01657299775578888   -0.00014292378194533654
-0.003667670610492831   -0.016541061488590476   -0.00024141307236125073
-0.0034396498923944386   -0.0219180585009464   -0.00039515151332076106
-0.0037043391460788192   -0.016491696128326877   -0.00022498692400465484
-0.000650276680913956   -0.021882528848609625   -0.0002902632957701916
-0.0034688273781514024   -0.021866744333477846   -0.0003836784667104964
-0.0037043391460788192   -0.016491696128326877   -0.00022498692400465484
-0.0034396498923944386   -0.0219180585009464   -0.00039515151332076106
-0.000650276680913956   -0.021882528848609625   -0.0002902632957701916
-0.0037043391460788192   -0.016491696128326877   -0.00022498692400465484
-0.0007440139374028889   -0.01651369858978463   -0.00013246308848891927
-0.0007082235260935968   -0.01657299775578888   -0.00014292378194533654
-0.000650276680913956   -0.021882528848609625   -0.0002902632957701916
-0.0037043391460788192   -0.016491696128326877   -0.00022498692400465484
-0.0007082235260935968   -0.01657299775578888   -0.00014292378194533654
-0.0034396498923944386   -0.0219180585009464   -0.00039515151332076106
-0.000650276680913956   -0.021882528848609625   -0.0002902632957701916
-0.0007440139374028889   -0.01651369858978463   -0.00013246308848891927
-0.0034688273781514024   -0.021866744333477846   -0.0003836784667104964
-0.0006790758489873364   -0.021829452695404487   -0.0002892353214009162
-0.0007440139374028889   -0.01651369858978463   -0.00013246308848891927
-0.0037043391460788192   -0.016491696128326877   -0.00022498692400465484
-0.0034688273781514024   -0.021866744333477846   -0.0003836784667104964
-0.0037418475051056153   -0.01644510345510517   -0.00020567934371683373
-0.0006790758489873364   -0.021829452695404487   -0.0002892353214009162
-0.0034986035044574804   -0.02182274799993145   -0.0003687555286735438
-0.0037418475051056153   -0.01644510345510517   -0.00020567934371683373
-0.0034688273781514024   -0.021866744333477846   -0.0003836784667104964
-0.0006790758489873364   -0.021829452695404487   -0.0002892353214009162
-0.0037418475051056153   -0.01644510345510517   -0.00020567934371683373
-0.0007850379153498239   -0.01645797859523196   -0.00011898754347843595
-0.0007440139374028889   -0.01651369858978463   -0.00013246308848891927
-0.0006790758489873364   -0.021829452695404487   -0.0002892353214009162
-0.0037418475051056153   -0.01644510345510517   -0.00020567934371683373
-0.0007440139374028889   -0.01651369858978463   -0.00013246308848891927
-0.0034688273781514024   -0.021866744333477846   -0.0003836784667104964
-0.0006790758489873364   -0.021829452695404487   -0.0002892353214009162
-0.0007850379153498239   -0.01645797859523196   -0.00011898754347843595
-0.0034986035044574804   -0.02182274799993145   -0.0003687555286735438
-0.0007149929439682399   -0.021783964325727   -0.0002847692935388042
-0.0007850379153498239   -0.01645797859523196   -0.00011898754347843595
-0.0037418475051056153   -0.01644510345510517   -0.00020567934371683373
-0.0034986035044574804   -0.02182274799993145   -0.0003687555286735438
-0.0037817699475643043   -0.01640203059105172   -0.00018346565459139647
-0.0007149929439682399   -0.021783964325727   -0.0002847692935388042
-0.0035309261738684437   -0.021786498026301126   -0.00035054956042435966
-0.0037817699475643043   -0.01640203059105172   -0.00018346565459139647
-0.0034986035044574804   -0.02182274799993145   -0.0003687555286735438
-0.0007149929439682399   -0.021783964325727   -0.0002847692935388042
-0.0037817699475643043   -0.01640203059105172   -0.00018346565459139647
-0.0008312037156045673   -0.01640506248446233   -0.00010174347021212936
-0.0007850379153498239   -0.01645797859523196   -0.00011898754347843595
-0.0007149929439682399   -0.021783964325727   -0.0002847692935388042
-0.0037817699475643043   -0.01640203059105172   -0.00018346565459139647
-0.0007850379153498239   -0.01645797859523196   -0.00011898754347843595
-0.0034986035044574804   -0.02182274799993145   -0.0003687555286735438
-0.0034396498923944386   -0.0219180585009464   -0.00039515151332076106
-0.003667670610492831   -0.016541061488590476   -0.00024141307236125073
-0.0062073573420549895   -0.021868084062452154   -0.0004852840357337139
-0.0034688273781514024   -0.021866744333477846   -0.0003836784667104964
-0.003667670610492831   -0.016541061488590476   -0.00024141307236125073
-0.006578652651856144   -0.016502482617312776   -0.0003247460216184892
-0.0062073573420549895   -0.021868084062452154   -0.0004852840357337139
-0.006615117662644348   -0.01646228920121569   -0.000302382959901439
-0.0034688273781514024   -0.021866744333477846   -0.0003836784667104964
-0.006237456370140698   -0.021826649347324933   -0.0004600983368550124
-0.006615117662644348   -0.01646228920121569   -0.000302382959901439
-0.0062073573420549895   -0.021868084062452154   -0.0004852840357337139
-0.0034688273781514024   -0.021866744333477846   -0.0003836784667104964
-0.006615117662644348   -0.01646228920121569   -0.000302382959901439
-0.0037043391460788192   -0.016491696128326877   -0.00022498692400465484
-0.003667670610492831   -0.016541061488590476   -0.00024141307236125073
-0.0034688273781514024   -0.021866744333477846   -0.0003836784667104964
-0.006615117662644348   -0.01646228920121569   -0.000302382959901439
-0.003667670610492831   -0.016541061488590476   -0.00024141307236125073
-0.0062073573420549895   -0.021868084062452154   -0.0004852840357337139
-0.0034688273781514024   -0.021866744333477846   -0.0003836784667104964
-0.0037043391460788192   -0.016491696128326877   -0.00022498692400465484
-0.006237456370140698   -0.021826649347324933   -0.0004600983368550124
-0.0034986035044574804   -0.02182274799993145   -0.0003687555286735438
-0.0037043391460788192   -0.016491696128326877   -0.00022498692400465484
-0.006615117662644348   -0.01646228920121569   -0.000302382959901439
-0.006237456370140698   -0.021826649347324933   -0.0004600983368550124
-0.006649205809573478   -0.016425014895319577   -0.00027723659173007286
-0.0034986035044574804   -0.02182274799993145   -0.0003687555286735438
-0.006264732999971102   -0.021792480884738456   -0.0004315447805202078
-0.006649205809573478   -0.016425014895319577   -0.00027723659173007286
-0.006237456370140698   -0.021826649347324933   -0.0004600983368550124
-0.0034986035044574804   -0.02182274799993145   -0.0003687555286735438
-0.006649205809573478   -0.016425014895319577   -0.00027723659173007286
-0.0037418475051056153   -0.01644510345510517   -0.00020567934371683373
-0.0037043391460788192   -0.016491696128326877   -0.00022498692400465484
-0.0034986035044574804   -0.02182274799993145   -0.0003687555286735438
-0.006649205809573478   -0.016425014895319577   -0.00027723659173007286
-0.0037043391460788192   -0.016491696128326877   -0.00022498692400465484
-0.006237456370140698   -0.021826649347324933   -0.0004600983368550124
-0.0034986035044574804   -0.02182274799993145   -0.0003687555286735438
-0.0037418475051056153   -0.01644510345510517   -0.00020567934371683373
-0.006264732999971102   -0.021792480884738456   -0.0004315447805202078
-0.0035309261738684437   -0.021786498026301126   -0.00035054956042435966
-0.0037418475051056153   -0.01644510345510517   -0.00020567934371683373
-0.006649205809573478   -0.016425014895319577   -0.00027723659173007286
-0.006264732999971102   -0.021792480884738456   -0.0004315447805202078
-0.0066834164680326415   -0.016390759034083057   -0.0002494428528130551
-0.0035309261738684437   -0.021786498026301126   -0.00035054956042435966
-0.006292272161932196   -0.02176563257909249   -0.00039974984066145665
-0.0066834164680326415   -0.016390759034083057   -0.0002494428528130551
-0.006264732999971102   -0.021792480884738456   -0.0004315447805202078
-0.0035309261738684437   -0.021786498026301126   -0.00035054956042435966
-0.0066834164680326415   -0.016390759034083057   -0.0002494428528130551
-0.0037817699475643043   -0.01640203059105172   -0.00018346565459139647
-0.0037418475051056153   -0.01644510345510517   -0.00020567934371683373
-0.0035309261738684437   -0.021786498026301126   -0.00035054956042435966
-0.0066834164680326415   -0.016390759034083057   -0.0002494428528130551
-0.0037418475051056153   -0.01644510345510517   -0.00020567934371683373
-0.006264732999971102   -0.021792480884738456   -0.0004315447805202078
-0.0062073573420549895   -0.021868084062452154   -0.0004852840357337139
-0.006578652651856144   -0.016502482617312776   -0.0003247460216184892
-0.009030007781524187   -0.02179361865839983   -0.0005586161929545244
-0.006237456370140698   -0.021826649347324933   -0.0004600983368550124
-0.006578652651856144   -0.016502482617312776   -0.0003247460216184892
-0.009542406100230912   -0.01645014554483092   -0.00039220569561725424
-0.009030007781524187   -0.02179361865839983   -0.0005586161929545244
-0.00957730084904784   -0.016419597688107128   -0.00036397763764648767
-0.006237456370140698   -0.021826649347324933   -0.0004600983368550124
-0.009057898865166015   -0.021762131883924736   -0.0005196102438117372
-0.00957730084904784   -0.016419597688107128   -0.00036397763764648767
-0.009030007781524187   -0.02179361865839983   -0.0005586161929545244
-0.006237456370140698   -0.021826649347324933   -0.0004600983368550124
-0.00957730084904784   -0.016419597688107128   -0.00036397763764648767
-0.006615117662644348   -0.01646228920121569   -0.000302382959901439
-0.006578652651856144   -0.016502482617312776   -0.0003247460216184892
-0.006237456370140698   -0.021826649347324933   -0.0004600983368550124
-0.00957730084904784   -0.016419597688107128   -0.00036397763764648767
-0.006578652651856144   -0.016502482617312776   -0.0003247460216184892
-0.009030007781524187   -0.02179361865839983   -0.0005586161929545244
-0.006237456370140698   -0.021826649347324933   -0.0004600983368550124
-0.006615117662644348   -0.01646228920121569   -0.000302382959901439
-0.009057898865166015   -0.021762131883924736   -0.0005196102438117372
-0.006264732999971102   -0.021792480884738456   -0.0004315447805202078
-0.006615117662644348   -0.01646228920121569   -0.000302382959901439
-0.00957730084904784   -0.016419597688107128   -0.00036397763764648767
-0.009057898865166015   -0.021762131883924736   -0.0005196102438117372
-0.009603609650634694   -0.016390921127670918   -0.00033341654988721563
-0.006264732999971102   -0.021792480884738456   -0.0004315447805202078
-0.009074582357135845   -0.021737029381910272   -0.00047768655099889837
-0.009603609650634694   -0.016390921127670918   -0.00033341654988721563
-0.009057898865166015   -0.021762131883924736   -0.0005196102438117372
-0.006264732999971102   -0.021792480884738456   -0.0004315447805202078
-0.009603609650634694   -0.016390921127670918   -0.00033341654988721563
-0.006649205809573478   -0.016425014895319577   -0.00027723659173007286
-0.006615117662644348   -0.01646228920121569   -0.000302382959901439
-0.006264732999971102   -0.021792480884738456   -0.0004315447805202078
-0.009603609650634694   -0.016390921127670918   -0.00033341654988721563
-0.006615117662644348   -0.01646228920121569   -0.000302382959901439
-0.009057898865166015   -0.021762131883924736   -0.0005196102438117372
-0.006264732999971102   -0.021792480884738456   -0.0004315447805202078
-0.006649205809573478   -0.016425014895319577   -0.00027723659173007286
-0.009074582357135845   -0.021737029381910272   -0.00047768655099889837
-0.006292272161932196   -0.02176563257909249   -0.00039974984066145665
-0.006649205809573478   -0.016425014895319577   -0.00027723659173007286
-0.009603609650634694   -0.016390921127670918   -0.00033341654988721563
-0.009074582357135845   -0.021737029381910272   -0.00047768655099889837
-0.009629748022554183   -0.016365441706929978   -0.0002999216921957991
-0.006292272161932196   -0.02176563257909249   -0.00039974984066145665
-0.009093016814039989   -0.02171989236491668   -0.0004322439200225365
-0.009629748022554183   -0.016365441706929978   -0.0002999216921957991
-0.009074582357135845   -0.021737029381910272   -0.00047768655099889837
-0.006292272161932196   -0.02176563257909249   -0.00039974984066145665
-0.009629748022554183   -0.016365441706929978   -0.0002999216921957991
-0.0066834164680326415   -0.016390759034083057   -0.0002494428528130551
-0.006649205809573478   -0.016425014895319577   -0.00027723659173007286
-0.006292272161932196   -0.02176563257909249   -0.00039974984066145665
-0.009629748022554183   -0.016365441706929978   -0.0002999216921957991
-0.006649205809573478   -0.016425014895319577   -0.00027723659173007286
-0.009074582357135845   -0.021737029381910272   -0.00047768655099889837
-0.009030007781524187   -0.02179361865839983   -0.0005586161929545244
-0.009542406100230912   -0.01645014554483092   -0.00039220569561725424
-0.012060437383620722   -0.021701648826400126   -0.0006167287038599021
-0.009057898865166015   -0.021762131883924736   -0.0005196102438117372
-0.009542406100230912   -0.01645014554483092   -0.00039220569561725424
-0.012684991312119137   -0.016387994614312267   -0.00044183034304818837
-0.012060437383620722   -0.021701648826400126   -0.0006167287038599021
-0.012689487982591985   -0.01636386042352133   -0.00041037911518405814
-0.009057898865166015   -0.021762131883924736   -0.0005196102438117372
-0.012038535824217106   -0.02167522603138702   -0.0005645429344611978
-0.012689487982591985   -0.01636386042352133   -0.00041037911518405814
-0.012060437383620722   -0.021701648826400126   -0.0006167287038599021
-0.009057898865166015   -0.021762131883924736   -0.0005196102438117372
-0.012689487982591985   -0.01636386042352133   -0.00041037911518405814
-0.00957730084904784   -0.016419597688107128   -0.00036397763764648767
-0.009542406100230912   -0.01645014554483092   -0.00039220569561725424
-0.009057898865166015   -0.021762131883924736   -0.0005196102438117372
-0.012689487982591985   -0.01636386042352133   -0.00041037911518405814
-0.009542406100230912   -0.01645014554483092   -0.00039220569561725424
-0.012060437383620722   -0.021701648826400126   -0.0006167287038599021
-0.009057898865166015   -0.021762131883924736   -0.0005196102438117372
-0.00957730084904784   -0.016419597688107128   -0.00036397763764648767
-0.012038535824217106   -0.02167522603138702   -0.0005645429344611978
-0.009074582357135845   -0.021737029381910272   -0.00047768655099889837
-0.00957730084904784   -0.016419597688107128   -0.00036397763764648767
-0.012689487982591985   -0.01636386042352133   -0.00041037911518405814
-0.012038535824217106   -0.02167522603138702   -0.0005645429344611978
-0.012694248865206566   -0.016339603535383888   -0.00037424068678185504
-0.009074582357135845   -0.021737029381910272   -0.00047768655099889837
-0.012020673063101188   -0.021654398659797604   -0.0005070025160495284
-0.012694248865206566   -0.016339603535383888   -0.00037424068678185504
-0.012038535824217106   -0.02167522603138702   -0.0005645429344611978
-0.009074582357135845   -0.021737029381910272   -0.00047768655099889837
-0.012694248865206566   -0.016339603535383888   -0.00037424068678185504
-0.009603609650634694   -0.016390921127670918   -0.00033341654988721563
-0.00957730084904784   -0.016419597688107128   -0.00036397763764648767
-0.009074582357135845   -0.021737029381910272   -0.00047768655099889837
-0.012694248865206566   -0.016339603535383888   -0.00037424068678185504
-0.00957730084904784   -0.016419597688107128   -0.00036397763764648767
-0.012038535824217106   -0.02167522603138702   -0.0005645429344611978
-0.009074582357135845   -0.021737029381910272   -0.00047768655099889837
-0.009603609650634694   -0.016390921127670918   -0.00033341654988721563
-0.012020673063101188   -0.021654398659797604   -0.0005070025160495284
-0.009093016814039989   -0.02171989236491668   -0.0004322439200225365
-0.009603609650634694   -0.016390921127670918   -0.00033341654988721563
-0.012694248865206566   -0.016339603535383888   -0.00037424068678185504
-0.012020673063101188   -0.021654398659797604   -0.0005070025160495284
-0.012681110797127002   -0.016324346638236013   -0.0003339653142826927
-0.009093016814039989   -0.02171989236491668   -0.0004322439200225365
-0.011978816678681637   -0.02164896130078557   -0.0004447168364580816
-0.012681110797127002   -0.016324346638236013   -0.0003339653142826927
-0.012020673063101188   -0.021654398659797604   -0.0005070025160495284
-0.009093016814039989   -0.02171989236491668   -0.0004322439200225365
-0.012681110797127002   -0.016324346638236013   -0.0003339653142826927
-0.009629748022554183   -0.016365441706929978   -0.0002999216921957991
-0.009603609650634694   -0.016390921127670918   -0.00033341654988721563
-0.009093016814039989   -0.02171989236491668   -0.0004322439200225365
-0.012681110797127002   -0.016324346638236013   -0.0003339653142826927
-0.009603609650634694   -0.016390921127670918   -0.00033341654988721563
-0.012020673063101188   -0.021654398659797604   -0.0005070025160495284
0.002415213411334379   -0.016599871582487578   -2.5933070987979042e-05
0.0021718020005479202   -0.011087511699465194   6.498757343950426e-05
-0.0007082235260935968   -0.01657299775578888   -0.00014292378194533654
0.0023778607172615695   -0.01653165416669392   -2.448253559067206e-05
0.0021718020005479202   -0.011087511699465194   6.498757343950426e-05
-0.0009797700065579504   -0.011036168224217118   -2.7340977920009344e-05
-0.0007082235260935968   -0.01657299775578888   -0.00014292378194533654
-0.0010228133582214506   -0.01098265014998775   -5.075050641576392e-06
0.0023778607172615695   -0.01653165416669392   -2.448253559067206e-05
-0.0007440139374028889   -0.01651369858978463   -0.00013246308848891927
-0.0010228133582214506   -0.01098265014998775   -5.075050641576392e-06
-0.0007082235260935968   -0.01657299775578888   -0.00014292378194533654
0.0023778607172615695   -0.01653165416669392   -2.448253559067206e-05
-0.0010228133582214506   -0.01098265014998775   -5.075050641576392e-06
0.0021044557122816623   -0.011022646524475387   9.231718126080635e-05
0.0021718020005479202   -0.011087511699465194   6.498757343950426e-05
0.0023778607172615695   -0.01653165416669392   -2.448253559067206e-05
-0.0010228133582214506   -0.01098265014998775   -5.075050641576392e-06
0.0021718020005479202   -0.011087511699465194   6.498757343950426e-05
-0.0007082235260935968   -0.01657299775578888   -0.00014292378194533654
0.0023778607172615695   -0.01653165416669392   -2.448253559067206e-05
0.0021044557122816623   -0.011022646524475387   9.231718126080635e-05
-0.0007440139374028889   -0.01651369858978463   -0.00013246308848891927
0.0023315226750377865   -0.01647107243061633   -1.6882413392810064e-05
0.0021044557122816623   -0.011022646524475387   9.231718126080635e-05
-0.0010228133582214506   -0.01098265014998775   -5.075050641576392e-06
-0.0007440139374028889   -0.01651369858978463   -0.00013246308848891927
-0.0010732405848322434   -0.010926263414800491   2.121104984565427e-05
0.0023315226750377865   -0.01647107243061633   -1.6882413392810064e-05
-0.0007850379153498239   -0.01645797859523196   -0.00011898754347843595
-0.0010732405848322434   -0.010926263414800491   2.121104984565427e-05
-0.0007440139374028889   -0.01651369858978463   -0.00013246308848891927
0.0023315226750377865   -0.01647107243061633   -1.6882413392810064e-05
-0.0010732405848322434   -0.010926263414800491   2.121104984565427e-05
0.002028883939759235   -0.010958461630043112   0.00013191897098434617
0.0021044557122816623   -0.011022646524475387   9.231718126080635e-05
0.0023315226750377865   -0.01647107243061633   -1.6882413392810064e-05
-0.0010732405848322434   -0.010926263414800491   2.121104984565427e-05
0.0021044557122816623   -0.011022646524475387   9.231718126080635e-05
-0.0007440139374028889   -0.01651369858978463   -0.00013246308848891927
0.0023315226750377865   -0.01647107243061633   -1.6882413392810064e-05
0.002028883939759235   -0.010958461630043112   0.00013191897098434617
-0.0007850379153498239   -0.01645797859523196   -0.00011898754347843595
0.0022703115513789804   -0.01640789068781445   -3.4076983831114125e-06
0.002028883939759235   -0.010958461630043112   0.00013191897098434617
-0.0010732405848322434   -0.010926263414800491   2.121104984565427e-05
-0.0007850379153498239   -0.01645797859523196   -0.00011898754347843595
-0.001125488911792355   -0.010866480329435903   5.1475487723689056e-05
0.0022703115513789804   -0.01640789068781445   -3.4076983831114125e-06
-0.0008312037156045673   -0.01640506248446233   -0.00010174347021212936
-0.001125488911792355   -0.010866480329435903   5.1475487723689056e-05
-0.0007850379153498239   -0.01645797859523196   -0.00011898754347843595
0.0022703115513789804   -0.01640789068781445   -3.4076983831114125e-06
-0.001125488911792355   -0.010866480329435903   5.1475487723689056e-05
0.0019365076311050325   -0.010879523745371896   0.00017555585969649526
0.002028883939759235   -0.010958461630043112   0.00013191897098434617
0.0022703115513789804   -0.01640789068781445   -3.4076983831114125e-06
-0.001125488911792355   -0.010866480329435903   5.1475487723689056e-05
0.002028883939759235   -0.010958461630043112   0.00013191897098434617
-0.0007850379153498239   -0.01645797859523196   -0.00011898754347843595
-0.0007082235260935968   -0.01657299775578888   -0.00014292378194533654
-0.0009797700065579504   -0.011036168224217118   -2.7340977920009344e-05
-0.003667670610492831   -0.016541061488590476   -0.00024141307236125073
-0.0007440139374028889   -0.01651369858978463   -0.00013246308848891927
-0.0009797700065579504   -0.011036168224217118   -2.7340977920009344e-05
-0.003946196072869816   -0.011022848703900513   -0.00011605111313612635
-0.003667670610492831   -0.016541061488590476   -0.00024141307236125073
-0.003985251291173242   -0.010976355321197782   -9.51479419596373e-05
-0.0007440139374028889   -0.01651369858978463   -0.00013246308848891927
-0.0037043391460788192   -0.016491696128326877   -0.00022498692400465484
-0.003985251291173242   -0.010976355321197782   -9.51479419596373e-05
-0.003667670610492831   -0.016541061488590476   -0.00024141307236125073
-0.0007440139374028889   -0.01651369858978463   -0.00013246308848891927
-0.003985251291173242   -0.010976355321197782   -9.51479419596373e-05
-0.0010228133582214506   -0.01098265014998775   -5.075050641576392e-06
-0.0009797700065579504   -0.011036168224217118   -2.7340977920009344e-05
-0.0007440139374028889   -0.01651369858978463   -0.00013246308848891927
-0.003985251291173242   -0.010976355321197782   -9.51479419596373e-05
-0.0009797700065579504   -0.011036168224217118   -2.7340977920009344e-05
-0.003667670610492831   -0.016541061488590476   -0.00024141307236125073
-0.0007440139374028889   -0.01651369858978463   -0.00013246308848891927
-0.0010228133582214506   -0.01098265014998775   -5.075050641576392e-06
-0.0037043391460788192   -0.016491696128326877   -0.00022498692400465484
-0.0007850379153498239   -0.01645797859523196   -0.00011898754347843595
-0.0010228133582214506   -0.01098265014998775   -5.075050641576392e-06
-0.003985251291173242   -0.010976355321197782   -9.51479419596373e-05
-0.0037043391460788192   -0.016491696128326877   -0.00022498692400465484
-0.004025688642728855   -0.010928031153709408   -7.213540004917955e-05
-0.0007850379153498239   -0.01645797859523196   -0.00011898754347843595
-0.0037418475051056153   -0.01644510345510517   -0.00020567934371683373
-0.004025688642728855   -0.010928031153709408   -7.213540004917955e-05
-0.0037043391460788192   -0.016491696128326877   -0.00022498692400465484
-0.0007850379153498239   -0.01645797859523196   -0.00011898754347843595
-0.004025688642728855   -0.010928031153709408   -7.213540004917955e-05
-0.0010732405848322434   -0.010926263414800491   2.121104984565427e-05
-0.0010228133582214506   -0.01098265014998775   -5.075050641576392e-06
-0.0007850379153498239   -0.01645797859523196   -0.00011898754347843595
-0.004025688642728855   -0.010928031153709408   -7.213540004917955e-05
-0.0010228133582214506   -0.01098265014998775   -5.075050641576392e-06
-0.0037043391460788192   -0.016491696128326877   -0.00022498692400465484
-0.0007850379153498239   -0.01645797859523196   -0.00011898754347843595
-0.0010732405848322434   -0.010926263414800491   2.121104984565427e-05
-0.0037418475051056153   -0.01644510345510517   -0.00020567934371683373
-0.0008312037156045673   -0.01640506248446233   -0.00010174347021212936
-0.0010732405848322434   -0.010926263414800491   2.121104984565427e-05
-0.004025688642728855   -0.010928031153709408   -7.213540004917955e-05
-0.0037418475051056153   -0.01644510345510517   -0.00020567934371683373
-0.004067823972177581   -0.010878791853340529   -4.660006621973716e-05
-0.0008312037156045673   -0.01640506248446233   -0.00010174347021212936
-0.0037817699475643043   -0.01640203059105172   -0.00018346565459139647
-0.004067823972177581   -0.010878791853340529   -4.660006621973716e-05
-0.0037418475051056153   -0.01644510345510517   -0.00020567934371683373
-0.0008312037156045673   -0.01640506248446233   -0.00010174347021212936
-0.004067823972177581   -0.010878791853340529   -4.660006621973716e-05
-0.001125488911792355   -0.010866480329435903   5.1475487723689056e-05
-0.0010732405848322434   -0.010926263414800491   2.121104984565427e-05
-0.0008312037156045673   -0.01640506248446233   -0.00010174347021212936
-0.004067823972177581   -0.010878791853340529   -4.660006621973716e-05
-0.0010732405848322434   -0.010926263414800491   2.121104984565427e-05
-0.0037418475051056153   -0.01644510345510517   -0.00020567934371683373
-0.003667670610492831   -0.016541061488590476   -0.00024141307236125073
-0.003946196072869816   -0.011022848703900513   -0.00011605111313612635
-0.006578652651856144   -0.016502482617312776   -0.0003247460216184892
-0.0037043391460788192   -0.016491696128326877   -0.00022498692400465484
-0.003946196072869816   -0.011022848703900513   -0.00011605111313612635
-0.006881244483219333   -0.011019100462283889   -0.0001960587369579974
-0.006578652651856144   -0.016502482617312776   -0.0003247460216184892
-0.006918653465840222   -0.010978489448955417   -0.00017595809452585813
-0.0037043391460788192   -0.016491696128326877   -0.00022498692400465484
-0.006615117662644348   -0.01646228920121569   -0.000302382959901439
-0.006918653465840222   -0.010978489448955417   -0.00017595809452585813
-0.006578652651856144   -0.016502482617312776   -0.0003247460216184892
-0.0037043391460788192   -0.016491696128326877   -0.00022498692400465484
-0.006918653465840222   -0.010978489448955417   -0.00017595809452585813
-0.003985251291173242   -0.010976355321197782   -9.51479419596373e-05
-0.003946196072869816   -0.011022848703900513   -0.00011605111313612635
-0.0037043391460788192   -0.016491696128326877   -0.00022498692400465484
-0.006918653465840222   -0.010978489448955417   -0.00017595809452585813
-0.003946196072869816   -0.011022848703900513   -0.00011605111313612635
-0.006578652651856144   -0.016502482617312776   -0.0003247460216184892
-0.0037043391460788192   -0.016491696128326877   -0.00022498692400465484
-0.003985251291173242   -0.010976355321197782   -9.51479419596373e-05
-0.006615117662644348   -0.01646228920121569   -0.000302382959901439
-0.0037418475051056153   -0.01644510345510517   -0.00020567934371683373
-0.003985251291173242   -0.010976355321197782   -9.51479419596373e-05
-0.006918653465840222   -0.010978489448955417   -0.00017595809452585813
-0.006615117662644348   -0.01646228920121569   -0.000302382959901439
-0.00695429374160207   -0.010937205350882363   -0.00015400698643951117
-0.0037418475051056153   -0.01644510345510517   -0.00020567934371683373
-0.006649205809573478   -0.016425014895319577   -0.00027723659173007286
-0.00695429374160207   -0.010937205350882363   -0.00015400698643951117
-0.006615117662644348   -0.01646228920121569   -0.000302382959901439
-0.0037418475051056153   -0.01644510345510517   -0.00020567934371683373
-0.00695429374160207   -0.010937205350882363   -0.00015400698643951117
-0.004025688642728855   -0.010928031153709408   -7.213540004917955e-05
-0.003985251291173242   -0.010976355321197782   -9.51479419596373e-05
-0.0037418475051056153   -0.01644510345510517   -0.00020567934371683373
-0.00695429374160207   -0.010937205350882363   -0.00015400698643951117
-0.003985251291173242   -0.010976355321197782   -9.51479419596373e-05
-0.006615117662644348   -0.01646228920121569   -0.000302382959901439
-0.0037418475051056153   -0.01644510345510517   -0.00020567934371683373
-0.004025688642728855   -0.010928031153709408   -7.213540004917955e-05
-0.006649205809573478   -0.016425014895319577   -0.00027723659173007286
-0.0037817699475643043   -0.01640203059105172   -0.00018346565459139647
-0.004025688642728855   -0.010928031153709408   -7.213540004917955e-05
-0.00695429374160207   -0.010937205350882363   -0.00015400698643951117
-0.006649205809573478   -0.016425014895319577   -0.00027723659173007286
-0.006989579485897321   -0.010895003113096807   -0.00013030472538364953
-0.0037817699475643043   -0.01640203059105172   -0.00018346565459139647
-0.0066834164680326415   -0.016390759034083057   -0.0002494428528130551
-0.006989579485897321   -0.010895003113096807   -0.00013030472538364953
-0.006649205809573478   -0.016425014895319577   -0.00027723659173007286
-0.0037817699475643043   -0.01640203059105172   -0.00018346565459139647
-0.006989579485897321   -0.010895003113096807   -0.00013030472538364953
-0.004067823972177581   -0.010878791853340529   -4.660006621973716e-05
-0.004025688642728855   -0.010928031153709408   -7.213540004917955e-05
-0.0037817699475643043   -0.01640203059105172   -0.00018346565459139647
-0.006989579485897321   -0.010895003113096807   -0.00013030472538364953
-0.004025688642728855   -0.010928031153709408   -7.213540004917955e-05
-0.006649205809573478   -0.016425014895319577   -0.00027723659173007286
-0.006578652651856144   -0.016502482617312776   -0.0003247460216184892
-0.006881244483219333   -0.011019100462283889   -0.0001960587369579974
-0.009542406100230912   -0.01645014554483092   -0.00039220569561725424
-0.006615117662644348   -0.01646228920121569   -0.000302382959901439
-0.006881244483219333   -0.011019100462283889   -0.0001960587369579974
-0.009878611309397628   -0.011001825861193727   -0.0002629101321817647
-0.009542406100230912   -0.01645014554483092   -0.00039220569561725424
-0.009914271512058632   -0.010968982285238621   -0.00024373365192454356
-0.006615117662644348   -0.01646228920121569   -0.000302382959901439
-0.00957730084904784   -0.016419597688107128   -0.00036397763764648767
-0.009914271512058632   -0.010968982285238621   -0.00024373365192454356
-0.009542406100230912   -0.01645014554483092   -0.00039220569561725424
-0.006615117662644348   -0.01646228920121569   -0.000302382959901439
-0.009914271512058632   -0.010968982285238621   -0.00024373365192454356
-0.006918653465840222   -0.010978489448955417   -0.00017595809452585813
-0.006881244483219333   -0.011019100462283889   -0.0001960587369579974
-0.006615117662644348   -0.01646228920121569   -0.000302382959901439
-0.009914271512058632   -0.010968982285238621   -0.00024373365192454356
-0.006881244483219333   -0.011019100462283889   -0.0001960587369579974
-0.009542406100230912   -0.01645014554483092   -0.00039220569561725424
-0.006615117662644348   -0.01646228920121569   -0.000302382959901439
-0.006918653465840222   -0.010978489448955417   -0.00017595809452585813
-0.00957730084904784   -0.016419597688107128   -0.00036397763764648767
-0.006649205809573478   -0.016425014895319577   -0.00027723659173007286
-0.006918653465840222   -0.010978489448955417   -0.00017595809452585813
-0.009914271512058632   -0.010968982285238621   -0.00024373365192454356
-0.00957730084904784   -0.016419597688107128   -0.00036397763764648767
-0.009944407257963013   -0.01093435904480252   -0.00022322568933388155
-0.006649205809573478   -0.016425014895319577   -0.00027723659173007286
-0.009603609650634694   -0.016390921127670918   -0.00033341654988721563
-0.009944407257963013   -0.01093435904480252   -0.00022322568933388155
-0.00957730084904784   -0.016419597688107128   -0.00036397763764648767
-0.006649205809573478   -0.016425014895319577   -0.00027723659173007286
-0.009944407257963013   -0.01093435904480252   -0.00022322568933388155
-0.00695429374160207   -0.010937205350882363   -0.00015400698643951117
-0.006918653465840222   -0.010978489448955417   -0.00017595809452585813
-0.006649205809573478   -0.016425014895319577   -0.00027723659173007286
-0.009944407257963013   -0.01093435904480252   -0.00022322568933388155
-0.006918653465840222   -0.010978489448955417   -0.00017595809452585813
-0.00957730084904784   -0.016419597688107128   -0.00036397763764648767
-0.006649205809573478   -0.016425014895319577   -0.00027723659173007286
-0.00695429374160207   -0.010937205350882363   -0.00015400698643951117
-0.009603609650634694   -0.016390921127670918   -0.00033341654988721563
-0.0066834164680326415   -0.016390759034083057   -0.0002494428528130551
-0.00695429374160207   -0.010937205350882363   -0.00015400698643951117
-0.009944407257963013   -0.01093435904480252   -0.00022322568933388155
-0.009603609650634694   -0.016390921127670918   -0.00033341654988721563
-0.009972885430605236   -0.01089887776658425   -0.00020082291328199953
-0.0066834164680326415   -0.016390759034083057   -0.0002494428528130551
-0.009629748022554183   -0.016365441706929978   -0.0002999216921957991
-0.009972885430605236   -0.01089887776658425   -0.00020082291328199953
-0.009603609650634694   -0.016390921127670918   -0.00033341654988721563
-0.0066834164680326415   -0.016390759034083057   -0.0002494428528130551
-0.009972885430605236   -0.01089887776658425   -0.00020082291328199953
-0.006989579485897321   -0.010895003113096807   -0.00013030472538364953
-0.00695429374160207   -0.010937205350882363   -0.00015400698643951117
-0.0066834164680326415   -0.016390759034083057   -0.0002494428528130551
-0.009972885430605236   -0.01089887776658425   -0.00020082291328199953
-0.00695429374160207   -0.010937205350882363   -0.00015400698643951117
-0.009603609650634694   -0.016390921127670918   -0.00033341654988721563
-0.009542406100230912   -0.01645014554483092   -0.00039220569561725424
-0.009878611309397628   -0.011001825861193727   -0.0002629101321817647
-0.012684991312119137   -0.016387994614312267   -0.00044183034304818837
-0.00957730084904784   -0.016419597688107128   -0.00036397763764648767
-0.009878611309397628   -0.011001825861193727   -0.0002629101321817647
-0.013020056468165288   -0.010973139037471928   -0.0003117987169687975
-0.012684991312119137   -0.016387994614312267   -0.00044183034304818837
-0.013041797841186939   -0.0109458197080061   -0.0002971618900325286
-0.00957730084904784   -0.016419597688107128   -0.00036397763764648767
-0.012689487982591985   -0.01636386042352133   -0.00041037911518405814
-0.013041797841186939   -0.0109458197080061   -0.0002971618900325286
-0.012684991312119137   -0.016387994614312267   -0.00044183034304818837
-0.00957730084904784   -0.016419597688107128   -0.00036397763764648767
-0.013041797841186939   -0.0109458197080061   -0.0002971618900325286
-0.009914271512058632   -0.010968982285238621   -0.00024373365192454356
-0.009878611309397628   -0.011001825861193727   -0.0002629101321817647
-0.00957730084904784   -0.016419597688107128   -0.00036397763764648767
-0.013041797841186939   -0.0109458197080061   -0.0002971618900325286
-0.009878611309397628   -0.011001825861193727   -0.0002629101321817647
-0.012684991312119137   -0.016387994614312267   -0.00044183034304818837
-0.00957730084904784   -0.016419597688107128   -0.00036397763764648767
-0.009914271512058632   -0.010968982285238621   -0.00024373365192454356
-0.012689487982591985   -0.01636386042352133   -0.00041037911518405814
-0.009603609650634694   -0.016390921127670918   -0.00033341654988721563
-0.009914271512058632   -0.010968982285238621   -0.00024373365192454356
-0.013041797841186939   -0.0109458197080061   -0.0002971618900325286
-0.012689487982591985   -0.01636386042352133   -0.00041037911518405814
-0.013061678103621069   -0.010914801782462923   -0.00027929422317636386
-0.009603609650634694   -0.016390921127670918   -0.00033341654988721563
-0.012694248865206566   -0.016339603535383888   -0.00037424068678185504
-0.013061678103621069   -0.010914801782462923   -0.00027929422317636386
-0.012689487982591985   -0.01636386042352133   -0.00041037911518405814
-0.009603609650634694   -0.016390921127670918   -0.00033341654988721563
-0.013061678103621069   -0.010914801782462923   -0.00027929422317636386
-0.009944407257963013   -0.01093435904480252   -0.00022322568933388155
-0.009914271512058632   -0.010968982285238621   -0.00024373365192454356
-0.009603609650634694   -0.016390921127670918   -0.00033341654988721563
-0.013061678103621069   -0.010914801782462923   -0.00027929422317636386
-0.009914271512058632   -0.010968982285238621   -0.00024373365192454356
-0.012689487982591985   -0.01636386042352133   -0.00041037911518405814
-0.009603609650634694   -0.016390921127670918   -0.00033341654988721563
-0.009944407257963013   -0.01093435904480252   -0.00022322568933388155
-0.012694248865206566   -0.016339603535383888   -0.00037424068678185504
-0.009629748022554183   -0.016365441706929978   -0.0002999216921957991
-0.009944407257963013   -0.01093435904480252   -0.00022322568933388155
-0.013061678103621069   -0.010914801782462923   -0.00027929422317636386
-0.012694248865206566   -0.016339603535383888   -0.00037424068678185504
-0.013070839785862003   -0.01088665129647986   -0.00025898357491103583
-0.009629748022554183   -0.016365441706929978   -0.0002999216921957991
-0.012681110797127002   -0.016324346638236013   -0.0003339653142826927
-0.013070839785862003   -0.01088665129647986   -0.00025898357491103583
-0.012694248865206566   -0.016339603535383888   -0.00037424068678185504
-0.009629748022554183   -0.016365441706929978   -0.0002999216921957991
-0.013070839785862003   -0.01088665129647986   -0.00025898357491103583
-0.009972885430605236   -0.01089887776658425   -0.00020082291328199953
-0.009944407257963013   -0.01093435904480252   -0.00022322568933388155
-0.009629748022554183   -0.016365441706929978   -0.0002999216921957991
-0.013070839785862003   -0.01088665129647986   -0.00025898357491103583
-0.009944407257963013   -0.01093435904480252   -0.00022322568933388155
-0.012694248865206566   -0.016339603535383888   -0.00037424068678185504
0.0021718020005479202   -0.011087511699465194   6.498757343950426e-05
0.0015260488416520704   -0.005576458409584118   7.034078336620867e-05
-0.0009797700065579504   -0.011036168224217118   -2.7340977920009344e-05
0.0021044557122816623   -0.011022646524475387   9.231718126080635e-05
0.0015260488416520704   -0.005576458409584118   7.034078336620867e-05
-0.0014181399184524858   -0.005505541524895882   3.805731804578931e-05
-0.0009797700065579504   -0.011036168224217118   -2.7340977920009344e-05
-0.0014611406840118212   -0.005479218730074169   6.927617784738812e-05
0.0021044557122816623   -0.011022646524475387   9.231718126080635e-05
-0.0010228133582214506   -0.01098265014998775   -5.075050641576392e-06
-0.0014611406840118212   -0.005479218730074169   6.927617784738812e-05
-0.0009797700065579504   -0.011036168224217118   -2.7340977920009344e-05
0.0021044557122816623   -0.011022646524475387   9.231718126080635e-05
-0.0014611406840118212   -0.005479218730074169   6.927617784738812e-05
0.0013918132207443891   -0.005507235865013998   0.0001473482238928854
0.0015260488416520704   -0.005576458409584118   7.034078336620867e-05
0.0021044557122816623   -0.011022646524475387   9.231718126080635e-05
-0.0014611406840118212   -0.005479218730074169   6.927617784738812e-05
0.0015260488416520704   -0.005576458409584118   7.034078336620867e-05
-0.0009797700065579504   -0.011036168224217118   -2.7340977920009344e-05
0.0021044557122816623   -0.011022646524475387   9.231718126080635e-05
0.0013918132207443891   -0.005507235865013998   0.0001473482238928854
-0.0010228133582214506   -0.01098265014998775   -5.075050641576392e-06
0.002028883939759235   -0.010958461630043112   0.00013191897098434617
0.0013918132207443891   -0.005507235865013998   0.0001473482238928854
-0.0014611406840118212   -0.005479218730074169   6.927617784738812e-05
-0.0010228133582214506   -0.01098265014998775   -5.075050641576392e-06
-0.001517970981042456   -0.005431268861086786   0.00010727591855981413
0.002028883939759235   -0.010958461630043112   0.00013191897098434617
-0.0010732405848322434   -0.010926263414800491   2.121104984565427e-05
-0.001517970981042456   -0.005431268861086786   0.00010727591855981413
-0.0010228133582214506   -0.01098265014998775   -5.075050641576392e-06
0.002028883939759235   -0.010958461630043112   0.00013191897098434617
-0.001517970981042456   -0.005431268861086786   0.00010727591855981413
0.0013133491164650092   -0.005451120717028252   0.00020463984420751157
0.0013918132207443891   -0.005507235865013998   0.0001473482238928854
0.002028883939759235   -0.010958461630043112   0.00013191897098434617
-0.001517970981042456   -0.005431268861086786   0.00010727591855981413
0.0013918132207443891   -0.005507235865013998   0.0001473482238928854
-0.0010228133582214506   -0.01098265014998775   -5.075050641576392e-06
0.002028883939759235   -0.010958461630043112   0.00013191897098434617
0.0013133491164650092   -0.005451120717028252   0.00020463984420751157
-0.0010732405848322434   -0.010926263414800491   2.121104984565427e-05
0.0019365076311050325   -0.010879523745371896   0.00017555585969649526
0.0013133491164650092   -0.005451120717028252   0.00020463984420751157
-0.001517970981042456   -0.005431268861086786   0.00010727591855981413
-0.0010732405848322434   -0.010926263414800491   2.121104984565427e-05
-0.0015658893702408527   -0.005379904508277444   0.00014070752898162912
0.0019365076311050325   -0.010879523745371896   0.00017555585969649526
-0.001125488911792355   -0.010866480329435903   5.1475487723689056e-05
-0.0015658893702408527   -0.005379904508277444   0.00014070752898162912
-0.0010732405848322434   -0.010926263414800491   2.121104984565427e-05
0.0019365076311050325   -0.010879523745371896   0.00017555585969649526
-0.0015658893702408527   -0.005379904508277444   0.00014070752898162912
0.0012125661118791411   -0.005364883185212374   0.0002703236838029457
0.0013133491164650092   -0.005451120717028252   0.00020463984420751157
0.0019365076311050325   -0.010879523745371896   0.00017555585969649526
-0.0015658893702408527   -0.005379904508277444   0.00014070752898162912
0.0013133491164650092   -0.005451120717028252   0.00020463984420751157
-0.0010732405848322434   -0.010926263414800491   2.121104984565427e-05
-0.0009797700065579504   -0.011036168224217118   -2.7340977920009344e-05
-0.0014181399184524858   -0.005505541524895882   3.805731804578931e-05
-0.003946196072869816   -0.011022848703900513   -0.00011605111313612635
-0.0010228133582214506   -0.01098265014998775   -5.075050641576392e-06
-0.0014181399184524858   -0.005505541524895882   3.805731804578931e-05
-0.004216334971911988   -0.005587911084839093   -3.180034327101434e-05
-0.003946196072869816   -0.011022848703900513   -0.00011605111313612635
-0.004256210013989174   -0.00554690408709962   -9.572263008308851e-06
-0.0010228133582214506   -0.01098265014998775   -5.075050641576392e-06
-0.003985251291173242   -0.010976355321197782   -9.51479419596373e-05
-0.004256210013989174   -0.00554690408709962   -9.572263008308851e-06
-0.003946196072869816   -0.011022848703900513   -0.00011605111313612635
-0.0010228133582214506   -0.01098265014998775   -5.075050641576392e-06
-0.004256210013989174   -0.00554690408709962   -9.572263008308851e-06
-0.0014611406840118212   -0.005479218730074169   6.927617784738812e-05
-0.0014181399184524858   -0.005505541524895882   3.805731804578931e-05
-0.0010228133582214506   -0.01098265014998775   -5.075050641576392e-06
-0.004256210013989174   -0.00554690408709962   -9.572263008308851e-06
-0.0014181399184524858   -0.005505541524895882   3.805731804578931e-05
-0.003946196072869816   -0.011022848703900513   -0.00011605111313612635
-0.0010228133582214506   -0.01098265014998775   -5.075050641576392e-06
-0.0014611406840118212   -0.005479218730074169   6.927617784738812e-05
-0.003985251291173242   -0.010976355321197782   -9.51479419596373e-05
-0.0010732405848322434   -0.010926263414800491   2.121104984565427e-05
-0.0014611406840118212   -0.005479218730074169   6.927617784738812e-05
-0.004256210013989174   -0.00554690408709962   -9.572263008308851e-06
-0.003985251291173242   -0.010976355321197782   -9.51479419596373e-05
-0.004298100481583386   -0.005500408978270403   1.4028603195044498e-05
-0.0010732405848322434   -0.010926263414800491   2.121104984565427e-05
-0.004025688642728855   -0.010928031153709408   -7.213540004917955e-05
-0.004298100481583386   -0.005500408978270403   1.4028603195044498e-05
-0.003985251291173242   -0.010976355321197782   -9.51479419596373e-05
-0.0010732405848322434   -0.010926263414800491   2.121104984565427e-05
-0.004298100481583386   -0.005500408978270403   1.4028603195044498e-05
-0.001517970981042456   -0.005431268861086786   0.00010727591855981413
-0.0014611406840118212   -0.005479218730074169   6.927617784738812e-05
-0.0010732405848322434   -0.010926263414800491   2.121104984565427e-05
-0.004298100481583386   -0.005500408978270403   1.4028603195044498e-05
-0.0014611406840118212   -0.005479218730074169   6.927617784738812e-05
-0.003985251291173242   -0.010976355321197782   -9.51479419596373e-05
-0.0010732405848322434   -0.010926263414800491   2.121104984565427e-05
-0.001517970981042456   -0.005431268861086786   0.00010727591855981413
-0.004025688642728855   -0.010928031153709408   -7.213540004917955e-05
-0.001125488911792355   -0.010866480329435903   5.1475487723689056e-05
-0.001517970981042456   -0.005431268861086786   0.00010727591855981413
-0.004298100481583386   -0.005500408978270403   1.4028603195044498e-05
-0.004025688642728855   -0.010928031153709408   -7.213540004917955e-05
-0.004338043175466414   -0.005449448066473802   4.0102200802376026e-05
-0.001125488911792355   -0.010866480329435903   5.1475487723689056e-05
-0.004067823972177581   -0.010878791853340529   -4.660006621973716e-05
-0.004338043175466414   -0.005449448066473802   4.0102200802376026e-05
-0.004025688642728855   -0.010928031153709408   -7.213540004917955e-05
-0.001125488911792355   -0.010866480329435903   5.1475487723689056e-05
-0.004338043175466414   -0.005449448066473802   4.0102200802376026e-05
-0.0015658893702408527   -0.005379904508277444   0.00014070752898162912
-0.001517970981042456   -0.005431268861086786   0.00010727591855981413
-0.001125488911792355   -0.010866480329435903   5.1475487723689056e-05
-0.004338043175466414   -0.005449448066473802   4.0102200802376026e-05
-0.001517970981042456   -0.005431268861086786   0.00010727591855981413
-0.004025688642728855   -0.010928031153709408   -7.213540004917955e-05
-0.003946196072869816   -0.011022848703900513   -0.00011605111313612635
-0.004216334971911988   -0.005587911084839093   -3.180034327101434e-05
-0.006881244483219333   -0.011019100462283889   -0.0001960587369579974
-0.003985251291173242   -0.010976355321197782   -9.51479419596373e-05
-0.004216334971911988   -0.005587911084839093   -3.180034327101434e-05
-0.007081428646110477   -0.0056522840600755275   -0.00010971322760562147
-0.006881244483219333   -0.011019100462283889   -0.0001960587369579974
-0.007117365310938241   -0.005610126971177683   -9.239491667807857e-05
-0.003985251291173242   -0.010976355321197782   -9.51479419596373e-05
-0.006918653465840222   -0.010978489448955417   -0.00017595809452585813
-0.007117365310938241   -0.005610126971177683   -9.239491667807857e-05
-0.006881244483219333   -0.011019100462283889   -0.0001960587369579974
-0.003985251291173242   -0.010976355321197782   -9.51479419596373e-05
-0.007117365310938241   -0.005610126971177683   -9.239491667807857e-05
-0.004256210013989174   -0.00554690408709962   -9.572263008308851e-06
-0.004216334971911988   -0.005587911084839093   -3.180034327101434e-05
-0.003985251291173242   -0.010976355321197782   -9.51479419596373e-05
-0.007117365310938241   -0.005610126971177683   -9.239491667807857e-05
-0.004216334971911988   -0.005587911084839093   -3.180034327101434e-05
-0.006881244483219333   -0.011019100462283889   -0.0001960587369579974
-0.003985251291173242   -0.010976355321197782   -9.51479419596373e-05
-0.004256210013989174   -0.00554690408709962   -9.572263008308851e-06
-0.006918653465840222   -0.010978489448955417   -0.00017595809452585813
-0.004025688642728855   -0.010928031153709408   -7.213540004917955e-05
-0.004256210013989174   -0.00554690408709962   -9.572263008308851e-06
-0.007117365310938241   -0.005610126971177683   -9.239491667807857e-05
-0.006918653465840222   -0.010978489448955417   -0.00017595809452585813
-0.00715184925221233   -0.00556551598894512   -7.507832394433142e-05
-0.004025688642728855   -0.010928031153709408   -7.213540004917955e-05
-0.00695429374160207   -0.010937205350882363   -0.00015400698643951117
-0.00715184925221233   -0.00556551598894512   -7.507832394433142e-05
-0.006918653465840222   -0.010978489448955417   -0.00017595809452585813
-0.004025688642728855   -0.010928031153709408   -7.213540004917955e-05
-0.00715184925221233   -0.00556551598894512   -7.507832394433142e-05
-0.004298100481583386   -0.005500408978270403   1.4028603195044498e-05
-0.004256210013989174   -0.00554690408709962   -9.572263008308851e-06
-0.004025688642728855   -0.010928031153709408   -7.213540004917955e-05
-0.00715184925221233   -0.00556551598894512   -7.507832394433142e-05
-0.004256210013989174   -0.00554690408709962   -9.572263008308851e-06
-0.006918653465840222   -0.010978489448955417   -0.00017595809452585813
-0.004025688642728855   -0.010928031153709408   -7.213540004917955e-05
-0.004298100481583386   -0.005500408978270403   1.4028603195044498e-05
-0.00695429374160207   -0.010937205350882363   -0.00015400698643951117
-0.004067823972177581   -0.010878791853340529   -4.660006621973716e-05
-0.004298100481583386   -0.005500408978270403   1.4028603195044498e-05
-0.00715184925221233   -0.00556551598894512   -7.507832394433142e-05
-0.00695429374160207   -0.010937205350882363   -0.00015400698643951117
-0.00718370544978976   -0.0055171484629957775   -5.616794423060583e-05
-0.004067823972177581   -0.010878791853340529   -4.660006621973716e-05
-0.006989579485897321   -0.010895003113096807   -0.00013030472538364953
-0.00718370544978976   -0.0055171484629957775   -5.616794423060583e-05
-0.00695429374160207   -0.010937205350882363   -0.00015400698643951117
-0.004067823972177581   -0.010878791853340529   -4.660006621973716e-05
-0.00718370544978976   -0.0055171484629957775   -5.616794423060583e-05
-0.004338043175466414   -0.005449448066473802   4.0102200802376026e-05
-0.004298100481583386   -0.005500408978270403   1.4028603195044498e-05
-0.004067823972177581   -0.010878791853340529   -4.660006621973716e-05
-0.00718370544978976   -0.0055171484629957775   -5.616794423060583e-05
-0.004298100481583386   -0.005500408978270403   1.4028603195044498e-05
-0.00695429374160207   -0.010937205350882363   -0.00015400698643951117
-0.006881244483219333   -0.011019100462283889   -0.0001960587369579974
-0.007081428646110477   -0.0056522840600755275   -0.00010971322760562147
-0.009878611309397628   -0.011001825861193727   -0.0002629101321817647
-0.006918653465840222   -0.010978489448955417   -0.00017595809452585813
-0.007081428646110477   -0.0056522840600755275   -0.00010971322760562147
-0.010047212153852413   -0.005678785911757593   -0.00018152628075003988
-0.009878611309397628   -0.011001825861193727   -0.0002629101321817647
-0.010079615091415518   -0.005641068064091693   -0.00016882466925599704
-0.006918653465840222   -0.010978489448955417   -0.00017595809452585813
-0.009914271512058632   -0.010968982285238621   -0.00024373365192454356
-0.010079615091415518   -0.005641068064091693   -0.00016882466925599704
-0.009878611309397628   -0.011001825861193727   -0.0002629101321817647
-0.006918653465840222   -0.010978489448955417   -0.00017595809452585813
-0.010079615091415518   -0.005641068064091693   -0.00016882466925599704
-0.007117365310938241   -0.005610126971177683   -9.239491667807857e-05
-0.007081428646110477   -0.0056522840600755275   -0.00010971322760562147
-0.006918653465840222   -0.010978489448955417   -0.00017595809452585813
-0.010079615091415518   -0.005641068064091693   -0.00016882466925599704
-0.007081428646110477   -0.0056522840600755275   -0.00010971322760562147
-0.009878611309397628   -0.011001825861193727   -0.0002629101321817647
-0.006918653465840222   -0.010978489448955417   -0.00017595809452585813
-0.007117365310938241   -0.005610126971177683   -9.239491667807857e-05
-0.009914271512058632   -0.010968982285238621   -0.00024373365192454356
-0.00695429374160207   -0.010937205350882363   -0.00015400698643951117
-0.007117365310938241   -0.005610126971177683   -9.239491667807857e-05
-0.010079615091415518   -0.005641068064091693   -0.00016882466925599704
-0.009914271512058632   -0.010968982285238621   -0.00024373365192454356
-0.010108495036059024   -0.005599871079148829   -0.00015643518801047388
-0.00695429374160207   -0.010937205350882363   -0.00015400698643951117
-0.009944407257963013   -0.01093435904480252   -0.00022322568933388155
-0.010108495036059024   -0.005599871079148829   -0.00015643518801047388
-0.009914271512058632   -0.010968982285238621   -0.00024373365192454356
-0.00695429374160207   -0.010937205350882363   -0.00015400698643951117
-0.010108495036059024   -0.005599871079148829   -0.00015643518801047388
-0.00715184925221233   -0.00556551598894512   -7.507832394433142e-05
-0.007117365310938241   -0.005610126971177683   -9.239491667807857e-05
-0.00695429374160207   -0.010937205350882363   -0.00015400698643951117
-0.010108495036059024   -0.005599871079148829   -0.00015643518801047388
-0.007117365310938241   -0.005610126971177683   -9.239491667807857e-05
-0.009914271512058632   -0.010968982285238621   -0.00024373365192454356
-0.00695429374160207   -0.010937205350882363   -0.00015400698643951117
-0.00715184925221233   -0.00556551598894512   -7.507832394433142e-05
-0.009944407257963013   -0.01093435904480252   -0.00022322568933388155
-0.006989579485897321   -0.010895003113096807   -0.00013030472538364953
-0.00715184925221233   -0.00556551598894512   -7.507832394433142e-05
-0.010108495036059024   -0.005599871079148829   -0.00015643518801047388
-0.009944407257963013   -0.01093435904480252   -0.00022322568933388155
-0.01013466773462909   -0.005555960520848178   -0.00014361943073624213
-0.006989579485897321   -0.010895003113096807   -0.00013030472538364953
-0.009972885430605236   -0.01089887776658425   -0.00020082291328199953
-0.01013466773462909   -0.005555960520848178   -0.00014361943073624213
-0.009944407257963013   -0.01093435904480252   -0.00022322568933388155
-0.006989579485897321   -0.010895003113096807   -0.00013030472538364953
-0.01013466773462909   -0.005555960520848178   -0.00014361943073624213
-0.00718370544978976   -0.0055171484629957775   -5.616794423060583e-05
-0.00715184925221233   -0.00556551598894512   -7.507832394433142e-05
-0.006989579485897321   -0.010895003113096807   -0.00013030472538364953
-0.01013466773462909   -0.005555960520848178   -0.00014361943073624213
-0.00715184925221233   -0.00556551598894512   -7.507832394433142e-05
-0.009944407257963013   -0.01093435904480252   -0.00022322568933388155
-0.009878611309397628   -0.011001825861193727   -0.0002629101321817647
-0.010047212153852413   -0.005678785911757593   -0.00018152628075003988
-0.013020056468165288   -0.010973139037471928   -0.0003117987169687975
-0.009914271512058632   -0.010968982285238621   -0.00024373365192454356
-0.010047212153852413   -0.005678785911757593   -0.00018152628075003988
-0.013120193124632284   -0.005681610233921929   -0.00024075875099354777
-0.013020056468165288   -0.010973139037471928   -0.0003117987169687975
-0.013147908049868316   -0.005645065024461533   -0.00023515737327077014
-0.009914271512058632   -0.010968982285238621   -0.00024373365192454356
-0.013041797841186939   -0.0109458197080061   -0.0002971618900325286
-0.013147908049868316   -0.005645065024461533   -0.00023515737327077014
-0.013020056468165288   -0.010973139037471928   -0.0003117987169687975
-0.009914271512058632   -0.010968982285238621   -0.00024373365192454356
-0.013147908049868316   -0.005645065024461533   -0.00023515737327077014
-0.010079615091415518   -0.005641068064091693   -0.00016882466925599704
-0.010047212153852413   -0.005678785911757593   -0.00018152628075003988
-0.009914271512058632   -0.010968982285238621   -0.00024373365192454356
-0.013147908049868316   -0.005645065024461533   -0.00023515737327077014
-0.010047212153852413   -0.005678785911757593   -0.00018152628075003988
-0.013020056468165288   -0.010973139037471928   -0.0003117987169687975
-0.009914271512058632   -0.010968982285238621   -0.00024373365192454356
-0.010079615091415518   -0.005641068064091693   -0.00016882466925599704
-0.013041797841186939   -0.0109458197080061   -0.0002971618900325286
-0.009944407257963013   -0.01093435904480252   -0.00022322568933388155
-0.010079615091415518   -0.005641068064091693   -0.00016882466925599704
-0.013147908049868316   -0.005645065024461533   -0.00023515737327077014
-0.013041797841186939   -0.0109458197080061   -0.0002971618900325286
-0.013172738353395245   -0.0056054358338918754   -0.00022857876493048712
-0.009944407257963013   -0.01093435904480252   -0.00022322568933388155
-0.013061678103621069   -0.010914801782462923   -0.00027929422317636386
-0.013172738353395245   -0.0056054358338918754   -0.00022857876493048712
-0.013041797841186939   -0.0109458197080061   -0.0002971618900325286
-0.009944407257963013   -0.01093435904480252   -0.00022322568933388155
-0.013172738353395245   -0.0056054358338918754   -0.00022857876493048712
-0.010108495036059024   -0.005599871079148829   -0.00015643518801047388
-0.010079615091415518   -0.005641068064091693   -0.00016882466925599704
-0.009944407257963013   -0.01093435904480252   -0.00022322568933388155
-0.013172738353395245   -0.0056054358338918754   -0.00022857876493048712
-0.010079615091415518   -0.005641068064091693   -0.00016882466925599704
-0.013041797841186939   -0.0109458197080061   -0.0002971618900325286
-0.009944407257963013   -0.01093435904480252   -0.00022322568933388155
-0.010108495036059024   -0.005599871079148829   -0.00015643518801047388
-0.013061678103621069   -0.010914801782462923   -0.00027929422317636386
-0.009972885430605236   -0.01089887776658425   -0.00020082291328199953
-0.010108495036059024   -0.005599871079148829   -0.00015643518801047388
-0.013172738353395245   -0.0056054358338918754   -0.00022857876493048712
-0.013061678103621069   -0.010914801782462923   -0.00027929422317636386
-0.013193456759521554   -0.0055634944385093985   -0.00022236598218571007
-0.009972885430605236   -0.01089887776658425   -0.00020082291328199953
-0.013070839785862003   -0.01088665129647986   -0.00025898357491103583
-0.013193456759521554   -0.0055634944385093985   -0.00022236598218571007
-0.013061678103621069   -0.010914801782462923   -0.00027929422317636386
-0.009972885430605236   -0.01089887776658425   -0.00020082291328199953
-0.013193456759521554   -0.0055634944385093985   -0.00022236598218571007
-0.01013466773462909   -0.005555960520848178   -0.00014361943073624213
-0.010108495036059024   -0.005599871079148829   -0.00015643518801047388
-0.009972885430605236   -0.01089887776658425   -0.00020082291328199953
-0.013193456759521554   -0.0055634944385093985   -0.00022236598218571007
-0.010108495036059024   -0.005599871079148829   -0.00015643518801047388
-0.013061678103621069   -0.010914801782462923   -0.00027929422317636386
0.0015260488416520704   -0.005576458409584118   7.034078336620867e-05
0.0   0.0   0.0
-0.0014181399184524858   -0.005505541524895882   3.805731804578931e-05
0.0013918132207443891   -0.005507235865013998   0.0001473482238928854
0.0   0.0   0.0
-0.001775109542151734   -0.00045884198124065707   -1.2880643876149159e-05
-0.0014181399184524858   -0.005505541524895882   3.805731804578931e-05
-0.0018813552508709624   -0.00035835904379991475   4.915841968897483e-05
0.0013918132207443891   -0.005507235865013998   0.0001473482238928854
-0.0014611406840118212   -0.005479218730074169   6.927617784738812e-05
-0.0018813552508709624   -0.00035835904379991475   4.915841968897483e-05
-0.0014181399184524858   -0.005505541524895882   3.805731804578931e-05
0.0013918132207443891   -0.005507235865013998   0.0001473482238928854
-0.0018813552508709624   -0.00035835904379991475   4.915841968897483e-05
0.0   0.0   0.0
0.0   0.0   0.0
0.0013918132207443891   -0.005507235865013998   0.0001473482238928854
-0.0018813552508709624   -0.00035835904379991475   4.915841968897483e-05
0.0   0.0   0.0
-0.0014181399184524858   -0.005505541524895882   3.805731804578931e-05
0.0013918132207443891   -0.005507235865013998   0.0001473482238928854
0.0   0.0   0.0
-0.0014611406840118212   -0.005479218730074169   6.927617784738812e-05
0.0013133491164650092   -0.005451120717028252   0.00020463984420751157
0.0   0.0   0.0
-0.0018813552508709624   -0.00035835904379991475   4.915841968897483e-05
-0.0014611406840118212   -0.005479218730074169   6.927617784738812e-05
-0.0019482989342368238   -0.0003101708378885888   8.526448720342583e-05
0.0013133491164650092   -0.005451120717028252   0.00020463984420751157
-0.001517970981042456   -0.005431268861086786   0.00010727591855981413
-0.0019482989342368238   -0.0003101708378885888   8.526448720342583e-05
-0.0014611406840118212   -0.005479218730074169   6.927617784738812e-05
0.0013133491164650092   -0.005451120717028252   0.00020463984420751157
-0.0019482989342368238   -0.0003101708378885888   8.526448720342583e-05
0.0   0.0   0.0
0.0   0.0   0.0
0.0013133491164650092   -0.005451120717028252   0.00020463984420751157
-0.0019482989342368238   -0.0003101708378885888   8.526448720342583e-05
0.0   0.0   0.0
-0.0014611406840118212   -0.005479218730074169   6.927617784738812e-05
0.0013133491164650092   -0.005451120717028252   0.00020463984420751157
0.0   0.0   0.0
-0.001517970981042456   -0.005431268861086786   0.00010727591855981413
0.0012125661118791411   -0.005364883185212374   0.0002703236838029457
0.0   0.0   0.0
-0.0019482989342368238   -0.0003101708378885888   8.526448720342583e-05
-0.001517970981042456   -0.005431268861086786   0.00010727591855981413
-0.0020385136124729682   -0.0002460296921400259   0.00012676454151948997
0.0012125661118791411   -0.005364883185212374   0.0002703236838029457
-0.0015658893702408527   -0.005379904508277444   0.00014070752898162912
-0.0020385136124729682   -0.0002460296921400259   0.00012676454151948997
-0.001517970981042456   -0.005431268861086786   0.00010727591855981413
0.0012125661118791411   -0.005364883185212374   0.0002703236838029457
-0.0020385136124729682   -0.0002460296921400259   0.00012676454151948997
0.0   0.0   0.0
0.0   0.0   0.0
0.0012125661118791411   -0.005364883185212374   0.0002703236838029457
-0.0020385136124729682   -0.0002460296921400259   0.00012676454151948997
0.0   0.0   0.0
-0.001517970981042456   -0.005431268861086786   0.00010727591855981413
-0.0014181399184524858   -0.005505541524895882   3.805731804578931e-05
-0.001775109542151734   -0.00045884198124065707   -1.2880643876149159e-05
-0.004216334971911988   -0.005587911084839093   -3.180034327101434e-05
-0.0014611406840118212   -0.005479218730074169   6.927617784738812e-05
-0.001775109542151734   -0.00045884198124065707   -1.2880643876149159e-05
-0.00434015913119591   -0.0006042359463306775   -9.133336698505745e-06
-0.004216334971911988   -0.005587911084839093   -3.180034327101434e-05
-0.00439525354072903   -0.0005498084600365803   7.164886508940648e-06
-0.0014611406840118212   -0.005479218730074169   6.927617784738812e-05
-0.004256210013989174   -0.00554690408709962   -9.572263008308851e-06
-0.00439525354072903   -0.0005498084600365803   7.164886508940648e-06
-0.004216334971911988   -0.005587911084839093   -3.180034327101434e-05
-0.0014611406840118212   -0.005479218730074169   6.927617784738812e-05
-0.00439525354072903   -0.0005498084600365803   7.164886508940648e-06
-0.0018813552508709624   -0.00035835904379991475   4.915841968897483e-05
-0.001775109542151734   -0.00045884198124065707   -1.2880643876149159e-05
-0.0014611406840118212   -0.005479218730074169   6.927617784738812e-05
-0.00439525354072903   -0.0005498084600365803   7.164886508940648e-06
-0.001775109542151734   -0.00045884198124065707   -1.2880643876149159e-05
-0.004216334971911988   -0.005587911084839093   -3.180034327101434e-05
-0.0014611406840118212   -0.005479218730074169   6.927617784738812e-05
-0.0018813552508709624   -0.00035835904379991475   4.915841968897483e-05
-0.004256210013989174   -0.00554690408709962   -9.572263008308851e-06
-0.001517970981042456   -0.005431268861086786   0.00010727591855981413
-0.0018813552508709624   -0.00035835904379991475   4.915841968897483e-05
-0.00439525354072903   -0.0005498084600365803   7.164886508940648e-06
-0.004256210013989174   -0.00554690408709962   -9.572263008308851e-06
-0.004450238446884468   -0.0004859958449787611   3.605973964858036e-05
-0.001517970981042456   -0.005431268861086786   0.00010727591855981413
-0.004298100481583386   -0.005500408978270403   1.4028603195044498e-05
-0.004450238446884468   -0.0004859958449787611   3.605973964858036e-05
-0.004256210013989174   -0.00554690408709962   -9.572263008308851e-06
-0.001517970981042456   -0.005431268861086786   0.00010727591855981413
-0.004450238446884468   -0.0004859958449787611   3.605973964858036e-05
-0.0019482989342368238   -0.0003101708378885888   8.526448720342583e-05
-0.0018813552508709624   -0.00035835904379991475   4.915841968897483e-05
-0.001517970981042456   -0.005431268861086786   0.00010727591855981413
-0.004450238446884468   -0.0004859958449787611   3.605973964858036e-05
-0.0018813552508709624   -0.00035835904379991475   4.915841968897483e-05
-0.004256210013989174   -0.00554690408709962   -9.572263008308851e-06
-0.001517970981042456   -0.005431268861086786   0.00010727591855981413
-0.0019482989342368238   -0.0003101708378885888   8.526448720342583e-05
-0.004298100481583386   -0.005500408978270403   1.4028603195044498e-05
-0.0015658893702408527   -0.005379904508277444   0.00014070752898162912
-0.0019482989342368238   -0.0003101708378885888   8.526448720342583e-05
-0.004450238446884468   -0.0004859958449787611   3.605973964858036e-05
-0.004298100481583386   -0.005500408978270403   1.4028603195044498e-05
-0.004511601802209629   -0.0004119223290873343   6.391348376495363e-05
-0.0015658893702408527   -0.005379904508277444   0.00014070752898162912
-0.004338043175466414   -0.005449448066473802   4.0102200802376026e-05
-0.004511601802209629   -0.0004119223290873343   6.391348376495363e-05
-0.004298100481583386   -0.005500408978270403   1.4028603195044498e-05
-0.0015658893702408527   -0.005379904508277444   0.00014070752898162912
-0.004511601802209629   -0.0004119223290873343   6.391348376495363e-05
-0.0020385136124729682   -0.0002460296921400259   0.00012676454151948997
-0.0019482989342368238   -0.0003101708378885888   8.526448720342583e-05
-0.0015658893702408527   -0.005379904508277444   0.00014070752898162912
-0.004511601802209629   -0.0004119223290873343   6.391348376495363e-05
-0.0019482989342368238   -0.0003101708378885888   8.526448720342583e-05
-0.004298100481583386   -0.005500408978270403   1.4028603195044498e-05
-0.004216334971911988   -0.005587911084839093   -3.180034327101434e-05
-0.00434015913119591   -0.0006042359463306775   -9.133336698505745e-06
-0.007081428646110477   -0.0056522840600755275   -0.00010971322760562147
-0.004256210013989174   -0.00554690408709962   -9.572263008308851e-06
-0.00434015913119591   -0.0006042359463306775   -9.133336698505745e-06
-0.007150836900805453   -0.0006466399002435466   -5.734479493450732e-05
-0.007081428646110477   -0.0056522840600755275   -0.00010971322760562147
-0.007184454934571793   -0.0006047277617087934   -5.266241159604988e-05
-0.004256210013989174   -0.00554690408709962   -9.572263008308851e-06
-0.007117365310938241   -0.005610126971177683   -9.239491667807857e-05
-0.007184454934571793   -0.0006047277617087934   -5.266241159604988e-05
-0.007081428646110477   -0.0056522840600755275   -0.00010971322760562147
-0.004256210013989174   -0.00554690408709962   -9.572263008308851e-06
-0.007184454934571793   -0.0006047277617087934   -5.266241159604988e-05
-0.00439525354072903   -0.0005498084600365803   7.164886508940648e-06
-0.00434015913119591   -0.0006042359463306775   -9.133336698505745e-06
-0.004256210013989174   -0.00554690408709962   -9.572263008308851e-06
-0.007184454934571793   -0.0006047277617087934   -5.266241159604988e-05
-0.00434015913119591   -0.0006042359463306775   -9.133336698505745e-06
-0.007081428646110477   -0.0056522840600755275   -0.00010971322760562147
-0.004256210013989174   -0.00554690408709962   -9.572263008308851e-06
-0.00439525354072903   -0.0005498084600365803   7.164886508940648e-06
-0.007117365310938241   -0.005610126971177683   -9.239491667807857e-05
-0.004298100481583386   -0.005500408978270403   1.4028603195044498e-05
-0.00439525354072903   -0.0005498084600365803   7.164886508940648e-06
-0.007184454934571793   -0.0006047277617087934   -5.266241159604988e-05
-0.007117365310938241   -0.005610126971177683   -9.239491667807857e-05
-0.007219445345301468   -0.0005558187124197742   -4.4541240998915166e-05
-0.004298100481583386   -0.005500408978270403   1.4028603195044498e-05
-0.00715184925221233   -0.00556551598894512   -7.507832394433142e-05
-0.007219445345301468   -0.0005558187124197742   -4.4541240998915166e-05
-0.007117365310938241   -0.005610126971177683   -9.239491667807857e-05
-0.004298100481583386   -0.005500408978270403   1.4028603195044498e-05
-0.007219445345301468   -0.0005558187124197742   -4.4541240998915166e-05
-0.004450238446884468   -0.0004859958449787611   3.605973964858036e-05
-0.00439525354072903   -0.0005498084600365803   7.164886508940648e-06
-0.004298100481583386   -0.005500408978270403   1.4028603195044498e-05
-0.007219445345301468   -0.0005558187124197742   -4.4541240998915166e-05
-0.00439525354072903   -0.0005498084600365803   7.164886508940648e-06
-0.007117365310938241   -0.005610126971177683   -9.239491667807857e-05
-0.004298100481583386   -0.005500408978270403   1.4028603195044498e-05
-0.004450238446884468   -0.0004859958449787611   3.605973964858036e-05
-0.00715184925221233   -0.00556551598894512   -7.507832394433142e-05
-0.004338043175466414   -0.005449448066473802   4.0102200802376026e-05
-0.004450238446884468   -0.0004859958449787611   3.605973964858036e-05
-0.007219445345301468   -0.0005558187124197742   -4.4541240998915166e-05
-0.00715184925221233   -0.00556551598894512   -7.507832394433142e-05
-0.007253039354033283   -0.0004958734986477043   -3.379468151089111e-05
-0.004338043175466414   -0.005449448066473802   4.0102200802376026e-05
-0.00718370544978976   -0.0055171484629957775   -5.616794423060583e-05
-0.007253039354033283   -0.0004958734986477043   -3.379468151089111e-05
-0.00715184925221233   -0.00556551598894512   -7.507832394433142e-05
-0.004338043175466414   -0.005449448066473802   4.0102200802376026e-05
-0.007253039354033283   -0.0004958734986477043   -3.379468151089111e-05
-0.004511601802209629   -0.0004119223290873343   6.391348376495363e-05
-0.004450238446884468   -0.0004859958449787611   3.605973964858036e-05
-0.004338043175466414   -0.005449448066473802   4.0102200802376026e-05
-0.007253039354033283   -0.0004958734986477043   -3.379468151089111e-05
-0.004450238446884468   -0.0004859958449787611   3.605973964858036e-05
-0.00715184925221233   -0.00556551598894512   -7.507832394433142e-05
-0.007081428646110477   -0.0056522840600755275   -0.00010971322760562147
-0.007150836900805453   -0.0006466399002435466   -5.734479493450732e-05
-0.010047212153852413   -0.005678785911757593   -0.00018152628075003988
-0.007117365310938241   -0.005610126971177683   -9.239491667807857e-05
-0.007150836900805453   -0.0006466399002435466   -5.734479493450732e-05
-0.010099500411806024   -0.0006413797598940926   -0.00012804729763090387
-0.010047212153852413   -0.005678785911757593   -0.00018152628075003988
-0.010122255897168241   -0.0006041126702323465   -0.000126017260192333
-0.007117365310938241   -0.005610126971177683   -9.239491667807857e-05
-0.010079615091415518   -0.005641068064091693   -0.00016882466925599704
-0.010122255897168241   -0.0006041126702323465   -0.000126017260192333
-0.010047212153852413   -0.005678785911757593   -0.00018152628075003988
-0.007117365310938241   -0.005610126971177683   -9.239491667807857e-05
-0.010122255897168241   -0.0006041126702323465   -0.000126017260192333
-0.007184454934571793   -0.0006047277617087934   -5.266241159604988e-05
-0.007150836900805453   -0.0006466399002435466   -5.734479493450732e-05
-0.007117365310938241   -0.005610126971177683   -9.239491667807857e-05
-0.010122255897168241   -0.0006041126702323465   -0.000126017260192333
-0.007150836900805453   -0.0006466399002435466   -5.734479493450732e-05
-0.010047212153852413   -0.005678785911757593   -0.00018152628075003988
-0.007117365310938241   -0.005610126971177683   -9.239491667807857e-05
-0.007184454934571793   -0.0006047277617087934   -5.266241159604988e-05
-0.010079615091415518   -0.005641068064091693   -0.00016882466925599704
-0.00715184925221233   -0.00556551598894512   -7.507832394433142e-05
-0.007184454934571793   -0.0006047277617087934   -5.266241159604988e-05
-0.010122255897168241   -0.0006041126702323465   -0.000126017260192333
-0.010079615091415518   -0.005641068064091693   -0.00016882466925599704
-0.010145984916526534   -0.0005623782342150869   -0.00012446348323984794
-0.00715184925221233   -0.00556551598894512   -7.507832394433142e-05
-0.010108495036059024   -0.005599871079148829   -0.00015643518801047388
-0.010145984916526534   -0.0005623782342150869   -0.00012446348323984794
-0.010079615091415518   -0.005641068064091693   -0.00016882466925599704
-0.00715184925221233   -0.00556551598894512   -7.507832394433142e-05
-0.010145984916526534   -0.0005623782342150869   -0.00012446348323984794
-0.007219445345301468   -0.0005558187124197742   -4.4541240998915166e-05
-0.007184454934571793   -0.0006047277617087934   -5.266241159604988e-05
-0.00715184925221233   -0.00556551598894512   -7.507832394433142e-05
-0.010145984916526534   -0.0005623782342150869   -0.00012446348323984794
-0.007184454934571793   -0.0006047277617087934   -5.266241159604988e-05
-0.010079615091415518   -0.005641068064091693   -0.00016882466925599704
-0.00715184925221233   -0.00556551598894512   -7.507832394433142e-05
-0.007219445345301468   -0.0005558187124197742   -4.4541240998915166e-05
-0.010108495036059024   -0.005599871079148829   -0.00015643518801047388
-0.00718370544978976   -0.0055171484629957775   -5.616794423060583e-05
-0.007219445345301468   -0.0005558187124197742   -4.4541240998915166e-05
-0.010145984916526534   -0.0005623782342150869   -0.00012446348323984794
-0.010108495036059024   -0.005599871079148829   -0.00015643518801047388
-0.010164277323442805   -0.0005169321405259317   -0.0001234735773087511
-0.00718370544978976   -0.0055171484629957775   -5.616794423060583e-05
-0.01013466773462909   -0.005555960520848178   -0.00014361943073624213
-0.010164277323442805   -0.0005169321405259317   -0.0001234735773087511
-0.010108495036059024   -0.005599871079148829   -0.00015643518801047388
-0.00718370544978976   -0.0055171484629957775   -5.616794423060583e-05
-0.010164277323442805   -0.0005169321405259317   -0.0001234735773087511
-0.007253039354033283   -0.0004958734986477043   -3.379468151089111e-05
-0.007219445345301468   -0.0005558187124197742   -4.4541240998915166e-05
-0.00718370544978976   -0.0055171484629957775   -5.616794423060583e-05
-0.010164277323442805   -0.0005169321405259317   -0.0001234735773087511
-0.007219445345301468   -0.0005558187124197742   -4.4541240998915166e-05
-0.010108495036059024   -0.005599871079148829   -0.00015643518801047388
-0.010047212153852413   -0.005678785911757593   -0.00018152628075003988
-0.010099500411806024   -0.0006413797598940926   -0.00012804729763090387
-0.013120193124632284   -0.005681610233921929   -0.00024075875099354777
-0.010079615091415518   -0.005641068064091693   -0.00016882466925599704
-0.010099500411806024   -0.0006413797598940926   -0.00012804729763090387
-0.013130707571411425   -0.000637077727855802   -0.00019777707163720377
-0.013120193124632284   -0.005681610233921929   -0.00024075875099354777
-0.013148977965518024   -0.0005967451622267248   -0.0001976592260012983
-0.010079615091415518   -0.005641068064091693   -0.00016882466925599704
-0.013147908049868316   -0.005645065024461533   -0.00023515737327077014
-0.013148977965518024   -0.0005967451622267248   -0.0001976592260012983
-0.013120193124632284   -0.005681610233921929   -0.00024075875099354777
-0.010079615091415518   -0.005641068064091693   -0.00016882466925599704
-0.013148977965518024   -0.0005967451622267248   -0.0001976592260012983
-0.010122255897168241   -0.0006041126702323465   -0.000126017260192333
-0.010099500411806024   -0.0006413797598940926   -0.00012804729763090387
-0.010079615091415518   -0.005641068064091693   -0.00016882466925599704
-0.013148977965518024   -0.0005967451622267248   -0.0001976592260012983
-0.010099500411806024   -0.0006413797598940926   -0.00012804729763090387
-0.013120193124632284   -0.005681610233921929   -0.00024075875099354777
-0.010079615091415518   -0.005641068064091693   -0.00016882466925599704
-0.010122255897168241   -0.0006041126702323465   -0.000126017260192333
-0.013147908049868316   -0.005645065024461533   -0.00023515737327077014
-0.010108495036059024   -0.005599871079148829   -0.00015643518801047388
-0.010122255897168241   -0.0006041126702323465   -0.000126017260192333
-0.013148977965518024   -0.0005967451622267248   -0.0001976592260012983
-0.013147908049868316   -0.005645065024461533   -0.00023515737327077014
-0.013169010742752604   -0.000556280257624559   -0.00020069760038212944
-0.010108495036059024   -0.005599871079148829   -0.00015643518801047388
-0.013172738353395245   -0.0056054358338918754   -0.00022857876493048712
-0.013169010742752604   -0.000556280257624559   -0.00020069760038212944
-0.013147908049868316   -0.005645065024461533   -0.00023515737327077014
-0.010108495036059024   -0.005599871079148829   -0.00015643518801047388
-0.013169010742752604   -0.000556280257624559   -0.00020069760038212944
-0.010145984916526534   -0.0005623782342150869   -0.00012446348323984794
-0.010122255897168241   -0.0006041126702323465   -0.000126017260192333
-0.010108495036059024   -0.005599871079148829   -0.00015643518801047388
-0.013169010742752604   -0.000556280257624559   -0.00020069760038212944
-0.010122255897168241   -0.0006041126702323465   -0.000126017260192333
-0.013147908049868316   -0.005645065024461533   -0.00023515737327077014
-0.010108495036059024   -0.005599871079148829   -0.00015643518801047388
-0.010145984916526534   -0.0005623782342150869   -0.00012446348323984794
-0.013172738353395245   -0.0056054358338918754   -0.00022857876493048712
-0.01013466773462909   -0.005555960520848178   -0.00014361943073624213
-0.010145984916526534   -0.0005623782342150869   -0.00012446348323984794
-0.013169010742752604   -0.000556280257624559   -0.00020069760038212944
-0.013172738353395245   -0.0056054358338918754   -0.00022857876493048712
-0.013183857930578668   -0.0005121050088163205   -0.00020388759594368262
-0.01013466773462909   -0.005555960520848178   -0.00014361943073624213
-0.013193456759521554   -0.0055634944385093985   -0.00022236598218571007
-0.013183857930578668   -0.0005121050088163205   -0.00020388759594368262
-0.013172738353395245   -0.0056054358338918754   -0.00022857876493048712
-0.01013466773462909   -0.005555960520848178   -0.00014361943073624213
-0.013183857930578668   -0.0005121050088163205   -0.00020388759594368262
-0.010164277323442805   -0.0005169321405259317   -0.0001234735773087511
-0.010145984916526534   -0.0005623782342150869   -0.00012446348323984794
-0.01013466773462909   -0.005555960520848178   -0.00014361943073624213
-0.013183857930578668   -0.0005121050088163205   -0.00020388759594368262
-0.010145984916526534   -0.0005623782342150869   -0.00012446348323984794
-0.013172738353395245   -0.0056054358338918754   -0.00022857876493048712
              </DataArray>   
          </PointData>  
       </Piece>  
   </UnstructuredGrid> 
</VTKFile> 
