<?xml version="1.0"?> 
<VTKFile type="UnstructuredGrid"> 
   <UnstructuredGrid> 
      <Piece NumberOfPoints="6000"  NumberOfCells="1500">  
          <Points>  
             <DataArray type="Float64" NumberOfComponents="3" format="ascii">   
-500.0   0.0   0.0
-450.0   0.0   0.0
-500.0   30.0   0.0
-500.0   0.0   16.666666666666668
-450.0   0.0   0.0
-450.0   30.0   0.0
-500.0   30.0   0.0
-450.0   30.0   16.666666666666668
-500.0   0.0   16.666666666666668
-500.0   30.0   16.666666666666668
-450.0   30.0   16.666666666666668
-500.0   30.0   0.0
-500.0   0.0   16.666666666666668
-450.0   30.0   16.666666666666668
-450.0   0.0   16.666666666666668
-450.0   0.0   0.0
-500.0   0.0   16.666666666666668
-450.0   30.0   16.666666666666668
-450.0   0.0   0.0
-500.0   30.0   0.0
-500.0   0.0   16.666666666666668
-450.0   0.0   16.666666666666668
-500.0   30.0   16.666666666666668
-500.0   0.0   33.333333333333336
-450.0   0.0   16.666666666666668
-450.0   30.0   16.666666666666668
-500.0   30.0   16.666666666666668
-450.0   30.0   33.333333333333336
-500.0   0.0   33.333333333333336
-500.0   30.0   33.333333333333336
-450.0   30.0   33.333333333333336
-500.0   30.0   16.666666666666668
-500.0   0.0   33.333333333333336
-450.0   30.0   33.333333333333336
-450.0   0.0   33.333333333333336
-450.0   0.0   16.666666666666668
-500.0   0.0   33.333333333333336
-450.0   30.0   33.333333333333336
-450.0   0.0   16.666666666666668
-500.0   30.0   16.666666666666668
-500.0   0.0   33.333333333333336
-450.0   0.0   33.333333333333336
-500.0   30.0   33.333333333333336
-500.0   0.0   50.0
-450.0   0.0   33.333333333333336
-450.0   30.0   33.333333333333336
-500.0   30.0   33.333333333333336
-450.0   30.0   50.0
-500.0   0.0   50.0
-500.0   30.0   50.0
-450.0   30.0   50.0
-500.0   30.0   33.333333333333336
-500.0   0.0   50.0
-450.0   30.0   50.0
-450.0   0.0   50.0
-450.0   0.0   33.333333333333336
-500.0   0.0   50.0
-450.0   30.0   50.0
-450.0   0.0   33.333333333333336
-500.0   30.0   33.333333333333336
-500.0   30.0   0.0
-450.0   30.0   0.0
-500.0   60.0   0.0
-500.0   30.0   16.666666666666668
-450.0   30.0   0.0
-450.0   60.0   0.0
-500.0   60.0   0.0
-450.0   60.0   16.666666666666668
-500.0   30.0   16.666666666666668
-500.0   60.0   16.666666666666668
-450.0   60.0   16.666666666666668
-500.0   60.0   0.0
-500.0   30.0   16.666666666666668
-450.0   60.0   16.666666666666668
-450.0   30.0   16.666666666666668
-450.0   30.0   0.0
-500.0   30.0   16.666666666666668
-450.0   60.0   16.666666666666668
-450.0   30.0   0.0
-500.0   60.0   0.0
-500.0   30.0   16.666666666666668
-450.0   30.0   16.666666666666668
-500.0   60.0   16.666666666666668
-500.0   30.0   33.333333333333336
-450.0   30.0   16.666666666666668
-450.0   60.0   16.666666666666668
-500.0   60.0   16.666666666666668
-450.0   60.0   33.333333333333336
-500.0   30.0   33.333333333333336
-500.0   60.0   33.333333333333336
-450.0   60.0   33.333333333333336
-500.0   60.0   16.666666666666668
-500.0   30.0   33.333333333333336
-450.0   60.0   33.333333333333336
-450.0   30.0   33.333333333333336
-450.0   30.0   16.666666666666668
-500.0   30.0   33.333333333333336
-450.0   60.0   33.333333333333336
-450.0   30.0   16.666666666666668
-500.0   60.0   16.666666666666668
-500.0   30.0   33.333333333333336
-450.0   30.0   33.333333333333336
-500.0   60.0   33.333333333333336
-500.0   30.0   50.0
-450.0   30.0   33.333333333333336
-450.0   60.0   33.333333333333336
-500.0   60.0   33.333333333333336
-450.0   60.0   50.0
-500.0   30.0   50.0
-500.0   60.0   50.0
-450.0   60.0   50.0
-500.0   60.0   33.333333333333336
-500.0   30.0   50.0
-450.0   60.0   50.0
-450.0   30.0   50.0
-450.0   30.0   33.333333333333336
-500.0   30.0   50.0
-450.0   60.0   50.0
-450.0   30.0   33.333333333333336
-500.0   60.0   33.333333333333336
-500.0   60.0   0.0
-450.0   60.0   0.0
-500.0   90.0   0.0
-500.0   60.0   16.666666666666668
-450.0   60.0   0.0
-450.0   90.0   0.0
-500.0   90.0   0.0
-450.0   90.0   16.666666666666668
-500.0   60.0   16.666666666666668
-500.0   90.0   16.666666666666668
-450.0   90.0   16.666666666666668
-500.0   90.0   0.0
-500.0   60.0   16.666666666666668
-450.0   90.0   16.666666666666668
-450.0   60.0   16.666666666666668
-450.0   60.0   0.0
-500.0   60.0   16.666666666666668
-450.0   90.0   16.666666666666668
-450.0   60.0   0.0
-500.0   90.0   0.0
-500.0   60.0   16.666666666666668
-450.0   60.0   16.666666666666668
-500.0   90.0   16.666666666666668
-500.0   60.0   33.333333333333336
-450.0   60.0   16.666666666666668
-450.0   90.0   16.666666666666668
-500.0   90.0   16.666666666666668
-450.0   90.0   33.333333333333336
-500.0   60.0   33.333333333333336
-500.0   90.0   33.333333333333336
-450.0   90.0   33.333333333333336
-500.0   90.0   16.666666666666668
-500.0   60.0   33.333333333333336
-450.0   90.0   33.333333333333336
-450.0   60.0   33.333333333333336
-450.0   60.0   16.666666666666668
-500.0   60.0   33.333333333333336
-450.0   90.0   33.333333333333336
-450.0   60.0   16.666666666666668
-500.0   90.0   16.666666666666668
-500.0   60.0   33.333333333333336
-450.0   60.0   33.333333333333336
-500.0   90.0   33.333333333333336
-500.0   60.0   50.0
-450.0   60.0   33.333333333333336
-450.0   90.0   33.333333333333336
-500.0   90.0   33.333333333333336
-450.0   90.0   50.0
-500.0   60.0   50.0
-500.0   90.0   50.0
-450.0   90.0   50.0
-500.0   90.0   33.333333333333336
-500.0   60.0   50.0
-450.0   90.0   50.0
-450.0   60.0   50.0
-450.0   60.0   33.333333333333336
-500.0   60.0   50.0
-450.0   90.0   50.0
-450.0   60.0   33.333333333333336
-500.0   90.0   33.333333333333336
-500.0   90.0   0.0
-450.0   90.0   0.0
-500.0   120.0   0.0
-500.0   90.0   16.666666666666668
-450.0   90.0   0.0
-450.0   120.0   0.0
-500.0   120.0   0.0
-450.0   120.0   16.666666666666668
-500.0   90.0   16.666666666666668
-500.0   120.0   16.666666666666668
-450.0   120.0   16.666666666666668
-500.0   120.0   0.0
-500.0   90.0   16.666666666666668
-450.0   120.0   16.666666666666668
-450.0   90.0   16.666666666666668
-450.0   90.0   0.0
-500.0   90.0   16.666666666666668
-450.0   120.0   16.666666666666668
-450.0   90.0   0.0
-500.0   120.0   0.0
-500.0   90.0   16.666666666666668
-450.0   90.0   16.666666666666668
-500.0   120.0   16.666666666666668
-500.0   90.0   33.333333333333336
-450.0   90.0   16.666666666666668
-450.0   120.0   16.666666666666668
-500.0   120.0   16.666666666666668
-450.0   120.0   33.333333333333336
-500.0   90.0   33.333333333333336
-500.0   120.0   33.333333333333336
-450.0   120.0   33.333333333333336
-500.0   120.0   16.666666666666668
-500.0   90.0   33.333333333333336
-450.0   120.0   33.333333333333336
-450.0   90.0   33.333333333333336
-450.0   90.0   16.666666666666668
-500.0   90.0   33.333333333333336
-450.0   120.0   33.333333333333336
-450.0   90.0   16.666666666666668
-500.0   120.0   16.666666666666668
-500.0   90.0   33.333333333333336
-450.0   90.0   33.333333333333336
-500.0   120.0   33.333333333333336
-500.0   90.0   50.0
-450.0   90.0   33.333333333333336
-450.0   120.0   33.333333333333336
-500.0   120.0   33.333333333333336
-450.0   120.0   50.0
-500.0   90.0   50.0
-500.0   120.0   50.0
-450.0   120.0   50.0
-500.0   120.0   33.333333333333336
-500.0   90.0   50.0
-450.0   120.0   50.0
-450.0   90.0   50.0
-450.0   90.0   33.333333333333336
-500.0   90.0   50.0
-450.0   120.0   50.0
-450.0   90.0   33.333333333333336
-500.0   120.0   33.333333333333336
-500.0   120.0   0.0
-450.0   120.0   0.0
-500.0   150.0   0.0
-500.0   120.0   16.666666666666668
-450.0   120.0   0.0
-450.0   150.0   0.0
-500.0   150.0   0.0
-450.0   150.0   16.666666666666668
-500.0   120.0   16.666666666666668
-500.0   150.0   16.666666666666668
-450.0   150.0   16.666666666666668
-500.0   150.0   0.0
-500.0   120.0   16.666666666666668
-450.0   150.0   16.666666666666668
-450.0   120.0   16.666666666666668
-450.0   120.0   0.0
-500.0   120.0   16.666666666666668
-450.0   150.0   16.666666666666668
-450.0   120.0   0.0
-500.0   150.0   0.0
-500.0   120.0   16.666666666666668
-450.0   120.0   16.666666666666668
-500.0   150.0   16.666666666666668
-500.0   120.0   33.333333333333336
-450.0   120.0   16.666666666666668
-450.0   150.0   16.666666666666668
-500.0   150.0   16.666666666666668
-450.0   150.0   33.333333333333336
-500.0   120.0   33.333333333333336
-500.0   150.0   33.333333333333336
-450.0   150.0   33.333333333333336
-500.0   150.0   16.666666666666668
-500.0   120.0   33.333333333333336
-450.0   150.0   33.333333333333336
-450.0   120.0   33.333333333333336
-450.0   120.0   16.666666666666668
-500.0   120.0   33.333333333333336
-450.0   150.0   33.333333333333336
-450.0   120.0   16.666666666666668
-500.0   150.0   16.666666666666668
-500.0   120.0   33.333333333333336
-450.0   120.0   33.333333333333336
-500.0   150.0   33.333333333333336
-500.0   120.0   50.0
-450.0   120.0   33.333333333333336
-450.0   150.0   33.333333333333336
-500.0   150.0   33.333333333333336
-450.0   150.0   50.0
-500.0   120.0   50.0
-500.0   150.0   50.0
-450.0   150.0   50.0
-500.0   150.0   33.333333333333336
-500.0   120.0   50.0
-450.0   150.0   50.0
-450.0   120.0   50.0
-450.0   120.0   33.333333333333336
-500.0   120.0   50.0
-450.0   150.0   50.0
-450.0   120.0   33.333333333333336
-500.0   150.0   33.333333333333336
-450.0   0.0   0.0
-400.0   0.0   0.0
-450.0   30.0   0.0
-450.0   0.0   16.666666666666668
-400.0   0.0   0.0
-400.0   30.0   0.0
-450.0   30.0   0.0
-400.0   30.0   16.666666666666668
-450.0   0.0   16.666666666666668
-450.0   30.0   16.666666666666668
-400.0   30.0   16.666666666666668
-450.0   30.0   0.0
-450.0   0.0   16.666666666666668
-400.0   30.0   16.666666666666668
-400.0   0.0   16.666666666666668
-400.0   0.0   0.0
-450.0   0.0   16.666666666666668
-400.0   30.0   16.666666666666668
-400.0   0.0   0.0
-450.0   30.0   0.0
-450.0   0.0   16.666666666666668
-400.0   0.0   16.666666666666668
-450.0   30.0   16.666666666666668
-450.0   0.0   33.333333333333336
-400.0   0.0   16.666666666666668
-400.0   30.0   16.666666666666668
-450.0   30.0   16.666666666666668
-400.0   30.0   33.333333333333336
-450.0   0.0   33.333333333333336
-450.0   30.0   33.333333333333336
-400.0   30.0   33.333333333333336
-450.0   30.0   16.666666666666668
-450.0   0.0   33.333333333333336
-400.0   30.0   33.333333333333336
-400.0   0.0   33.333333333333336
-400.0   0.0   16.666666666666668
-450.0   0.0   33.333333333333336
-400.0   30.0   33.333333333333336
-400.0   0.0   16.666666666666668
-450.0   30.0   16.666666666666668
-450.0   0.0   33.333333333333336
-400.0   0.0   33.333333333333336
-450.0   30.0   33.333333333333336
-450.0   0.0   50.0
-400.0   0.0   33.333333333333336
-400.0   30.0   33.333333333333336
-450.0   30.0   33.333333333333336
-400.0   30.0   50.0
-450.0   0.0   50.0
-450.0   30.0   50.0
-400.0   30.0   50.0
-450.0   30.0   33.333333333333336
-450.0   0.0   50.0
-400.0   30.0   50.0
-400.0   0.0   50.0
-400.0   0.0   33.333333333333336
-450.0   0.0   50.0
-400.0   30.0   50.0
-400.0   0.0   33.333333333333336
-450.0   30.0   33.333333333333336
-450.0   30.0   0.0
-400.0   30.0   0.0
-450.0   60.0   0.0
-450.0   30.0   16.666666666666668
-400.0   30.0   0.0
-400.0   60.0   0.0
-450.0   60.0   0.0
-400.0   60.0   16.666666666666668
-450.0   30.0   16.666666666666668
-450.0   60.0   16.666666666666668
-400.0   60.0   16.666666666666668
-450.0   60.0   0.0
-450.0   30.0   16.666666666666668
-400.0   60.0   16.666666666666668
-400.0   30.0   16.666666666666668
-400.0   30.0   0.0
-450.0   30.0   16.666666666666668
-400.0   60.0   16.666666666666668
-400.0   30.0   0.0
-450.0   60.0   0.0
-450.0   30.0   16.666666666666668
-400.0   30.0   16.666666666666668
-450.0   60.0   16.666666666666668
-450.0   30.0   33.333333333333336
-400.0   30.0   16.666666666666668
-400.0   60.0   16.666666666666668
-450.0   60.0   16.666666666666668
-400.0   60.0   33.333333333333336
-450.0   30.0   33.333333333333336
-450.0   60.0   33.333333333333336
-400.0   60.0   33.333333333333336
-450.0   60.0   16.666666666666668
-450.0   30.0   33.333333333333336
-400.0   60.0   33.333333333333336
-400.0   30.0   33.333333333333336
-400.0   30.0   16.666666666666668
-450.0   30.0   33.333333333333336
-400.0   60.0   33.333333333333336
-400.0   30.0   16.666666666666668
-450.0   60.0   16.666666666666668
-450.0   30.0   33.333333333333336
-400.0   30.0   33.333333333333336
-450.0   60.0   33.333333333333336
-450.0   30.0   50.0
-400.0   30.0   33.333333333333336
-400.0   60.0   33.333333333333336
-450.0   60.0   33.333333333333336
-400.0   60.0   50.0
-450.0   30.0   50.0
-450.0   60.0   50.0
-400.0   60.0   50.0
-450.0   60.0   33.333333333333336
-450.0   30.0   50.0
-400.0   60.0   50.0
-400.0   30.0   50.0
-400.0   30.0   33.333333333333336
-450.0   30.0   50.0
-400.0   60.0   50.0
-400.0   30.0   33.333333333333336
-450.0   60.0   33.333333333333336
-450.0   60.0   0.0
-400.0   60.0   0.0
-450.0   90.0   0.0
-450.0   60.0   16.666666666666668
-400.0   60.0   0.0
-400.0   90.0   0.0
-450.0   90.0   0.0
-400.0   90.0   16.666666666666668
-450.0   60.0   16.666666666666668
-450.0   90.0   16.666666666666668
-400.0   90.0   16.666666666666668
-450.0   90.0   0.0
-450.0   60.0   16.666666666666668
-400.0   90.0   16.666666666666668
-400.0   60.0   16.666666666666668
-400.0   60.0   0.0
-450.0   60.0   16.666666666666668
-400.0   90.0   16.666666666666668
-400.0   60.0   0.0
-450.0   90.0   0.0
-450.0   60.0   16.666666666666668
-400.0   60.0   16.666666666666668
-450.0   90.0   16.666666666666668
-450.0   60.0   33.333333333333336
-400.0   60.0   16.666666666666668
-400.0   90.0   16.666666666666668
-450.0   90.0   16.666666666666668
-400.0   90.0   33.333333333333336
-450.0   60.0   33.333333333333336
-450.0   90.0   33.333333333333336
-400.0   90.0   33.333333333333336
-450.0   90.0   16.666666666666668
-450.0   60.0   33.333333333333336
-400.0   90.0   33.333333333333336
-400.0   60.0   33.333333333333336
-400.0   60.0   16.666666666666668
-450.0   60.0   33.333333333333336
-400.0   90.0   33.333333333333336
-400.0   60.0   16.666666666666668
-450.0   90.0   16.666666666666668
-450.0   60.0   33.333333333333336
-400.0   60.0   33.333333333333336
-450.0   90.0   33.333333333333336
-450.0   60.0   50.0
-400.0   60.0   33.333333333333336
-400.0   90.0   33.333333333333336
-450.0   90.0   33.333333333333336
-400.0   90.0   50.0
-450.0   60.0   50.0
-450.0   90.0   50.0
-400.0   90.0   50.0
-450.0   90.0   33.333333333333336
-450.0   60.0   50.0
-400.0   90.0   50.0
-400.0   60.0   50.0
-400.0   60.0   33.333333333333336
-450.0   60.0   50.0
-400.0   90.0   50.0
-400.0   60.0   33.333333333333336
-450.0   90.0   33.333333333333336
-450.0   90.0   0.0
-400.0   90.0   0.0
-450.0   120.0   0.0
-450.0   90.0   16.666666666666668
-400.0   90.0   0.0
-400.0   120.0   0.0
-450.0   120.0   0.0
-400.0   120.0   16.666666666666668
-450.0   90.0   16.666666666666668
-450.0   120.0   16.666666666666668
-400.0   120.0   16.666666666666668
-450.0   120.0   0.0
-450.0   90.0   16.666666666666668
-400.0   120.0   16.666666666666668
-400.0   90.0   16.666666666666668
-400.0   90.0   0.0
-450.0   90.0   16.666666666666668
-400.0   120.0   16.666666666666668
-400.0   90.0   0.0
-450.0   120.0   0.0
-450.0   90.0   16.666666666666668
-400.0   90.0   16.666666666666668
-450.0   120.0   16.666666666666668
-450.0   90.0   33.333333333333336
-400.0   90.0   16.666666666666668
-400.0   120.0   16.666666666666668
-450.0   120.0   16.666666666666668
-400.0   120.0   33.333333333333336
-450.0   90.0   33.333333333333336
-450.0   120.0   33.333333333333336
-400.0   120.0   33.333333333333336
-450.0   120.0   16.666666666666668
-450.0   90.0   33.333333333333336
-400.0   120.0   33.333333333333336
-400.0   90.0   33.333333333333336
-400.0   90.0   16.666666666666668
-450.0   90.0   33.333333333333336
-400.0   120.0   33.333333333333336
-400.0   90.0   16.666666666666668
-450.0   120.0   16.666666666666668
-450.0   90.0   33.333333333333336
-400.0   90.0   33.333333333333336
-450.0   120.0   33.333333333333336
-450.0   90.0   50.0
-400.0   90.0   33.333333333333336
-400.0   120.0   33.333333333333336
-450.0   120.0   33.333333333333336
-400.0   120.0   50.0
-450.0   90.0   50.0
-450.0   120.0   50.0
-400.0   120.0   50.0
-450.0   120.0   33.333333333333336
-450.0   90.0   50.0
-400.0   120.0   50.0
-400.0   90.0   50.0
-400.0   90.0   33.333333333333336
-450.0   90.0   50.0
-400.0   120.0   50.0
-400.0   90.0   33.333333333333336
-450.0   120.0   33.333333333333336
-450.0   120.0   0.0
-400.0   120.0   0.0
-450.0   150.0   0.0
-450.0   120.0   16.666666666666668
-400.0   120.0   0.0
-400.0   150.0   0.0
-450.0   150.0   0.0
-400.0   150.0   16.666666666666668
-450.0   120.0   16.666666666666668
-450.0   150.0   16.666666666666668
-400.0   150.0   16.666666666666668
-450.0   150.0   0.0
-450.0   120.0   16.666666666666668
-400.0   150.0   16.666666666666668
-400.0   120.0   16.666666666666668
-400.0   120.0   0.0
-450.0   120.0   16.666666666666668
-400.0   150.0   16.666666666666668
-400.0   120.0   0.0
-450.0   150.0   0.0
-450.0   120.0   16.666666666666668
-400.0   120.0   16.666666666666668
-450.0   150.0   16.666666666666668
-450.0   120.0   33.333333333333336
-400.0   120.0   16.666666666666668
-400.0   150.0   16.666666666666668
-450.0   150.0   16.666666666666668
-400.0   150.0   33.333333333333336
-450.0   120.0   33.333333333333336
-450.0   150.0   33.333333333333336
-400.0   150.0   33.333333333333336
-450.0   150.0   16.666666666666668
-450.0   120.0   33.333333333333336
-400.0   150.0   33.333333333333336
-400.0   120.0   33.333333333333336
-400.0   120.0   16.666666666666668
-450.0   120.0   33.333333333333336
-400.0   150.0   33.333333333333336
-400.0   120.0   16.666666666666668
-450.0   150.0   16.666666666666668
-450.0   120.0   33.333333333333336
-400.0   120.0   33.333333333333336
-450.0   150.0   33.333333333333336
-450.0   120.0   50.0
-400.0   120.0   33.333333333333336
-400.0   150.0   33.333333333333336
-450.0   150.0   33.333333333333336
-400.0   150.0   50.0
-450.0   120.0   50.0
-450.0   150.0   50.0
-400.0   150.0   50.0
-450.0   150.0   33.333333333333336
-450.0   120.0   50.0
-400.0   150.0   50.0
-400.0   120.0   50.0
-400.0   120.0   33.333333333333336
-450.0   120.0   50.0
-400.0   150.0   50.0
-400.0   120.0   33.333333333333336
-450.0   150.0   33.333333333333336
-400.0   0.0   0.0
-350.0   0.0   0.0
-400.0   30.0   0.0
-400.0   0.0   16.666666666666668
-350.0   0.0   0.0
-350.0   30.0   0.0
-400.0   30.0   0.0
-350.0   30.0   16.666666666666668
-400.0   0.0   16.666666666666668
-400.0   30.0   16.666666666666668
-350.0   30.0   16.666666666666668
-400.0   30.0   0.0
-400.0   0.0   16.666666666666668
-350.0   30.0   16.666666666666668
-350.0   0.0   16.666666666666668
-350.0   0.0   0.0
-400.0   0.0   16.666666666666668
-350.0   30.0   16.666666666666668
-350.0   0.0   0.0
-400.0   30.0   0.0
-400.0   0.0   16.666666666666668
-350.0   0.0   16.666666666666668
-400.0   30.0   16.666666666666668
-400.0   0.0   33.333333333333336
-350.0   0.0   16.666666666666668
-350.0   30.0   16.666666666666668
-400.0   30.0   16.666666666666668
-350.0   30.0   33.333333333333336
-400.0   0.0   33.333333333333336
-400.0   30.0   33.333333333333336
-350.0   30.0   33.333333333333336
-400.0   30.0   16.666666666666668
-400.0   0.0   33.333333333333336
-350.0   30.0   33.333333333333336
-350.0   0.0   33.333333333333336
-350.0   0.0   16.666666666666668
-400.0   0.0   33.333333333333336
-350.0   30.0   33.333333333333336
-350.0   0.0   16.666666666666668
-400.0   30.0   16.666666666666668
-400.0   0.0   33.333333333333336
-350.0   0.0   33.333333333333336
-400.0   30.0   33.333333333333336
-400.0   0.0   50.0
-350.0   0.0   33.333333333333336
-350.0   30.0   33.333333333333336
-400.0   30.0   33.333333333333336
-350.0   30.0   50.0
-400.0   0.0   50.0
-400.0   30.0   50.0
-350.0   30.0   50.0
-400.0   30.0   33.333333333333336
-400.0   0.0   50.0
-350.0   30.0   50.0
-350.0   0.0   50.0
-350.0   0.0   33.333333333333336
-400.0   0.0   50.0
-350.0   30.0   50.0
-350.0   0.0   33.333333333333336
-400.0   30.0   33.333333333333336
-400.0   30.0   0.0
-350.0   30.0   0.0
-400.0   60.0   0.0
-400.0   30.0   16.666666666666668
-350.0   30.0   0.0
-350.0   60.0   0.0
-400.0   60.0   0.0
-350.0   60.0   16.666666666666668
-400.0   30.0   16.666666666666668
-400.0   60.0   16.666666666666668
-350.0   60.0   16.666666666666668
-400.0   60.0   0.0
-400.0   30.0   16.666666666666668
-350.0   60.0   16.666666666666668
-350.0   30.0   16.666666666666668
-350.0   30.0   0.0
-400.0   30.0   16.666666666666668
-350.0   60.0   16.666666666666668
-350.0   30.0   0.0
-400.0   60.0   0.0
-400.0   30.0   16.666666666666668
-350.0   30.0   16.666666666666668
-400.0   60.0   16.666666666666668
-400.0   30.0   33.333333333333336
-350.0   30.0   16.666666666666668
-350.0   60.0   16.666666666666668
-400.0   60.0   16.666666666666668
-350.0   60.0   33.333333333333336
-400.0   30.0   33.333333333333336
-400.0   60.0   33.333333333333336
-350.0   60.0   33.333333333333336
-400.0   60.0   16.666666666666668
-400.0   30.0   33.333333333333336
-350.0   60.0   33.333333333333336
-350.0   30.0   33.333333333333336
-350.0   30.0   16.666666666666668
-400.0   30.0   33.333333333333336
-350.0   60.0   33.333333333333336
-350.0   30.0   16.666666666666668
-400.0   60.0   16.666666666666668
-400.0   30.0   33.333333333333336
-350.0   30.0   33.333333333333336
-400.0   60.0   33.333333333333336
-400.0   30.0   50.0
-350.0   30.0   33.333333333333336
-350.0   60.0   33.333333333333336
-400.0   60.0   33.333333333333336
-350.0   60.0   50.0
-400.0   30.0   50.0
-400.0   60.0   50.0
-350.0   60.0   50.0
-400.0   60.0   33.333333333333336
-400.0   30.0   50.0
-350.0   60.0   50.0
-350.0   30.0   50.0
-350.0   30.0   33.333333333333336
-400.0   30.0   50.0
-350.0   60.0   50.0
-350.0   30.0   33.333333333333336
-400.0   60.0   33.333333333333336
-400.0   60.0   0.0
-350.0   60.0   0.0
-400.0   90.0   0.0
-400.0   60.0   16.666666666666668
-350.0   60.0   0.0
-350.0   90.0   0.0
-400.0   90.0   0.0
-350.0   90.0   16.666666666666668
-400.0   60.0   16.666666666666668
-400.0   90.0   16.666666666666668
-350.0   90.0   16.666666666666668
-400.0   90.0   0.0
-400.0   60.0   16.666666666666668
-350.0   90.0   16.666666666666668
-350.0   60.0   16.666666666666668
-350.0   60.0   0.0
-400.0   60.0   16.666666666666668
-350.0   90.0   16.666666666666668
-350.0   60.0   0.0
-400.0   90.0   0.0
-400.0   60.0   16.666666666666668
-350.0   60.0   16.666666666666668
-400.0   90.0   16.666666666666668
-400.0   60.0   33.333333333333336
-350.0   60.0   16.666666666666668
-350.0   90.0   16.666666666666668
-400.0   90.0   16.666666666666668
-350.0   90.0   33.333333333333336
-400.0   60.0   33.333333333333336
-400.0   90.0   33.333333333333336
-350.0   90.0   33.333333333333336
-400.0   90.0   16.666666666666668
-400.0   60.0   33.333333333333336
-350.0   90.0   33.333333333333336
-350.0   60.0   33.333333333333336
-350.0   60.0   16.666666666666668
-400.0   60.0   33.333333333333336
-350.0   90.0   33.333333333333336
-350.0   60.0   16.666666666666668
-400.0   90.0   16.666666666666668
-400.0   60.0   33.333333333333336
-350.0   60.0   33.333333333333336
-400.0   90.0   33.333333333333336
-400.0   60.0   50.0
-350.0   60.0   33.333333333333336
-350.0   90.0   33.333333333333336
-400.0   90.0   33.333333333333336
-350.0   90.0   50.0
-400.0   60.0   50.0
-400.0   90.0   50.0
-350.0   90.0   50.0
-400.0   90.0   33.333333333333336
-400.0   60.0   50.0
-350.0   90.0   50.0
-350.0   60.0   50.0
-350.0   60.0   33.333333333333336
-400.0   60.0   50.0
-350.0   90.0   50.0
-350.0   60.0   33.333333333333336
-400.0   90.0   33.333333333333336
-400.0   90.0   0.0
-350.0   90.0   0.0
-400.0   120.0   0.0
-400.0   90.0   16.666666666666668
-350.0   90.0   0.0
-350.0   120.0   0.0
-400.0   120.0   0.0
-350.0   120.0   16.666666666666668
-400.0   90.0   16.666666666666668
-400.0   120.0   16.666666666666668
-350.0   120.0   16.666666666666668
-400.0   120.0   0.0
-400.0   90.0   16.666666666666668
-350.0   120.0   16.666666666666668
-350.0   90.0   16.666666666666668
-350.0   90.0   0.0
-400.0   90.0   16.666666666666668
-350.0   120.0   16.666666666666668
-350.0   90.0   0.0
-400.0   120.0   0.0
-400.0   90.0   16.666666666666668
-350.0   90.0   16.666666666666668
-400.0   120.0   16.666666666666668
-400.0   90.0   33.333333333333336
-350.0   90.0   16.666666666666668
-350.0   120.0   16.666666666666668
-400.0   120.0   16.666666666666668
-350.0   120.0   33.333333333333336
-400.0   90.0   33.333333333333336
-400.0   120.0   33.333333333333336
-350.0   120.0   33.333333333333336
-400.0   120.0   16.666666666666668
-400.0   90.0   33.333333333333336
-350.0   120.0   33.333333333333336
-350.0   90.0   33.333333333333336
-350.0   90.0   16.666666666666668
-400.0   90.0   33.333333333333336
-350.0   120.0   33.333333333333336
-350.0   90.0   16.666666666666668
-400.0   120.0   16.666666666666668
-400.0   90.0   33.333333333333336
-350.0   90.0   33.333333333333336
-400.0   120.0   33.333333333333336
-400.0   90.0   50.0
-350.0   90.0   33.333333333333336
-350.0   120.0   33.333333333333336
-400.0   120.0   33.333333333333336
-350.0   120.0   50.0
-400.0   90.0   50.0
-400.0   120.0   50.0
-350.0   120.0   50.0
-400.0   120.0   33.333333333333336
-400.0   90.0   50.0
-350.0   120.0   50.0
-350.0   90.0   50.0
-350.0   90.0   33.333333333333336
-400.0   90.0   50.0
-350.0   120.0   50.0
-350.0   90.0   33.333333333333336
-400.0   120.0   33.333333333333336
-400.0   120.0   0.0
-350.0   120.0   0.0
-400.0   150.0   0.0
-400.0   120.0   16.666666666666668
-350.0   120.0   0.0
-350.0   150.0   0.0
-400.0   150.0   0.0
-350.0   150.0   16.666666666666668
-400.0   120.0   16.666666666666668
-400.0   150.0   16.666666666666668
-350.0   150.0   16.666666666666668
-400.0   150.0   0.0
-400.0   120.0   16.666666666666668
-350.0   150.0   16.666666666666668
-350.0   120.0   16.666666666666668
-350.0   120.0   0.0
-400.0   120.0   16.666666666666668
-350.0   150.0   16.666666666666668
-350.0   120.0   0.0
-400.0   150.0   0.0
-400.0   120.0   16.666666666666668
-350.0   120.0   16.666666666666668
-400.0   150.0   16.666666666666668
-400.0   120.0   33.333333333333336
-350.0   120.0   16.666666666666668
-350.0   150.0   16.666666666666668
-400.0   150.0   16.666666666666668
-350.0   150.0   33.333333333333336
-400.0   120.0   33.333333333333336
-400.0   150.0   33.333333333333336
-350.0   150.0   33.333333333333336
-400.0   150.0   16.666666666666668
-400.0   120.0   33.333333333333336
-350.0   150.0   33.333333333333336
-350.0   120.0   33.333333333333336
-350.0   120.0   16.666666666666668
-400.0   120.0   33.333333333333336
-350.0   150.0   33.333333333333336
-350.0   120.0   16.666666666666668
-400.0   150.0   16.666666666666668
-400.0   120.0   33.333333333333336
-350.0   120.0   33.333333333333336
-400.0   150.0   33.333333333333336
-400.0   120.0   50.0
-350.0   120.0   33.333333333333336
-350.0   150.0   33.333333333333336
-400.0   150.0   33.333333333333336
-350.0   150.0   50.0
-400.0   120.0   50.0
-400.0   150.0   50.0
-350.0   150.0   50.0
-400.0   150.0   33.333333333333336
-400.0   120.0   50.0
-350.0   150.0   50.0
-350.0   120.0   50.0
-350.0   120.0   33.333333333333336
-400.0   120.0   50.0
-350.0   150.0   50.0
-350.0   120.0   33.333333333333336
-400.0   150.0   33.333333333333336
-350.0   0.0   0.0
-300.0   0.0   0.0
-350.0   30.0   0.0
-350.0   0.0   16.666666666666668
-300.0   0.0   0.0
-300.0   30.0   0.0
-350.0   30.0   0.0
-300.0   30.0   16.666666666666668
-350.0   0.0   16.666666666666668
-350.0   30.0   16.666666666666668
-300.0   30.0   16.666666666666668
-350.0   30.0   0.0
-350.0   0.0   16.666666666666668
-300.0   30.0   16.666666666666668
-300.0   0.0   16.666666666666668
-300.0   0.0   0.0
-350.0   0.0   16.666666666666668
-300.0   30.0   16.666666666666668
-300.0   0.0   0.0
-350.0   30.0   0.0
-350.0   0.0   16.666666666666668
-300.0   0.0   16.666666666666668
-350.0   30.0   16.666666666666668
-350.0   0.0   33.333333333333336
-300.0   0.0   16.666666666666668
-300.0   30.0   16.666666666666668
-350.0   30.0   16.666666666666668
-300.0   30.0   33.333333333333336
-350.0   0.0   33.333333333333336
-350.0   30.0   33.333333333333336
-300.0   30.0   33.333333333333336
-350.0   30.0   16.666666666666668
-350.0   0.0   33.333333333333336
-300.0   30.0   33.333333333333336
-300.0   0.0   33.333333333333336
-300.0   0.0   16.666666666666668
-350.0   0.0   33.333333333333336
-300.0   30.0   33.333333333333336
-300.0   0.0   16.666666666666668
-350.0   30.0   16.666666666666668
-350.0   0.0   33.333333333333336
-300.0   0.0   33.333333333333336
-350.0   30.0   33.333333333333336
-350.0   0.0   50.0
-300.0   0.0   33.333333333333336
-300.0   30.0   33.333333333333336
-350.0   30.0   33.333333333333336
-300.0   30.0   50.0
-350.0   0.0   50.0
-350.0   30.0   50.0
-300.0   30.0   50.0
-350.0   30.0   33.333333333333336
-350.0   0.0   50.0
-300.0   30.0   50.0
-300.0   0.0   50.0
-300.0   0.0   33.333333333333336
-350.0   0.0   50.0
-300.0   30.0   50.0
-300.0   0.0   33.333333333333336
-350.0   30.0   33.333333333333336
-350.0   30.0   0.0
-300.0   30.0   0.0
-350.0   60.0   0.0
-350.0   30.0   16.666666666666668
-300.0   30.0   0.0
-300.0   60.0   0.0
-350.0   60.0   0.0
-300.0   60.0   16.666666666666668
-350.0   30.0   16.666666666666668
-350.0   60.0   16.666666666666668
-300.0   60.0   16.666666666666668
-350.0   60.0   0.0
-350.0   30.0   16.666666666666668
-300.0   60.0   16.666666666666668
-300.0   30.0   16.666666666666668
-300.0   30.0   0.0
-350.0   30.0   16.666666666666668
-300.0   60.0   16.666666666666668
-300.0   30.0   0.0
-350.0   60.0   0.0
-350.0   30.0   16.666666666666668
-300.0   30.0   16.666666666666668
-350.0   60.0   16.666666666666668
-350.0   30.0   33.333333333333336
-300.0   30.0   16.666666666666668
-300.0   60.0   16.666666666666668
-350.0   60.0   16.666666666666668
-300.0   60.0   33.333333333333336
-350.0   30.0   33.333333333333336
-350.0   60.0   33.333333333333336
-300.0   60.0   33.333333333333336
-350.0   60.0   16.666666666666668
-350.0   30.0   33.333333333333336
-300.0   60.0   33.333333333333336
-300.0   30.0   33.333333333333336
-300.0   30.0   16.666666666666668
-350.0   30.0   33.333333333333336
-300.0   60.0   33.333333333333336
-300.0   30.0   16.666666666666668
-350.0   60.0   16.666666666666668
-350.0   30.0   33.333333333333336
-300.0   30.0   33.333333333333336
-350.0   60.0   33.333333333333336
-350.0   30.0   50.0
-300.0   30.0   33.333333333333336
-300.0   60.0   33.333333333333336
-350.0   60.0   33.333333333333336
-300.0   60.0   50.0
-350.0   30.0   50.0
-350.0   60.0   50.0
-300.0   60.0   50.0
-350.0   60.0   33.333333333333336
-350.0   30.0   50.0
-300.0   60.0   50.0
-300.0   30.0   50.0
-300.0   30.0   33.333333333333336
-350.0   30.0   50.0
-300.0   60.0   50.0
-300.0   30.0   33.333333333333336
-350.0   60.0   33.333333333333336
-350.0   60.0   0.0
-300.0   60.0   0.0
-350.0   90.0   0.0
-350.0   60.0   16.666666666666668
-300.0   60.0   0.0
-300.0   90.0   0.0
-350.0   90.0   0.0
-300.0   90.0   16.666666666666668
-350.0   60.0   16.666666666666668
-350.0   90.0   16.666666666666668
-300.0   90.0   16.666666666666668
-350.0   90.0   0.0
-350.0   60.0   16.666666666666668
-300.0   90.0   16.666666666666668
-300.0   60.0   16.666666666666668
-300.0   60.0   0.0
-350.0   60.0   16.666666666666668
-300.0   90.0   16.666666666666668
-300.0   60.0   0.0
-350.0   90.0   0.0
-350.0   60.0   16.666666666666668
-300.0   60.0   16.666666666666668
-350.0   90.0   16.666666666666668
-350.0   60.0   33.333333333333336
-300.0   60.0   16.666666666666668
-300.0   90.0   16.666666666666668
-350.0   90.0   16.666666666666668
-300.0   90.0   33.333333333333336
-350.0   60.0   33.333333333333336
-350.0   90.0   33.333333333333336
-300.0   90.0   33.333333333333336
-350.0   90.0   16.666666666666668
-350.0   60.0   33.333333333333336
-300.0   90.0   33.333333333333336
-300.0   60.0   33.333333333333336
-300.0   60.0   16.666666666666668
-350.0   60.0   33.333333333333336
-300.0   90.0   33.333333333333336
-300.0   60.0   16.666666666666668
-350.0   90.0   16.666666666666668
-350.0   60.0   33.333333333333336
-300.0   60.0   33.333333333333336
-350.0   90.0   33.333333333333336
-350.0   60.0   50.0
-300.0   60.0   33.333333333333336
-300.0   90.0   33.333333333333336
-350.0   90.0   33.333333333333336
-300.0   90.0   50.0
-350.0   60.0   50.0
-350.0   90.0   50.0
-300.0   90.0   50.0
-350.0   90.0   33.333333333333336
-350.0   60.0   50.0
-300.0   90.0   50.0
-300.0   60.0   50.0
-300.0   60.0   33.333333333333336
-350.0   60.0   50.0
-300.0   90.0   50.0
-300.0   60.0   33.333333333333336
-350.0   90.0   33.333333333333336
-350.0   90.0   0.0
-300.0   90.0   0.0
-350.0   120.0   0.0
-350.0   90.0   16.666666666666668
-300.0   90.0   0.0
-300.0   120.0   0.0
-350.0   120.0   0.0
-300.0   120.0   16.666666666666668
-350.0   90.0   16.666666666666668
-350.0   120.0   16.666666666666668
-300.0   120.0   16.666666666666668
-350.0   120.0   0.0
-350.0   90.0   16.666666666666668
-300.0   120.0   16.666666666666668
-300.0   90.0   16.666666666666668
-300.0   90.0   0.0
-350.0   90.0   16.666666666666668
-300.0   120.0   16.666666666666668
-300.0   90.0   0.0
-350.0   120.0   0.0
-350.0   90.0   16.666666666666668
-300.0   90.0   16.666666666666668
-350.0   120.0   16.666666666666668
-350.0   90.0   33.333333333333336
-300.0   90.0   16.666666666666668
-300.0   120.0   16.666666666666668
-350.0   120.0   16.666666666666668
-300.0   120.0   33.333333333333336
-350.0   90.0   33.333333333333336
-350.0   120.0   33.333333333333336
-300.0   120.0   33.333333333333336
-350.0   120.0   16.666666666666668
-350.0   90.0   33.333333333333336
-300.0   120.0   33.333333333333336
-300.0   90.0   33.333333333333336
-300.0   90.0   16.666666666666668
-350.0   90.0   33.333333333333336
-300.0   120.0   33.333333333333336
-300.0   90.0   16.666666666666668
-350.0   120.0   16.666666666666668
-350.0   90.0   33.333333333333336
-300.0   90.0   33.333333333333336
-350.0   120.0   33.333333333333336
-350.0   90.0   50.0
-300.0   90.0   33.333333333333336
-300.0   120.0   33.333333333333336
-350.0   120.0   33.333333333333336
-300.0   120.0   50.0
-350.0   90.0   50.0
-350.0   120.0   50.0
-300.0   120.0   50.0
-350.0   120.0   33.333333333333336
-350.0   90.0   50.0
-300.0   120.0   50.0
-300.0   90.0   50.0
-300.0   90.0   33.333333333333336
-350.0   90.0   50.0
-300.0   120.0   50.0
-300.0   90.0   33.333333333333336
-350.0   120.0   33.333333333333336
-350.0   120.0   0.0
-300.0   120.0   0.0
-350.0   150.0   0.0
-350.0   120.0   16.666666666666668
-300.0   120.0   0.0
-300.0   150.0   0.0
-350.0   150.0   0.0
-300.0   150.0   16.666666666666668
-350.0   120.0   16.666666666666668
-350.0   150.0   16.666666666666668
-300.0   150.0   16.666666666666668
-350.0   150.0   0.0
-350.0   120.0   16.666666666666668
-300.0   150.0   16.666666666666668
-300.0   120.0   16.666666666666668
-300.0   120.0   0.0
-350.0   120.0   16.666666666666668
-300.0   150.0   16.666666666666668
-300.0   120.0   0.0
-350.0   150.0   0.0
-350.0   120.0   16.666666666666668
-300.0   120.0   16.666666666666668
-350.0   150.0   16.666666666666668
-350.0   120.0   33.333333333333336
-300.0   120.0   16.666666666666668
-300.0   150.0   16.666666666666668
-350.0   150.0   16.666666666666668
-300.0   150.0   33.333333333333336
-350.0   120.0   33.333333333333336
-350.0   150.0   33.333333333333336
-300.0   150.0   33.333333333333336
-350.0   150.0   16.666666666666668
-350.0   120.0   33.333333333333336
-300.0   150.0   33.333333333333336
-300.0   120.0   33.333333333333336
-300.0   120.0   16.666666666666668
-350.0   120.0   33.333333333333336
-300.0   150.0   33.333333333333336
-300.0   120.0   16.666666666666668
-350.0   150.0   16.666666666666668
-350.0   120.0   33.333333333333336
-300.0   120.0   33.333333333333336
-350.0   150.0   33.333333333333336
-350.0   120.0   50.0
-300.0   120.0   33.333333333333336
-300.0   150.0   33.333333333333336
-350.0   150.0   33.333333333333336
-300.0   150.0   50.0
-350.0   120.0   50.0
-350.0   150.0   50.0
-300.0   150.0   50.0
-350.0   150.0   33.333333333333336
-350.0   120.0   50.0
-300.0   150.0   50.0
-300.0   120.0   50.0
-300.0   120.0   33.333333333333336
-350.0   120.0   50.0
-300.0   150.0   50.0
-300.0   120.0   33.333333333333336
-350.0   150.0   33.333333333333336
-300.0   0.0   0.0
-250.0   0.0   0.0
-300.0   30.0   0.0
-300.0   0.0   16.666666666666668
-250.0   0.0   0.0
-250.0   30.0   0.0
-300.0   30.0   0.0
-250.0   30.0   16.666666666666668
-300.0   0.0   16.666666666666668
-300.0   30.0   16.666666666666668
-250.0   30.0   16.666666666666668
-300.0   30.0   0.0
-300.0   0.0   16.666666666666668
-250.0   30.0   16.666666666666668
-250.0   0.0   16.666666666666668
-250.0   0.0   0.0
-300.0   0.0   16.666666666666668
-250.0   30.0   16.666666666666668
-250.0   0.0   0.0
-300.0   30.0   0.0
-300.0   0.0   16.666666666666668
-250.0   0.0   16.666666666666668
-300.0   30.0   16.666666666666668
-300.0   0.0   33.333333333333336
-250.0   0.0   16.666666666666668
-250.0   30.0   16.666666666666668
-300.0   30.0   16.666666666666668
-250.0   30.0   33.333333333333336
-300.0   0.0   33.333333333333336
-300.0   30.0   33.333333333333336
-250.0   30.0   33.333333333333336
-300.0   30.0   16.666666666666668
-300.0   0.0   33.333333333333336
-250.0   30.0   33.333333333333336
-250.0   0.0   33.333333333333336
-250.0   0.0   16.666666666666668
-300.0   0.0   33.333333333333336
-250.0   30.0   33.333333333333336
-250.0   0.0   16.666666666666668
-300.0   30.0   16.666666666666668
-300.0   0.0   33.333333333333336
-250.0   0.0   33.333333333333336
-300.0   30.0   33.333333333333336
-300.0   0.0   50.0
-250.0   0.0   33.333333333333336
-250.0   30.0   33.333333333333336
-300.0   30.0   33.333333333333336
-250.0   30.0   50.0
-300.0   0.0   50.0
-300.0   30.0   50.0
-250.0   30.0   50.0
-300.0   30.0   33.333333333333336
-300.0   0.0   50.0
-250.0   30.0   50.0
-250.0   0.0   50.0
-250.0   0.0   33.333333333333336
-300.0   0.0   50.0
-250.0   30.0   50.0
-250.0   0.0   33.333333333333336
-300.0   30.0   33.333333333333336
-300.0   30.0   0.0
-250.0   30.0   0.0
-300.0   60.0   0.0
-300.0   30.0   16.666666666666668
-250.0   30.0   0.0
-250.0   60.0   0.0
-300.0   60.0   0.0
-250.0   60.0   16.666666666666668
-300.0   30.0   16.666666666666668
-300.0   60.0   16.666666666666668
-250.0   60.0   16.666666666666668
-300.0   60.0   0.0
-300.0   30.0   16.666666666666668
-250.0   60.0   16.666666666666668
-250.0   30.0   16.666666666666668
-250.0   30.0   0.0
-300.0   30.0   16.666666666666668
-250.0   60.0   16.666666666666668
-250.0   30.0   0.0
-300.0   60.0   0.0
-300.0   30.0   16.666666666666668
-250.0   30.0   16.666666666666668
-300.0   60.0   16.666666666666668
-300.0   30.0   33.333333333333336
-250.0   30.0   16.666666666666668
-250.0   60.0   16.666666666666668
-300.0   60.0   16.666666666666668
-250.0   60.0   33.333333333333336
-300.0   30.0   33.333333333333336
-300.0   60.0   33.333333333333336
-250.0   60.0   33.333333333333336
-300.0   60.0   16.666666666666668
-300.0   30.0   33.333333333333336
-250.0   60.0   33.333333333333336
-250.0   30.0   33.333333333333336
-250.0   30.0   16.666666666666668
-300.0   30.0   33.333333333333336
-250.0   60.0   33.333333333333336
-250.0   30.0   16.666666666666668
-300.0   60.0   16.666666666666668
-300.0   30.0   33.333333333333336
-250.0   30.0   33.333333333333336
-300.0   60.0   33.333333333333336
-300.0   30.0   50.0
-250.0   30.0   33.333333333333336
-250.0   60.0   33.333333333333336
-300.0   60.0   33.333333333333336
-250.0   60.0   50.0
-300.0   30.0   50.0
-300.0   60.0   50.0
-250.0   60.0   50.0
-300.0   60.0   33.333333333333336
-300.0   30.0   50.0
-250.0   60.0   50.0
-250.0   30.0   50.0
-250.0   30.0   33.333333333333336
-300.0   30.0   50.0
-250.0   60.0   50.0
-250.0   30.0   33.333333333333336
-300.0   60.0   33.333333333333336
-300.0   60.0   0.0
-250.0   60.0   0.0
-300.0   90.0   0.0
-300.0   60.0   16.666666666666668
-250.0   60.0   0.0
-250.0   90.0   0.0
-300.0   90.0   0.0
-250.0   90.0   16.666666666666668
-300.0   60.0   16.666666666666668
-300.0   90.0   16.666666666666668
-250.0   90.0   16.666666666666668
-300.0   90.0   0.0
-300.0   60.0   16.666666666666668
-250.0   90.0   16.666666666666668
-250.0   60.0   16.666666666666668
-250.0   60.0   0.0
-300.0   60.0   16.666666666666668
-250.0   90.0   16.666666666666668
-250.0   60.0   0.0
-300.0   90.0   0.0
-300.0   60.0   16.666666666666668
-250.0   60.0   16.666666666666668
-300.0   90.0   16.666666666666668
-300.0   60.0   33.333333333333336
-250.0   60.0   16.666666666666668
-250.0   90.0   16.666666666666668
-300.0   90.0   16.666666666666668
-250.0   90.0   33.333333333333336
-300.0   60.0   33.333333333333336
-300.0   90.0   33.333333333333336
-250.0   90.0   33.333333333333336
-300.0   90.0   16.666666666666668
-300.0   60.0   33.333333333333336
-250.0   90.0   33.333333333333336
-250.0   60.0   33.333333333333336
-250.0   60.0   16.666666666666668
-300.0   60.0   33.333333333333336
-250.0   90.0   33.333333333333336
-250.0   60.0   16.666666666666668
-300.0   90.0   16.666666666666668
-300.0   60.0   33.333333333333336
-250.0   60.0   33.333333333333336
-300.0   90.0   33.333333333333336
-300.0   60.0   50.0
-250.0   60.0   33.333333333333336
-250.0   90.0   33.333333333333336
-300.0   90.0   33.333333333333336
-250.0   90.0   50.0
-300.0   60.0   50.0
-300.0   90.0   50.0
-250.0   90.0   50.0
-300.0   90.0   33.333333333333336
-300.0   60.0   50.0
-250.0   90.0   50.0
-250.0   60.0   50.0
-250.0   60.0   33.333333333333336
-300.0   60.0   50.0
-250.0   90.0   50.0
-250.0   60.0   33.333333333333336
-300.0   90.0   33.333333333333336
-300.0   90.0   0.0
-250.0   90.0   0.0
-300.0   120.0   0.0
-300.0   90.0   16.666666666666668
-250.0   90.0   0.0
-250.0   120.0   0.0
-300.0   120.0   0.0
-250.0   120.0   16.666666666666668
-300.0   90.0   16.666666666666668
-300.0   120.0   16.666666666666668
-250.0   120.0   16.666666666666668
-300.0   120.0   0.0
-300.0   90.0   16.666666666666668
-250.0   120.0   16.666666666666668
-250.0   90.0   16.666666666666668
-250.0   90.0   0.0
-300.0   90.0   16.666666666666668
-250.0   120.0   16.666666666666668
-250.0   90.0   0.0
-300.0   120.0   0.0
-300.0   90.0   16.666666666666668
-250.0   90.0   16.666666666666668
-300.0   120.0   16.666666666666668
-300.0   90.0   33.333333333333336
-250.0   90.0   16.666666666666668
-250.0   120.0   16.666666666666668
-300.0   120.0   16.666666666666668
-250.0   120.0   33.333333333333336
-300.0   90.0   33.333333333333336
-300.0   120.0   33.333333333333336
-250.0   120.0   33.333333333333336
-300.0   120.0   16.666666666666668
-300.0   90.0   33.333333333333336
-250.0   120.0   33.333333333333336
-250.0   90.0   33.333333333333336
-250.0   90.0   16.666666666666668
-300.0   90.0   33.333333333333336
-250.0   120.0   33.333333333333336
-250.0   90.0   16.666666666666668
-300.0   120.0   16.666666666666668
-300.0   90.0   33.333333333333336
-250.0   90.0   33.333333333333336
-300.0   120.0   33.333333333333336
-300.0   90.0   50.0
-250.0   90.0   33.333333333333336
-250.0   120.0   33.333333333333336
-300.0   120.0   33.333333333333336
-250.0   120.0   50.0
-300.0   90.0   50.0
-300.0   120.0   50.0
-250.0   120.0   50.0
-300.0   120.0   33.333333333333336
-300.0   90.0   50.0
-250.0   120.0   50.0
-250.0   90.0   50.0
-250.0   90.0   33.333333333333336
-300.0   90.0   50.0
-250.0   120.0   50.0
-250.0   90.0   33.333333333333336
-300.0   120.0   33.333333333333336
-300.0   120.0   0.0
-250.0   120.0   0.0
-300.0   150.0   0.0
-300.0   120.0   16.666666666666668
-250.0   120.0   0.0
-250.0   150.0   0.0
-300.0   150.0   0.0
-250.0   150.0   16.666666666666668
-300.0   120.0   16.666666666666668
-300.0   150.0   16.666666666666668
-250.0   150.0   16.666666666666668
-300.0   150.0   0.0
-300.0   120.0   16.666666666666668
-250.0   150.0   16.666666666666668
-250.0   120.0   16.666666666666668
-250.0   120.0   0.0
-300.0   120.0   16.666666666666668
-250.0   150.0   16.666666666666668
-250.0   120.0   0.0
-300.0   150.0   0.0
-300.0   120.0   16.666666666666668
-250.0   120.0   16.666666666666668
-300.0   150.0   16.666666666666668
-300.0   120.0   33.333333333333336
-250.0   120.0   16.666666666666668
-250.0   150.0   16.666666666666668
-300.0   150.0   16.666666666666668
-250.0   150.0   33.333333333333336
-300.0   120.0   33.333333333333336
-300.0   150.0   33.333333333333336
-250.0   150.0   33.333333333333336
-300.0   150.0   16.666666666666668
-300.0   120.0   33.333333333333336
-250.0   150.0   33.333333333333336
-250.0   120.0   33.333333333333336
-250.0   120.0   16.666666666666668
-300.0   120.0   33.333333333333336
-250.0   150.0   33.333333333333336
-250.0   120.0   16.666666666666668
-300.0   150.0   16.666666666666668
-300.0   120.0   33.333333333333336
-250.0   120.0   33.333333333333336
-300.0   150.0   33.333333333333336
-300.0   120.0   50.0
-250.0   120.0   33.333333333333336
-250.0   150.0   33.333333333333336
-300.0   150.0   33.333333333333336
-250.0   150.0   50.0
-300.0   120.0   50.0
-300.0   150.0   50.0
-250.0   150.0   50.0
-300.0   150.0   33.333333333333336
-300.0   120.0   50.0
-250.0   150.0   50.0
-250.0   120.0   50.0
-250.0   120.0   33.333333333333336
-300.0   120.0   50.0
-250.0   150.0   50.0
-250.0   120.0   33.333333333333336
-300.0   150.0   33.333333333333336
-250.0   0.0   0.0
-200.0   0.0   0.0
-250.0   30.0   0.0
-250.0   0.0   16.666666666666668
-200.0   0.0   0.0
-200.0   30.0   0.0
-250.0   30.0   0.0
-200.0   30.0   16.666666666666668
-250.0   0.0   16.666666666666668
-250.0   30.0   16.666666666666668
-200.0   30.0   16.666666666666668
-250.0   30.0   0.0
-250.0   0.0   16.666666666666668
-200.0   30.0   16.666666666666668
-200.0   0.0   16.666666666666668
-200.0   0.0   0.0
-250.0   0.0   16.666666666666668
-200.0   30.0   16.666666666666668
-200.0   0.0   0.0
-250.0   30.0   0.0
-250.0   0.0   16.666666666666668
-200.0   0.0   16.666666666666668
-250.0   30.0   16.666666666666668
-250.0   0.0   33.333333333333336
-200.0   0.0   16.666666666666668
-200.0   30.0   16.666666666666668
-250.0   30.0   16.666666666666668
-200.0   30.0   33.333333333333336
-250.0   0.0   33.333333333333336
-250.0   30.0   33.333333333333336
-200.0   30.0   33.333333333333336
-250.0   30.0   16.666666666666668
-250.0   0.0   33.333333333333336
-200.0   30.0   33.333333333333336
-200.0   0.0   33.333333333333336
-200.0   0.0   16.666666666666668
-250.0   0.0   33.333333333333336
-200.0   30.0   33.333333333333336
-200.0   0.0   16.666666666666668
-250.0   30.0   16.666666666666668
-250.0   0.0   33.333333333333336
-200.0   0.0   33.333333333333336
-250.0   30.0   33.333333333333336
-250.0   0.0   50.0
-200.0   0.0   33.333333333333336
-200.0   30.0   33.333333333333336
-250.0   30.0   33.333333333333336
-200.0   30.0   50.0
-250.0   0.0   50.0
-250.0   30.0   50.0
-200.0   30.0   50.0
-250.0   30.0   33.333333333333336
-250.0   0.0   50.0
-200.0   30.0   50.0
-200.0   0.0   50.0
-200.0   0.0   33.333333333333336
-250.0   0.0   50.0
-200.0   30.0   50.0
-200.0   0.0   33.333333333333336
-250.0   30.0   33.333333333333336
-250.0   30.0   0.0
-200.0   30.0   0.0
-250.0   60.0   0.0
-250.0   30.0   16.666666666666668
-200.0   30.0   0.0
-200.0   60.0   0.0
-250.0   60.0   0.0
-200.0   60.0   16.666666666666668
-250.0   30.0   16.666666666666668
-250.0   60.0   16.666666666666668
-200.0   60.0   16.666666666666668
-250.0   60.0   0.0
-250.0   30.0   16.666666666666668
-200.0   60.0   16.666666666666668
-200.0   30.0   16.666666666666668
-200.0   30.0   0.0
-250.0   30.0   16.666666666666668
-200.0   60.0   16.666666666666668
-200.0   30.0   0.0
-250.0   60.0   0.0
-250.0   30.0   16.666666666666668
-200.0   30.0   16.666666666666668
-250.0   60.0   16.666666666666668
-250.0   30.0   33.333333333333336
-200.0   30.0   16.666666666666668
-200.0   60.0   16.666666666666668
-250.0   60.0   16.666666666666668
-200.0   60.0   33.333333333333336
-250.0   30.0   33.333333333333336
-250.0   60.0   33.333333333333336
-200.0   60.0   33.333333333333336
-250.0   60.0   16.666666666666668
-250.0   30.0   33.333333333333336
-200.0   60.0   33.333333333333336
-200.0   30.0   33.333333333333336
-200.0   30.0   16.666666666666668
-250.0   30.0   33.333333333333336
-200.0   60.0   33.333333333333336
-200.0   30.0   16.666666666666668
-250.0   60.0   16.666666666666668
-250.0   30.0   33.333333333333336
-200.0   30.0   33.333333333333336
-250.0   60.0   33.333333333333336
-250.0   30.0   50.0
-200.0   30.0   33.333333333333336
-200.0   60.0   33.333333333333336
-250.0   60.0   33.333333333333336
-200.0   60.0   50.0
-250.0   30.0   50.0
-250.0   60.0   50.0
-200.0   60.0   50.0
-250.0   60.0   33.333333333333336
-250.0   30.0   50.0
-200.0   60.0   50.0
-200.0   30.0   50.0
-200.0   30.0   33.333333333333336
-250.0   30.0   50.0
-200.0   60.0   50.0
-200.0   30.0   33.333333333333336
-250.0   60.0   33.333333333333336
-250.0   60.0   0.0
-200.0   60.0   0.0
-250.0   90.0   0.0
-250.0   60.0   16.666666666666668
-200.0   60.0   0.0
-200.0   90.0   0.0
-250.0   90.0   0.0
-200.0   90.0   16.666666666666668
-250.0   60.0   16.666666666666668
-250.0   90.0   16.666666666666668
-200.0   90.0   16.666666666666668
-250.0   90.0   0.0
-250.0   60.0   16.666666666666668
-200.0   90.0   16.666666666666668
-200.0   60.0   16.666666666666668
-200.0   60.0   0.0
-250.0   60.0   16.666666666666668
-200.0   90.0   16.666666666666668
-200.0   60.0   0.0
-250.0   90.0   0.0
-250.0   60.0   16.666666666666668
-200.0   60.0   16.666666666666668
-250.0   90.0   16.666666666666668
-250.0   60.0   33.333333333333336
-200.0   60.0   16.666666666666668
-200.0   90.0   16.666666666666668
-250.0   90.0   16.666666666666668
-200.0   90.0   33.333333333333336
-250.0   60.0   33.333333333333336
-250.0   90.0   33.333333333333336
-200.0   90.0   33.333333333333336
-250.0   90.0   16.666666666666668
-250.0   60.0   33.333333333333336
-200.0   90.0   33.333333333333336
-200.0   60.0   33.333333333333336
-200.0   60.0   16.666666666666668
-250.0   60.0   33.333333333333336
-200.0   90.0   33.333333333333336
-200.0   60.0   16.666666666666668
-250.0   90.0   16.666666666666668
-250.0   60.0   33.333333333333336
-200.0   60.0   33.333333333333336
-250.0   90.0   33.333333333333336
-250.0   60.0   50.0
-200.0   60.0   33.333333333333336
-200.0   90.0   33.333333333333336
-250.0   90.0   33.333333333333336
-200.0   90.0   50.0
-250.0   60.0   50.0
-250.0   90.0   50.0
-200.0   90.0   50.0
-250.0   90.0   33.333333333333336
-250.0   60.0   50.0
-200.0   90.0   50.0
-200.0   60.0   50.0
-200.0   60.0   33.333333333333336
-250.0   60.0   50.0
-200.0   90.0   50.0
-200.0   60.0   33.333333333333336
-250.0   90.0   33.333333333333336
-250.0   90.0   0.0
-200.0   90.0   0.0
-250.0   120.0   0.0
-250.0   90.0   16.666666666666668
-200.0   90.0   0.0
-200.0   120.0   0.0
-250.0   120.0   0.0
-200.0   120.0   16.666666666666668
-250.0   90.0   16.666666666666668
-250.0   120.0   16.666666666666668
-200.0   120.0   16.666666666666668
-250.0   120.0   0.0
-250.0   90.0   16.666666666666668
-200.0   120.0   16.666666666666668
-200.0   90.0   16.666666666666668
-200.0   90.0   0.0
-250.0   90.0   16.666666666666668
-200.0   120.0   16.666666666666668
-200.0   90.0   0.0
-250.0   120.0   0.0
-250.0   90.0   16.666666666666668
-200.0   90.0   16.666666666666668
-250.0   120.0   16.666666666666668
-250.0   90.0   33.333333333333336
-200.0   90.0   16.666666666666668
-200.0   120.0   16.666666666666668
-250.0   120.0   16.666666666666668
-200.0   120.0   33.333333333333336
-250.0   90.0   33.333333333333336
-250.0   120.0   33.333333333333336
-200.0   120.0   33.333333333333336
-250.0   120.0   16.666666666666668
-250.0   90.0   33.333333333333336
-200.0   120.0   33.333333333333336
-200.0   90.0   33.333333333333336
-200.0   90.0   16.666666666666668
-250.0   90.0   33.333333333333336
-200.0   120.0   33.333333333333336
-200.0   90.0   16.666666666666668
-250.0   120.0   16.666666666666668
-250.0   90.0   33.333333333333336
-200.0   90.0   33.333333333333336
-250.0   120.0   33.333333333333336
-250.0   90.0   50.0
-200.0   90.0   33.333333333333336
-200.0   120.0   33.333333333333336
-250.0   120.0   33.333333333333336
-200.0   120.0   50.0
-250.0   90.0   50.0
-250.0   120.0   50.0
-200.0   120.0   50.0
-250.0   120.0   33.333333333333336
-250.0   90.0   50.0
-200.0   120.0   50.0
-200.0   90.0   50.0
-200.0   90.0   33.333333333333336
-250.0   90.0   50.0
-200.0   120.0   50.0
-200.0   90.0   33.333333333333336
-250.0   120.0   33.333333333333336
-250.0   120.0   0.0
-200.0   120.0   0.0
-250.0   150.0   0.0
-250.0   120.0   16.666666666666668
-200.0   120.0   0.0
-200.0   150.0   0.0
-250.0   150.0   0.0
-200.0   150.0   16.666666666666668
-250.0   120.0   16.666666666666668
-250.0   150.0   16.666666666666668
-200.0   150.0   16.666666666666668
-250.0   150.0   0.0
-250.0   120.0   16.666666666666668
-200.0   150.0   16.666666666666668
-200.0   120.0   16.666666666666668
-200.0   120.0   0.0
-250.0   120.0   16.666666666666668
-200.0   150.0   16.666666666666668
-200.0   120.0   0.0
-250.0   150.0   0.0
-250.0   120.0   16.666666666666668
-200.0   120.0   16.666666666666668
-250.0   150.0   16.666666666666668
-250.0   120.0   33.333333333333336
-200.0   120.0   16.666666666666668
-200.0   150.0   16.666666666666668
-250.0   150.0   16.666666666666668
-200.0   150.0   33.333333333333336
-250.0   120.0   33.333333333333336
-250.0   150.0   33.333333333333336
-200.0   150.0   33.333333333333336
-250.0   150.0   16.666666666666668
-250.0   120.0   33.333333333333336
-200.0   150.0   33.333333333333336
-200.0   120.0   33.333333333333336
-200.0   120.0   16.666666666666668
-250.0   120.0   33.333333333333336
-200.0   150.0   33.333333333333336
-200.0   120.0   16.666666666666668
-250.0   150.0   16.666666666666668
-250.0   120.0   33.333333333333336
-200.0   120.0   33.333333333333336
-250.0   150.0   33.333333333333336
-250.0   120.0   50.0
-200.0   120.0   33.333333333333336
-200.0   150.0   33.333333333333336
-250.0   150.0   33.333333333333336
-200.0   150.0   50.0
-250.0   120.0   50.0
-250.0   150.0   50.0
-200.0   150.0   50.0
-250.0   150.0   33.333333333333336
-250.0   120.0   50.0
-200.0   150.0   50.0
-200.0   120.0   50.0
-200.0   120.0   33.333333333333336
-250.0   120.0   50.0
-200.0   150.0   50.0
-200.0   120.0   33.333333333333336
-250.0   150.0   33.333333333333336
-200.0   0.0   0.0
-150.0   0.0   0.0
-200.0   30.0   0.0
-200.0   0.0   16.666666666666668
-150.0   0.0   0.0
-150.0   30.0   0.0
-200.0   30.0   0.0
-150.0   30.0   16.666666666666668
-200.0   0.0   16.666666666666668
-200.0   30.0   16.666666666666668
-150.0   30.0   16.666666666666668
-200.0   30.0   0.0
-200.0   0.0   16.666666666666668
-150.0   30.0   16.666666666666668
-150.0   0.0   16.666666666666668
-150.0   0.0   0.0
-200.0   0.0   16.666666666666668
-150.0   30.0   16.666666666666668
-150.0   0.0   0.0
-200.0   30.0   0.0
-200.0   0.0   16.666666666666668
-150.0   0.0   16.666666666666668
-200.0   30.0   16.666666666666668
-200.0   0.0   33.333333333333336
-150.0   0.0   16.666666666666668
-150.0   30.0   16.666666666666668
-200.0   30.0   16.666666666666668
-150.0   30.0   33.333333333333336
-200.0   0.0   33.333333333333336
-200.0   30.0   33.333333333333336
-150.0   30.0   33.333333333333336
-200.0   30.0   16.666666666666668
-200.0   0.0   33.333333333333336
-150.0   30.0   33.333333333333336
-150.0   0.0   33.333333333333336
-150.0   0.0   16.666666666666668
-200.0   0.0   33.333333333333336
-150.0   30.0   33.333333333333336
-150.0   0.0   16.666666666666668
-200.0   30.0   16.666666666666668
-200.0   0.0   33.333333333333336
-150.0   0.0   33.333333333333336
-200.0   30.0   33.333333333333336
-200.0   0.0   50.0
-150.0   0.0   33.333333333333336
-150.0   30.0   33.333333333333336
-200.0   30.0   33.333333333333336
-150.0   30.0   50.0
-200.0   0.0   50.0
-200.0   30.0   50.0
-150.0   30.0   50.0
-200.0   30.0   33.333333333333336
-200.0   0.0   50.0
-150.0   30.0   50.0
-150.0   0.0   50.0
-150.0   0.0   33.333333333333336
-200.0   0.0   50.0
-150.0   30.0   50.0
-150.0   0.0   33.333333333333336
-200.0   30.0   33.333333333333336
-200.0   30.0   0.0
-150.0   30.0   0.0
-200.0   60.0   0.0
-200.0   30.0   16.666666666666668
-150.0   30.0   0.0
-150.0   60.0   0.0
-200.0   60.0   0.0
-150.0   60.0   16.666666666666668
-200.0   30.0   16.666666666666668
-200.0   60.0   16.666666666666668
-150.0   60.0   16.666666666666668
-200.0   60.0   0.0
-200.0   30.0   16.666666666666668
-150.0   60.0   16.666666666666668
-150.0   30.0   16.666666666666668
-150.0   30.0   0.0
-200.0   30.0   16.666666666666668
-150.0   60.0   16.666666666666668
-150.0   30.0   0.0
-200.0   60.0   0.0
-200.0   30.0   16.666666666666668
-150.0   30.0   16.666666666666668
-200.0   60.0   16.666666666666668
-200.0   30.0   33.333333333333336
-150.0   30.0   16.666666666666668
-150.0   60.0   16.666666666666668
-200.0   60.0   16.666666666666668
-150.0   60.0   33.333333333333336
-200.0   30.0   33.333333333333336
-200.0   60.0   33.333333333333336
-150.0   60.0   33.333333333333336
-200.0   60.0   16.666666666666668
-200.0   30.0   33.333333333333336
-150.0   60.0   33.333333333333336
-150.0   30.0   33.333333333333336
-150.0   30.0   16.666666666666668
-200.0   30.0   33.333333333333336
-150.0   60.0   33.333333333333336
-150.0   30.0   16.666666666666668
-200.0   60.0   16.666666666666668
-200.0   30.0   33.333333333333336
-150.0   30.0   33.333333333333336
-200.0   60.0   33.333333333333336
-200.0   30.0   50.0
-150.0   30.0   33.333333333333336
-150.0   60.0   33.333333333333336
-200.0   60.0   33.333333333333336
-150.0   60.0   50.0
-200.0   30.0   50.0
-200.0   60.0   50.0
-150.0   60.0   50.0
-200.0   60.0   33.333333333333336
-200.0   30.0   50.0
-150.0   60.0   50.0
-150.0   30.0   50.0
-150.0   30.0   33.333333333333336
-200.0   30.0   50.0
-150.0   60.0   50.0
-150.0   30.0   33.333333333333336
-200.0   60.0   33.333333333333336
-200.0   60.0   0.0
-150.0   60.0   0.0
-200.0   90.0   0.0
-200.0   60.0   16.666666666666668
-150.0   60.0   0.0
-150.0   90.0   0.0
-200.0   90.0   0.0
-150.0   90.0   16.666666666666668
-200.0   60.0   16.666666666666668
-200.0   90.0   16.666666666666668
-150.0   90.0   16.666666666666668
-200.0   90.0   0.0
-200.0   60.0   16.666666666666668
-150.0   90.0   16.666666666666668
-150.0   60.0   16.666666666666668
-150.0   60.0   0.0
-200.0   60.0   16.666666666666668
-150.0   90.0   16.666666666666668
-150.0   60.0   0.0
-200.0   90.0   0.0
-200.0   60.0   16.666666666666668
-150.0   60.0   16.666666666666668
-200.0   90.0   16.666666666666668
-200.0   60.0   33.333333333333336
-150.0   60.0   16.666666666666668
-150.0   90.0   16.666666666666668
-200.0   90.0   16.666666666666668
-150.0   90.0   33.333333333333336
-200.0   60.0   33.333333333333336
-200.0   90.0   33.333333333333336
-150.0   90.0   33.333333333333336
-200.0   90.0   16.666666666666668
-200.0   60.0   33.333333333333336
-150.0   90.0   33.333333333333336
-150.0   60.0   33.333333333333336
-150.0   60.0   16.666666666666668
-200.0   60.0   33.333333333333336
-150.0   90.0   33.333333333333336
-150.0   60.0   16.666666666666668
-200.0   90.0   16.666666666666668
-200.0   60.0   33.333333333333336
-150.0   60.0   33.333333333333336
-200.0   90.0   33.333333333333336
-200.0   60.0   50.0
-150.0   60.0   33.333333333333336
-150.0   90.0   33.333333333333336
-200.0   90.0   33.333333333333336
-150.0   90.0   50.0
-200.0   60.0   50.0
-200.0   90.0   50.0
-150.0   90.0   50.0
-200.0   90.0   33.333333333333336
-200.0   60.0   50.0
-150.0   90.0   50.0
-150.0   60.0   50.0
-150.0   60.0   33.333333333333336
-200.0   60.0   50.0
-150.0   90.0   50.0
-150.0   60.0   33.333333333333336
-200.0   90.0   33.333333333333336
-200.0   90.0   0.0
-150.0   90.0   0.0
-200.0   120.0   0.0
-200.0   90.0   16.666666666666668
-150.0   90.0   0.0
-150.0   120.0   0.0
-200.0   120.0   0.0
-150.0   120.0   16.666666666666668
-200.0   90.0   16.666666666666668
-200.0   120.0   16.666666666666668
-150.0   120.0   16.666666666666668
-200.0   120.0   0.0
-200.0   90.0   16.666666666666668
-150.0   120.0   16.666666666666668
-150.0   90.0   16.666666666666668
-150.0   90.0   0.0
-200.0   90.0   16.666666666666668
-150.0   120.0   16.666666666666668
-150.0   90.0   0.0
-200.0   120.0   0.0
-200.0   90.0   16.666666666666668
-150.0   90.0   16.666666666666668
-200.0   120.0   16.666666666666668
-200.0   90.0   33.333333333333336
-150.0   90.0   16.666666666666668
-150.0   120.0   16.666666666666668
-200.0   120.0   16.666666666666668
-150.0   120.0   33.333333333333336
-200.0   90.0   33.333333333333336
-200.0   120.0   33.333333333333336
-150.0   120.0   33.333333333333336
-200.0   120.0   16.666666666666668
-200.0   90.0   33.333333333333336
-150.0   120.0   33.333333333333336
-150.0   90.0   33.333333333333336
-150.0   90.0   16.666666666666668
-200.0   90.0   33.333333333333336
-150.0   120.0   33.333333333333336
-150.0   90.0   16.666666666666668
-200.0   120.0   16.666666666666668
-200.0   90.0   33.333333333333336
-150.0   90.0   33.333333333333336
-200.0   120.0   33.333333333333336
-200.0   90.0   50.0
-150.0   90.0   33.333333333333336
-150.0   120.0   33.333333333333336
-200.0   120.0   33.333333333333336
-150.0   120.0   50.0
-200.0   90.0   50.0
-200.0   120.0   50.0
-150.0   120.0   50.0
-200.0   120.0   33.333333333333336
-200.0   90.0   50.0
-150.0   120.0   50.0
-150.0   90.0   50.0
-150.0   90.0   33.333333333333336
-200.0   90.0   50.0
-150.0   120.0   50.0
-150.0   90.0   33.333333333333336
-200.0   120.0   33.333333333333336
-200.0   120.0   0.0
-150.0   120.0   0.0
-200.0   150.0   0.0
-200.0   120.0   16.666666666666668
-150.0   120.0   0.0
-150.0   150.0   0.0
-200.0   150.0   0.0
-150.0   150.0   16.666666666666668
-200.0   120.0   16.666666666666668
-200.0   150.0   16.666666666666668
-150.0   150.0   16.666666666666668
-200.0   150.0   0.0
-200.0   120.0   16.666666666666668
-150.0   150.0   16.666666666666668
-150.0   120.0   16.666666666666668
-150.0   120.0   0.0
-200.0   120.0   16.666666666666668
-150.0   150.0   16.666666666666668
-150.0   120.0   0.0
-200.0   150.0   0.0
-200.0   120.0   16.666666666666668
-150.0   120.0   16.666666666666668
-200.0   150.0   16.666666666666668
-200.0   120.0   33.333333333333336
-150.0   120.0   16.666666666666668
-150.0   150.0   16.666666666666668
-200.0   150.0   16.666666666666668
-150.0   150.0   33.333333333333336
-200.0   120.0   33.333333333333336
-200.0   150.0   33.333333333333336
-150.0   150.0   33.333333333333336
-200.0   150.0   16.666666666666668
-200.0   120.0   33.333333333333336
-150.0   150.0   33.333333333333336
-150.0   120.0   33.333333333333336
-150.0   120.0   16.666666666666668
-200.0   120.0   33.333333333333336
-150.0   150.0   33.333333333333336
-150.0   120.0   16.666666666666668
-200.0   150.0   16.666666666666668
-200.0   120.0   33.333333333333336
-150.0   120.0   33.333333333333336
-200.0   150.0   33.333333333333336
-200.0   120.0   50.0
-150.0   120.0   33.333333333333336
-150.0   150.0   33.333333333333336
-200.0   150.0   33.333333333333336
-150.0   150.0   50.0
-200.0   120.0   50.0
-200.0   150.0   50.0
-150.0   150.0   50.0
-200.0   150.0   33.333333333333336
-200.0   120.0   50.0
-150.0   150.0   50.0
-150.0   120.0   50.0
-150.0   120.0   33.333333333333336
-200.0   120.0   50.0
-150.0   150.0   50.0
-150.0   120.0   33.333333333333336
-200.0   150.0   33.333333333333336
-150.0   0.0   0.0
-100.0   0.0   0.0
-150.0   30.0   0.0
-150.0   0.0   16.666666666666668
-100.0   0.0   0.0
-100.0   30.0   0.0
-150.0   30.0   0.0
-100.0   30.0   16.666666666666668
-150.0   0.0   16.666666666666668
-150.0   30.0   16.666666666666668
-100.0   30.0   16.666666666666668
-150.0   30.0   0.0
-150.0   0.0   16.666666666666668
-100.0   30.0   16.666666666666668
-100.0   0.0   16.666666666666668
-100.0   0.0   0.0
-150.0   0.0   16.666666666666668
-100.0   30.0   16.666666666666668
-100.0   0.0   0.0
-150.0   30.0   0.0
-150.0   0.0   16.666666666666668
-100.0   0.0   16.666666666666668
-150.0   30.0   16.666666666666668
-150.0   0.0   33.333333333333336
-100.0   0.0   16.666666666666668
-100.0   30.0   16.666666666666668
-150.0   30.0   16.666666666666668
-100.0   30.0   33.333333333333336
-150.0   0.0   33.333333333333336
-150.0   30.0   33.333333333333336
-100.0   30.0   33.333333333333336
-150.0   30.0   16.666666666666668
-150.0   0.0   33.333333333333336
-100.0   30.0   33.333333333333336
-100.0   0.0   33.333333333333336
-100.0   0.0   16.666666666666668
-150.0   0.0   33.333333333333336
-100.0   30.0   33.333333333333336
-100.0   0.0   16.666666666666668
-150.0   30.0   16.666666666666668
-150.0   0.0   33.333333333333336
-100.0   0.0   33.333333333333336
-150.0   30.0   33.333333333333336
-150.0   0.0   50.0
-100.0   0.0   33.333333333333336
-100.0   30.0   33.333333333333336
-150.0   30.0   33.333333333333336
-100.0   30.0   50.0
-150.0   0.0   50.0
-150.0   30.0   50.0
-100.0   30.0   50.0
-150.0   30.0   33.333333333333336
-150.0   0.0   50.0
-100.0   30.0   50.0
-100.0   0.0   50.0
-100.0   0.0   33.333333333333336
-150.0   0.0   50.0
-100.0   30.0   50.0
-100.0   0.0   33.333333333333336
-150.0   30.0   33.333333333333336
-150.0   30.0   0.0
-100.0   30.0   0.0
-150.0   60.0   0.0
-150.0   30.0   16.666666666666668
-100.0   30.0   0.0
-100.0   60.0   0.0
-150.0   60.0   0.0
-100.0   60.0   16.666666666666668
-150.0   30.0   16.666666666666668
-150.0   60.0   16.666666666666668
-100.0   60.0   16.666666666666668
-150.0   60.0   0.0
-150.0   30.0   16.666666666666668
-100.0   60.0   16.666666666666668
-100.0   30.0   16.666666666666668
-100.0   30.0   0.0
-150.0   30.0   16.666666666666668
-100.0   60.0   16.666666666666668
-100.0   30.0   0.0
-150.0   60.0   0.0
-150.0   30.0   16.666666666666668
-100.0   30.0   16.666666666666668
-150.0   60.0   16.666666666666668
-150.0   30.0   33.333333333333336
-100.0   30.0   16.666666666666668
-100.0   60.0   16.666666666666668
-150.0   60.0   16.666666666666668
-100.0   60.0   33.333333333333336
-150.0   30.0   33.333333333333336
-150.0   60.0   33.333333333333336
-100.0   60.0   33.333333333333336
-150.0   60.0   16.666666666666668
-150.0   30.0   33.333333333333336
-100.0   60.0   33.333333333333336
-100.0   30.0   33.333333333333336
-100.0   30.0   16.666666666666668
-150.0   30.0   33.333333333333336
-100.0   60.0   33.333333333333336
-100.0   30.0   16.666666666666668
-150.0   60.0   16.666666666666668
-150.0   30.0   33.333333333333336
-100.0   30.0   33.333333333333336
-150.0   60.0   33.333333333333336
-150.0   30.0   50.0
-100.0   30.0   33.333333333333336
-100.0   60.0   33.333333333333336
-150.0   60.0   33.333333333333336
-100.0   60.0   50.0
-150.0   30.0   50.0
-150.0   60.0   50.0
-100.0   60.0   50.0
-150.0   60.0   33.333333333333336
-150.0   30.0   50.0
-100.0   60.0   50.0
-100.0   30.0   50.0
-100.0   30.0   33.333333333333336
-150.0   30.0   50.0
-100.0   60.0   50.0
-100.0   30.0   33.333333333333336
-150.0   60.0   33.333333333333336
-150.0   60.0   0.0
-100.0   60.0   0.0
-150.0   90.0   0.0
-150.0   60.0   16.666666666666668
-100.0   60.0   0.0
-100.0   90.0   0.0
-150.0   90.0   0.0
-100.0   90.0   16.666666666666668
-150.0   60.0   16.666666666666668
-150.0   90.0   16.666666666666668
-100.0   90.0   16.666666666666668
-150.0   90.0   0.0
-150.0   60.0   16.666666666666668
-100.0   90.0   16.666666666666668
-100.0   60.0   16.666666666666668
-100.0   60.0   0.0
-150.0   60.0   16.666666666666668
-100.0   90.0   16.666666666666668
-100.0   60.0   0.0
-150.0   90.0   0.0
-150.0   60.0   16.666666666666668
-100.0   60.0   16.666666666666668
-150.0   90.0   16.666666666666668
-150.0   60.0   33.333333333333336
-100.0   60.0   16.666666666666668
-100.0   90.0   16.666666666666668
-150.0   90.0   16.666666666666668
-100.0   90.0   33.333333333333336
-150.0   60.0   33.333333333333336
-150.0   90.0   33.333333333333336
-100.0   90.0   33.333333333333336
-150.0   90.0   16.666666666666668
-150.0   60.0   33.333333333333336
-100.0   90.0   33.333333333333336
-100.0   60.0   33.333333333333336
-100.0   60.0   16.666666666666668
-150.0   60.0   33.333333333333336
-100.0   90.0   33.333333333333336
-100.0   60.0   16.666666666666668
-150.0   90.0   16.666666666666668
-150.0   60.0   33.333333333333336
-100.0   60.0   33.333333333333336
-150.0   90.0   33.333333333333336
-150.0   60.0   50.0
-100.0   60.0   33.333333333333336
-100.0   90.0   33.333333333333336
-150.0   90.0   33.333333333333336
-100.0   90.0   50.0
-150.0   60.0   50.0
-150.0   90.0   50.0
-100.0   90.0   50.0
-150.0   90.0   33.333333333333336
-150.0   60.0   50.0
-100.0   90.0   50.0
-100.0   60.0   50.0
-100.0   60.0   33.333333333333336
-150.0   60.0   50.0
-100.0   90.0   50.0
-100.0   60.0   33.333333333333336
-150.0   90.0   33.333333333333336
-150.0   90.0   0.0
-100.0   90.0   0.0
-150.0   120.0   0.0
-150.0   90.0   16.666666666666668
-100.0   90.0   0.0
-100.0   120.0   0.0
-150.0   120.0   0.0
-100.0   120.0   16.666666666666668
-150.0   90.0   16.666666666666668
-150.0   120.0   16.666666666666668
-100.0   120.0   16.666666666666668
-150.0   120.0   0.0
-150.0   90.0   16.666666666666668
-100.0   120.0   16.666666666666668
-100.0   90.0   16.666666666666668
-100.0   90.0   0.0
-150.0   90.0   16.666666666666668
-100.0   120.0   16.666666666666668
-100.0   90.0   0.0
-150.0   120.0   0.0
-150.0   90.0   16.666666666666668
-100.0   90.0   16.666666666666668
-150.0   120.0   16.666666666666668
-150.0   90.0   33.333333333333336
-100.0   90.0   16.666666666666668
-100.0   120.0   16.666666666666668
-150.0   120.0   16.666666666666668
-100.0   120.0   33.333333333333336
-150.0   90.0   33.333333333333336
-150.0   120.0   33.333333333333336
-100.0   120.0   33.333333333333336
-150.0   120.0   16.666666666666668
-150.0   90.0   33.333333333333336
-100.0   120.0   33.333333333333336
-100.0   90.0   33.333333333333336
-100.0   90.0   16.666666666666668
-150.0   90.0   33.333333333333336
-100.0   120.0   33.333333333333336
-100.0   90.0   16.666666666666668
-150.0   120.0   16.666666666666668
-150.0   90.0   33.333333333333336
-100.0   90.0   33.333333333333336
-150.0   120.0   33.333333333333336
-150.0   90.0   50.0
-100.0   90.0   33.333333333333336
-100.0   120.0   33.333333333333336
-150.0   120.0   33.333333333333336
-100.0   120.0   50.0
-150.0   90.0   50.0
-150.0   120.0   50.0
-100.0   120.0   50.0
-150.0   120.0   33.333333333333336
-150.0   90.0   50.0
-100.0   120.0   50.0
-100.0   90.0   50.0
-100.0   90.0   33.333333333333336
-150.0   90.0   50.0
-100.0   120.0   50.0
-100.0   90.0   33.333333333333336
-150.0   120.0   33.333333333333336
-150.0   120.0   0.0
-100.0   120.0   0.0
-150.0   150.0   0.0
-150.0   120.0   16.666666666666668
-100.0   120.0   0.0
-100.0   150.0   0.0
-150.0   150.0   0.0
-100.0   150.0   16.666666666666668
-150.0   120.0   16.666666666666668
-150.0   150.0   16.666666666666668
-100.0   150.0   16.666666666666668
-150.0   150.0   0.0
-150.0   120.0   16.666666666666668
-100.0   150.0   16.666666666666668
-100.0   120.0   16.666666666666668
-100.0   120.0   0.0
-150.0   120.0   16.666666666666668
-100.0   150.0   16.666666666666668
-100.0   120.0   0.0
-150.0   150.0   0.0
-150.0   120.0   16.666666666666668
-100.0   120.0   16.666666666666668
-150.0   150.0   16.666666666666668
-150.0   120.0   33.333333333333336
-100.0   120.0   16.666666666666668
-100.0   150.0   16.666666666666668
-150.0   150.0   16.666666666666668
-100.0   150.0   33.333333333333336
-150.0   120.0   33.333333333333336
-150.0   150.0   33.333333333333336
-100.0   150.0   33.333333333333336
-150.0   150.0   16.666666666666668
-150.0   120.0   33.333333333333336
-100.0   150.0   33.333333333333336
-100.0   120.0   33.333333333333336
-100.0   120.0   16.666666666666668
-150.0   120.0   33.333333333333336
-100.0   150.0   33.333333333333336
-100.0   120.0   16.666666666666668
-150.0   150.0   16.666666666666668
-150.0   120.0   33.333333333333336
-100.0   120.0   33.333333333333336
-150.0   150.0   33.333333333333336
-150.0   120.0   50.0
-100.0   120.0   33.333333333333336
-100.0   150.0   33.333333333333336
-150.0   150.0   33.333333333333336
-100.0   150.0   50.0
-150.0   120.0   50.0
-150.0   150.0   50.0
-100.0   150.0   50.0
-150.0   150.0   33.333333333333336
-150.0   120.0   50.0
-100.0   150.0   50.0
-100.0   120.0   50.0
-100.0   120.0   33.333333333333336
-150.0   120.0   50.0
-100.0   150.0   50.0
-100.0   120.0   33.333333333333336
-150.0   150.0   33.333333333333336
-100.0   0.0   0.0
-50.0   0.0   0.0
-100.0   30.0   0.0
-100.0   0.0   16.666666666666668
-50.0   0.0   0.0
-50.0   30.0   0.0
-100.0   30.0   0.0
-50.0   30.0   16.666666666666668
-100.0   0.0   16.666666666666668
-100.0   30.0   16.666666666666668
-50.0   30.0   16.666666666666668
-100.0   30.0   0.0
-100.0   0.0   16.666666666666668
-50.0   30.0   16.666666666666668
-50.0   0.0   16.666666666666668
-50.0   0.0   0.0
-100.0   0.0   16.666666666666668
-50.0   30.0   16.666666666666668
-50.0   0.0   0.0
-100.0   30.0   0.0
-100.0   0.0   16.666666666666668
-50.0   0.0   16.666666666666668
-100.0   30.0   16.666666666666668
-100.0   0.0   33.333333333333336
-50.0   0.0   16.666666666666668
-50.0   30.0   16.666666666666668
-100.0   30.0   16.666666666666668
-50.0   30.0   33.333333333333336
-100.0   0.0   33.333333333333336
-100.0   30.0   33.333333333333336
-50.0   30.0   33.333333333333336
-100.0   30.0   16.666666666666668
-100.0   0.0   33.333333333333336
-50.0   30.0   33.333333333333336
-50.0   0.0   33.333333333333336
-50.0   0.0   16.666666666666668
-100.0   0.0   33.333333333333336
-50.0   30.0   33.333333333333336
-50.0   0.0   16.666666666666668
-100.0   30.0   16.666666666666668
-100.0   0.0   33.333333333333336
-50.0   0.0   33.333333333333336
-100.0   30.0   33.333333333333336
-100.0   0.0   50.0
-50.0   0.0   33.333333333333336
-50.0   30.0   33.333333333333336
-100.0   30.0   33.333333333333336
-50.0   30.0   50.0
-100.0   0.0   50.0
-100.0   30.0   50.0
-50.0   30.0   50.0
-100.0   30.0   33.333333333333336
-100.0   0.0   50.0
-50.0   30.0   50.0
-50.0   0.0   50.0
-50.0   0.0   33.333333333333336
-100.0   0.0   50.0
-50.0   30.0   50.0
-50.0   0.0   33.333333333333336
-100.0   30.0   33.333333333333336
-100.0   30.0   0.0
-50.0   30.0   0.0
-100.0   60.0   0.0
-100.0   30.0   16.666666666666668
-50.0   30.0   0.0
-50.0   60.0   0.0
-100.0   60.0   0.0
-50.0   60.0   16.666666666666668
-100.0   30.0   16.666666666666668
-100.0   60.0   16.666666666666668
-50.0   60.0   16.666666666666668
-100.0   60.0   0.0
-100.0   30.0   16.666666666666668
-50.0   60.0   16.666666666666668
-50.0   30.0   16.666666666666668
-50.0   30.0   0.0
-100.0   30.0   16.666666666666668
-50.0   60.0   16.666666666666668
-50.0   30.0   0.0
-100.0   60.0   0.0
-100.0   30.0   16.666666666666668
-50.0   30.0   16.666666666666668
-100.0   60.0   16.666666666666668
-100.0   30.0   33.333333333333336
-50.0   30.0   16.666666666666668
-50.0   60.0   16.666666666666668
-100.0   60.0   16.666666666666668
-50.0   60.0   33.333333333333336
-100.0   30.0   33.333333333333336
-100.0   60.0   33.333333333333336
-50.0   60.0   33.333333333333336
-100.0   60.0   16.666666666666668
-100.0   30.0   33.333333333333336
-50.0   60.0   33.333333333333336
-50.0   30.0   33.333333333333336
-50.0   30.0   16.666666666666668
-100.0   30.0   33.333333333333336
-50.0   60.0   33.333333333333336
-50.0   30.0   16.666666666666668
-100.0   60.0   16.666666666666668
-100.0   30.0   33.333333333333336
-50.0   30.0   33.333333333333336
-100.0   60.0   33.333333333333336
-100.0   30.0   50.0
-50.0   30.0   33.333333333333336
-50.0   60.0   33.333333333333336
-100.0   60.0   33.333333333333336
-50.0   60.0   50.0
-100.0   30.0   50.0
-100.0   60.0   50.0
-50.0   60.0   50.0
-100.0   60.0   33.333333333333336
-100.0   30.0   50.0
-50.0   60.0   50.0
-50.0   30.0   50.0
-50.0   30.0   33.333333333333336
-100.0   30.0   50.0
-50.0   60.0   50.0
-50.0   30.0   33.333333333333336
-100.0   60.0   33.333333333333336
-100.0   60.0   0.0
-50.0   60.0   0.0
-100.0   90.0   0.0
-100.0   60.0   16.666666666666668
-50.0   60.0   0.0
-50.0   90.0   0.0
-100.0   90.0   0.0
-50.0   90.0   16.666666666666668
-100.0   60.0   16.666666666666668
-100.0   90.0   16.666666666666668
-50.0   90.0   16.666666666666668
-100.0   90.0   0.0
-100.0   60.0   16.666666666666668
-50.0   90.0   16.666666666666668
-50.0   60.0   16.666666666666668
-50.0   60.0   0.0
-100.0   60.0   16.666666666666668
-50.0   90.0   16.666666666666668
-50.0   60.0   0.0
-100.0   90.0   0.0
-100.0   60.0   16.666666666666668
-50.0   60.0   16.666666666666668
-100.0   90.0   16.666666666666668
-100.0   60.0   33.333333333333336
-50.0   60.0   16.666666666666668
-50.0   90.0   16.666666666666668
-100.0   90.0   16.666666666666668
-50.0   90.0   33.333333333333336
-100.0   60.0   33.333333333333336
-100.0   90.0   33.333333333333336
-50.0   90.0   33.333333333333336
-100.0   90.0   16.666666666666668
-100.0   60.0   33.333333333333336
-50.0   90.0   33.333333333333336
-50.0   60.0   33.333333333333336
-50.0   60.0   16.666666666666668
-100.0   60.0   33.333333333333336
-50.0   90.0   33.333333333333336
-50.0   60.0   16.666666666666668
-100.0   90.0   16.666666666666668
-100.0   60.0   33.333333333333336
-50.0   60.0   33.333333333333336
-100.0   90.0   33.333333333333336
-100.0   60.0   50.0
-50.0   60.0   33.333333333333336
-50.0   90.0   33.333333333333336
-100.0   90.0   33.333333333333336
-50.0   90.0   50.0
-100.0   60.0   50.0
-100.0   90.0   50.0
-50.0   90.0   50.0
-100.0   90.0   33.333333333333336
-100.0   60.0   50.0
-50.0   90.0   50.0
-50.0   60.0   50.0
-50.0   60.0   33.333333333333336
-100.0   60.0   50.0
-50.0   90.0   50.0
-50.0   60.0   33.333333333333336
-100.0   90.0   33.333333333333336
-100.0   90.0   0.0
-50.0   90.0   0.0
-100.0   120.0   0.0
-100.0   90.0   16.666666666666668
-50.0   90.0   0.0
-50.0   120.0   0.0
-100.0   120.0   0.0
-50.0   120.0   16.666666666666668
-100.0   90.0   16.666666666666668
-100.0   120.0   16.666666666666668
-50.0   120.0   16.666666666666668
-100.0   120.0   0.0
-100.0   90.0   16.666666666666668
-50.0   120.0   16.666666666666668
-50.0   90.0   16.666666666666668
-50.0   90.0   0.0
-100.0   90.0   16.666666666666668
-50.0   120.0   16.666666666666668
-50.0   90.0   0.0
-100.0   120.0   0.0
-100.0   90.0   16.666666666666668
-50.0   90.0   16.666666666666668
-100.0   120.0   16.666666666666668
-100.0   90.0   33.333333333333336
-50.0   90.0   16.666666666666668
-50.0   120.0   16.666666666666668
-100.0   120.0   16.666666666666668
-50.0   120.0   33.333333333333336
-100.0   90.0   33.333333333333336
-100.0   120.0   33.333333333333336
-50.0   120.0   33.333333333333336
-100.0   120.0   16.666666666666668
-100.0   90.0   33.333333333333336
-50.0   120.0   33.333333333333336
-50.0   90.0   33.333333333333336
-50.0   90.0   16.666666666666668
-100.0   90.0   33.333333333333336
-50.0   120.0   33.333333333333336
-50.0   90.0   16.666666666666668
-100.0   120.0   16.666666666666668
-100.0   90.0   33.333333333333336
-50.0   90.0   33.333333333333336
-100.0   120.0   33.333333333333336
-100.0   90.0   50.0
-50.0   90.0   33.333333333333336
-50.0   120.0   33.333333333333336
-100.0   120.0   33.333333333333336
-50.0   120.0   50.0
-100.0   90.0   50.0
-100.0   120.0   50.0
-50.0   120.0   50.0
-100.0   120.0   33.333333333333336
-100.0   90.0   50.0
-50.0   120.0   50.0
-50.0   90.0   50.0
-50.0   90.0   33.333333333333336
-100.0   90.0   50.0
-50.0   120.0   50.0
-50.0   90.0   33.333333333333336
-100.0   120.0   33.333333333333336
-100.0   120.0   0.0
-50.0   120.0   0.0
-100.0   150.0   0.0
-100.0   120.0   16.666666666666668
-50.0   120.0   0.0
-50.0   150.0   0.0
-100.0   150.0   0.0
-50.0   150.0   16.666666666666668
-100.0   120.0   16.666666666666668
-100.0   150.0   16.666666666666668
-50.0   150.0   16.666666666666668
-100.0   150.0   0.0
-100.0   120.0   16.666666666666668
-50.0   150.0   16.666666666666668
-50.0   120.0   16.666666666666668
-50.0   120.0   0.0
-100.0   120.0   16.666666666666668
-50.0   150.0   16.666666666666668
-50.0   120.0   0.0
-100.0   150.0   0.0
-100.0   120.0   16.666666666666668
-50.0   120.0   16.666666666666668
-100.0   150.0   16.666666666666668
-100.0   120.0   33.333333333333336
-50.0   120.0   16.666666666666668
-50.0   150.0   16.666666666666668
-100.0   150.0   16.666666666666668
-50.0   150.0   33.333333333333336
-100.0   120.0   33.333333333333336
-100.0   150.0   33.333333333333336
-50.0   150.0   33.333333333333336
-100.0   150.0   16.666666666666668
-100.0   120.0   33.333333333333336
-50.0   150.0   33.333333333333336
-50.0   120.0   33.333333333333336
-50.0   120.0   16.666666666666668
-100.0   120.0   33.333333333333336
-50.0   150.0   33.333333333333336
-50.0   120.0   16.666666666666668
-100.0   150.0   16.666666666666668
-100.0   120.0   33.333333333333336
-50.0   120.0   33.333333333333336
-100.0   150.0   33.333333333333336
-100.0   120.0   50.0
-50.0   120.0   33.333333333333336
-50.0   150.0   33.333333333333336
-100.0   150.0   33.333333333333336
-50.0   150.0   50.0
-100.0   120.0   50.0
-100.0   150.0   50.0
-50.0   150.0   50.0
-100.0   150.0   33.333333333333336
-100.0   120.0   50.0
-50.0   150.0   50.0
-50.0   120.0   50.0
-50.0   120.0   33.333333333333336
-100.0   120.0   50.0
-50.0   150.0   50.0
-50.0   120.0   33.333333333333336
-100.0   150.0   33.333333333333336
-50.0   0.0   0.0
0.0   0.0   0.0
-50.0   30.0   0.0
-50.0   0.0   16.666666666666668
0.0   0.0   0.0
0.0   30.0   0.0
-50.0   30.0   0.0
0.0   30.0   16.666666666666668
-50.0   0.0   16.666666666666668
-50.0   30.0   16.666666666666668
0.0   30.0   16.666666666666668
-50.0   30.0   0.0
-50.0   0.0   16.666666666666668
0.0   30.0   16.666666666666668
0.0   0.0   16.666666666666668
0.0   0.0   0.0
-50.0   0.0   16.666666666666668
0.0   30.0   16.666666666666668
0.0   0.0   0.0
-50.0   30.0   0.0
-50.0   0.0   16.666666666666668
0.0   0.0   16.666666666666668
-50.0   30.0   16.666666666666668
-50.0   0.0   33.333333333333336
0.0   0.0   16.666666666666668
0.0   30.0   16.666666666666668
-50.0   30.0   16.666666666666668
0.0   30.0   33.333333333333336
-50.0   0.0   33.333333333333336
-50.0   30.0   33.333333333333336
0.0   30.0   33.333333333333336
-50.0   30.0   16.666666666666668
-50.0   0.0   33.333333333333336
0.0   30.0   33.333333333333336
0.0   0.0   33.333333333333336
0.0   0.0   16.666666666666668
-50.0   0.0   33.333333333333336
0.0   30.0   33.333333333333336
0.0   0.0   16.666666666666668
-50.0   30.0   16.666666666666668
-50.0   0.0   33.333333333333336
0.0   0.0   33.333333333333336
-50.0   30.0   33.333333333333336
-50.0   0.0   50.0
0.0   0.0   33.333333333333336
0.0   30.0   33.333333333333336
-50.0   30.0   33.333333333333336
0.0   30.0   50.0
-50.0   0.0   50.0
-50.0   30.0   50.0
0.0   30.0   50.0
-50.0   30.0   33.333333333333336
-50.0   0.0   50.0
0.0   30.0   50.0
0.0   0.0   50.0
0.0   0.0   33.333333333333336
-50.0   0.0   50.0
0.0   30.0   50.0
0.0   0.0   33.333333333333336
-50.0   30.0   33.333333333333336
-50.0   30.0   0.0
0.0   30.0   0.0
-50.0   60.0   0.0
-50.0   30.0   16.666666666666668
0.0   30.0   0.0
0.0   60.0   0.0
-50.0   60.0   0.0
0.0   60.0   16.666666666666668
-50.0   30.0   16.666666666666668
-50.0   60.0   16.666666666666668
0.0   60.0   16.666666666666668
-50.0   60.0   0.0
-50.0   30.0   16.666666666666668
0.0   60.0   16.666666666666668
0.0   30.0   16.666666666666668
0.0   30.0   0.0
-50.0   30.0   16.666666666666668
0.0   60.0   16.666666666666668
0.0   30.0   0.0
-50.0   60.0   0.0
-50.0   30.0   16.666666666666668
0.0   30.0   16.666666666666668
-50.0   60.0   16.666666666666668
-50.0   30.0   33.333333333333336
0.0   30.0   16.666666666666668
0.0   60.0   16.666666666666668
-50.0   60.0   16.666666666666668
0.0   60.0   33.333333333333336
-50.0   30.0   33.333333333333336
-50.0   60.0   33.333333333333336
0.0   60.0   33.333333333333336
-50.0   60.0   16.666666666666668
-50.0   30.0   33.333333333333336
0.0   60.0   33.333333333333336
0.0   30.0   33.333333333333336
0.0   30.0   16.666666666666668
-50.0   30.0   33.333333333333336
0.0   60.0   33.333333333333336
0.0   30.0   16.666666666666668
-50.0   60.0   16.666666666666668
-50.0   30.0   33.333333333333336
0.0   30.0   33.333333333333336
-50.0   60.0   33.333333333333336
-50.0   30.0   50.0
0.0   30.0   33.333333333333336
0.0   60.0   33.333333333333336
-50.0   60.0   33.333333333333336
0.0   60.0   50.0
-50.0   30.0   50.0
-50.0   60.0   50.0
0.0   60.0   50.0
-50.0   60.0   33.333333333333336
-50.0   30.0   50.0
0.0   60.0   50.0
0.0   30.0   50.0
0.0   30.0   33.333333333333336
-50.0   30.0   50.0
0.0   60.0   50.0
0.0   30.0   33.333333333333336
-50.0   60.0   33.333333333333336
-50.0   60.0   0.0
0.0   60.0   0.0
-50.0   90.0   0.0
-50.0   60.0   16.666666666666668
0.0   60.0   0.0
0.0   90.0   0.0
-50.0   90.0   0.0
0.0   90.0   16.666666666666668
-50.0   60.0   16.666666666666668
-50.0   90.0   16.666666666666668
0.0   90.0   16.666666666666668
-50.0   90.0   0.0
-50.0   60.0   16.666666666666668
0.0   90.0   16.666666666666668
0.0   60.0   16.666666666666668
0.0   60.0   0.0
-50.0   60.0   16.666666666666668
0.0   90.0   16.666666666666668
0.0   60.0   0.0
-50.0   90.0   0.0
-50.0   60.0   16.666666666666668
0.0   60.0   16.666666666666668
-50.0   90.0   16.666666666666668
-50.0   60.0   33.333333333333336
0.0   60.0   16.666666666666668
0.0   90.0   16.666666666666668
-50.0   90.0   16.666666666666668
0.0   90.0   33.333333333333336
-50.0   60.0   33.333333333333336
-50.0   90.0   33.333333333333336
0.0   90.0   33.333333333333336
-50.0   90.0   16.666666666666668
-50.0   60.0   33.333333333333336
0.0   90.0   33.333333333333336
0.0   60.0   33.333333333333336
0.0   60.0   16.666666666666668
-50.0   60.0   33.333333333333336
0.0   90.0   33.333333333333336
0.0   60.0   16.666666666666668
-50.0   90.0   16.666666666666668
-50.0   60.0   33.333333333333336
0.0   60.0   33.333333333333336
-50.0   90.0   33.333333333333336
-50.0   60.0   50.0
0.0   60.0   33.333333333333336
0.0   90.0   33.333333333333336
-50.0   90.0   33.333333333333336
0.0   90.0   50.0
-50.0   60.0   50.0
-50.0   90.0   50.0
0.0   90.0   50.0
-50.0   90.0   33.333333333333336
-50.0   60.0   50.0
0.0   90.0   50.0
0.0   60.0   50.0
0.0   60.0   33.333333333333336
-50.0   60.0   50.0
0.0   90.0   50.0
0.0   60.0   33.333333333333336
-50.0   90.0   33.333333333333336
-50.0   90.0   0.0
0.0   90.0   0.0
-50.0   120.0   0.0
-50.0   90.0   16.666666666666668
0.0   90.0   0.0
0.0   120.0   0.0
-50.0   120.0   0.0
0.0   120.0   16.666666666666668
-50.0   90.0   16.666666666666668
-50.0   120.0   16.666666666666668
0.0   120.0   16.666666666666668
-50.0   120.0   0.0
-50.0   90.0   16.666666666666668
0.0   120.0   16.666666666666668
0.0   90.0   16.666666666666668
0.0   90.0   0.0
-50.0   90.0   16.666666666666668
0.0   120.0   16.666666666666668
0.0   90.0   0.0
-50.0   120.0   0.0
-50.0   90.0   16.666666666666668
0.0   90.0   16.666666666666668
-50.0   120.0   16.666666666666668
-50.0   90.0   33.333333333333336
0.0   90.0   16.666666666666668
0.0   120.0   16.666666666666668
-50.0   120.0   16.666666666666668
0.0   120.0   33.333333333333336
-50.0   90.0   33.333333333333336
-50.0   120.0   33.333333333333336
0.0   120.0   33.333333333333336
-50.0   120.0   16.666666666666668
-50.0   90.0   33.333333333333336
0.0   120.0   33.333333333333336
0.0   90.0   33.333333333333336
0.0   90.0   16.666666666666668
-50.0   90.0   33.333333333333336
0.0   120.0   33.333333333333336
0.0   90.0   16.666666666666668
-50.0   120.0   16.666666666666668
-50.0   90.0   33.333333333333336
0.0   90.0   33.333333333333336
-50.0   120.0   33.333333333333336
-50.0   90.0   50.0
0.0   90.0   33.333333333333336
0.0   120.0   33.333333333333336
-50.0   120.0   33.333333333333336
0.0   120.0   50.0
-50.0   90.0   50.0
-50.0   120.0   50.0
0.0   120.0   50.0
-50.0   120.0   33.333333333333336
-50.0   90.0   50.0
0.0   120.0   50.0
0.0   90.0   50.0
0.0   90.0   33.333333333333336
-50.0   90.0   50.0
0.0   120.0   50.0
0.0   90.0   33.333333333333336
-50.0   120.0   33.333333333333336
-50.0   120.0   0.0
0.0   120.0   0.0
-50.0   150.0   0.0
-50.0   120.0   16.666666666666668
0.0   120.0   0.0
0.0   150.0   0.0
-50.0   150.0   0.0
0.0   150.0   16.666666666666668
-50.0   120.0   16.666666666666668
-50.0   150.0   16.666666666666668
0.0   150.0   16.666666666666668
-50.0   150.0   0.0
-50.0   120.0   16.666666666666668
0.0   150.0   16.666666666666668
0.0   120.0   16.666666666666668
0.0   120.0   0.0
-50.0   120.0   16.666666666666668
0.0   150.0   16.666666666666668
0.0   120.0   0.0
-50.0   150.0   0.0
-50.0   120.0   16.666666666666668
0.0   120.0   16.666666666666668
-50.0   150.0   16.666666666666668
-50.0   120.0   33.333333333333336
0.0   120.0   16.666666666666668
0.0   150.0   16.666666666666668
-50.0   150.0   16.666666666666668
0.0   150.0   33.333333333333336
-50.0   120.0   33.333333333333336
-50.0   150.0   33.333333333333336
0.0   150.0   33.333333333333336
-50.0   150.0   16.666666666666668
-50.0   120.0   33.333333333333336
0.0   150.0   33.333333333333336
0.0   120.0   33.333333333333336
0.0   120.0   16.666666666666668
-50.0   120.0   33.333333333333336
0.0   150.0   33.333333333333336
0.0   120.0   16.666666666666668
-50.0   150.0   16.666666666666668
-50.0   120.0   33.333333333333336
0.0   120.0   33.333333333333336
-50.0   150.0   33.333333333333336
-50.0   120.0   50.0
0.0   120.0   33.333333333333336
0.0   150.0   33.333333333333336
-50.0   150.0   33.333333333333336
0.0   150.0   50.0
-50.0   120.0   50.0
-50.0   150.0   50.0
0.0   150.0   50.0
-50.0   150.0   33.333333333333336
-50.0   120.0   50.0
0.0   150.0   50.0
0.0   120.0   50.0
0.0   120.0   33.333333333333336
-50.0   120.0   50.0
0.0   150.0   50.0
0.0   120.0   33.333333333333336
-50.0   150.0   33.333333333333336
0.0   0.0   0.0
50.0   0.0   0.0
0.0   30.0   0.0
0.0   0.0   16.666666666666668
50.0   0.0   0.0
50.0   30.0   0.0
0.0   30.0   0.0
50.0   30.0   16.666666666666668
0.0   0.0   16.666666666666668
0.0   30.0   16.666666666666668
50.0   30.0   16.666666666666668
0.0   30.0   0.0
0.0   0.0   16.666666666666668
50.0   30.0   16.666666666666668
50.0   0.0   16.666666666666668
50.0   0.0   0.0
0.0   0.0   16.666666666666668
50.0   30.0   16.666666666666668
50.0   0.0   0.0
0.0   30.0   0.0
0.0   0.0   16.666666666666668
50.0   0.0   16.666666666666668
0.0   30.0   16.666666666666668
0.0   0.0   33.333333333333336
50.0   0.0   16.666666666666668
50.0   30.0   16.666666666666668
0.0   30.0   16.666666666666668
50.0   30.0   33.333333333333336
0.0   0.0   33.333333333333336
0.0   30.0   33.333333333333336
50.0   30.0   33.333333333333336
0.0   30.0   16.666666666666668
0.0   0.0   33.333333333333336
50.0   30.0   33.333333333333336
50.0   0.0   33.333333333333336
50.0   0.0   16.666666666666668
0.0   0.0   33.333333333333336
50.0   30.0   33.333333333333336
50.0   0.0   16.666666666666668
0.0   30.0   16.666666666666668
0.0   0.0   33.333333333333336
50.0   0.0   33.333333333333336
0.0   30.0   33.333333333333336
0.0   0.0   50.0
50.0   0.0   33.333333333333336
50.0   30.0   33.333333333333336
0.0   30.0   33.333333333333336
50.0   30.0   50.0
0.0   0.0   50.0
0.0   30.0   50.0
50.0   30.0   50.0
0.0   30.0   33.333333333333336
0.0   0.0   50.0
50.0   30.0   50.0
50.0   0.0   50.0
50.0   0.0   33.333333333333336
0.0   0.0   50.0
50.0   30.0   50.0
50.0   0.0   33.333333333333336
0.0   30.0   33.333333333333336
0.0   30.0   0.0
50.0   30.0   0.0
0.0   60.0   0.0
0.0   30.0   16.666666666666668
50.0   30.0   0.0
50.0   60.0   0.0
0.0   60.0   0.0
50.0   60.0   16.666666666666668
0.0   30.0   16.666666666666668
0.0   60.0   16.666666666666668
50.0   60.0   16.666666666666668
0.0   60.0   0.0
0.0   30.0   16.666666666666668
50.0   60.0   16.666666666666668
50.0   30.0   16.666666666666668
50.0   30.0   0.0
0.0   30.0   16.666666666666668
50.0   60.0   16.666666666666668
50.0   30.0   0.0
0.0   60.0   0.0
0.0   30.0   16.666666666666668
50.0   30.0   16.666666666666668
0.0   60.0   16.666666666666668
0.0   30.0   33.333333333333336
50.0   30.0   16.666666666666668
50.0   60.0   16.666666666666668
0.0   60.0   16.666666666666668
50.0   60.0   33.333333333333336
0.0   30.0   33.333333333333336
0.0   60.0   33.333333333333336
50.0   60.0   33.333333333333336
0.0   60.0   16.666666666666668
0.0   30.0   33.333333333333336
50.0   60.0   33.333333333333336
50.0   30.0   33.333333333333336
50.0   30.0   16.666666666666668
0.0   30.0   33.333333333333336
50.0   60.0   33.333333333333336
50.0   30.0   16.666666666666668
0.0   60.0   16.666666666666668
0.0   30.0   33.333333333333336
50.0   30.0   33.333333333333336
0.0   60.0   33.333333333333336
0.0   30.0   50.0
50.0   30.0   33.333333333333336
50.0   60.0   33.333333333333336
0.0   60.0   33.333333333333336
50.0   60.0   50.0
0.0   30.0   50.0
0.0   60.0   50.0
50.0   60.0   50.0
0.0   60.0   33.333333333333336
0.0   30.0   50.0
50.0   60.0   50.0
50.0   30.0   50.0
50.0   30.0   33.333333333333336
0.0   30.0   50.0
50.0   60.0   50.0
50.0   30.0   33.333333333333336
0.0   60.0   33.333333333333336
0.0   60.0   0.0
50.0   60.0   0.0
0.0   90.0   0.0
0.0   60.0   16.666666666666668
50.0   60.0   0.0
50.0   90.0   0.0
0.0   90.0   0.0
50.0   90.0   16.666666666666668
0.0   60.0   16.666666666666668
0.0   90.0   16.666666666666668
50.0   90.0   16.666666666666668
0.0   90.0   0.0
0.0   60.0   16.666666666666668
50.0   90.0   16.666666666666668
50.0   60.0   16.666666666666668
50.0   60.0   0.0
0.0   60.0   16.666666666666668
50.0   90.0   16.666666666666668
50.0   60.0   0.0
0.0   90.0   0.0
0.0   60.0   16.666666666666668
50.0   60.0   16.666666666666668
0.0   90.0   16.666666666666668
0.0   60.0   33.333333333333336
50.0   60.0   16.666666666666668
50.0   90.0   16.666666666666668
0.0   90.0   16.666666666666668
50.0   90.0   33.333333333333336
0.0   60.0   33.333333333333336
0.0   90.0   33.333333333333336
50.0   90.0   33.333333333333336
0.0   90.0   16.666666666666668
0.0   60.0   33.333333333333336
50.0   90.0   33.333333333333336
50.0   60.0   33.333333333333336
50.0   60.0   16.666666666666668
0.0   60.0   33.333333333333336
50.0   90.0   33.333333333333336
50.0   60.0   16.666666666666668
0.0   90.0   16.666666666666668
0.0   60.0   33.333333333333336
50.0   60.0   33.333333333333336
0.0   90.0   33.333333333333336
0.0   60.0   50.0
50.0   60.0   33.333333333333336
50.0   90.0   33.333333333333336
0.0   90.0   33.333333333333336
50.0   90.0   50.0
0.0   60.0   50.0
0.0   90.0   50.0
50.0   90.0   50.0
0.0   90.0   33.333333333333336
0.0   60.0   50.0
50.0   90.0   50.0
50.0   60.0   50.0
50.0   60.0   33.333333333333336
0.0   60.0   50.0
50.0   90.0   50.0
50.0   60.0   33.333333333333336
0.0   90.0   33.333333333333336
0.0   90.0   0.0
50.0   90.0   0.0
0.0   120.0   0.0
0.0   90.0   16.666666666666668
50.0   90.0   0.0
50.0   120.0   0.0
0.0   120.0   0.0
50.0   120.0   16.666666666666668
0.0   90.0   16.666666666666668
0.0   120.0   16.666666666666668
50.0   120.0   16.666666666666668
0.0   120.0   0.0
0.0   90.0   16.666666666666668
50.0   120.0   16.666666666666668
50.0   90.0   16.666666666666668
50.0   90.0   0.0
0.0   90.0   16.666666666666668
50.0   120.0   16.666666666666668
50.0   90.0   0.0
0.0   120.0   0.0
0.0   90.0   16.666666666666668
50.0   90.0   16.666666666666668
0.0   120.0   16.666666666666668
0.0   90.0   33.333333333333336
50.0   90.0   16.666666666666668
50.0   120.0   16.666666666666668
0.0   120.0   16.666666666666668
50.0   120.0   33.333333333333336
0.0   90.0   33.333333333333336
0.0   120.0   33.333333333333336
50.0   120.0   33.333333333333336
0.0   120.0   16.666666666666668
0.0   90.0   33.333333333333336
50.0   120.0   33.333333333333336
50.0   90.0   33.333333333333336
50.0   90.0   16.666666666666668
0.0   90.0   33.333333333333336
50.0   120.0   33.333333333333336
50.0   90.0   16.666666666666668
0.0   120.0   16.666666666666668
0.0   90.0   33.333333333333336
50.0   90.0   33.333333333333336
0.0   120.0   33.333333333333336
0.0   90.0   50.0
50.0   90.0   33.333333333333336
50.0   120.0   33.333333333333336
0.0   120.0   33.333333333333336
50.0   120.0   50.0
0.0   90.0   50.0
0.0   120.0   50.0
50.0   120.0   50.0
0.0   120.0   33.333333333333336
0.0   90.0   50.0
50.0   120.0   50.0
50.0   90.0   50.0
50.0   90.0   33.333333333333336
0.0   90.0   50.0
50.0   120.0   50.0
50.0   90.0   33.333333333333336
0.0   120.0   33.333333333333336
0.0   120.0   0.0
50.0   120.0   0.0
0.0   150.0   0.0
0.0   120.0   16.666666666666668
50.0   120.0   0.0
50.0   150.0   0.0
0.0   150.0   0.0
50.0   150.0   16.666666666666668
0.0   120.0   16.666666666666668
0.0   150.0   16.666666666666668
50.0   150.0   16.666666666666668
0.0   150.0   0.0
0.0   120.0   16.666666666666668
50.0   150.0   16.666666666666668
50.0   120.0   16.666666666666668
50.0   120.0   0.0
0.0   120.0   16.666666666666668
50.0   150.0   16.666666666666668
50.0   120.0   0.0
0.0   150.0   0.0
0.0   120.0   16.666666666666668
50.0   120.0   16.666666666666668
0.0   150.0   16.666666666666668
0.0   120.0   33.333333333333336
50.0   120.0   16.666666666666668
50.0   150.0   16.666666666666668
0.0   150.0   16.666666666666668
50.0   150.0   33.333333333333336
0.0   120.0   33.333333333333336
0.0   150.0   33.333333333333336
50.0   150.0   33.333333333333336
0.0   150.0   16.666666666666668
0.0   120.0   33.333333333333336
50.0   150.0   33.333333333333336
50.0   120.0   33.333333333333336
50.0   120.0   16.666666666666668
0.0   120.0   33.333333333333336
50.0   150.0   33.333333333333336
50.0   120.0   16.666666666666668
0.0   150.0   16.666666666666668
0.0   120.0   33.333333333333336
50.0   120.0   33.333333333333336
0.0   150.0   33.333333333333336
0.0   120.0   50.0
50.0   120.0   33.333333333333336
50.0   150.0   33.333333333333336
0.0   150.0   33.333333333333336
50.0   150.0   50.0
0.0   120.0   50.0
0.0   150.0   50.0
50.0   150.0   50.0
0.0   150.0   33.333333333333336
0.0   120.0   50.0
50.0   150.0   50.0
50.0   120.0   50.0
50.0   120.0   33.333333333333336
0.0   120.0   50.0
50.0   150.0   50.0
50.0   120.0   33.333333333333336
0.0   150.0   33.333333333333336
50.0   0.0   0.0
100.0   0.0   0.0
50.0   30.0   0.0
50.0   0.0   16.666666666666668
100.0   0.0   0.0
100.0   30.0   0.0
50.0   30.0   0.0
100.0   30.0   16.666666666666668
50.0   0.0   16.666666666666668
50.0   30.0   16.666666666666668
100.0   30.0   16.666666666666668
50.0   30.0   0.0
50.0   0.0   16.666666666666668
100.0   30.0   16.666666666666668
100.0   0.0   16.666666666666668
100.0   0.0   0.0
50.0   0.0   16.666666666666668
100.0   30.0   16.666666666666668
100.0   0.0   0.0
50.0   30.0   0.0
50.0   0.0   16.666666666666668
100.0   0.0   16.666666666666668
50.0   30.0   16.666666666666668
50.0   0.0   33.333333333333336
100.0   0.0   16.666666666666668
100.0   30.0   16.666666666666668
50.0   30.0   16.666666666666668
100.0   30.0   33.333333333333336
50.0   0.0   33.333333333333336
50.0   30.0   33.333333333333336
100.0   30.0   33.333333333333336
50.0   30.0   16.666666666666668
50.0   0.0   33.333333333333336
100.0   30.0   33.333333333333336
100.0   0.0   33.333333333333336
100.0   0.0   16.666666666666668
50.0   0.0   33.333333333333336
100.0   30.0   33.333333333333336
100.0   0.0   16.666666666666668
50.0   30.0   16.666666666666668
50.0   0.0   33.333333333333336
100.0   0.0   33.333333333333336
50.0   30.0   33.333333333333336
50.0   0.0   50.0
100.0   0.0   33.333333333333336
100.0   30.0   33.333333333333336
50.0   30.0   33.333333333333336
100.0   30.0   50.0
50.0   0.0   50.0
50.0   30.0   50.0
100.0   30.0   50.0
50.0   30.0   33.333333333333336
50.0   0.0   50.0
100.0   30.0   50.0
100.0   0.0   50.0
100.0   0.0   33.333333333333336
50.0   0.0   50.0
100.0   30.0   50.0
100.0   0.0   33.333333333333336
50.0   30.0   33.333333333333336
50.0   30.0   0.0
100.0   30.0   0.0
50.0   60.0   0.0
50.0   30.0   16.666666666666668
100.0   30.0   0.0
100.0   60.0   0.0
50.0   60.0   0.0
100.0   60.0   16.666666666666668
50.0   30.0   16.666666666666668
50.0   60.0   16.666666666666668
100.0   60.0   16.666666666666668
50.0   60.0   0.0
50.0   30.0   16.666666666666668
100.0   60.0   16.666666666666668
100.0   30.0   16.666666666666668
100.0   30.0   0.0
50.0   30.0   16.666666666666668
100.0   60.0   16.666666666666668
100.0   30.0   0.0
50.0   60.0   0.0
50.0   30.0   16.666666666666668
100.0   30.0   16.666666666666668
50.0   60.0   16.666666666666668
50.0   30.0   33.333333333333336
100.0   30.0   16.666666666666668
100.0   60.0   16.666666666666668
50.0   60.0   16.666666666666668
100.0   60.0   33.333333333333336
50.0   30.0   33.333333333333336
50.0   60.0   33.333333333333336
100.0   60.0   33.333333333333336
50.0   60.0   16.666666666666668
50.0   30.0   33.333333333333336
100.0   60.0   33.333333333333336
100.0   30.0   33.333333333333336
100.0   30.0   16.666666666666668
50.0   30.0   33.333333333333336
100.0   60.0   33.333333333333336
100.0   30.0   16.666666666666668
50.0   60.0   16.666666666666668
50.0   30.0   33.333333333333336
100.0   30.0   33.333333333333336
50.0   60.0   33.333333333333336
50.0   30.0   50.0
100.0   30.0   33.333333333333336
100.0   60.0   33.333333333333336
50.0   60.0   33.333333333333336
100.0   60.0   50.0
50.0   30.0   50.0
50.0   60.0   50.0
100.0   60.0   50.0
50.0   60.0   33.333333333333336
50.0   30.0   50.0
100.0   60.0   50.0
100.0   30.0   50.0
100.0   30.0   33.333333333333336
50.0   30.0   50.0
100.0   60.0   50.0
100.0   30.0   33.333333333333336
50.0   60.0   33.333333333333336
50.0   60.0   0.0
100.0   60.0   0.0
50.0   90.0   0.0
50.0   60.0   16.666666666666668
100.0   60.0   0.0
100.0   90.0   0.0
50.0   90.0   0.0
100.0   90.0   16.666666666666668
50.0   60.0   16.666666666666668
50.0   90.0   16.666666666666668
100.0   90.0   16.666666666666668
50.0   90.0   0.0
50.0   60.0   16.666666666666668
100.0   90.0   16.666666666666668
100.0   60.0   16.666666666666668
100.0   60.0   0.0
50.0   60.0   16.666666666666668
100.0   90.0   16.666666666666668
100.0   60.0   0.0
50.0   90.0   0.0
50.0   60.0   16.666666666666668
100.0   60.0   16.666666666666668
50.0   90.0   16.666666666666668
50.0   60.0   33.333333333333336
100.0   60.0   16.666666666666668
100.0   90.0   16.666666666666668
50.0   90.0   16.666666666666668
100.0   90.0   33.333333333333336
50.0   60.0   33.333333333333336
50.0   90.0   33.333333333333336
100.0   90.0   33.333333333333336
50.0   90.0   16.666666666666668
50.0   60.0   33.333333333333336
100.0   90.0   33.333333333333336
100.0   60.0   33.333333333333336
100.0   60.0   16.666666666666668
50.0   60.0   33.333333333333336
100.0   90.0   33.333333333333336
100.0   60.0   16.666666666666668
50.0   90.0   16.666666666666668
50.0   60.0   33.333333333333336
100.0   60.0   33.333333333333336
50.0   90.0   33.333333333333336
50.0   60.0   50.0
100.0   60.0   33.333333333333336
100.0   90.0   33.333333333333336
50.0   90.0   33.333333333333336
100.0   90.0   50.0
50.0   60.0   50.0
50.0   90.0   50.0
100.0   90.0   50.0
50.0   90.0   33.333333333333336
50.0   60.0   50.0
100.0   90.0   50.0
100.0   60.0   50.0
100.0   60.0   33.333333333333336
50.0   60.0   50.0
100.0   90.0   50.0
100.0   60.0   33.333333333333336
50.0   90.0   33.333333333333336
50.0   90.0   0.0
100.0   90.0   0.0
50.0   120.0   0.0
50.0   90.0   16.666666666666668
100.0   90.0   0.0
100.0   120.0   0.0
50.0   120.0   0.0
100.0   120.0   16.666666666666668
50.0   90.0   16.666666666666668
50.0   120.0   16.666666666666668
100.0   120.0   16.666666666666668
50.0   120.0   0.0
50.0   90.0   16.666666666666668
100.0   120.0   16.666666666666668
100.0   90.0   16.666666666666668
100.0   90.0   0.0
50.0   90.0   16.666666666666668
100.0   120.0   16.666666666666668
100.0   90.0   0.0
50.0   120.0   0.0
50.0   90.0   16.666666666666668
100.0   90.0   16.666666666666668
50.0   120.0   16.666666666666668
50.0   90.0   33.333333333333336
100.0   90.0   16.666666666666668
100.0   120.0   16.666666666666668
50.0   120.0   16.666666666666668
100.0   120.0   33.333333333333336
50.0   90.0   33.333333333333336
50.0   120.0   33.333333333333336
100.0   120.0   33.333333333333336
50.0   120.0   16.666666666666668
50.0   90.0   33.333333333333336
100.0   120.0   33.333333333333336
100.0   90.0   33.333333333333336
100.0   90.0   16.666666666666668
50.0   90.0   33.333333333333336
100.0   120.0   33.333333333333336
100.0   90.0   16.666666666666668
50.0   120.0   16.666666666666668
50.0   90.0   33.333333333333336
100.0   90.0   33.333333333333336
50.0   120.0   33.333333333333336
50.0   90.0   50.0
100.0   90.0   33.333333333333336
100.0   120.0   33.333333333333336
50.0   120.0   33.333333333333336
100.0   120.0   50.0
50.0   90.0   50.0
50.0   120.0   50.0
100.0   120.0   50.0
50.0   120.0   33.333333333333336
50.0   90.0   50.0
100.0   120.0   50.0
100.0   90.0   50.0
100.0   90.0   33.333333333333336
50.0   90.0   50.0
100.0   120.0   50.0
100.0   90.0   33.333333333333336
50.0   120.0   33.333333333333336
50.0   120.0   0.0
100.0   120.0   0.0
50.0   150.0   0.0
50.0   120.0   16.666666666666668
100.0   120.0   0.0
100.0   150.0   0.0
50.0   150.0   0.0
100.0   150.0   16.666666666666668
50.0   120.0   16.666666666666668
50.0   150.0   16.666666666666668
100.0   150.0   16.666666666666668
50.0   150.0   0.0
50.0   120.0   16.666666666666668
100.0   150.0   16.666666666666668
100.0   120.0   16.666666666666668
100.0   120.0   0.0
50.0   120.0   16.666666666666668
100.0   150.0   16.666666666666668
100.0   120.0   0.0
50.0   150.0   0.0
50.0   120.0   16.666666666666668
100.0   120.0   16.666666666666668
50.0   150.0   16.666666666666668
50.0   120.0   33.333333333333336
100.0   120.0   16.666666666666668
100.0   150.0   16.666666666666668
50.0   150.0   16.666666666666668
100.0   150.0   33.333333333333336
50.0   120.0   33.333333333333336
50.0   150.0   33.333333333333336
100.0   150.0   33.333333333333336
50.0   150.0   16.666666666666668
50.0   120.0   33.333333333333336
100.0   150.0   33.333333333333336
100.0   120.0   33.333333333333336
100.0   120.0   16.666666666666668
50.0   120.0   33.333333333333336
100.0   150.0   33.333333333333336
100.0   120.0   16.666666666666668
50.0   150.0   16.666666666666668
50.0   120.0   33.333333333333336
100.0   120.0   33.333333333333336
50.0   150.0   33.333333333333336
50.0   120.0   50.0
100.0   120.0   33.333333333333336
100.0   150.0   33.333333333333336
50.0   150.0   33.333333333333336
100.0   150.0   50.0
50.0   120.0   50.0
50.0   150.0   50.0
100.0   150.0   50.0
50.0   150.0   33.333333333333336
50.0   120.0   50.0
100.0   150.0   50.0
100.0   120.0   50.0
100.0   120.0   33.333333333333336
50.0   120.0   50.0
100.0   150.0   50.0
100.0   120.0   33.333333333333336
50.0   150.0   33.333333333333336
100.0   0.0   0.0
150.0   0.0   0.0
100.0   30.0   0.0
100.0   0.0   16.666666666666668
150.0   0.0   0.0
150.0   30.0   0.0
100.0   30.0   0.0
150.0   30.0   16.666666666666668
100.0   0.0   16.666666666666668
100.0   30.0   16.666666666666668
150.0   30.0   16.666666666666668
100.0   30.0   0.0
100.0   0.0   16.666666666666668
150.0   30.0   16.666666666666668
150.0   0.0   16.666666666666668
150.0   0.0   0.0
100.0   0.0   16.666666666666668
150.0   30.0   16.666666666666668
150.0   0.0   0.0
100.0   30.0   0.0
100.0   0.0   16.666666666666668
150.0   0.0   16.666666666666668
100.0   30.0   16.666666666666668
100.0   0.0   33.333333333333336
150.0   0.0   16.666666666666668
150.0   30.0   16.666666666666668
100.0   30.0   16.666666666666668
150.0   30.0   33.333333333333336
100.0   0.0   33.333333333333336
100.0   30.0   33.333333333333336
150.0   30.0   33.333333333333336
100.0   30.0   16.666666666666668
100.0   0.0   33.333333333333336
150.0   30.0   33.333333333333336
150.0   0.0   33.333333333333336
150.0   0.0   16.666666666666668
100.0   0.0   33.333333333333336
150.0   30.0   33.333333333333336
150.0   0.0   16.666666666666668
100.0   30.0   16.666666666666668
100.0   0.0   33.333333333333336
150.0   0.0   33.333333333333336
100.0   30.0   33.333333333333336
100.0   0.0   50.0
150.0   0.0   33.333333333333336
150.0   30.0   33.333333333333336
100.0   30.0   33.333333333333336
150.0   30.0   50.0
100.0   0.0   50.0
100.0   30.0   50.0
150.0   30.0   50.0
100.0   30.0   33.333333333333336
100.0   0.0   50.0
150.0   30.0   50.0
150.0   0.0   50.0
150.0   0.0   33.333333333333336
100.0   0.0   50.0
150.0   30.0   50.0
150.0   0.0   33.333333333333336
100.0   30.0   33.333333333333336
100.0   30.0   0.0
150.0   30.0   0.0
100.0   60.0   0.0
100.0   30.0   16.666666666666668
150.0   30.0   0.0
150.0   60.0   0.0
100.0   60.0   0.0
150.0   60.0   16.666666666666668
100.0   30.0   16.666666666666668
100.0   60.0   16.666666666666668
150.0   60.0   16.666666666666668
100.0   60.0   0.0
100.0   30.0   16.666666666666668
150.0   60.0   16.666666666666668
150.0   30.0   16.666666666666668
150.0   30.0   0.0
100.0   30.0   16.666666666666668
150.0   60.0   16.666666666666668
150.0   30.0   0.0
100.0   60.0   0.0
100.0   30.0   16.666666666666668
150.0   30.0   16.666666666666668
100.0   60.0   16.666666666666668
100.0   30.0   33.333333333333336
150.0   30.0   16.666666666666668
150.0   60.0   16.666666666666668
100.0   60.0   16.666666666666668
150.0   60.0   33.333333333333336
100.0   30.0   33.333333333333336
100.0   60.0   33.333333333333336
150.0   60.0   33.333333333333336
100.0   60.0   16.666666666666668
100.0   30.0   33.333333333333336
150.0   60.0   33.333333333333336
150.0   30.0   33.333333333333336
150.0   30.0   16.666666666666668
100.0   30.0   33.333333333333336
150.0   60.0   33.333333333333336
150.0   30.0   16.666666666666668
100.0   60.0   16.666666666666668
100.0   30.0   33.333333333333336
150.0   30.0   33.333333333333336
100.0   60.0   33.333333333333336
100.0   30.0   50.0
150.0   30.0   33.333333333333336
150.0   60.0   33.333333333333336
100.0   60.0   33.333333333333336
150.0   60.0   50.0
100.0   30.0   50.0
100.0   60.0   50.0
150.0   60.0   50.0
100.0   60.0   33.333333333333336
100.0   30.0   50.0
150.0   60.0   50.0
150.0   30.0   50.0
150.0   30.0   33.333333333333336
100.0   30.0   50.0
150.0   60.0   50.0
150.0   30.0   33.333333333333336
100.0   60.0   33.333333333333336
100.0   60.0   0.0
150.0   60.0   0.0
100.0   90.0   0.0
100.0   60.0   16.666666666666668
150.0   60.0   0.0
150.0   90.0   0.0
100.0   90.0   0.0
150.0   90.0   16.666666666666668
100.0   60.0   16.666666666666668
100.0   90.0   16.666666666666668
150.0   90.0   16.666666666666668
100.0   90.0   0.0
100.0   60.0   16.666666666666668
150.0   90.0   16.666666666666668
150.0   60.0   16.666666666666668
150.0   60.0   0.0
100.0   60.0   16.666666666666668
150.0   90.0   16.666666666666668
150.0   60.0   0.0
100.0   90.0   0.0
100.0   60.0   16.666666666666668
150.0   60.0   16.666666666666668
100.0   90.0   16.666666666666668
100.0   60.0   33.333333333333336
150.0   60.0   16.666666666666668
150.0   90.0   16.666666666666668
100.0   90.0   16.666666666666668
150.0   90.0   33.333333333333336
100.0   60.0   33.333333333333336
100.0   90.0   33.333333333333336
150.0   90.0   33.333333333333336
100.0   90.0   16.666666666666668
100.0   60.0   33.333333333333336
150.0   90.0   33.333333333333336
150.0   60.0   33.333333333333336
150.0   60.0   16.666666666666668
100.0   60.0   33.333333333333336
150.0   90.0   33.333333333333336
150.0   60.0   16.666666666666668
100.0   90.0   16.666666666666668
100.0   60.0   33.333333333333336
150.0   60.0   33.333333333333336
100.0   90.0   33.333333333333336
100.0   60.0   50.0
150.0   60.0   33.333333333333336
150.0   90.0   33.333333333333336
100.0   90.0   33.333333333333336
150.0   90.0   50.0
100.0   60.0   50.0
100.0   90.0   50.0
150.0   90.0   50.0
100.0   90.0   33.333333333333336
100.0   60.0   50.0
150.0   90.0   50.0
150.0   60.0   50.0
150.0   60.0   33.333333333333336
100.0   60.0   50.0
150.0   90.0   50.0
150.0   60.0   33.333333333333336
100.0   90.0   33.333333333333336
100.0   90.0   0.0
150.0   90.0   0.0
100.0   120.0   0.0
100.0   90.0   16.666666666666668
150.0   90.0   0.0
150.0   120.0   0.0
100.0   120.0   0.0
150.0   120.0   16.666666666666668
100.0   90.0   16.666666666666668
100.0   120.0   16.666666666666668
150.0   120.0   16.666666666666668
100.0   120.0   0.0
100.0   90.0   16.666666666666668
150.0   120.0   16.666666666666668
150.0   90.0   16.666666666666668
150.0   90.0   0.0
100.0   90.0   16.666666666666668
150.0   120.0   16.666666666666668
150.0   90.0   0.0
100.0   120.0   0.0
100.0   90.0   16.666666666666668
150.0   90.0   16.666666666666668
100.0   120.0   16.666666666666668
100.0   90.0   33.333333333333336
150.0   90.0   16.666666666666668
150.0   120.0   16.666666666666668
100.0   120.0   16.666666666666668
150.0   120.0   33.333333333333336
100.0   90.0   33.333333333333336
100.0   120.0   33.333333333333336
150.0   120.0   33.333333333333336
100.0   120.0   16.666666666666668
100.0   90.0   33.333333333333336
150.0   120.0   33.333333333333336
150.0   90.0   33.333333333333336
150.0   90.0   16.666666666666668
100.0   90.0   33.333333333333336
150.0   120.0   33.333333333333336
150.0   90.0   16.666666666666668
100.0   120.0   16.666666666666668
100.0   90.0   33.333333333333336
150.0   90.0   33.333333333333336
100.0   120.0   33.333333333333336
100.0   90.0   50.0
150.0   90.0   33.333333333333336
150.0   120.0   33.333333333333336
100.0   120.0   33.333333333333336
150.0   120.0   50.0
100.0   90.0   50.0
100.0   120.0   50.0
150.0   120.0   50.0
100.0   120.0   33.333333333333336
100.0   90.0   50.0
150.0   120.0   50.0
150.0   90.0   50.0
150.0   90.0   33.333333333333336
100.0   90.0   50.0
150.0   120.0   50.0
150.0   90.0   33.333333333333336
100.0   120.0   33.333333333333336
100.0   120.0   0.0
150.0   120.0   0.0
100.0   150.0   0.0
100.0   120.0   16.666666666666668
150.0   120.0   0.0
150.0   150.0   0.0
100.0   150.0   0.0
150.0   150.0   16.666666666666668
100.0   120.0   16.666666666666668
100.0   150.0   16.666666666666668
150.0   150.0   16.666666666666668
100.0   150.0   0.0
100.0   120.0   16.666666666666668
150.0   150.0   16.666666666666668
150.0   120.0   16.666666666666668
150.0   120.0   0.0
100.0   120.0   16.666666666666668
150.0   150.0   16.666666666666668
150.0   120.0   0.0
100.0   150.0   0.0
100.0   120.0   16.666666666666668
150.0   120.0   16.666666666666668
100.0   150.0   16.666666666666668
100.0   120.0   33.333333333333336
150.0   120.0   16.666666666666668
150.0   150.0   16.666666666666668
100.0   150.0   16.666666666666668
150.0   150.0   33.333333333333336
100.0   120.0   33.333333333333336
100.0   150.0   33.333333333333336
150.0   150.0   33.333333333333336
100.0   150.0   16.666666666666668
100.0   120.0   33.333333333333336
150.0   150.0   33.333333333333336
150.0   120.0   33.333333333333336
150.0   120.0   16.666666666666668
100.0   120.0   33.333333333333336
150.0   150.0   33.333333333333336
150.0   120.0   16.666666666666668
100.0   150.0   16.666666666666668
100.0   120.0   33.333333333333336
150.0   120.0   33.333333333333336
100.0   150.0   33.333333333333336
100.0   120.0   50.0
150.0   120.0   33.333333333333336
150.0   150.0   33.333333333333336
100.0   150.0   33.333333333333336
150.0   150.0   50.0
100.0   120.0   50.0
100.0   150.0   50.0
150.0   150.0   50.0
100.0   150.0   33.333333333333336
100.0   120.0   50.0
150.0   150.0   50.0
150.0   120.0   50.0
150.0   120.0   33.333333333333336
100.0   120.0   50.0
150.0   150.0   50.0
150.0   120.0   33.333333333333336
100.0   150.0   33.333333333333336
150.0   0.0   0.0
200.0   0.0   0.0
150.0   30.0   0.0
150.0   0.0   16.666666666666668
200.0   0.0   0.0
200.0   30.0   0.0
150.0   30.0   0.0
200.0   30.0   16.666666666666668
150.0   0.0   16.666666666666668
150.0   30.0   16.666666666666668
200.0   30.0   16.666666666666668
150.0   30.0   0.0
150.0   0.0   16.666666666666668
200.0   30.0   16.666666666666668
200.0   0.0   16.666666666666668
200.0   0.0   0.0
150.0   0.0   16.666666666666668
200.0   30.0   16.666666666666668
200.0   0.0   0.0
150.0   30.0   0.0
150.0   0.0   16.666666666666668
200.0   0.0   16.666666666666668
150.0   30.0   16.666666666666668
150.0   0.0   33.333333333333336
200.0   0.0   16.666666666666668
200.0   30.0   16.666666666666668
150.0   30.0   16.666666666666668
200.0   30.0   33.333333333333336
150.0   0.0   33.333333333333336
150.0   30.0   33.333333333333336
200.0   30.0   33.333333333333336
150.0   30.0   16.666666666666668
150.0   0.0   33.333333333333336
200.0   30.0   33.333333333333336
200.0   0.0   33.333333333333336
200.0   0.0   16.666666666666668
150.0   0.0   33.333333333333336
200.0   30.0   33.333333333333336
200.0   0.0   16.666666666666668
150.0   30.0   16.666666666666668
150.0   0.0   33.333333333333336
200.0   0.0   33.333333333333336
150.0   30.0   33.333333333333336
150.0   0.0   50.0
200.0   0.0   33.333333333333336
200.0   30.0   33.333333333333336
150.0   30.0   33.333333333333336
200.0   30.0   50.0
150.0   0.0   50.0
150.0   30.0   50.0
200.0   30.0   50.0
150.0   30.0   33.333333333333336
150.0   0.0   50.0
200.0   30.0   50.0
200.0   0.0   50.0
200.0   0.0   33.333333333333336
150.0   0.0   50.0
200.0   30.0   50.0
200.0   0.0   33.333333333333336
150.0   30.0   33.333333333333336
150.0   30.0   0.0
200.0   30.0   0.0
150.0   60.0   0.0
150.0   30.0   16.666666666666668
200.0   30.0   0.0
200.0   60.0   0.0
150.0   60.0   0.0
200.0   60.0   16.666666666666668
150.0   30.0   16.666666666666668
150.0   60.0   16.666666666666668
200.0   60.0   16.666666666666668
150.0   60.0   0.0
150.0   30.0   16.666666666666668
200.0   60.0   16.666666666666668
200.0   30.0   16.666666666666668
200.0   30.0   0.0
150.0   30.0   16.666666666666668
200.0   60.0   16.666666666666668
200.0   30.0   0.0
150.0   60.0   0.0
150.0   30.0   16.666666666666668
200.0   30.0   16.666666666666668
150.0   60.0   16.666666666666668
150.0   30.0   33.333333333333336
200.0   30.0   16.666666666666668
200.0   60.0   16.666666666666668
150.0   60.0   16.666666666666668
200.0   60.0   33.333333333333336
150.0   30.0   33.333333333333336
150.0   60.0   33.333333333333336
200.0   60.0   33.333333333333336
150.0   60.0   16.666666666666668
150.0   30.0   33.333333333333336
200.0   60.0   33.333333333333336
200.0   30.0   33.333333333333336
200.0   30.0   16.666666666666668
150.0   30.0   33.333333333333336
200.0   60.0   33.333333333333336
200.0   30.0   16.666666666666668
150.0   60.0   16.666666666666668
150.0   30.0   33.333333333333336
200.0   30.0   33.333333333333336
150.0   60.0   33.333333333333336
150.0   30.0   50.0
200.0   30.0   33.333333333333336
200.0   60.0   33.333333333333336
150.0   60.0   33.333333333333336
200.0   60.0   50.0
150.0   30.0   50.0
150.0   60.0   50.0
200.0   60.0   50.0
150.0   60.0   33.333333333333336
150.0   30.0   50.0
200.0   60.0   50.0
200.0   30.0   50.0
200.0   30.0   33.333333333333336
150.0   30.0   50.0
200.0   60.0   50.0
200.0   30.0   33.333333333333336
150.0   60.0   33.333333333333336
150.0   60.0   0.0
200.0   60.0   0.0
150.0   90.0   0.0
150.0   60.0   16.666666666666668
200.0   60.0   0.0
200.0   90.0   0.0
150.0   90.0   0.0
200.0   90.0   16.666666666666668
150.0   60.0   16.666666666666668
150.0   90.0   16.666666666666668
200.0   90.0   16.666666666666668
150.0   90.0   0.0
150.0   60.0   16.666666666666668
200.0   90.0   16.666666666666668
200.0   60.0   16.666666666666668
200.0   60.0   0.0
150.0   60.0   16.666666666666668
200.0   90.0   16.666666666666668
200.0   60.0   0.0
150.0   90.0   0.0
150.0   60.0   16.666666666666668
200.0   60.0   16.666666666666668
150.0   90.0   16.666666666666668
150.0   60.0   33.333333333333336
200.0   60.0   16.666666666666668
200.0   90.0   16.666666666666668
150.0   90.0   16.666666666666668
200.0   90.0   33.333333333333336
150.0   60.0   33.333333333333336
150.0   90.0   33.333333333333336
200.0   90.0   33.333333333333336
150.0   90.0   16.666666666666668
150.0   60.0   33.333333333333336
200.0   90.0   33.333333333333336
200.0   60.0   33.333333333333336
200.0   60.0   16.666666666666668
150.0   60.0   33.333333333333336
200.0   90.0   33.333333333333336
200.0   60.0   16.666666666666668
150.0   90.0   16.666666666666668
150.0   60.0   33.333333333333336
200.0   60.0   33.333333333333336
150.0   90.0   33.333333333333336
150.0   60.0   50.0
200.0   60.0   33.333333333333336
200.0   90.0   33.333333333333336
150.0   90.0   33.333333333333336
200.0   90.0   50.0
150.0   60.0   50.0
150.0   90.0   50.0
200.0   90.0   50.0
150.0   90.0   33.333333333333336
150.0   60.0   50.0
200.0   90.0   50.0
200.0   60.0   50.0
200.0   60.0   33.333333333333336
150.0   60.0   50.0
200.0   90.0   50.0
200.0   60.0   33.333333333333336
150.0   90.0   33.333333333333336
150.0   90.0   0.0
200.0   90.0   0.0
150.0   120.0   0.0
150.0   90.0   16.666666666666668
200.0   90.0   0.0
200.0   120.0   0.0
150.0   120.0   0.0
200.0   120.0   16.666666666666668
150.0   90.0   16.666666666666668
150.0   120.0   16.666666666666668
200.0   120.0   16.666666666666668
150.0   120.0   0.0
150.0   90.0   16.666666666666668
200.0   120.0   16.666666666666668
200.0   90.0   16.666666666666668
200.0   90.0   0.0
150.0   90.0   16.666666666666668
200.0   120.0   16.666666666666668
200.0   90.0   0.0
150.0   120.0   0.0
150.0   90.0   16.666666666666668
200.0   90.0   16.666666666666668
150.0   120.0   16.666666666666668
150.0   90.0   33.333333333333336
200.0   90.0   16.666666666666668
200.0   120.0   16.666666666666668
150.0   120.0   16.666666666666668
200.0   120.0   33.333333333333336
150.0   90.0   33.333333333333336
150.0   120.0   33.333333333333336
200.0   120.0   33.333333333333336
150.0   120.0   16.666666666666668
150.0   90.0   33.333333333333336
200.0   120.0   33.333333333333336
200.0   90.0   33.333333333333336
200.0   90.0   16.666666666666668
150.0   90.0   33.333333333333336
200.0   120.0   33.333333333333336
200.0   90.0   16.666666666666668
150.0   120.0   16.666666666666668
150.0   90.0   33.333333333333336
200.0   90.0   33.333333333333336
150.0   120.0   33.333333333333336
150.0   90.0   50.0
200.0   90.0   33.333333333333336
200.0   120.0   33.333333333333336
150.0   120.0   33.333333333333336
200.0   120.0   50.0
150.0   90.0   50.0
150.0   120.0   50.0
200.0   120.0   50.0
150.0   120.0   33.333333333333336
150.0   90.0   50.0
200.0   120.0   50.0
200.0   90.0   50.0
200.0   90.0   33.333333333333336
150.0   90.0   50.0
200.0   120.0   50.0
200.0   90.0   33.333333333333336
150.0   120.0   33.333333333333336
150.0   120.0   0.0
200.0   120.0   0.0
150.0   150.0   0.0
150.0   120.0   16.666666666666668
200.0   120.0   0.0
200.0   150.0   0.0
150.0   150.0   0.0
200.0   150.0   16.666666666666668
150.0   120.0   16.666666666666668
150.0   150.0   16.666666666666668
200.0   150.0   16.666666666666668
150.0   150.0   0.0
150.0   120.0   16.666666666666668
200.0   150.0   16.666666666666668
200.0   120.0   16.666666666666668
200.0   120.0   0.0
150.0   120.0   16.666666666666668
200.0   150.0   16.666666666666668
200.0   120.0   0.0
150.0   150.0   0.0
150.0   120.0   16.666666666666668
200.0   120.0   16.666666666666668
150.0   150.0   16.666666666666668
150.0   120.0   33.333333333333336
200.0   120.0   16.666666666666668
200.0   150.0   16.666666666666668
150.0   150.0   16.666666666666668
200.0   150.0   33.333333333333336
150.0   120.0   33.333333333333336
150.0   150.0   33.333333333333336
200.0   150.0   33.333333333333336
150.0   150.0   16.666666666666668
150.0   120.0   33.333333333333336
200.0   150.0   33.333333333333336
200.0   120.0   33.333333333333336
200.0   120.0   16.666666666666668
150.0   120.0   33.333333333333336
200.0   150.0   33.333333333333336
200.0   120.0   16.666666666666668
150.0   150.0   16.666666666666668
150.0   120.0   33.333333333333336
200.0   120.0   33.333333333333336
150.0   150.0   33.333333333333336
150.0   120.0   50.0
200.0   120.0   33.333333333333336
200.0   150.0   33.333333333333336
150.0   150.0   33.333333333333336
200.0   150.0   50.0
150.0   120.0   50.0
150.0   150.0   50.0
200.0   150.0   50.0
150.0   150.0   33.333333333333336
150.0   120.0   50.0
200.0   150.0   50.0
200.0   120.0   50.0
200.0   120.0   33.333333333333336
150.0   120.0   50.0
200.0   150.0   50.0
200.0   120.0   33.333333333333336
150.0   150.0   33.333333333333336
200.0   0.0   0.0
250.0   0.0   0.0
200.0   30.0   0.0
200.0   0.0   16.666666666666668
250.0   0.0   0.0
250.0   30.0   0.0
200.0   30.0   0.0
250.0   30.0   16.666666666666668
200.0   0.0   16.666666666666668
200.0   30.0   16.666666666666668
250.0   30.0   16.666666666666668
200.0   30.0   0.0
200.0   0.0   16.666666666666668
250.0   30.0   16.666666666666668
250.0   0.0   16.666666666666668
250.0   0.0   0.0
200.0   0.0   16.666666666666668
250.0   30.0   16.666666666666668
250.0   0.0   0.0
200.0   30.0   0.0
200.0   0.0   16.666666666666668
250.0   0.0   16.666666666666668
200.0   30.0   16.666666666666668
200.0   0.0   33.333333333333336
250.0   0.0   16.666666666666668
250.0   30.0   16.666666666666668
200.0   30.0   16.666666666666668
250.0   30.0   33.333333333333336
200.0   0.0   33.333333333333336
200.0   30.0   33.333333333333336
250.0   30.0   33.333333333333336
200.0   30.0   16.666666666666668
200.0   0.0   33.333333333333336
250.0   30.0   33.333333333333336
250.0   0.0   33.333333333333336
250.0   0.0   16.666666666666668
200.0   0.0   33.333333333333336
250.0   30.0   33.333333333333336
250.0   0.0   16.666666666666668
200.0   30.0   16.666666666666668
200.0   0.0   33.333333333333336
250.0   0.0   33.333333333333336
200.0   30.0   33.333333333333336
200.0   0.0   50.0
250.0   0.0   33.333333333333336
250.0   30.0   33.333333333333336
200.0   30.0   33.333333333333336
250.0   30.0   50.0
200.0   0.0   50.0
200.0   30.0   50.0
250.0   30.0   50.0
200.0   30.0   33.333333333333336
200.0   0.0   50.0
250.0   30.0   50.0
250.0   0.0   50.0
250.0   0.0   33.333333333333336
200.0   0.0   50.0
250.0   30.0   50.0
250.0   0.0   33.333333333333336
200.0   30.0   33.333333333333336
200.0   30.0   0.0
250.0   30.0   0.0
200.0   60.0   0.0
200.0   30.0   16.666666666666668
250.0   30.0   0.0
250.0   60.0   0.0
200.0   60.0   0.0
250.0   60.0   16.666666666666668
200.0   30.0   16.666666666666668
200.0   60.0   16.666666666666668
250.0   60.0   16.666666666666668
200.0   60.0   0.0
200.0   30.0   16.666666666666668
250.0   60.0   16.666666666666668
250.0   30.0   16.666666666666668
250.0   30.0   0.0
200.0   30.0   16.666666666666668
250.0   60.0   16.666666666666668
250.0   30.0   0.0
200.0   60.0   0.0
200.0   30.0   16.666666666666668
250.0   30.0   16.666666666666668
200.0   60.0   16.666666666666668
200.0   30.0   33.333333333333336
250.0   30.0   16.666666666666668
250.0   60.0   16.666666666666668
200.0   60.0   16.666666666666668
250.0   60.0   33.333333333333336
200.0   30.0   33.333333333333336
200.0   60.0   33.333333333333336
250.0   60.0   33.333333333333336
200.0   60.0   16.666666666666668
200.0   30.0   33.333333333333336
250.0   60.0   33.333333333333336
250.0   30.0   33.333333333333336
250.0   30.0   16.666666666666668
200.0   30.0   33.333333333333336
250.0   60.0   33.333333333333336
250.0   30.0   16.666666666666668
200.0   60.0   16.666666666666668
200.0   30.0   33.333333333333336
250.0   30.0   33.333333333333336
200.0   60.0   33.333333333333336
200.0   30.0   50.0
250.0   30.0   33.333333333333336
250.0   60.0   33.333333333333336
200.0   60.0   33.333333333333336
250.0   60.0   50.0
200.0   30.0   50.0
200.0   60.0   50.0
250.0   60.0   50.0
200.0   60.0   33.333333333333336
200.0   30.0   50.0
250.0   60.0   50.0
250.0   30.0   50.0
250.0   30.0   33.333333333333336
200.0   30.0   50.0
250.0   60.0   50.0
250.0   30.0   33.333333333333336
200.0   60.0   33.333333333333336
200.0   60.0   0.0
250.0   60.0   0.0
200.0   90.0   0.0
200.0   60.0   16.666666666666668
250.0   60.0   0.0
250.0   90.0   0.0
200.0   90.0   0.0
250.0   90.0   16.666666666666668
200.0   60.0   16.666666666666668
200.0   90.0   16.666666666666668
250.0   90.0   16.666666666666668
200.0   90.0   0.0
200.0   60.0   16.666666666666668
250.0   90.0   16.666666666666668
250.0   60.0   16.666666666666668
250.0   60.0   0.0
200.0   60.0   16.666666666666668
250.0   90.0   16.666666666666668
250.0   60.0   0.0
200.0   90.0   0.0
200.0   60.0   16.666666666666668
250.0   60.0   16.666666666666668
200.0   90.0   16.666666666666668
200.0   60.0   33.333333333333336
250.0   60.0   16.666666666666668
250.0   90.0   16.666666666666668
200.0   90.0   16.666666666666668
250.0   90.0   33.333333333333336
200.0   60.0   33.333333333333336
200.0   90.0   33.333333333333336
250.0   90.0   33.333333333333336
200.0   90.0   16.666666666666668
200.0   60.0   33.333333333333336
250.0   90.0   33.333333333333336
250.0   60.0   33.333333333333336
250.0   60.0   16.666666666666668
200.0   60.0   33.333333333333336
250.0   90.0   33.333333333333336
250.0   60.0   16.666666666666668
200.0   90.0   16.666666666666668
200.0   60.0   33.333333333333336
250.0   60.0   33.333333333333336
200.0   90.0   33.333333333333336
200.0   60.0   50.0
250.0   60.0   33.333333333333336
250.0   90.0   33.333333333333336
200.0   90.0   33.333333333333336
250.0   90.0   50.0
200.0   60.0   50.0
200.0   90.0   50.0
250.0   90.0   50.0
200.0   90.0   33.333333333333336
200.0   60.0   50.0
250.0   90.0   50.0
250.0   60.0   50.0
250.0   60.0   33.333333333333336
200.0   60.0   50.0
250.0   90.0   50.0
250.0   60.0   33.333333333333336
200.0   90.0   33.333333333333336
200.0   90.0   0.0
250.0   90.0   0.0
200.0   120.0   0.0
200.0   90.0   16.666666666666668
250.0   90.0   0.0
250.0   120.0   0.0
200.0   120.0   0.0
250.0   120.0   16.666666666666668
200.0   90.0   16.666666666666668
200.0   120.0   16.666666666666668
250.0   120.0   16.666666666666668
200.0   120.0   0.0
200.0   90.0   16.666666666666668
250.0   120.0   16.666666666666668
250.0   90.0   16.666666666666668
250.0   90.0   0.0
200.0   90.0   16.666666666666668
250.0   120.0   16.666666666666668
250.0   90.0   0.0
200.0   120.0   0.0
200.0   90.0   16.666666666666668
250.0   90.0   16.666666666666668
200.0   120.0   16.666666666666668
200.0   90.0   33.333333333333336
250.0   90.0   16.666666666666668
250.0   120.0   16.666666666666668
200.0   120.0   16.666666666666668
250.0   120.0   33.333333333333336
200.0   90.0   33.333333333333336
200.0   120.0   33.333333333333336
250.0   120.0   33.333333333333336
200.0   120.0   16.666666666666668
200.0   90.0   33.333333333333336
250.0   120.0   33.333333333333336
250.0   90.0   33.333333333333336
250.0   90.0   16.666666666666668
200.0   90.0   33.333333333333336
250.0   120.0   33.333333333333336
250.0   90.0   16.666666666666668
200.0   120.0   16.666666666666668
200.0   90.0   33.333333333333336
250.0   90.0   33.333333333333336
200.0   120.0   33.333333333333336
200.0   90.0   50.0
250.0   90.0   33.333333333333336
250.0   120.0   33.333333333333336
200.0   120.0   33.333333333333336
250.0   120.0   50.0
200.0   90.0   50.0
200.0   120.0   50.0
250.0   120.0   50.0
200.0   120.0   33.333333333333336
200.0   90.0   50.0
250.0   120.0   50.0
250.0   90.0   50.0
250.0   90.0   33.333333333333336
200.0   90.0   50.0
250.0   120.0   50.0
250.0   90.0   33.333333333333336
200.0   120.0   33.333333333333336
200.0   120.0   0.0
250.0   120.0   0.0
200.0   150.0   0.0
200.0   120.0   16.666666666666668
250.0   120.0   0.0
250.0   150.0   0.0
200.0   150.0   0.0
250.0   150.0   16.666666666666668
200.0   120.0   16.666666666666668
200.0   150.0   16.666666666666668
250.0   150.0   16.666666666666668
200.0   150.0   0.0
200.0   120.0   16.666666666666668
250.0   150.0   16.666666666666668
250.0   120.0   16.666666666666668
250.0   120.0   0.0
200.0   120.0   16.666666666666668
250.0   150.0   16.666666666666668
250.0   120.0   0.0
200.0   150.0   0.0
200.0   120.0   16.666666666666668
250.0   120.0   16.666666666666668
200.0   150.0   16.666666666666668
200.0   120.0   33.333333333333336
250.0   120.0   16.666666666666668
250.0   150.0   16.666666666666668
200.0   150.0   16.666666666666668
250.0   150.0   33.333333333333336
200.0   120.0   33.333333333333336
200.0   150.0   33.333333333333336
250.0   150.0   33.333333333333336
200.0   150.0   16.666666666666668
200.0   120.0   33.333333333333336
250.0   150.0   33.333333333333336
250.0   120.0   33.333333333333336
250.0   120.0   16.666666666666668
200.0   120.0   33.333333333333336
250.0   150.0   33.333333333333336
250.0   120.0   16.666666666666668
200.0   150.0   16.666666666666668
200.0   120.0   33.333333333333336
250.0   120.0   33.333333333333336
200.0   150.0   33.333333333333336
200.0   120.0   50.0
250.0   120.0   33.333333333333336
250.0   150.0   33.333333333333336
200.0   150.0   33.333333333333336
250.0   150.0   50.0
200.0   120.0   50.0
200.0   150.0   50.0
250.0   150.0   50.0
200.0   150.0   33.333333333333336
200.0   120.0   50.0
250.0   150.0   50.0
250.0   120.0   50.0
250.0   120.0   33.333333333333336
200.0   120.0   50.0
250.0   150.0   50.0
250.0   120.0   33.333333333333336
200.0   150.0   33.333333333333336
250.0   0.0   0.0
300.0   0.0   0.0
250.0   30.0   0.0
250.0   0.0   16.666666666666668
300.0   0.0   0.0
300.0   30.0   0.0
250.0   30.0   0.0
300.0   30.0   16.666666666666668
250.0   0.0   16.666666666666668
250.0   30.0   16.666666666666668
300.0   30.0   16.666666666666668
250.0   30.0   0.0
250.0   0.0   16.666666666666668
300.0   30.0   16.666666666666668
300.0   0.0   16.666666666666668
300.0   0.0   0.0
250.0   0.0   16.666666666666668
300.0   30.0   16.666666666666668
300.0   0.0   0.0
250.0   30.0   0.0
250.0   0.0   16.666666666666668
300.0   0.0   16.666666666666668
250.0   30.0   16.666666666666668
250.0   0.0   33.333333333333336
300.0   0.0   16.666666666666668
300.0   30.0   16.666666666666668
250.0   30.0   16.666666666666668
300.0   30.0   33.333333333333336
250.0   0.0   33.333333333333336
250.0   30.0   33.333333333333336
300.0   30.0   33.333333333333336
250.0   30.0   16.666666666666668
250.0   0.0   33.333333333333336
300.0   30.0   33.333333333333336
300.0   0.0   33.333333333333336
300.0   0.0   16.666666666666668
250.0   0.0   33.333333333333336
300.0   30.0   33.333333333333336
300.0   0.0   16.666666666666668
250.0   30.0   16.666666666666668
250.0   0.0   33.333333333333336
300.0   0.0   33.333333333333336
250.0   30.0   33.333333333333336
250.0   0.0   50.0
300.0   0.0   33.333333333333336
300.0   30.0   33.333333333333336
250.0   30.0   33.333333333333336
300.0   30.0   50.0
250.0   0.0   50.0
250.0   30.0   50.0
300.0   30.0   50.0
250.0   30.0   33.333333333333336
250.0   0.0   50.0
300.0   30.0   50.0
300.0   0.0   50.0
300.0   0.0   33.333333333333336
250.0   0.0   50.0
300.0   30.0   50.0
300.0   0.0   33.333333333333336
250.0   30.0   33.333333333333336
250.0   30.0   0.0
300.0   30.0   0.0
250.0   60.0   0.0
250.0   30.0   16.666666666666668
300.0   30.0   0.0
300.0   60.0   0.0
250.0   60.0   0.0
300.0   60.0   16.666666666666668
250.0   30.0   16.666666666666668
250.0   60.0   16.666666666666668
300.0   60.0   16.666666666666668
250.0   60.0   0.0
250.0   30.0   16.666666666666668
300.0   60.0   16.666666666666668
300.0   30.0   16.666666666666668
300.0   30.0   0.0
250.0   30.0   16.666666666666668
300.0   60.0   16.666666666666668
300.0   30.0   0.0
250.0   60.0   0.0
250.0   30.0   16.666666666666668
300.0   30.0   16.666666666666668
250.0   60.0   16.666666666666668
250.0   30.0   33.333333333333336
300.0   30.0   16.666666666666668
300.0   60.0   16.666666666666668
250.0   60.0   16.666666666666668
300.0   60.0   33.333333333333336
250.0   30.0   33.333333333333336
250.0   60.0   33.333333333333336
300.0   60.0   33.333333333333336
250.0   60.0   16.666666666666668
250.0   30.0   33.333333333333336
300.0   60.0   33.333333333333336
300.0   30.0   33.333333333333336
300.0   30.0   16.666666666666668
250.0   30.0   33.333333333333336
300.0   60.0   33.333333333333336
300.0   30.0   16.666666666666668
250.0   60.0   16.666666666666668
250.0   30.0   33.333333333333336
300.0   30.0   33.333333333333336
250.0   60.0   33.333333333333336
250.0   30.0   50.0
300.0   30.0   33.333333333333336
300.0   60.0   33.333333333333336
250.0   60.0   33.333333333333336
300.0   60.0   50.0
250.0   30.0   50.0
250.0   60.0   50.0
300.0   60.0   50.0
250.0   60.0   33.333333333333336
250.0   30.0   50.0
300.0   60.0   50.0
300.0   30.0   50.0
300.0   30.0   33.333333333333336
250.0   30.0   50.0
300.0   60.0   50.0
300.0   30.0   33.333333333333336
250.0   60.0   33.333333333333336
250.0   60.0   0.0
300.0   60.0   0.0
250.0   90.0   0.0
250.0   60.0   16.666666666666668
300.0   60.0   0.0
300.0   90.0   0.0
250.0   90.0   0.0
300.0   90.0   16.666666666666668
250.0   60.0   16.666666666666668
250.0   90.0   16.666666666666668
300.0   90.0   16.666666666666668
250.0   90.0   0.0
250.0   60.0   16.666666666666668
300.0   90.0   16.666666666666668
300.0   60.0   16.666666666666668
300.0   60.0   0.0
250.0   60.0   16.666666666666668
300.0   90.0   16.666666666666668
300.0   60.0   0.0
250.0   90.0   0.0
250.0   60.0   16.666666666666668
300.0   60.0   16.666666666666668
250.0   90.0   16.666666666666668
250.0   60.0   33.333333333333336
300.0   60.0   16.666666666666668
300.0   90.0   16.666666666666668
250.0   90.0   16.666666666666668
300.0   90.0   33.333333333333336
250.0   60.0   33.333333333333336
250.0   90.0   33.333333333333336
300.0   90.0   33.333333333333336
250.0   90.0   16.666666666666668
250.0   60.0   33.333333333333336
300.0   90.0   33.333333333333336
300.0   60.0   33.333333333333336
300.0   60.0   16.666666666666668
250.0   60.0   33.333333333333336
300.0   90.0   33.333333333333336
300.0   60.0   16.666666666666668
250.0   90.0   16.666666666666668
250.0   60.0   33.333333333333336
300.0   60.0   33.333333333333336
250.0   90.0   33.333333333333336
250.0   60.0   50.0
300.0   60.0   33.333333333333336
300.0   90.0   33.333333333333336
250.0   90.0   33.333333333333336
300.0   90.0   50.0
250.0   60.0   50.0
250.0   90.0   50.0
300.0   90.0   50.0
250.0   90.0   33.333333333333336
250.0   60.0   50.0
300.0   90.0   50.0
300.0   60.0   50.0
300.0   60.0   33.333333333333336
250.0   60.0   50.0
300.0   90.0   50.0
300.0   60.0   33.333333333333336
250.0   90.0   33.333333333333336
250.0   90.0   0.0
300.0   90.0   0.0
250.0   120.0   0.0
250.0   90.0   16.666666666666668
300.0   90.0   0.0
300.0   120.0   0.0
250.0   120.0   0.0
300.0   120.0   16.666666666666668
250.0   90.0   16.666666666666668
250.0   120.0   16.666666666666668
300.0   120.0   16.666666666666668
250.0   120.0   0.0
250.0   90.0   16.666666666666668
300.0   120.0   16.666666666666668
300.0   90.0   16.666666666666668
300.0   90.0   0.0
250.0   90.0   16.666666666666668
300.0   120.0   16.666666666666668
300.0   90.0   0.0
250.0   120.0   0.0
250.0   90.0   16.666666666666668
300.0   90.0   16.666666666666668
250.0   120.0   16.666666666666668
250.0   90.0   33.333333333333336
300.0   90.0   16.666666666666668
300.0   120.0   16.666666666666668
250.0   120.0   16.666666666666668
300.0   120.0   33.333333333333336
250.0   90.0   33.333333333333336
250.0   120.0   33.333333333333336
300.0   120.0   33.333333333333336
250.0   120.0   16.666666666666668
250.0   90.0   33.333333333333336
300.0   120.0   33.333333333333336
300.0   90.0   33.333333333333336
300.0   90.0   16.666666666666668
250.0   90.0   33.333333333333336
300.0   120.0   33.333333333333336
300.0   90.0   16.666666666666668
250.0   120.0   16.666666666666668
250.0   90.0   33.333333333333336
300.0   90.0   33.333333333333336
250.0   120.0   33.333333333333336
250.0   90.0   50.0
300.0   90.0   33.333333333333336
300.0   120.0   33.333333333333336
250.0   120.0   33.333333333333336
300.0   120.0   50.0
250.0   90.0   50.0
250.0   120.0   50.0
300.0   120.0   50.0
250.0   120.0   33.333333333333336
250.0   90.0   50.0
300.0   120.0   50.0
300.0   90.0   50.0
300.0   90.0   33.333333333333336
250.0   90.0   50.0
300.0   120.0   50.0
300.0   90.0   33.333333333333336
250.0   120.0   33.333333333333336
250.0   120.0   0.0
300.0   120.0   0.0
250.0   150.0   0.0
250.0   120.0   16.666666666666668
300.0   120.0   0.0
300.0   150.0   0.0
250.0   150.0   0.0
300.0   150.0   16.666666666666668
250.0   120.0   16.666666666666668
250.0   150.0   16.666666666666668
300.0   150.0   16.666666666666668
250.0   150.0   0.0
250.0   120.0   16.666666666666668
300.0   150.0   16.666666666666668
300.0   120.0   16.666666666666668
300.0   120.0   0.0
250.0   120.0   16.666666666666668
300.0   150.0   16.666666666666668
300.0   120.0   0.0
250.0   150.0   0.0
250.0   120.0   16.666666666666668
300.0   120.0   16.666666666666668
250.0   150.0   16.666666666666668
250.0   120.0   33.333333333333336
300.0   120.0   16.666666666666668
300.0   150.0   16.666666666666668
250.0   150.0   16.666666666666668
300.0   150.0   33.333333333333336
250.0   120.0   33.333333333333336
250.0   150.0   33.333333333333336
300.0   150.0   33.333333333333336
250.0   150.0   16.666666666666668
250.0   120.0   33.333333333333336
300.0   150.0   33.333333333333336
300.0   120.0   33.333333333333336
300.0   120.0   16.666666666666668
250.0   120.0   33.333333333333336
300.0   150.0   33.333333333333336
300.0   120.0   16.666666666666668
250.0   150.0   16.666666666666668
250.0   120.0   33.333333333333336
300.0   120.0   33.333333333333336
250.0   150.0   33.333333333333336
250.0   120.0   50.0
300.0   120.0   33.333333333333336
300.0   150.0   33.333333333333336
250.0   150.0   33.333333333333336
300.0   150.0   50.0
250.0   120.0   50.0
250.0   150.0   50.0
300.0   150.0   50.0
250.0   150.0   33.333333333333336
250.0   120.0   50.0
300.0   150.0   50.0
300.0   120.0   50.0
300.0   120.0   33.333333333333336
250.0   120.0   50.0
300.0   150.0   50.0
300.0   120.0   33.333333333333336
250.0   150.0   33.333333333333336
300.0   0.0   0.0
350.0   0.0   0.0
300.0   30.0   0.0
300.0   0.0   16.666666666666668
350.0   0.0   0.0
350.0   30.0   0.0
300.0   30.0   0.0
350.0   30.0   16.666666666666668
300.0   0.0   16.666666666666668
300.0   30.0   16.666666666666668
350.0   30.0   16.666666666666668
300.0   30.0   0.0
300.0   0.0   16.666666666666668
350.0   30.0   16.666666666666668
350.0   0.0   16.666666666666668
350.0   0.0   0.0
300.0   0.0   16.666666666666668
350.0   30.0   16.666666666666668
350.0   0.0   0.0
300.0   30.0   0.0
300.0   0.0   16.666666666666668
350.0   0.0   16.666666666666668
300.0   30.0   16.666666666666668
300.0   0.0   33.333333333333336
350.0   0.0   16.666666666666668
350.0   30.0   16.666666666666668
300.0   30.0   16.666666666666668
350.0   30.0   33.333333333333336
300.0   0.0   33.333333333333336
300.0   30.0   33.333333333333336
350.0   30.0   33.333333333333336
300.0   30.0   16.666666666666668
300.0   0.0   33.333333333333336
350.0   30.0   33.333333333333336
350.0   0.0   33.333333333333336
350.0   0.0   16.666666666666668
300.0   0.0   33.333333333333336
350.0   30.0   33.333333333333336
350.0   0.0   16.666666666666668
300.0   30.0   16.666666666666668
300.0   0.0   33.333333333333336
350.0   0.0   33.333333333333336
300.0   30.0   33.333333333333336
300.0   0.0   50.0
350.0   0.0   33.333333333333336
350.0   30.0   33.333333333333336
300.0   30.0   33.333333333333336
350.0   30.0   50.0
300.0   0.0   50.0
300.0   30.0   50.0
350.0   30.0   50.0
300.0   30.0   33.333333333333336
300.0   0.0   50.0
350.0   30.0   50.0
350.0   0.0   50.0
350.0   0.0   33.333333333333336
300.0   0.0   50.0
350.0   30.0   50.0
350.0   0.0   33.333333333333336
300.0   30.0   33.333333333333336
300.0   30.0   0.0
350.0   30.0   0.0
300.0   60.0   0.0
300.0   30.0   16.666666666666668
350.0   30.0   0.0
350.0   60.0   0.0
300.0   60.0   0.0
350.0   60.0   16.666666666666668
300.0   30.0   16.666666666666668
300.0   60.0   16.666666666666668
350.0   60.0   16.666666666666668
300.0   60.0   0.0
300.0   30.0   16.666666666666668
350.0   60.0   16.666666666666668
350.0   30.0   16.666666666666668
350.0   30.0   0.0
300.0   30.0   16.666666666666668
350.0   60.0   16.666666666666668
350.0   30.0   0.0
300.0   60.0   0.0
300.0   30.0   16.666666666666668
350.0   30.0   16.666666666666668
300.0   60.0   16.666666666666668
300.0   30.0   33.333333333333336
350.0   30.0   16.666666666666668
350.0   60.0   16.666666666666668
300.0   60.0   16.666666666666668
350.0   60.0   33.333333333333336
300.0   30.0   33.333333333333336
300.0   60.0   33.333333333333336
350.0   60.0   33.333333333333336
300.0   60.0   16.666666666666668
300.0   30.0   33.333333333333336
350.0   60.0   33.333333333333336
350.0   30.0   33.333333333333336
350.0   30.0   16.666666666666668
300.0   30.0   33.333333333333336
350.0   60.0   33.333333333333336
350.0   30.0   16.666666666666668
300.0   60.0   16.666666666666668
300.0   30.0   33.333333333333336
350.0   30.0   33.333333333333336
300.0   60.0   33.333333333333336
300.0   30.0   50.0
350.0   30.0   33.333333333333336
350.0   60.0   33.333333333333336
300.0   60.0   33.333333333333336
350.0   60.0   50.0
300.0   30.0   50.0
300.0   60.0   50.0
350.0   60.0   50.0
300.0   60.0   33.333333333333336
300.0   30.0   50.0
350.0   60.0   50.0
350.0   30.0   50.0
350.0   30.0   33.333333333333336
300.0   30.0   50.0
350.0   60.0   50.0
350.0   30.0   33.333333333333336
300.0   60.0   33.333333333333336
300.0   60.0   0.0
350.0   60.0   0.0
300.0   90.0   0.0
300.0   60.0   16.666666666666668
350.0   60.0   0.0
350.0   90.0   0.0
300.0   90.0   0.0
350.0   90.0   16.666666666666668
300.0   60.0   16.666666666666668
300.0   90.0   16.666666666666668
350.0   90.0   16.666666666666668
300.0   90.0   0.0
300.0   60.0   16.666666666666668
350.0   90.0   16.666666666666668
350.0   60.0   16.666666666666668
350.0   60.0   0.0
300.0   60.0   16.666666666666668
350.0   90.0   16.666666666666668
350.0   60.0   0.0
300.0   90.0   0.0
300.0   60.0   16.666666666666668
350.0   60.0   16.666666666666668
300.0   90.0   16.666666666666668
300.0   60.0   33.333333333333336
350.0   60.0   16.666666666666668
350.0   90.0   16.666666666666668
300.0   90.0   16.666666666666668
350.0   90.0   33.333333333333336
300.0   60.0   33.333333333333336
300.0   90.0   33.333333333333336
350.0   90.0   33.333333333333336
300.0   90.0   16.666666666666668
300.0   60.0   33.333333333333336
350.0   90.0   33.333333333333336
350.0   60.0   33.333333333333336
350.0   60.0   16.666666666666668
300.0   60.0   33.333333333333336
350.0   90.0   33.333333333333336
350.0   60.0   16.666666666666668
300.0   90.0   16.666666666666668
300.0   60.0   33.333333333333336
350.0   60.0   33.333333333333336
300.0   90.0   33.333333333333336
300.0   60.0   50.0
350.0   60.0   33.333333333333336
350.0   90.0   33.333333333333336
300.0   90.0   33.333333333333336
350.0   90.0   50.0
300.0   60.0   50.0
300.0   90.0   50.0
350.0   90.0   50.0
300.0   90.0   33.333333333333336
300.0   60.0   50.0
350.0   90.0   50.0
350.0   60.0   50.0
350.0   60.0   33.333333333333336
300.0   60.0   50.0
350.0   90.0   50.0
350.0   60.0   33.333333333333336
300.0   90.0   33.333333333333336
300.0   90.0   0.0
350.0   90.0   0.0
300.0   120.0   0.0
300.0   90.0   16.666666666666668
350.0   90.0   0.0
350.0   120.0   0.0
300.0   120.0   0.0
350.0   120.0   16.666666666666668
300.0   90.0   16.666666666666668
300.0   120.0   16.666666666666668
350.0   120.0   16.666666666666668
300.0   120.0   0.0
300.0   90.0   16.666666666666668
350.0   120.0   16.666666666666668
350.0   90.0   16.666666666666668
350.0   90.0   0.0
300.0   90.0   16.666666666666668
350.0   120.0   16.666666666666668
350.0   90.0   0.0
300.0   120.0   0.0
300.0   90.0   16.666666666666668
350.0   90.0   16.666666666666668
300.0   120.0   16.666666666666668
300.0   90.0   33.333333333333336
350.0   90.0   16.666666666666668
350.0   120.0   16.666666666666668
300.0   120.0   16.666666666666668
350.0   120.0   33.333333333333336
300.0   90.0   33.333333333333336
300.0   120.0   33.333333333333336
350.0   120.0   33.333333333333336
300.0   120.0   16.666666666666668
300.0   90.0   33.333333333333336
350.0   120.0   33.333333333333336
350.0   90.0   33.333333333333336
350.0   90.0   16.666666666666668
300.0   90.0   33.333333333333336
350.0   120.0   33.333333333333336
350.0   90.0   16.666666666666668
300.0   120.0   16.666666666666668
300.0   90.0   33.333333333333336
350.0   90.0   33.333333333333336
300.0   120.0   33.333333333333336
300.0   90.0   50.0
350.0   90.0   33.333333333333336
350.0   120.0   33.333333333333336
300.0   120.0   33.333333333333336
350.0   120.0   50.0
300.0   90.0   50.0
300.0   120.0   50.0
350.0   120.0   50.0
300.0   120.0   33.333333333333336
300.0   90.0   50.0
350.0   120.0   50.0
350.0   90.0   50.0
350.0   90.0   33.333333333333336
300.0   90.0   50.0
350.0   120.0   50.0
350.0   90.0   33.333333333333336
300.0   120.0   33.333333333333336
300.0   120.0   0.0
350.0   120.0   0.0
300.0   150.0   0.0
300.0   120.0   16.666666666666668
350.0   120.0   0.0
350.0   150.0   0.0
300.0   150.0   0.0
350.0   150.0   16.666666666666668
300.0   120.0   16.666666666666668
300.0   150.0   16.666666666666668
350.0   150.0   16.666666666666668
300.0   150.0   0.0
300.0   120.0   16.666666666666668
350.0   150.0   16.666666666666668
350.0   120.0   16.666666666666668
350.0   120.0   0.0
300.0   120.0   16.666666666666668
350.0   150.0   16.666666666666668
350.0   120.0   0.0
300.0   150.0   0.0
300.0   120.0   16.666666666666668
350.0   120.0   16.666666666666668
300.0   150.0   16.666666666666668
300.0   120.0   33.333333333333336
350.0   120.0   16.666666666666668
350.0   150.0   16.666666666666668
300.0   150.0   16.666666666666668
350.0   150.0   33.333333333333336
300.0   120.0   33.333333333333336
300.0   150.0   33.333333333333336
350.0   150.0   33.333333333333336
300.0   150.0   16.666666666666668
300.0   120.0   33.333333333333336
350.0   150.0   33.333333333333336
350.0   120.0   33.333333333333336
350.0   120.0   16.666666666666668
300.0   120.0   33.333333333333336
350.0   150.0   33.333333333333336
350.0   120.0   16.666666666666668
300.0   150.0   16.666666666666668
300.0   120.0   33.333333333333336
350.0   120.0   33.333333333333336
300.0   150.0   33.333333333333336
300.0   120.0   50.0
350.0   120.0   33.333333333333336
350.0   150.0   33.333333333333336
300.0   150.0   33.333333333333336
350.0   150.0   50.0
300.0   120.0   50.0
300.0   150.0   50.0
350.0   150.0   50.0
300.0   150.0   33.333333333333336
300.0   120.0   50.0
350.0   150.0   50.0
350.0   120.0   50.0
350.0   120.0   33.333333333333336
300.0   120.0   50.0
350.0   150.0   50.0
350.0   120.0   33.333333333333336
300.0   150.0   33.333333333333336
350.0   0.0   0.0
400.0   0.0   0.0
350.0   30.0   0.0
350.0   0.0   16.666666666666668
400.0   0.0   0.0
400.0   30.0   0.0
350.0   30.0   0.0
400.0   30.0   16.666666666666668
350.0   0.0   16.666666666666668
350.0   30.0   16.666666666666668
400.0   30.0   16.666666666666668
350.0   30.0   0.0
350.0   0.0   16.666666666666668
400.0   30.0   16.666666666666668
400.0   0.0   16.666666666666668
400.0   0.0   0.0
350.0   0.0   16.666666666666668
400.0   30.0   16.666666666666668
400.0   0.0   0.0
350.0   30.0   0.0
350.0   0.0   16.666666666666668
400.0   0.0   16.666666666666668
350.0   30.0   16.666666666666668
350.0   0.0   33.333333333333336
400.0   0.0   16.666666666666668
400.0   30.0   16.666666666666668
350.0   30.0   16.666666666666668
400.0   30.0   33.333333333333336
350.0   0.0   33.333333333333336
350.0   30.0   33.333333333333336
400.0   30.0   33.333333333333336
350.0   30.0   16.666666666666668
350.0   0.0   33.333333333333336
400.0   30.0   33.333333333333336
400.0   0.0   33.333333333333336
400.0   0.0   16.666666666666668
350.0   0.0   33.333333333333336
400.0   30.0   33.333333333333336
400.0   0.0   16.666666666666668
350.0   30.0   16.666666666666668
350.0   0.0   33.333333333333336
400.0   0.0   33.333333333333336
350.0   30.0   33.333333333333336
350.0   0.0   50.0
400.0   0.0   33.333333333333336
400.0   30.0   33.333333333333336
350.0   30.0   33.333333333333336
400.0   30.0   50.0
350.0   0.0   50.0
350.0   30.0   50.0
400.0   30.0   50.0
350.0   30.0   33.333333333333336
350.0   0.0   50.0
400.0   30.0   50.0
400.0   0.0   50.0
400.0   0.0   33.333333333333336
350.0   0.0   50.0
400.0   30.0   50.0
400.0   0.0   33.333333333333336
350.0   30.0   33.333333333333336
350.0   30.0   0.0
400.0   30.0   0.0
350.0   60.0   0.0
350.0   30.0   16.666666666666668
400.0   30.0   0.0
400.0   60.0   0.0
350.0   60.0   0.0
400.0   60.0   16.666666666666668
350.0   30.0   16.666666666666668
350.0   60.0   16.666666666666668
400.0   60.0   16.666666666666668
350.0   60.0   0.0
350.0   30.0   16.666666666666668
400.0   60.0   16.666666666666668
400.0   30.0   16.666666666666668
400.0   30.0   0.0
350.0   30.0   16.666666666666668
400.0   60.0   16.666666666666668
400.0   30.0   0.0
350.0   60.0   0.0
350.0   30.0   16.666666666666668
400.0   30.0   16.666666666666668
350.0   60.0   16.666666666666668
350.0   30.0   33.333333333333336
400.0   30.0   16.666666666666668
400.0   60.0   16.666666666666668
350.0   60.0   16.666666666666668
400.0   60.0   33.333333333333336
350.0   30.0   33.333333333333336
350.0   60.0   33.333333333333336
400.0   60.0   33.333333333333336
350.0   60.0   16.666666666666668
350.0   30.0   33.333333333333336
400.0   60.0   33.333333333333336
400.0   30.0   33.333333333333336
400.0   30.0   16.666666666666668
350.0   30.0   33.333333333333336
400.0   60.0   33.333333333333336
400.0   30.0   16.666666666666668
350.0   60.0   16.666666666666668
350.0   30.0   33.333333333333336
400.0   30.0   33.333333333333336
350.0   60.0   33.333333333333336
350.0   30.0   50.0
400.0   30.0   33.333333333333336
400.0   60.0   33.333333333333336
350.0   60.0   33.333333333333336
400.0   60.0   50.0
350.0   30.0   50.0
350.0   60.0   50.0
400.0   60.0   50.0
350.0   60.0   33.333333333333336
350.0   30.0   50.0
400.0   60.0   50.0
400.0   30.0   50.0
400.0   30.0   33.333333333333336
350.0   30.0   50.0
400.0   60.0   50.0
400.0   30.0   33.333333333333336
350.0   60.0   33.333333333333336
350.0   60.0   0.0
400.0   60.0   0.0
350.0   90.0   0.0
350.0   60.0   16.666666666666668
400.0   60.0   0.0
400.0   90.0   0.0
350.0   90.0   0.0
400.0   90.0   16.666666666666668
350.0   60.0   16.666666666666668
350.0   90.0   16.666666666666668
400.0   90.0   16.666666666666668
350.0   90.0   0.0
350.0   60.0   16.666666666666668
400.0   90.0   16.666666666666668
400.0   60.0   16.666666666666668
400.0   60.0   0.0
350.0   60.0   16.666666666666668
400.0   90.0   16.666666666666668
400.0   60.0   0.0
350.0   90.0   0.0
350.0   60.0   16.666666666666668
400.0   60.0   16.666666666666668
350.0   90.0   16.666666666666668
350.0   60.0   33.333333333333336
400.0   60.0   16.666666666666668
400.0   90.0   16.666666666666668
350.0   90.0   16.666666666666668
400.0   90.0   33.333333333333336
350.0   60.0   33.333333333333336
350.0   90.0   33.333333333333336
400.0   90.0   33.333333333333336
350.0   90.0   16.666666666666668
350.0   60.0   33.333333333333336
400.0   90.0   33.333333333333336
400.0   60.0   33.333333333333336
400.0   60.0   16.666666666666668
350.0   60.0   33.333333333333336
400.0   90.0   33.333333333333336
400.0   60.0   16.666666666666668
350.0   90.0   16.666666666666668
350.0   60.0   33.333333333333336
400.0   60.0   33.333333333333336
350.0   90.0   33.333333333333336
350.0   60.0   50.0
400.0   60.0   33.333333333333336
400.0   90.0   33.333333333333336
350.0   90.0   33.333333333333336
400.0   90.0   50.0
350.0   60.0   50.0
350.0   90.0   50.0
400.0   90.0   50.0
350.0   90.0   33.333333333333336
350.0   60.0   50.0
400.0   90.0   50.0
400.0   60.0   50.0
400.0   60.0   33.333333333333336
350.0   60.0   50.0
400.0   90.0   50.0
400.0   60.0   33.333333333333336
350.0   90.0   33.333333333333336
350.0   90.0   0.0
400.0   90.0   0.0
350.0   120.0   0.0
350.0   90.0   16.666666666666668
400.0   90.0   0.0
400.0   120.0   0.0
350.0   120.0   0.0
400.0   120.0   16.666666666666668
350.0   90.0   16.666666666666668
350.0   120.0   16.666666666666668
400.0   120.0   16.666666666666668
350.0   120.0   0.0
350.0   90.0   16.666666666666668
400.0   120.0   16.666666666666668
400.0   90.0   16.666666666666668
400.0   90.0   0.0
350.0   90.0   16.666666666666668
400.0   120.0   16.666666666666668
400.0   90.0   0.0
350.0   120.0   0.0
350.0   90.0   16.666666666666668
400.0   90.0   16.666666666666668
350.0   120.0   16.666666666666668
350.0   90.0   33.333333333333336
400.0   90.0   16.666666666666668
400.0   120.0   16.666666666666668
350.0   120.0   16.666666666666668
400.0   120.0   33.333333333333336
350.0   90.0   33.333333333333336
350.0   120.0   33.333333333333336
400.0   120.0   33.333333333333336
350.0   120.0   16.666666666666668
350.0   90.0   33.333333333333336
400.0   120.0   33.333333333333336
400.0   90.0   33.333333333333336
400.0   90.0   16.666666666666668
350.0   90.0   33.333333333333336
400.0   120.0   33.333333333333336
400.0   90.0   16.666666666666668
350.0   120.0   16.666666666666668
350.0   90.0   33.333333333333336
400.0   90.0   33.333333333333336
350.0   120.0   33.333333333333336
350.0   90.0   50.0
400.0   90.0   33.333333333333336
400.0   120.0   33.333333333333336
350.0   120.0   33.333333333333336
400.0   120.0   50.0
350.0   90.0   50.0
350.0   120.0   50.0
400.0   120.0   50.0
350.0   120.0   33.333333333333336
350.0   90.0   50.0
400.0   120.0   50.0
400.0   90.0   50.0
400.0   90.0   33.333333333333336
350.0   90.0   50.0
400.0   120.0   50.0
400.0   90.0   33.333333333333336
350.0   120.0   33.333333333333336
350.0   120.0   0.0
400.0   120.0   0.0
350.0   150.0   0.0
350.0   120.0   16.666666666666668
400.0   120.0   0.0
400.0   150.0   0.0
350.0   150.0   0.0
400.0   150.0   16.666666666666668
350.0   120.0   16.666666666666668
350.0   150.0   16.666666666666668
400.0   150.0   16.666666666666668
350.0   150.0   0.0
350.0   120.0   16.666666666666668
400.0   150.0   16.666666666666668
400.0   120.0   16.666666666666668
400.0   120.0   0.0
350.0   120.0   16.666666666666668
400.0   150.0   16.666666666666668
400.0   120.0   0.0
350.0   150.0   0.0
350.0   120.0   16.666666666666668
400.0   120.0   16.666666666666668
350.0   150.0   16.666666666666668
350.0   120.0   33.333333333333336
400.0   120.0   16.666666666666668
400.0   150.0   16.666666666666668
350.0   150.0   16.666666666666668
400.0   150.0   33.333333333333336
350.0   120.0   33.333333333333336
350.0   150.0   33.333333333333336
400.0   150.0   33.333333333333336
350.0   150.0   16.666666666666668
350.0   120.0   33.333333333333336
400.0   150.0   33.333333333333336
400.0   120.0   33.333333333333336
400.0   120.0   16.666666666666668
350.0   120.0   33.333333333333336
400.0   150.0   33.333333333333336
400.0   120.0   16.666666666666668
350.0   150.0   16.666666666666668
350.0   120.0   33.333333333333336
400.0   120.0   33.333333333333336
350.0   150.0   33.333333333333336
350.0   120.0   50.0
400.0   120.0   33.333333333333336
400.0   150.0   33.333333333333336
350.0   150.0   33.333333333333336
400.0   150.0   50.0
350.0   120.0   50.0
350.0   150.0   50.0
400.0   150.0   50.0
350.0   150.0   33.333333333333336
350.0   120.0   50.0
400.0   150.0   50.0
400.0   120.0   50.0
400.0   120.0   33.333333333333336
350.0   120.0   50.0
400.0   150.0   50.0
400.0   120.0   33.333333333333336
350.0   150.0   33.333333333333336
400.0   0.0   0.0
450.0   0.0   0.0
400.0   30.0   0.0
400.0   0.0   16.666666666666668
450.0   0.0   0.0
450.0   30.0   0.0
400.0   30.0   0.0
450.0   30.0   16.666666666666668
400.0   0.0   16.666666666666668
400.0   30.0   16.666666666666668
450.0   30.0   16.666666666666668
400.0   30.0   0.0
400.0   0.0   16.666666666666668
450.0   30.0   16.666666666666668
450.0   0.0   16.666666666666668
450.0   0.0   0.0
400.0   0.0   16.666666666666668
450.0   30.0   16.666666666666668
450.0   0.0   0.0
400.0   30.0   0.0
400.0   0.0   16.666666666666668
450.0   0.0   16.666666666666668
400.0   30.0   16.666666666666668
400.0   0.0   33.333333333333336
450.0   0.0   16.666666666666668
450.0   30.0   16.666666666666668
400.0   30.0   16.666666666666668
450.0   30.0   33.333333333333336
400.0   0.0   33.333333333333336
400.0   30.0   33.333333333333336
450.0   30.0   33.333333333333336
400.0   30.0   16.666666666666668
400.0   0.0   33.333333333333336
450.0   30.0   33.333333333333336
450.0   0.0   33.333333333333336
450.0   0.0   16.666666666666668
400.0   0.0   33.333333333333336
450.0   30.0   33.333333333333336
450.0   0.0   16.666666666666668
400.0   30.0   16.666666666666668
400.0   0.0   33.333333333333336
450.0   0.0   33.333333333333336
400.0   30.0   33.333333333333336
400.0   0.0   50.0
450.0   0.0   33.333333333333336
450.0   30.0   33.333333333333336
400.0   30.0   33.333333333333336
450.0   30.0   50.0
400.0   0.0   50.0
400.0   30.0   50.0
450.0   30.0   50.0
400.0   30.0   33.333333333333336
400.0   0.0   50.0
450.0   30.0   50.0
450.0   0.0   50.0
450.0   0.0   33.333333333333336
400.0   0.0   50.0
450.0   30.0   50.0
450.0   0.0   33.333333333333336
400.0   30.0   33.333333333333336
400.0   30.0   0.0
450.0   30.0   0.0
400.0   60.0   0.0
400.0   30.0   16.666666666666668
450.0   30.0   0.0
450.0   60.0   0.0
400.0   60.0   0.0
450.0   60.0   16.666666666666668
400.0   30.0   16.666666666666668
400.0   60.0   16.666666666666668
450.0   60.0   16.666666666666668
400.0   60.0   0.0
400.0   30.0   16.666666666666668
450.0   60.0   16.666666666666668
450.0   30.0   16.666666666666668
450.0   30.0   0.0
400.0   30.0   16.666666666666668
450.0   60.0   16.666666666666668
450.0   30.0   0.0
400.0   60.0   0.0
400.0   30.0   16.666666666666668
450.0   30.0   16.666666666666668
400.0   60.0   16.666666666666668
400.0   30.0   33.333333333333336
450.0   30.0   16.666666666666668
450.0   60.0   16.666666666666668
400.0   60.0   16.666666666666668
450.0   60.0   33.333333333333336
400.0   30.0   33.333333333333336
400.0   60.0   33.333333333333336
450.0   60.0   33.333333333333336
400.0   60.0   16.666666666666668
400.0   30.0   33.333333333333336
450.0   60.0   33.333333333333336
450.0   30.0   33.333333333333336
450.0   30.0   16.666666666666668
400.0   30.0   33.333333333333336
450.0   60.0   33.333333333333336
450.0   30.0   16.666666666666668
400.0   60.0   16.666666666666668
400.0   30.0   33.333333333333336
450.0   30.0   33.333333333333336
400.0   60.0   33.333333333333336
400.0   30.0   50.0
450.0   30.0   33.333333333333336
450.0   60.0   33.333333333333336
400.0   60.0   33.333333333333336
450.0   60.0   50.0
400.0   30.0   50.0
400.0   60.0   50.0
450.0   60.0   50.0
400.0   60.0   33.333333333333336
400.0   30.0   50.0
450.0   60.0   50.0
450.0   30.0   50.0
450.0   30.0   33.333333333333336
400.0   30.0   50.0
450.0   60.0   50.0
450.0   30.0   33.333333333333336
400.0   60.0   33.333333333333336
400.0   60.0   0.0
450.0   60.0   0.0
400.0   90.0   0.0
400.0   60.0   16.666666666666668
450.0   60.0   0.0
450.0   90.0   0.0
400.0   90.0   0.0
450.0   90.0   16.666666666666668
400.0   60.0   16.666666666666668
400.0   90.0   16.666666666666668
450.0   90.0   16.666666666666668
400.0   90.0   0.0
400.0   60.0   16.666666666666668
450.0   90.0   16.666666666666668
450.0   60.0   16.666666666666668
450.0   60.0   0.0
400.0   60.0   16.666666666666668
450.0   90.0   16.666666666666668
450.0   60.0   0.0
400.0   90.0   0.0
400.0   60.0   16.666666666666668
450.0   60.0   16.666666666666668
400.0   90.0   16.666666666666668
400.0   60.0   33.333333333333336
450.0   60.0   16.666666666666668
450.0   90.0   16.666666666666668
400.0   90.0   16.666666666666668
450.0   90.0   33.333333333333336
400.0   60.0   33.333333333333336
400.0   90.0   33.333333333333336
450.0   90.0   33.333333333333336
400.0   90.0   16.666666666666668
400.0   60.0   33.333333333333336
450.0   90.0   33.333333333333336
450.0   60.0   33.333333333333336
450.0   60.0   16.666666666666668
400.0   60.0   33.333333333333336
450.0   90.0   33.333333333333336
450.0   60.0   16.666666666666668
400.0   90.0   16.666666666666668
400.0   60.0   33.333333333333336
450.0   60.0   33.333333333333336
400.0   90.0   33.333333333333336
400.0   60.0   50.0
450.0   60.0   33.333333333333336
450.0   90.0   33.333333333333336
400.0   90.0   33.333333333333336
450.0   90.0   50.0
400.0   60.0   50.0
400.0   90.0   50.0
450.0   90.0   50.0
400.0   90.0   33.333333333333336
400.0   60.0   50.0
450.0   90.0   50.0
450.0   60.0   50.0
450.0   60.0   33.333333333333336
400.0   60.0   50.0
450.0   90.0   50.0
450.0   60.0   33.333333333333336
400.0   90.0   33.333333333333336
400.0   90.0   0.0
450.0   90.0   0.0
400.0   120.0   0.0
400.0   90.0   16.666666666666668
450.0   90.0   0.0
450.0   120.0   0.0
400.0   120.0   0.0
450.0   120.0   16.666666666666668
400.0   90.0   16.666666666666668
400.0   120.0   16.666666666666668
450.0   120.0   16.666666666666668
400.0   120.0   0.0
400.0   90.0   16.666666666666668
450.0   120.0   16.666666666666668
450.0   90.0   16.666666666666668
450.0   90.0   0.0
400.0   90.0   16.666666666666668
450.0   120.0   16.666666666666668
450.0   90.0   0.0
400.0   120.0   0.0
400.0   90.0   16.666666666666668
450.0   90.0   16.666666666666668
400.0   120.0   16.666666666666668
400.0   90.0   33.333333333333336
450.0   90.0   16.666666666666668
450.0   120.0   16.666666666666668
400.0   120.0   16.666666666666668
450.0   120.0   33.333333333333336
400.0   90.0   33.333333333333336
400.0   120.0   33.333333333333336
450.0   120.0   33.333333333333336
400.0   120.0   16.666666666666668
400.0   90.0   33.333333333333336
450.0   120.0   33.333333333333336
450.0   90.0   33.333333333333336
450.0   90.0   16.666666666666668
400.0   90.0   33.333333333333336
450.0   120.0   33.333333333333336
450.0   90.0   16.666666666666668
400.0   120.0   16.666666666666668
400.0   90.0   33.333333333333336
450.0   90.0   33.333333333333336
400.0   120.0   33.333333333333336
400.0   90.0   50.0
450.0   90.0   33.333333333333336
450.0   120.0   33.333333333333336
400.0   120.0   33.333333333333336
450.0   120.0   50.0
400.0   90.0   50.0
400.0   120.0   50.0
450.0   120.0   50.0
400.0   120.0   33.333333333333336
400.0   90.0   50.0
450.0   120.0   50.0
450.0   90.0   50.0
450.0   90.0   33.333333333333336
400.0   90.0   50.0
450.0   120.0   50.0
450.0   90.0   33.333333333333336
400.0   120.0   33.333333333333336
400.0   120.0   0.0
450.0   120.0   0.0
400.0   150.0   0.0
400.0   120.0   16.666666666666668
450.0   120.0   0.0
450.0   150.0   0.0
400.0   150.0   0.0
450.0   150.0   16.666666666666668
400.0   120.0   16.666666666666668
400.0   150.0   16.666666666666668
450.0   150.0   16.666666666666668
400.0   150.0   0.0
400.0   120.0   16.666666666666668
450.0   150.0   16.666666666666668
450.0   120.0   16.666666666666668
450.0   120.0   0.0
400.0   120.0   16.666666666666668
450.0   150.0   16.666666666666668
450.0   120.0   0.0
400.0   150.0   0.0
400.0   120.0   16.666666666666668
450.0   120.0   16.666666666666668
400.0   150.0   16.666666666666668
400.0   120.0   33.333333333333336
450.0   120.0   16.666666666666668
450.0   150.0   16.666666666666668
400.0   150.0   16.666666666666668
450.0   150.0   33.333333333333336
400.0   120.0   33.333333333333336
400.0   150.0   33.333333333333336
450.0   150.0   33.333333333333336
400.0   150.0   16.666666666666668
400.0   120.0   33.333333333333336
450.0   150.0   33.333333333333336
450.0   120.0   33.333333333333336
450.0   120.0   16.666666666666668
400.0   120.0   33.333333333333336
450.0   150.0   33.333333333333336
450.0   120.0   16.666666666666668
400.0   150.0   16.666666666666668
400.0   120.0   33.333333333333336
450.0   120.0   33.333333333333336
400.0   150.0   33.333333333333336
400.0   120.0   50.0
450.0   120.0   33.333333333333336
450.0   150.0   33.333333333333336
400.0   150.0   33.333333333333336
450.0   150.0   50.0
400.0   120.0   50.0
400.0   150.0   50.0
450.0   150.0   50.0
400.0   150.0   33.333333333333336
400.0   120.0   50.0
450.0   150.0   50.0
450.0   120.0   50.0
450.0   120.0   33.333333333333336
400.0   120.0   50.0
450.0   150.0   50.0
450.0   120.0   33.333333333333336
400.0   150.0   33.333333333333336
450.0   0.0   0.0
500.0   0.0   0.0
450.0   30.0   0.0
450.0   0.0   16.666666666666668
500.0   0.0   0.0
500.0   30.0   0.0
450.0   30.0   0.0
500.0   30.0   16.666666666666668
450.0   0.0   16.666666666666668
450.0   30.0   16.666666666666668
500.0   30.0   16.666666666666668
450.0   30.0   0.0
450.0   0.0   16.666666666666668
500.0   30.0   16.666666666666668
500.0   0.0   16.666666666666668
500.0   0.0   0.0
450.0   0.0   16.666666666666668
500.0   30.0   16.666666666666668
500.0   0.0   0.0
450.0   30.0   0.0
450.0   0.0   16.666666666666668
500.0   0.0   16.666666666666668
450.0   30.0   16.666666666666668
450.0   0.0   33.333333333333336
500.0   0.0   16.666666666666668
500.0   30.0   16.666666666666668
450.0   30.0   16.666666666666668
500.0   30.0   33.333333333333336
450.0   0.0   33.333333333333336
450.0   30.0   33.333333333333336
500.0   30.0   33.333333333333336
450.0   30.0   16.666666666666668
450.0   0.0   33.333333333333336
500.0   30.0   33.333333333333336
500.0   0.0   33.333333333333336
500.0   0.0   16.666666666666668
450.0   0.0   33.333333333333336
500.0   30.0   33.333333333333336
500.0   0.0   16.666666666666668
450.0   30.0   16.666666666666668
450.0   0.0   33.333333333333336
500.0   0.0   33.333333333333336
450.0   30.0   33.333333333333336
450.0   0.0   50.0
500.0   0.0   33.333333333333336
500.0   30.0   33.333333333333336
450.0   30.0   33.333333333333336
500.0   30.0   50.0
450.0   0.0   50.0
450.0   30.0   50.0
500.0   30.0   50.0
450.0   30.0   33.333333333333336
450.0   0.0   50.0
500.0   30.0   50.0
500.0   0.0   50.0
500.0   0.0   33.333333333333336
450.0   0.0   50.0
500.0   30.0   50.0
500.0   0.0   33.333333333333336
450.0   30.0   33.333333333333336
450.0   30.0   0.0
500.0   30.0   0.0
450.0   60.0   0.0
450.0   30.0   16.666666666666668
500.0   30.0   0.0
500.0   60.0   0.0
450.0   60.0   0.0
500.0   60.0   16.666666666666668
450.0   30.0   16.666666666666668
450.0   60.0   16.666666666666668
500.0   60.0   16.666666666666668
450.0   60.0   0.0
450.0   30.0   16.666666666666668
500.0   60.0   16.666666666666668
500.0   30.0   16.666666666666668
500.0   30.0   0.0
450.0   30.0   16.666666666666668
500.0   60.0   16.666666666666668
500.0   30.0   0.0
450.0   60.0   0.0
450.0   30.0   16.666666666666668
500.0   30.0   16.666666666666668
450.0   60.0   16.666666666666668
450.0   30.0   33.333333333333336
500.0   30.0   16.666666666666668
500.0   60.0   16.666666666666668
450.0   60.0   16.666666666666668
500.0   60.0   33.333333333333336
450.0   30.0   33.333333333333336
450.0   60.0   33.333333333333336
500.0   60.0   33.333333333333336
450.0   60.0   16.666666666666668
450.0   30.0   33.333333333333336
500.0   60.0   33.333333333333336
500.0   30.0   33.333333333333336
500.0   30.0   16.666666666666668
450.0   30.0   33.333333333333336
500.0   60.0   33.333333333333336
500.0   30.0   16.666666666666668
450.0   60.0   16.666666666666668
450.0   30.0   33.333333333333336
500.0   30.0   33.333333333333336
450.0   60.0   33.333333333333336
450.0   30.0   50.0
500.0   30.0   33.333333333333336
500.0   60.0   33.333333333333336
450.0   60.0   33.333333333333336
500.0   60.0   50.0
450.0   30.0   50.0
450.0   60.0   50.0
500.0   60.0   50.0
450.0   60.0   33.333333333333336
450.0   30.0   50.0
500.0   60.0   50.0
500.0   30.0   50.0
500.0   30.0   33.333333333333336
450.0   30.0   50.0
500.0   60.0   50.0
500.0   30.0   33.333333333333336
450.0   60.0   33.333333333333336
450.0   60.0   0.0
500.0   60.0   0.0
450.0   90.0   0.0
450.0   60.0   16.666666666666668
500.0   60.0   0.0
500.0   90.0   0.0
450.0   90.0   0.0
500.0   90.0   16.666666666666668
450.0   60.0   16.666666666666668
450.0   90.0   16.666666666666668
500.0   90.0   16.666666666666668
450.0   90.0   0.0
450.0   60.0   16.666666666666668
500.0   90.0   16.666666666666668
500.0   60.0   16.666666666666668
500.0   60.0   0.0
450.0   60.0   16.666666666666668
500.0   90.0   16.666666666666668
500.0   60.0   0.0
450.0   90.0   0.0
450.0   60.0   16.666666666666668
500.0   60.0   16.666666666666668
450.0   90.0   16.666666666666668
450.0   60.0   33.333333333333336
500.0   60.0   16.666666666666668
500.0   90.0   16.666666666666668
450.0   90.0   16.666666666666668
500.0   90.0   33.333333333333336
450.0   60.0   33.333333333333336
450.0   90.0   33.333333333333336
500.0   90.0   33.333333333333336
450.0   90.0   16.666666666666668
450.0   60.0   33.333333333333336
500.0   90.0   33.333333333333336
500.0   60.0   33.333333333333336
500.0   60.0   16.666666666666668
450.0   60.0   33.333333333333336
500.0   90.0   33.333333333333336
500.0   60.0   16.666666666666668
450.0   90.0   16.666666666666668
450.0   60.0   33.333333333333336
500.0   60.0   33.333333333333336
450.0   90.0   33.333333333333336
450.0   60.0   50.0
500.0   60.0   33.333333333333336
500.0   90.0   33.333333333333336
450.0   90.0   33.333333333333336
500.0   90.0   50.0
450.0   60.0   50.0
450.0   90.0   50.0
500.0   90.0   50.0
450.0   90.0   33.333333333333336
450.0   60.0   50.0
500.0   90.0   50.0
500.0   60.0   50.0
500.0   60.0   33.333333333333336
450.0   60.0   50.0
500.0   90.0   50.0
500.0   60.0   33.333333333333336
450.0   90.0   33.333333333333336
450.0   90.0   0.0
500.0   90.0   0.0
450.0   120.0   0.0
450.0   90.0   16.666666666666668
500.0   90.0   0.0
500.0   120.0   0.0
450.0   120.0   0.0
500.0   120.0   16.666666666666668
450.0   90.0   16.666666666666668
450.0   120.0   16.666666666666668
500.0   120.0   16.666666666666668
450.0   120.0   0.0
450.0   90.0   16.666666666666668
500.0   120.0   16.666666666666668
500.0   90.0   16.666666666666668
500.0   90.0   0.0
450.0   90.0   16.666666666666668
500.0   120.0   16.666666666666668
500.0   90.0   0.0
450.0   120.0   0.0
450.0   90.0   16.666666666666668
500.0   90.0   16.666666666666668
450.0   120.0   16.666666666666668
450.0   90.0   33.333333333333336
500.0   90.0   16.666666666666668
500.0   120.0   16.666666666666668
450.0   120.0   16.666666666666668
500.0   120.0   33.333333333333336
450.0   90.0   33.333333333333336
450.0   120.0   33.333333333333336
500.0   120.0   33.333333333333336
450.0   120.0   16.666666666666668
450.0   90.0   33.333333333333336
500.0   120.0   33.333333333333336
500.0   90.0   33.333333333333336
500.0   90.0   16.666666666666668
450.0   90.0   33.333333333333336
500.0   120.0   33.333333333333336
500.0   90.0   16.666666666666668
450.0   120.0   16.666666666666668
450.0   90.0   33.333333333333336
500.0   90.0   33.333333333333336
450.0   120.0   33.333333333333336
450.0   90.0   50.0
500.0   90.0   33.333333333333336
500.0   120.0   33.333333333333336
450.0   120.0   33.333333333333336
500.0   120.0   50.0
450.0   90.0   50.0
450.0   120.0   50.0
500.0   120.0   50.0
450.0   120.0   33.333333333333336
450.0   90.0   50.0
500.0   120.0   50.0
500.0   90.0   50.0
500.0   90.0   33.333333333333336
450.0   90.0   50.0
500.0   120.0   50.0
500.0   90.0   33.333333333333336
450.0   120.0   33.333333333333336
450.0   120.0   0.0
500.0   120.0   0.0
450.0   150.0   0.0
450.0   120.0   16.666666666666668
500.0   120.0   0.0
500.0   150.0   0.0
450.0   150.0   0.0
500.0   150.0   16.666666666666668
450.0   120.0   16.666666666666668
450.0   150.0   16.666666666666668
500.0   150.0   16.666666666666668
450.0   150.0   0.0
450.0   120.0   16.666666666666668
500.0   150.0   16.666666666666668
500.0   120.0   16.666666666666668
500.0   120.0   0.0
450.0   120.0   16.666666666666668
500.0   150.0   16.666666666666668
500.0   120.0   0.0
450.0   150.0   0.0
450.0   120.0   16.666666666666668
500.0   120.0   16.666666666666668
450.0   150.0   16.666666666666668
450.0   120.0   33.333333333333336
500.0   120.0   16.666666666666668
500.0   150.0   16.666666666666668
450.0   150.0   16.666666666666668
500.0   150.0   33.333333333333336
450.0   120.0   33.333333333333336
450.0   150.0   33.333333333333336
500.0   150.0   33.333333333333336
450.0   150.0   16.666666666666668
450.0   120.0   33.333333333333336
500.0   150.0   33.333333333333336
500.0   120.0   33.333333333333336
500.0   120.0   16.666666666666668
450.0   120.0   33.333333333333336
500.0   150.0   33.333333333333336
500.0   120.0   16.666666666666668
450.0   150.0   16.666666666666668
450.0   120.0   33.333333333333336
500.0   120.0   33.333333333333336
450.0   150.0   33.333333333333336
450.0   120.0   50.0
500.0   120.0   33.333333333333336
500.0   150.0   33.333333333333336
450.0   150.0   33.333333333333336
500.0   150.0   50.0
450.0   120.0   50.0
450.0   150.0   50.0
500.0   150.0   50.0
450.0   150.0   33.333333333333336
450.0   120.0   50.0
500.0   150.0   50.0
500.0   120.0   50.0
500.0   120.0   33.333333333333336
450.0   120.0   50.0
500.0   150.0   50.0
500.0   120.0   33.333333333333336
450.0   150.0   33.333333333333336
             </DataArray>   
          </Points>  
          <Cells>  
             <DataArray type="Int32" Name="connectivity" format="ascii">   
0   1   2   3
4   5   6   7
8   9   10   11
12   13   14   15
16   17   18   19
20   21   22   23
24   25   26   27
28   29   30   31
32   33   34   35
36   37   38   39
40   41   42   43
44   45   46   47
48   49   50   51
52   53   54   55
56   57   58   59
60   61   62   63
64   65   66   67
68   69   70   71
72   73   74   75
76   77   78   79
80   81   82   83
84   85   86   87
88   89   90   91
92   93   94   95
96   97   98   99
100   101   102   103
104   105   106   107
108   109   110   111
112   113   114   115
116   117   118   119
120   121   122   123
124   125   126   127
128   129   130   131
132   133   134   135
136   137   138   139
140   141   142   143
144   145   146   147
148   149   150   151
152   153   154   155
156   157   158   159
160   161   162   163
164   165   166   167
168   169   170   171
172   173   174   175
176   177   178   179
180   181   182   183
184   185   186   187
188   189   190   191
192   193   194   195
196   197   198   199
200   201   202   203
204   205   206   207
208   209   210   211
212   213   214   215
216   217   218   219
220   221   222   223
224   225   226   227
228   229   230   231
232   233   234   235
236   237   238   239
240   241   242   243
244   245   246   247
248   249   250   251
252   253   254   255
256   257   258   259
260   261   262   263
264   265   266   267
268   269   270   271
272   273   274   275
276   277   278   279
280   281   282   283
284   285   286   287
288   289   290   291
292   293   294   295
296   297   298   299
300   301   302   303
304   305   306   307
308   309   310   311
312   313   314   315
316   317   318   319
320   321   322   323
324   325   326   327
328   329   330   331
332   333   334   335
336   337   338   339
340   341   342   343
344   345   346   347
348   349   350   351
352   353   354   355
356   357   358   359
360   361   362   363
364   365   366   367
368   369   370   371
372   373   374   375
376   377   378   379
380   381   382   383
384   385   386   387
388   389   390   391
392   393   394   395
396   397   398   399
400   401   402   403
404   405   406   407
408   409   410   411
412   413   414   415
416   417   418   419
420   421   422   423
424   425   426   427
428   429   430   431
432   433   434   435
436   437   438   439
440   441   442   443
444   445   446   447
448   449   450   451
452   453   454   455
456   457   458   459
460   461   462   463
464   465   466   467
468   469   470   471
472   473   474   475
476   477   478   479
480   481   482   483
484   485   486   487
488   489   490   491
492   493   494   495
496   497   498   499
500   501   502   503
504   505   506   507
508   509   510   511
512   513   514   515
516   517   518   519
520   521   522   523
524   525   526   527
528   529   530   531
532   533   534   535
536   537   538   539
540   541   542   543
544   545   546   547
548   549   550   551
552   553   554   555
556   557   558   559
560   561   562   563
564   565   566   567
568   569   570   571
572   573   574   575
576   577   578   579
580   581   582   583
584   585   586   587
588   589   590   591
592   593   594   595
596   597   598   599
600   601   602   603
604   605   606   607
608   609   610   611
612   613   614   615
616   617   618   619
620   621   622   623
624   625   626   627
628   629   630   631
632   633   634   635
636   637   638   639
640   641   642   643
644   645   646   647
648   649   650   651
652   653   654   655
656   657   658   659
660   661   662   663
664   665   666   667
668   669   670   671
672   673   674   675
676   677   678   679
680   681   682   683
684   685   686   687
688   689   690   691
692   693   694   695
696   697   698   699
700   701   702   703
704   705   706   707
708   709   710   711
712   713   714   715
716   717   718   719
720   721   722   723
724   725   726   727
728   729   730   731
732   733   734   735
736   737   738   739
740   741   742   743
744   745   746   747
748   749   750   751
752   753   754   755
756   757   758   759
760   761   762   763
764   765   766   767
768   769   770   771
772   773   774   775
776   777   778   779
780   781   782   783
784   785   786   787
788   789   790   791
792   793   794   795
796   797   798   799
800   801   802   803
804   805   806   807
808   809   810   811
812   813   814   815
816   817   818   819
820   821   822   823
824   825   826   827
828   829   830   831
832   833   834   835
836   837   838   839
840   841   842   843
844   845   846   847
848   849   850   851
852   853   854   855
856   857   858   859
860   861   862   863
864   865   866   867
868   869   870   871
872   873   874   875
876   877   878   879
880   881   882   883
884   885   886   887
888   889   890   891
892   893   894   895
896   897   898   899
900   901   902   903
904   905   906   907
908   909   910   911
912   913   914   915
916   917   918   919
920   921   922   923
924   925   926   927
928   929   930   931
932   933   934   935
936   937   938   939
940   941   942   943
944   945   946   947
948   949   950   951
952   953   954   955
956   957   958   959
960   961   962   963
964   965   966   967
968   969   970   971
972   973   974   975
976   977   978   979
980   981   982   983
984   985   986   987
988   989   990   991
992   993   994   995
996   997   998   999
1000   1001   1002   1003
1004   1005   1006   1007
1008   1009   1010   1011
1012   1013   1014   1015
1016   1017   1018   1019
1020   1021   1022   1023
1024   1025   1026   1027
1028   1029   1030   1031
1032   1033   1034   1035
1036   1037   1038   1039
1040   1041   1042   1043
1044   1045   1046   1047
1048   1049   1050   1051
1052   1053   1054   1055
1056   1057   1058   1059
1060   1061   1062   1063
1064   1065   1066   1067
1068   1069   1070   1071
1072   1073   1074   1075
1076   1077   1078   1079
1080   1081   1082   1083
1084   1085   1086   1087
1088   1089   1090   1091
1092   1093   1094   1095
1096   1097   1098   1099
1100   1101   1102   1103
1104   1105   1106   1107
1108   1109   1110   1111
1112   1113   1114   1115
1116   1117   1118   1119
1120   1121   1122   1123
1124   1125   1126   1127
1128   1129   1130   1131
1132   1133   1134   1135
1136   1137   1138   1139
1140   1141   1142   1143
1144   1145   1146   1147
1148   1149   1150   1151
1152   1153   1154   1155
1156   1157   1158   1159
1160   1161   1162   1163
1164   1165   1166   1167
1168   1169   1170   1171
1172   1173   1174   1175
1176   1177   1178   1179
1180   1181   1182   1183
1184   1185   1186   1187
1188   1189   1190   1191
1192   1193   1194   1195
1196   1197   1198   1199
1200   1201   1202   1203
1204   1205   1206   1207
1208   1209   1210   1211
1212   1213   1214   1215
1216   1217   1218   1219
1220   1221   1222   1223
1224   1225   1226   1227
1228   1229   1230   1231
1232   1233   1234   1235
1236   1237   1238   1239
1240   1241   1242   1243
1244   1245   1246   1247
1248   1249   1250   1251
1252   1253   1254   1255
1256   1257   1258   1259
1260   1261   1262   1263
1264   1265   1266   1267
1268   1269   1270   1271
1272   1273   1274   1275
1276   1277   1278   1279
1280   1281   1282   1283
1284   1285   1286   1287
1288   1289   1290   1291
1292   1293   1294   1295
1296   1297   1298   1299
1300   1301   1302   1303
1304   1305   1306   1307
1308   1309   1310   1311
1312   1313   1314   1315
1316   1317   1318   1319
1320   1321   1322   1323
1324   1325   1326   1327
1328   1329   1330   1331
1332   1333   1334   1335
1336   1337   1338   1339
1340   1341   1342   1343
1344   1345   1346   1347
1348   1349   1350   1351
1352   1353   1354   1355
1356   1357   1358   1359
1360   1361   1362   1363
1364   1365   1366   1367
1368   1369   1370   1371
1372   1373   1374   1375
1376   1377   1378   1379
1380   1381   1382   1383
1384   1385   1386   1387
1388   1389   1390   1391
1392   1393   1394   1395
1396   1397   1398   1399
1400   1401   1402   1403
1404   1405   1406   1407
1408   1409   1410   1411
1412   1413   1414   1415
1416   1417   1418   1419
1420   1421   1422   1423
1424   1425   1426   1427
1428   1429   1430   1431
1432   1433   1434   1435
1436   1437   1438   1439
1440   1441   1442   1443
1444   1445   1446   1447
1448   1449   1450   1451
1452   1453   1454   1455
1456   1457   1458   1459
1460   1461   1462   1463
1464   1465   1466   1467
1468   1469   1470   1471
1472   1473   1474   1475
1476   1477   1478   1479
1480   1481   1482   1483
1484   1485   1486   1487
1488   1489   1490   1491
1492   1493   1494   1495
1496   1497   1498   1499
1500   1501   1502   1503
1504   1505   1506   1507
1508   1509   1510   1511
1512   1513   1514   1515
1516   1517   1518   1519
1520   1521   1522   1523
1524   1525   1526   1527
1528   1529   1530   1531
1532   1533   1534   1535
1536   1537   1538   1539
1540   1541   1542   1543
1544   1545   1546   1547
1548   1549   1550   1551
1552   1553   1554   1555
1556   1557   1558   1559
1560   1561   1562   1563
1564   1565   1566   1567
1568   1569   1570   1571
1572   1573   1574   1575
1576   1577   1578   1579
1580   1581   1582   1583
1584   1585   1586   1587
1588   1589   1590   1591
1592   1593   1594   1595
1596   1597   1598   1599
1600   1601   1602   1603
1604   1605   1606   1607
1608   1609   1610   1611
1612   1613   1614   1615
1616   1617   1618   1619
1620   1621   1622   1623
1624   1625   1626   1627
1628   1629   1630   1631
1632   1633   1634   1635
1636   1637   1638   1639
1640   1641   1642   1643
1644   1645   1646   1647
1648   1649   1650   1651
1652   1653   1654   1655
1656   1657   1658   1659
1660   1661   1662   1663
1664   1665   1666   1667
1668   1669   1670   1671
1672   1673   1674   1675
1676   1677   1678   1679
1680   1681   1682   1683
1684   1685   1686   1687
1688   1689   1690   1691
1692   1693   1694   1695
1696   1697   1698   1699
1700   1701   1702   1703
1704   1705   1706   1707
1708   1709   1710   1711
1712   1713   1714   1715
1716   1717   1718   1719
1720   1721   1722   1723
1724   1725   1726   1727
1728   1729   1730   1731
1732   1733   1734   1735
1736   1737   1738   1739
1740   1741   1742   1743
1744   1745   1746   1747
1748   1749   1750   1751
1752   1753   1754   1755
1756   1757   1758   1759
1760   1761   1762   1763
1764   1765   1766   1767
1768   1769   1770   1771
1772   1773   1774   1775
1776   1777   1778   1779
1780   1781   1782   1783
1784   1785   1786   1787
1788   1789   1790   1791
1792   1793   1794   1795
1796   1797   1798   1799
1800   1801   1802   1803
1804   1805   1806   1807
1808   1809   1810   1811
1812   1813   1814   1815
1816   1817   1818   1819
1820   1821   1822   1823
1824   1825   1826   1827
1828   1829   1830   1831
1832   1833   1834   1835
1836   1837   1838   1839
1840   1841   1842   1843
1844   1845   1846   1847
1848   1849   1850   1851
1852   1853   1854   1855
1856   1857   1858   1859
1860   1861   1862   1863
1864   1865   1866   1867
1868   1869   1870   1871
1872   1873   1874   1875
1876   1877   1878   1879
1880   1881   1882   1883
1884   1885   1886   1887
1888   1889   1890   1891
1892   1893   1894   1895
1896   1897   1898   1899
1900   1901   1902   1903
1904   1905   1906   1907
1908   1909   1910   1911
1912   1913   1914   1915
1916   1917   1918   1919
1920   1921   1922   1923
1924   1925   1926   1927
1928   1929   1930   1931
1932   1933   1934   1935
1936   1937   1938   1939
1940   1941   1942   1943
1944   1945   1946   1947
1948   1949   1950   1951
1952   1953   1954   1955
1956   1957   1958   1959
1960   1961   1962   1963
1964   1965   1966   1967
1968   1969   1970   1971
1972   1973   1974   1975
1976   1977   1978   1979
1980   1981   1982   1983
1984   1985   1986   1987
1988   1989   1990   1991
1992   1993   1994   1995
1996   1997   1998   1999
2000   2001   2002   2003
2004   2005   2006   2007
2008   2009   2010   2011
2012   2013   2014   2015
2016   2017   2018   2019
2020   2021   2022   2023
2024   2025   2026   2027
2028   2029   2030   2031
2032   2033   2034   2035
2036   2037   2038   2039
2040   2041   2042   2043
2044   2045   2046   2047
2048   2049   2050   2051
2052   2053   2054   2055
2056   2057   2058   2059
2060   2061   2062   2063
2064   2065   2066   2067
2068   2069   2070   2071
2072   2073   2074   2075
2076   2077   2078   2079
2080   2081   2082   2083
2084   2085   2086   2087
2088   2089   2090   2091
2092   2093   2094   2095
2096   2097   2098   2099
2100   2101   2102   2103
2104   2105   2106   2107
2108   2109   2110   2111
2112   2113   2114   2115
2116   2117   2118   2119
2120   2121   2122   2123
2124   2125   2126   2127
2128   2129   2130   2131
2132   2133   2134   2135
2136   2137   2138   2139
2140   2141   2142   2143
2144   2145   2146   2147
2148   2149   2150   2151
2152   2153   2154   2155
2156   2157   2158   2159
2160   2161   2162   2163
2164   2165   2166   2167
2168   2169   2170   2171
2172   2173   2174   2175
2176   2177   2178   2179
2180   2181   2182   2183
2184   2185   2186   2187
2188   2189   2190   2191
2192   2193   2194   2195
2196   2197   2198   2199
2200   2201   2202   2203
2204   2205   2206   2207
2208   2209   2210   2211
2212   2213   2214   2215
2216   2217   2218   2219
2220   2221   2222   2223
2224   2225   2226   2227
2228   2229   2230   2231
2232   2233   2234   2235
2236   2237   2238   2239
2240   2241   2242   2243
2244   2245   2246   2247
2248   2249   2250   2251
2252   2253   2254   2255
2256   2257   2258   2259
2260   2261   2262   2263
2264   2265   2266   2267
2268   2269   2270   2271
2272   2273   2274   2275
2276   2277   2278   2279
2280   2281   2282   2283
2284   2285   2286   2287
2288   2289   2290   2291
2292   2293   2294   2295
2296   2297   2298   2299
2300   2301   2302   2303
2304   2305   2306   2307
2308   2309   2310   2311
2312   2313   2314   2315
2316   2317   2318   2319
2320   2321   2322   2323
2324   2325   2326   2327
2328   2329   2330   2331
2332   2333   2334   2335
2336   2337   2338   2339
2340   2341   2342   2343
2344   2345   2346   2347
2348   2349   2350   2351
2352   2353   2354   2355
2356   2357   2358   2359
2360   2361   2362   2363
2364   2365   2366   2367
2368   2369   2370   2371
2372   2373   2374   2375
2376   2377   2378   2379
2380   2381   2382   2383
2384   2385   2386   2387
2388   2389   2390   2391
2392   2393   2394   2395
2396   2397   2398   2399
2400   2401   2402   2403
2404   2405   2406   2407
2408   2409   2410   2411
2412   2413   2414   2415
2416   2417   2418   2419
2420   2421   2422   2423
2424   2425   2426   2427
2428   2429   2430   2431
2432   2433   2434   2435
2436   2437   2438   2439
2440   2441   2442   2443
2444   2445   2446   2447
2448   2449   2450   2451
2452   2453   2454   2455
2456   2457   2458   2459
2460   2461   2462   2463
2464   2465   2466   2467
2468   2469   2470   2471
2472   2473   2474   2475
2476   2477   2478   2479
2480   2481   2482   2483
2484   2485   2486   2487
2488   2489   2490   2491
2492   2493   2494   2495
2496   2497   2498   2499
2500   2501   2502   2503
2504   2505   2506   2507
2508   2509   2510   2511
2512   2513   2514   2515
2516   2517   2518   2519
2520   2521   2522   2523
2524   2525   2526   2527
2528   2529   2530   2531
2532   2533   2534   2535
2536   2537   2538   2539
2540   2541   2542   2543
2544   2545   2546   2547
2548   2549   2550   2551
2552   2553   2554   2555
2556   2557   2558   2559
2560   2561   2562   2563
2564   2565   2566   2567
2568   2569   2570   2571
2572   2573   2574   2575
2576   2577   2578   2579
2580   2581   2582   2583
2584   2585   2586   2587
2588   2589   2590   2591
2592   2593   2594   2595
2596   2597   2598   2599
2600   2601   2602   2603
2604   2605   2606   2607
2608   2609   2610   2611
2612   2613   2614   2615
2616   2617   2618   2619
2620   2621   2622   2623
2624   2625   2626   2627
2628   2629   2630   2631
2632   2633   2634   2635
2636   2637   2638   2639
2640   2641   2642   2643
2644   2645   2646   2647
2648   2649   2650   2651
2652   2653   2654   2655
2656   2657   2658   2659
2660   2661   2662   2663
2664   2665   2666   2667
2668   2669   2670   2671
2672   2673   2674   2675
2676   2677   2678   2679
2680   2681   2682   2683
2684   2685   2686   2687
2688   2689   2690   2691
2692   2693   2694   2695
2696   2697   2698   2699
2700   2701   2702   2703
2704   2705   2706   2707
2708   2709   2710   2711
2712   2713   2714   2715
2716   2717   2718   2719
2720   2721   2722   2723
2724   2725   2726   2727
2728   2729   2730   2731
2732   2733   2734   2735
2736   2737   2738   2739
2740   2741   2742   2743
2744   2745   2746   2747
2748   2749   2750   2751
2752   2753   2754   2755
2756   2757   2758   2759
2760   2761   2762   2763
2764   2765   2766   2767
2768   2769   2770   2771
2772   2773   2774   2775
2776   2777   2778   2779
2780   2781   2782   2783
2784   2785   2786   2787
2788   2789   2790   2791
2792   2793   2794   2795
2796   2797   2798   2799
2800   2801   2802   2803
2804   2805   2806   2807
2808   2809   2810   2811
2812   2813   2814   2815
2816   2817   2818   2819
2820   2821   2822   2823
2824   2825   2826   2827
2828   2829   2830   2831
2832   2833   2834   2835
2836   2837   2838   2839
2840   2841   2842   2843
2844   2845   2846   2847
2848   2849   2850   2851
2852   2853   2854   2855
2856   2857   2858   2859
2860   2861   2862   2863
2864   2865   2866   2867
2868   2869   2870   2871
2872   2873   2874   2875
2876   2877   2878   2879
2880   2881   2882   2883
2884   2885   2886   2887
2888   2889   2890   2891
2892   2893   2894   2895
2896   2897   2898   2899
2900   2901   2902   2903
2904   2905   2906   2907
2908   2909   2910   2911
2912   2913   2914   2915
2916   2917   2918   2919
2920   2921   2922   2923
2924   2925   2926   2927
2928   2929   2930   2931
2932   2933   2934   2935
2936   2937   2938   2939
2940   2941   2942   2943
2944   2945   2946   2947
2948   2949   2950   2951
2952   2953   2954   2955
2956   2957   2958   2959
2960   2961   2962   2963
2964   2965   2966   2967
2968   2969   2970   2971
2972   2973   2974   2975
2976   2977   2978   2979
2980   2981   2982   2983
2984   2985   2986   2987
2988   2989   2990   2991
2992   2993   2994   2995
2996   2997   2998   2999
3000   3001   3002   3003
3004   3005   3006   3007
3008   3009   3010   3011
3012   3013   3014   3015
3016   3017   3018   3019
3020   3021   3022   3023
3024   3025   3026   3027
3028   3029   3030   3031
3032   3033   3034   3035
3036   3037   3038   3039
3040   3041   3042   3043
3044   3045   3046   3047
3048   3049   3050   3051
3052   3053   3054   3055
3056   3057   3058   3059
3060   3061   3062   3063
3064   3065   3066   3067
3068   3069   3070   3071
3072   3073   3074   3075
3076   3077   3078   3079
3080   3081   3082   3083
3084   3085   3086   3087
3088   3089   3090   3091
3092   3093   3094   3095
3096   3097   3098   3099
3100   3101   3102   3103
3104   3105   3106   3107
3108   3109   3110   3111
3112   3113   3114   3115
3116   3117   3118   3119
3120   3121   3122   3123
3124   3125   3126   3127
3128   3129   3130   3131
3132   3133   3134   3135
3136   3137   3138   3139
3140   3141   3142   3143
3144   3145   3146   3147
3148   3149   3150   3151
3152   3153   3154   3155
3156   3157   3158   3159
3160   3161   3162   3163
3164   3165   3166   3167
3168   3169   3170   3171
3172   3173   3174   3175
3176   3177   3178   3179
3180   3181   3182   3183
3184   3185   3186   3187
3188   3189   3190   3191
3192   3193   3194   3195
3196   3197   3198   3199
3200   3201   3202   3203
3204   3205   3206   3207
3208   3209   3210   3211
3212   3213   3214   3215
3216   3217   3218   3219
3220   3221   3222   3223
3224   3225   3226   3227
3228   3229   3230   3231
3232   3233   3234   3235
3236   3237   3238   3239
3240   3241   3242   3243
3244   3245   3246   3247
3248   3249   3250   3251
3252   3253   3254   3255
3256   3257   3258   3259
3260   3261   3262   3263
3264   3265   3266   3267
3268   3269   3270   3271
3272   3273   3274   3275
3276   3277   3278   3279
3280   3281   3282   3283
3284   3285   3286   3287
3288   3289   3290   3291
3292   3293   3294   3295
3296   3297   3298   3299
3300   3301   3302   3303
3304   3305   3306   3307
3308   3309   3310   3311
3312   3313   3314   3315
3316   3317   3318   3319
3320   3321   3322   3323
3324   3325   3326   3327
3328   3329   3330   3331
3332   3333   3334   3335
3336   3337   3338   3339
3340   3341   3342   3343
3344   3345   3346   3347
3348   3349   3350   3351
3352   3353   3354   3355
3356   3357   3358   3359
3360   3361   3362   3363
3364   3365   3366   3367
3368   3369   3370   3371
3372   3373   3374   3375
3376   3377   3378   3379
3380   3381   3382   3383
3384   3385   3386   3387
3388   3389   3390   3391
3392   3393   3394   3395
3396   3397   3398   3399
3400   3401   3402   3403
3404   3405   3406   3407
3408   3409   3410   3411
3412   3413   3414   3415
3416   3417   3418   3419
3420   3421   3422   3423
3424   3425   3426   3427
3428   3429   3430   3431
3432   3433   3434   3435
3436   3437   3438   3439
3440   3441   3442   3443
3444   3445   3446   3447
3448   3449   3450   3451
3452   3453   3454   3455
3456   3457   3458   3459
3460   3461   3462   3463
3464   3465   3466   3467
3468   3469   3470   3471
3472   3473   3474   3475
3476   3477   3478   3479
3480   3481   3482   3483
3484   3485   3486   3487
3488   3489   3490   3491
3492   3493   3494   3495
3496   3497   3498   3499
3500   3501   3502   3503
3504   3505   3506   3507
3508   3509   3510   3511
3512   3513   3514   3515
3516   3517   3518   3519
3520   3521   3522   3523
3524   3525   3526   3527
3528   3529   3530   3531
3532   3533   3534   3535
3536   3537   3538   3539
3540   3541   3542   3543
3544   3545   3546   3547
3548   3549   3550   3551
3552   3553   3554   3555
3556   3557   3558   3559
3560   3561   3562   3563
3564   3565   3566   3567
3568   3569   3570   3571
3572   3573   3574   3575
3576   3577   3578   3579
3580   3581   3582   3583
3584   3585   3586   3587
3588   3589   3590   3591
3592   3593   3594   3595
3596   3597   3598   3599
3600   3601   3602   3603
3604   3605   3606   3607
3608   3609   3610   3611
3612   3613   3614   3615
3616   3617   3618   3619
3620   3621   3622   3623
3624   3625   3626   3627
3628   3629   3630   3631
3632   3633   3634   3635
3636   3637   3638   3639
3640   3641   3642   3643
3644   3645   3646   3647
3648   3649   3650   3651
3652   3653   3654   3655
3656   3657   3658   3659
3660   3661   3662   3663
3664   3665   3666   3667
3668   3669   3670   3671
3672   3673   3674   3675
3676   3677   3678   3679
3680   3681   3682   3683
3684   3685   3686   3687
3688   3689   3690   3691
3692   3693   3694   3695
3696   3697   3698   3699
3700   3701   3702   3703
3704   3705   3706   3707
3708   3709   3710   3711
3712   3713   3714   3715
3716   3717   3718   3719
3720   3721   3722   3723
3724   3725   3726   3727
3728   3729   3730   3731
3732   3733   3734   3735
3736   3737   3738   3739
3740   3741   3742   3743
3744   3745   3746   3747
3748   3749   3750   3751
3752   3753   3754   3755
3756   3757   3758   3759
3760   3761   3762   3763
3764   3765   3766   3767
3768   3769   3770   3771
3772   3773   3774   3775
3776   3777   3778   3779
3780   3781   3782   3783
3784   3785   3786   3787
3788   3789   3790   3791
3792   3793   3794   3795
3796   3797   3798   3799
3800   3801   3802   3803
3804   3805   3806   3807
3808   3809   3810   3811
3812   3813   3814   3815
3816   3817   3818   3819
3820   3821   3822   3823
3824   3825   3826   3827
3828   3829   3830   3831
3832   3833   3834   3835
3836   3837   3838   3839
3840   3841   3842   3843
3844   3845   3846   3847
3848   3849   3850   3851
3852   3853   3854   3855
3856   3857   3858   3859
3860   3861   3862   3863
3864   3865   3866   3867
3868   3869   3870   3871
3872   3873   3874   3875
3876   3877   3878   3879
3880   3881   3882   3883
3884   3885   3886   3887
3888   3889   3890   3891
3892   3893   3894   3895
3896   3897   3898   3899
3900   3901   3902   3903
3904   3905   3906   3907
3908   3909   3910   3911
3912   3913   3914   3915
3916   3917   3918   3919
3920   3921   3922   3923
3924   3925   3926   3927
3928   3929   3930   3931
3932   3933   3934   3935
3936   3937   3938   3939
3940   3941   3942   3943
3944   3945   3946   3947
3948   3949   3950   3951
3952   3953   3954   3955
3956   3957   3958   3959
3960   3961   3962   3963
3964   3965   3966   3967
3968   3969   3970   3971
3972   3973   3974   3975
3976   3977   3978   3979
3980   3981   3982   3983
3984   3985   3986   3987
3988   3989   3990   3991
3992   3993   3994   3995
3996   3997   3998   3999
4000   4001   4002   4003
4004   4005   4006   4007
4008   4009   4010   4011
4012   4013   4014   4015
4016   4017   4018   4019
4020   4021   4022   4023
4024   4025   4026   4027
4028   4029   4030   4031
4032   4033   4034   4035
4036   4037   4038   4039
4040   4041   4042   4043
4044   4045   4046   4047
4048   4049   4050   4051
4052   4053   4054   4055
4056   4057   4058   4059
4060   4061   4062   4063
4064   4065   4066   4067
4068   4069   4070   4071
4072   4073   4074   4075
4076   4077   4078   4079
4080   4081   4082   4083
4084   4085   4086   4087
4088   4089   4090   4091
4092   4093   4094   4095
4096   4097   4098   4099
4100   4101   4102   4103
4104   4105   4106   4107
4108   4109   4110   4111
4112   4113   4114   4115
4116   4117   4118   4119
4120   4121   4122   4123
4124   4125   4126   4127
4128   4129   4130   4131
4132   4133   4134   4135
4136   4137   4138   4139
4140   4141   4142   4143
4144   4145   4146   4147
4148   4149   4150   4151
4152   4153   4154   4155
4156   4157   4158   4159
4160   4161   4162   4163
4164   4165   4166   4167
4168   4169   4170   4171
4172   4173   4174   4175
4176   4177   4178   4179
4180   4181   4182   4183
4184   4185   4186   4187
4188   4189   4190   4191
4192   4193   4194   4195
4196   4197   4198   4199
4200   4201   4202   4203
4204   4205   4206   4207
4208   4209   4210   4211
4212   4213   4214   4215
4216   4217   4218   4219
4220   4221   4222   4223
4224   4225   4226   4227
4228   4229   4230   4231
4232   4233   4234   4235
4236   4237   4238   4239
4240   4241   4242   4243
4244   4245   4246   4247
4248   4249   4250   4251
4252   4253   4254   4255
4256   4257   4258   4259
4260   4261   4262   4263
4264   4265   4266   4267
4268   4269   4270   4271
4272   4273   4274   4275
4276   4277   4278   4279
4280   4281   4282   4283
4284   4285   4286   4287
4288   4289   4290   4291
4292   4293   4294   4295
4296   4297   4298   4299
4300   4301   4302   4303
4304   4305   4306   4307
4308   4309   4310   4311
4312   4313   4314   4315
4316   4317   4318   4319
4320   4321   4322   4323
4324   4325   4326   4327
4328   4329   4330   4331
4332   4333   4334   4335
4336   4337   4338   4339
4340   4341   4342   4343
4344   4345   4346   4347
4348   4349   4350   4351
4352   4353   4354   4355
4356   4357   4358   4359
4360   4361   4362   4363
4364   4365   4366   4367
4368   4369   4370   4371
4372   4373   4374   4375
4376   4377   4378   4379
4380   4381   4382   4383
4384   4385   4386   4387
4388   4389   4390   4391
4392   4393   4394   4395
4396   4397   4398   4399
4400   4401   4402   4403
4404   4405   4406   4407
4408   4409   4410   4411
4412   4413   4414   4415
4416   4417   4418   4419
4420   4421   4422   4423
4424   4425   4426   4427
4428   4429   4430   4431
4432   4433   4434   4435
4436   4437   4438   4439
4440   4441   4442   4443
4444   4445   4446   4447
4448   4449   4450   4451
4452   4453   4454   4455
4456   4457   4458   4459
4460   4461   4462   4463
4464   4465   4466   4467
4468   4469   4470   4471
4472   4473   4474   4475
4476   4477   4478   4479
4480   4481   4482   4483
4484   4485   4486   4487
4488   4489   4490   4491
4492   4493   4494   4495
4496   4497   4498   4499
4500   4501   4502   4503
4504   4505   4506   4507
4508   4509   4510   4511
4512   4513   4514   4515
4516   4517   4518   4519
4520   4521   4522   4523
4524   4525   4526   4527
4528   4529   4530   4531
4532   4533   4534   4535
4536   4537   4538   4539
4540   4541   4542   4543
4544   4545   4546   4547
4548   4549   4550   4551
4552   4553   4554   4555
4556   4557   4558   4559
4560   4561   4562   4563
4564   4565   4566   4567
4568   4569   4570   4571
4572   4573   4574   4575
4576   4577   4578   4579
4580   4581   4582   4583
4584   4585   4586   4587
4588   4589   4590   4591
4592   4593   4594   4595
4596   4597   4598   4599
4600   4601   4602   4603
4604   4605   4606   4607
4608   4609   4610   4611
4612   4613   4614   4615
4616   4617   4618   4619
4620   4621   4622   4623
4624   4625   4626   4627
4628   4629   4630   4631
4632   4633   4634   4635
4636   4637   4638   4639
4640   4641   4642   4643
4644   4645   4646   4647
4648   4649   4650   4651
4652   4653   4654   4655
4656   4657   4658   4659
4660   4661   4662   4663
4664   4665   4666   4667
4668   4669   4670   4671
4672   4673   4674   4675
4676   4677   4678   4679
4680   4681   4682   4683
4684   4685   4686   4687
4688   4689   4690   4691
4692   4693   4694   4695
4696   4697   4698   4699
4700   4701   4702   4703
4704   4705   4706   4707
4708   4709   4710   4711
4712   4713   4714   4715
4716   4717   4718   4719
4720   4721   4722   4723
4724   4725   4726   4727
4728   4729   4730   4731
4732   4733   4734   4735
4736   4737   4738   4739
4740   4741   4742   4743
4744   4745   4746   4747
4748   4749   4750   4751
4752   4753   4754   4755
4756   4757   4758   4759
4760   4761   4762   4763
4764   4765   4766   4767
4768   4769   4770   4771
4772   4773   4774   4775
4776   4777   4778   4779
4780   4781   4782   4783
4784   4785   4786   4787
4788   4789   4790   4791
4792   4793   4794   4795
4796   4797   4798   4799
4800   4801   4802   4803
4804   4805   4806   4807
4808   4809   4810   4811
4812   4813   4814   4815
4816   4817   4818   4819
4820   4821   4822   4823
4824   4825   4826   4827
4828   4829   4830   4831
4832   4833   4834   4835
4836   4837   4838   4839
4840   4841   4842   4843
4844   4845   4846   4847
4848   4849   4850   4851
4852   4853   4854   4855
4856   4857   4858   4859
4860   4861   4862   4863
4864   4865   4866   4867
4868   4869   4870   4871
4872   4873   4874   4875
4876   4877   4878   4879
4880   4881   4882   4883
4884   4885   4886   4887
4888   4889   4890   4891
4892   4893   4894   4895
4896   4897   4898   4899
4900   4901   4902   4903
4904   4905   4906   4907
4908   4909   4910   4911
4912   4913   4914   4915
4916   4917   4918   4919
4920   4921   4922   4923
4924   4925   4926   4927
4928   4929   4930   4931
4932   4933   4934   4935
4936   4937   4938   4939
4940   4941   4942   4943
4944   4945   4946   4947
4948   4949   4950   4951
4952   4953   4954   4955
4956   4957   4958   4959
4960   4961   4962   4963
4964   4965   4966   4967
4968   4969   4970   4971
4972   4973   4974   4975
4976   4977   4978   4979
4980   4981   4982   4983
4984   4985   4986   4987
4988   4989   4990   4991
4992   4993   4994   4995
4996   4997   4998   4999
5000   5001   5002   5003
5004   5005   5006   5007
5008   5009   5010   5011
5012   5013   5014   5015
5016   5017   5018   5019
5020   5021   5022   5023
5024   5025   5026   5027
5028   5029   5030   5031
5032   5033   5034   5035
5036   5037   5038   5039
5040   5041   5042   5043
5044   5045   5046   5047
5048   5049   5050   5051
5052   5053   5054   5055
5056   5057   5058   5059
5060   5061   5062   5063
5064   5065   5066   5067
5068   5069   5070   5071
5072   5073   5074   5075
5076   5077   5078   5079
5080   5081   5082   5083
5084   5085   5086   5087
5088   5089   5090   5091
5092   5093   5094   5095
5096   5097   5098   5099
5100   5101   5102   5103
5104   5105   5106   5107
5108   5109   5110   5111
5112   5113   5114   5115
5116   5117   5118   5119
5120   5121   5122   5123
5124   5125   5126   5127
5128   5129   5130   5131
5132   5133   5134   5135
5136   5137   5138   5139
5140   5141   5142   5143
5144   5145   5146   5147
5148   5149   5150   5151
5152   5153   5154   5155
5156   5157   5158   5159
5160   5161   5162   5163
5164   5165   5166   5167
5168   5169   5170   5171
5172   5173   5174   5175
5176   5177   5178   5179
5180   5181   5182   5183
5184   5185   5186   5187
5188   5189   5190   5191
5192   5193   5194   5195
5196   5197   5198   5199
5200   5201   5202   5203
5204   5205   5206   5207
5208   5209   5210   5211
5212   5213   5214   5215
5216   5217   5218   5219
5220   5221   5222   5223
5224   5225   5226   5227
5228   5229   5230   5231
5232   5233   5234   5235
5236   5237   5238   5239
5240   5241   5242   5243
5244   5245   5246   5247
5248   5249   5250   5251
5252   5253   5254   5255
5256   5257   5258   5259
5260   5261   5262   5263
5264   5265   5266   5267
5268   5269   5270   5271
5272   5273   5274   5275
5276   5277   5278   5279
5280   5281   5282   5283
5284   5285   5286   5287
5288   5289   5290   5291
5292   5293   5294   5295
5296   5297   5298   5299
5300   5301   5302   5303
5304   5305   5306   5307
5308   5309   5310   5311
5312   5313   5314   5315
5316   5317   5318   5319
5320   5321   5322   5323
5324   5325   5326   5327
5328   5329   5330   5331
5332   5333   5334   5335
5336   5337   5338   5339
5340   5341   5342   5343
5344   5345   5346   5347
5348   5349   5350   5351
5352   5353   5354   5355
5356   5357   5358   5359
5360   5361   5362   5363
5364   5365   5366   5367
5368   5369   5370   5371
5372   5373   5374   5375
5376   5377   5378   5379
5380   5381   5382   5383
5384   5385   5386   5387
5388   5389   5390   5391
5392   5393   5394   5395
5396   5397   5398   5399
5400   5401   5402   5403
5404   5405   5406   5407
5408   5409   5410   5411
5412   5413   5414   5415
5416   5417   5418   5419
5420   5421   5422   5423
5424   5425   5426   5427
5428   5429   5430   5431
5432   5433   5434   5435
5436   5437   5438   5439
5440   5441   5442   5443
5444   5445   5446   5447
5448   5449   5450   5451
5452   5453   5454   5455
5456   5457   5458   5459
5460   5461   5462   5463
5464   5465   5466   5467
5468   5469   5470   5471
5472   5473   5474   5475
5476   5477   5478   5479
5480   5481   5482   5483
5484   5485   5486   5487
5488   5489   5490   5491
5492   5493   5494   5495
5496   5497   5498   5499
5500   5501   5502   5503
5504   5505   5506   5507
5508   5509   5510   5511
5512   5513   5514   5515
5516   5517   5518   5519
5520   5521   5522   5523
5524   5525   5526   5527
5528   5529   5530   5531
5532   5533   5534   5535
5536   5537   5538   5539
5540   5541   5542   5543
5544   5545   5546   5547
5548   5549   5550   5551
5552   5553   5554   5555
5556   5557   5558   5559
5560   5561   5562   5563
5564   5565   5566   5567
5568   5569   5570   5571
5572   5573   5574   5575
5576   5577   5578   5579
5580   5581   5582   5583
5584   5585   5586   5587
5588   5589   5590   5591
5592   5593   5594   5595
5596   5597   5598   5599
5600   5601   5602   5603
5604   5605   5606   5607
5608   5609   5610   5611
5612   5613   5614   5615
5616   5617   5618   5619
5620   5621   5622   5623
5624   5625   5626   5627
5628   5629   5630   5631
5632   5633   5634   5635
5636   5637   5638   5639
5640   5641   5642   5643
5644   5645   5646   5647
5648   5649   5650   5651
5652   5653   5654   5655
5656   5657   5658   5659
5660   5661   5662   5663
5664   5665   5666   5667
5668   5669   5670   5671
5672   5673   5674   5675
5676   5677   5678   5679
5680   5681   5682   5683
5684   5685   5686   5687
5688   5689   5690   5691
5692   5693   5694   5695
5696   5697   5698   5699
5700   5701   5702   5703
5704   5705   5706   5707
5708   5709   5710   5711
5712   5713   5714   5715
5716   5717   5718   5719
5720   5721   5722   5723
5724   5725   5726   5727
5728   5729   5730   5731
5732   5733   5734   5735
5736   5737   5738   5739
5740   5741   5742   5743
5744   5745   5746   5747
5748   5749   5750   5751
5752   5753   5754   5755
5756   5757   5758   5759
5760   5761   5762   5763
5764   5765   5766   5767
5768   5769   5770   5771
5772   5773   5774   5775
5776   5777   5778   5779
5780   5781   5782   5783
5784   5785   5786   5787
5788   5789   5790   5791
5792   5793   5794   5795
5796   5797   5798   5799
5800   5801   5802   5803
5804   5805   5806   5807
5808   5809   5810   5811
5812   5813   5814   5815
5816   5817   5818   5819
5820   5821   5822   5823
5824   5825   5826   5827
5828   5829   5830   5831
5832   5833   5834   5835
5836   5837   5838   5839
5840   5841   5842   5843
5844   5845   5846   5847
5848   5849   5850   5851
5852   5853   5854   5855
5856   5857   5858   5859
5860   5861   5862   5863
5864   5865   5866   5867
5868   5869   5870   5871
5872   5873   5874   5875
5876   5877   5878   5879
5880   5881   5882   5883
5884   5885   5886   5887
5888   5889   5890   5891
5892   5893   5894   5895
5896   5897   5898   5899
5900   5901   5902   5903
5904   5905   5906   5907
5908   5909   5910   5911
5912   5913   5914   5915
5916   5917   5918   5919
5920   5921   5922   5923
5924   5925   5926   5927
5928   5929   5930   5931
5932   5933   5934   5935
5936   5937   5938   5939
5940   5941   5942   5943
5944   5945   5946   5947
5948   5949   5950   5951
5952   5953   5954   5955
5956   5957   5958   5959
5960   5961   5962   5963
5964   5965   5966   5967
5968   5969   5970   5971
5972   5973   5974   5975
5976   5977   5978   5979
5980   5981   5982   5983
5984   5985   5986   5987
5988   5989   5990   5991
5992   5993   5994   5995
5996   5997   5998   5999
              </DataArray>   
              <DataArray type="Int32" Name="offsets" format="ascii">   
4
8
12
16
20
24
28
32
36
40
44
48
52
56
60
64
68
72
76
80
84
88
92
96
100
104
108
112
116
120
124
128
132
136
140
144
148
152
156
160
164
168
172
176
180
184
188
192
196
200
204
208
212
216
220
224
228
232
236
240
244
248
252
256
260
264
268
272
276
280
284
288
292
296
300
304
308
312
316
320
324
328
332
336
340
344
348
352
356
360
364
368
372
376
380
384
388
392
396
400
404
408
412
416
420
424
428
432
436
440
444
448
452
456
460
464
468
472
476
480
484
488
492
496
500
504
508
512
516
520
524
528
532
536
540
544
548
552
556
560
564
568
572
576
580
584
588
592
596
600
604
608
612
616
620
624
628
632
636
640
644
648
652
656
660
664
668
672
676
680
684
688
692
696
700
704
708
712
716
720
724
728
732
736
740
744
748
752
756
760
764
768
772
776
780
784
788
792
796
800
804
808
812
816
820
824
828
832
836
840
844
848
852
856
860
864
868
872
876
880
884
888
892
896
900
904
908
912
916
920
924
928
932
936
940
944
948
952
956
960
964
968
972
976
980
984
988
992
996
1000
1004
1008
1012
1016
1020
1024
1028
1032
1036
1040
1044
1048
1052
1056
1060
1064
1068
1072
1076
1080
1084
1088
1092
1096
1100
1104
1108
1112
1116
1120
1124
1128
1132
1136
1140
1144
1148
1152
1156
1160
1164
1168
1172
1176
1180
1184
1188
1192
1196
1200
1204
1208
1212
1216
1220
1224
1228
1232
1236
1240
1244
1248
1252
1256
1260
1264
1268
1272
1276
1280
1284
1288
1292
1296
1300
1304
1308
1312
1316
1320
1324
1328
1332
1336
1340
1344
1348
1352
1356
1360
1364
1368
1372
1376
1380
1384
1388
1392
1396
1400
1404
1408
1412
1416
1420
1424
1428
1432
1436
1440
1444
1448
1452
1456
1460
1464
1468
1472
1476
1480
1484
1488
1492
1496
1500
1504
1508
1512
1516
1520
1524
1528
1532
1536
1540
1544
1548
1552
1556
1560
1564
1568
1572
1576
1580
1584
1588
1592
1596
1600
1604
1608
1612
1616
1620
1624
1628
1632
1636
1640
1644
1648
1652
1656
1660
1664
1668
1672
1676
1680
1684
1688
1692
1696
1700
1704
1708
1712
1716
1720
1724
1728
1732
1736
1740
1744
1748
1752
1756
1760
1764
1768
1772
1776
1780
1784
1788
1792
1796
1800
1804
1808
1812
1816
1820
1824
1828
1832
1836
1840
1844
1848
1852
1856
1860
1864
1868
1872
1876
1880
1884
1888
1892
1896
1900
1904
1908
1912
1916
1920
1924
1928
1932
1936
1940
1944
1948
1952
1956
1960
1964
1968
1972
1976
1980
1984
1988
1992
1996
2000
2004
2008
2012
2016
2020
2024
2028
2032
2036
2040
2044
2048
2052
2056
2060
2064
2068
2072
2076
2080
2084
2088
2092
2096
2100
2104
2108
2112
2116
2120
2124
2128
2132
2136
2140
2144
2148
2152
2156
2160
2164
2168
2172
2176
2180
2184
2188
2192
2196
2200
2204
2208
2212
2216
2220
2224
2228
2232
2236
2240
2244
2248
2252
2256
2260
2264
2268
2272
2276
2280
2284
2288
2292
2296
2300
2304
2308
2312
2316
2320
2324
2328
2332
2336
2340
2344
2348
2352
2356
2360
2364
2368
2372
2376
2380
2384
2388
2392
2396
2400
2404
2408
2412
2416
2420
2424
2428
2432
2436
2440
2444
2448
2452
2456
2460
2464
2468
2472
2476
2480
2484
2488
2492
2496
2500
2504
2508
2512
2516
2520
2524
2528
2532
2536
2540
2544
2548
2552
2556
2560
2564
2568
2572
2576
2580
2584
2588
2592
2596
2600
2604
2608
2612
2616
2620
2624
2628
2632
2636
2640
2644
2648
2652
2656
2660
2664
2668
2672
2676
2680
2684
2688
2692
2696
2700
2704
2708
2712
2716
2720
2724
2728
2732
2736
2740
2744
2748
2752
2756
2760
2764
2768
2772
2776
2780
2784
2788
2792
2796
2800
2804
2808
2812
2816
2820
2824
2828
2832
2836
2840
2844
2848
2852
2856
2860
2864
2868
2872
2876
2880
2884
2888
2892
2896
2900
2904
2908
2912
2916
2920
2924
2928
2932
2936
2940
2944
2948
2952
2956
2960
2964
2968
2972
2976
2980
2984
2988
2992
2996
3000
3004
3008
3012
3016
3020
3024
3028
3032
3036
3040
3044
3048
3052
3056
3060
3064
3068
3072
3076
3080
3084
3088
3092
3096
3100
3104
3108
3112
3116
3120
3124
3128
3132
3136
3140
3144
3148
3152
3156
3160
3164
3168
3172
3176
3180
3184
3188
3192
3196
3200
3204
3208
3212
3216
3220
3224
3228
3232
3236
3240
3244
3248
3252
3256
3260
3264
3268
3272
3276
3280
3284
3288
3292
3296
3300
3304
3308
3312
3316
3320
3324
3328
3332
3336
3340
3344
3348
3352
3356
3360
3364
3368
3372
3376
3380
3384
3388
3392
3396
3400
3404
3408
3412
3416
3420
3424
3428
3432
3436
3440
3444
3448
3452
3456
3460
3464
3468
3472
3476
3480
3484
3488
3492
3496
3500
3504
3508
3512
3516
3520
3524
3528
3532
3536
3540
3544
3548
3552
3556
3560
3564
3568
3572
3576
3580
3584
3588
3592
3596
3600
3604
3608
3612
3616
3620
3624
3628
3632
3636
3640
3644
3648
3652
3656
3660
3664
3668
3672
3676
3680
3684
3688
3692
3696
3700
3704
3708
3712
3716
3720
3724
3728
3732
3736
3740
3744
3748
3752
3756
3760
3764
3768
3772
3776
3780
3784
3788
3792
3796
3800
3804
3808
3812
3816
3820
3824
3828
3832
3836
3840
3844
3848
3852
3856
3860
3864
3868
3872
3876
3880
3884
3888
3892
3896
3900
3904
3908
3912
3916
3920
3924
3928
3932
3936
3940
3944
3948
3952
3956
3960
3964
3968
3972
3976
3980
3984
3988
3992
3996
4000
4004
4008
4012
4016
4020
4024
4028
4032
4036
4040
4044
4048
4052
4056
4060
4064
4068
4072
4076
4080
4084
4088
4092
4096
4100
4104
4108
4112
4116
4120
4124
4128
4132
4136
4140
4144
4148
4152
4156
4160
4164
4168
4172
4176
4180
4184
4188
4192
4196
4200
4204
4208
4212
4216
4220
4224
4228
4232
4236
4240
4244
4248
4252
4256
4260
4264
4268
4272
4276
4280
4284
4288
4292
4296
4300
4304
4308
4312
4316
4320
4324
4328
4332
4336
4340
4344
4348
4352
4356
4360
4364
4368
4372
4376
4380
4384
4388
4392
4396
4400
4404
4408
4412
4416
4420
4424
4428
4432
4436
4440
4444
4448
4452
4456
4460
4464
4468
4472
4476
4480
4484
4488
4492
4496
4500
4504
4508
4512
4516
4520
4524
4528
4532
4536
4540
4544
4548
4552
4556
4560
4564
4568
4572
4576
4580
4584
4588
4592
4596
4600
4604
4608
4612
4616
4620
4624
4628
4632
4636
4640
4644
4648
4652
4656
4660
4664
4668
4672
4676
4680
4684
4688
4692
4696
4700
4704
4708
4712
4716
4720
4724
4728
4732
4736
4740
4744
4748
4752
4756
4760
4764
4768
4772
4776
4780
4784
4788
4792
4796
4800
4804
4808
4812
4816
4820
4824
4828
4832
4836
4840
4844
4848
4852
4856
4860
4864
4868
4872
4876
4880
4884
4888
4892
4896
4900
4904
4908
4912
4916
4920
4924
4928
4932
4936
4940
4944
4948
4952
4956
4960
4964
4968
4972
4976
4980
4984
4988
4992
4996
5000
5004
5008
5012
5016
5020
5024
5028
5032
5036
5040
5044
5048
5052
5056
5060
5064
5068
5072
5076
5080
5084
5088
5092
5096
5100
5104
5108
5112
5116
5120
5124
5128
5132
5136
5140
5144
5148
5152
5156
5160
5164
5168
5172
5176
5180
5184
5188
5192
5196
5200
5204
5208
5212
5216
5220
5224
5228
5232
5236
5240
5244
5248
5252
5256
5260
5264
5268
5272
5276
5280
5284
5288
5292
5296
5300
5304
5308
5312
5316
5320
5324
5328
5332
5336
5340
5344
5348
5352
5356
5360
5364
5368
5372
5376
5380
5384
5388
5392
5396
5400
5404
5408
5412
5416
5420
5424
5428
5432
5436
5440
5444
5448
5452
5456
5460
5464
5468
5472
5476
5480
5484
5488
5492
5496
5500
5504
5508
5512
5516
5520
5524
5528
5532
5536
5540
5544
5548
5552
5556
5560
5564
5568
5572
5576
5580
5584
5588
5592
5596
5600
5604
5608
5612
5616
5620
5624
5628
5632
5636
5640
5644
5648
5652
5656
5660
5664
5668
5672
5676
5680
5684
5688
5692
5696
5700
5704
5708
5712
5716
5720
5724
5728
5732
5736
5740
5744
5748
5752
5756
5760
5764
5768
5772
5776
5780
5784
5788
5792
5796
5800
5804
5808
5812
5816
5820
5824
5828
5832
5836
5840
5844
5848
5852
5856
5860
5864
5868
5872
5876
5880
5884
5888
5892
5896
5900
5904
5908
5912
5916
5920
5924
5928
5932
5936
5940
5944
5948
5952
5956
5960
5964
5968
5972
5976
5980
5984
5988
5992
5996
6000
              </DataArray>   
              <DataArray type="UInt8" Name="types" format="ascii">   
10
10
10
10
10
10
10
10
10
10
10
10
10
10
10
10
10
10
10
10
10
10
10
10
10
10
10
10
10
10
10
10
10
10
10
10
10
10
10
10
10
10
10
10
10
10
10
10
10
10
10
10
10
10
10
10
10
10
10
10
10
10
10
10
10
10
10
10
10
10
10
10
10
10
10
10
10
10
10
10
10
10
10
10
10
10
10
10
10
10
10
10
10
10
10
10
10
10
10
10
10
10
10
10
10
10
10
10
10
10
10
10
10
10
10
10
10
10
10
10
10
10
10
10
10
10
10
10
10
10
10
10
10
10
10
10
10
10
10
10
10
10
10
10
10
10
10
10
10
10
10
10
10
10
10
10
10
10
10
10
10
10
10
10
10
10
10
10
10
10
10
10
10
10
10
10
10
10
10
10
10
10
10
10
10
10
10
10
10
10
10
10
10
10
10
10
10
10
10
10
10
10
10
10
10
10
10
10
10
10
10
10
10
10
10
10
10
10
10
10
10
10
10
10
10
10
10
10
10
10
10
10
10
10
10
10
10
10
10
10
10
10
10
10
10
10
10
10
10
10
10
10
10
10
10
10
10
10
10
10
10
10
10
10
10
10
10
10
10
10
10
10
10
10
10
10
10
10
10
10
10
10
10
10
10
10
10
10
10
10
10
10
10
10
10
10
10
10
10
10
10
10
10
10
10
10
10
10
10
10
10
10
10
10
10
10
10
10
10
10
10
10
10
10
10
10
10
10
10
10
10
10
10
10
10
10
10
10
10
10
10
10
10
10
10
10
10
10
10
10
10
10
10
10
10
10
10
10
10
10
10
10
10
10
10
10
10
10
10
10
10
10
10
10
10
10
10
10
10
10
10
10
10
10
10
10
10
10
10
10
10
10
10
10
10
10
10
10
10
10
10
10
10
10
10
10
10
10
10
10
10
10
10
10
10
10
10
10
10
10
10
10
10
10
10
10
10
10
10
10
10
10
10
10
10
10
10
10
10
10
10
10
10
10
10
10
10
10
10
10
10
10
10
10
10
10
10
10
10
10
10
10
10
10
10
10
10
10
10
10
10
10
10
10
10
10
10
10
10
10
10
10
10
10
10
10
10
10
10
10
10
10
10
10
10
10
10
10
10
10
10
10
10
10
10
10
10
10
10
10
10
10
10
10
10
10
10
10
10
10
10
10
10
10
10
10
10
10
10
10
10
10
10
10
10
10
10
10
10
10
10
10
10
10
10
10
10
10
10
10
10
10
10
10
10
10
10
10
10
10
10
10
10
10
10
10
10
10
10
10
10
10
10
10
10
10
10
10
10
10
10
10
10
10
10
10
10
10
10
10
10
10
10
10
10
10
10
10
10
10
10
10
10
10
10
10
10
10
10
10
10
10
10
10
10
10
10
10
10
10
10
10
10
10
10
10
10
10
10
10
10
10
10
10
10
10
10
10
10
10
10
10
10
10
10
10
10
10
10
10
10
10
10
10
10
10
10
10
10
10
10
10
10
10
10
10
10
10
10
10
10
10
10
10
10
10
10
10
10
10
10
10
10
10
10
10
10
10
10
10
10
10
10
10
10
10
10
10
10
10
10
10
10
10
10
10
10
10
10
10
10
10
10
10
10
10
10
10
10
10
10
10
10
10
10
10
10
10
10
10
10
10
10
10
10
10
10
10
10
10
10
10
10
10
10
10
10
10
10
10
10
10
10
10
10
10
10
10
10
10
10
10
10
10
10
10
10
10
10
10
10
10
10
10
10
10
10
10
10
10
10
10
10
10
10
10
10
10
10
10
10
10
10
10
10
10
10
10
10
10
10
10
10
10
10
10
10
10
10
10
10
10
10
10
10
10
10
10
10
10
10
10
10
10
10
10
10
10
10
10
10
10
10
10
10
10
10
10
10
10
10
10
10
10
10
10
10
10
10
10
10
10
10
10
10
10
10
10
10
10
10
10
10
10
10
10
10
10
10
10
10
10
10
10
10
10
10
10
10
10
10
10
10
10
10
10
10
10
10
10
10
10
10
10
10
10
10
10
10
10
10
10
10
10
10
10
10
10
10
10
10
10
10
10
10
10
10
10
10
10
10
10
10
10
10
10
10
10
10
10
10
10
10
10
10
10
10
10
10
10
10
10
10
10
10
10
10
10
10
10
10
10
10
10
10
10
10
10
10
10
10
10
10
10
10
10
10
10
10
10
10
10
10
10
10
10
10
10
10
10
10
10
10
10
10
10
10
10
10
10
10
10
10
10
10
10
10
10
10
10
10
10
10
10
10
10
10
10
10
10
10
10
10
10
10
10
10
10
10
10
10
10
10
10
10
10
10
10
10
10
10
10
10
10
10
10
10
10
10
10
10
10
10
10
10
10
10
10
10
10
10
10
10
10
10
10
10
10
10
10
10
10
10
10
10
10
10
10
10
10
10
10
10
10
10
10
10
10
10
10
10
10
10
10
10
10
10
10
10
10
10
10
10
10
10
10
10
10
10
10
10
10
10
10
10
10
10
10
10
10
10
10
10
10
10
10
10
10
10
10
10
10
10
10
10
10
10
10
10
10
10
10
10
10
10
10
10
10
10
10
10
10
10
10
10
10
10
10
10
10
10
10
10
10
10
10
10
10
10
10
10
10
10
10
10
10
10
10
10
10
10
10
10
10
10
10
10
10
10
10
10
10
10
10
10
10
10
10
10
10
10
10
10
10
10
10
10
10
10
10
10
10
10
10
10
10
10
10
10
10
10
10
10
10
10
10
10
10
10
10
10
10
10
10
10
10
10
10
10
10
10
10
10
10
10
10
10
10
10
10
10
10
10
10
10
10
10
10
10
10
10
10
10
10
10
10
10
10
10
10
10
10
10
10
10
10
10
10
10
10
10
10
10
10
10
10
10
10
10
10
10
10
10
10
10
10
10
10
10
10
10
10
10
10
10
10
10
10
10
10
10
10
10
10
10
10
10
10
10
10
10
10
10
10
10
10
10
10
10
10
10
10
10
10
10
10
10
10
10
10
10
10
10
10
10
10
10
10
10
10
10
10
10
10
10
10
10
10
10
10
10
10
10
10
10
10
10
10
10
10
10
10
10
10
10
10
10
10
10
10
10
10
10
10
10
10
10
10
10
10
10
10
10
10
10
10
10
10
10
10
10
10
10
10
10
10
10
10
10
10
10
10
10
10
10
10
10
10
10
10
10
10
10
10
10
10
10
10
10
10
10
10
10
10
10
10
10
10
10
10
10
10
10
10
10
10
10
10
10
10
10
10
10
10
10
10
10
10
10
10
10
10
10
10
10
10
10
10
10
10
10
10
10
10
10
10
10
10
10
10
10
10
10
10
10
10
10
10
10
10
10
10
10
10
10
10
10
10
10
10
10
10
10
10
10
10
10
10
10
10
              </DataArray>   
          </Cells>  
          <PointData>  
             <DataArray type="Float64" NumberOfComponents="3" Name="Strains" format="ascii">   
-0.00011314908742652958   0.0   -7.420835994026117e-05
-0.00011314908742652958   0.0   -7.420835994026117e-05
-0.00011314908742652958   0.0   -7.420835994026117e-05
-0.00011314908742652958   0.0   -7.420835994026117e-05
-7.200405950255285e-05   1.2541594093520947e-05   1.8916430558124696e-06
-7.200405950255285e-05   1.2541594093520947e-05   1.8916430558124696e-06
-7.200405950255285e-05   1.2541594093520947e-05   1.8916430558124696e-06
-7.200405950255285e-05   1.2541594093520947e-05   1.8916430558124696e-06
-7.058378904986754e-05   0.0   -7.003125786781019e-05
-7.058378904986754e-05   0.0   -7.003125786781019e-05
-7.058378904986754e-05   0.0   -7.003125786781019e-05
-7.058378904986754e-05   0.0   -7.003125786781019e-05
-0.00011842049591123919   1.5047285845797275e-05   6.682153936645211e-07
-0.00011842049591123919   1.5047285845797275e-05   6.682153936645211e-07
-0.00011842049591123919   1.5047285845797275e-05   6.682153936645211e-07
-0.00011842049591123919   1.5047285845797275e-05   6.682153936645211e-07
-9.18664382381984e-05   3.480918393709152e-06   -3.6648726923483876e-05
-9.18664382381984e-05   3.480918393709152e-06   -3.6648726923483876e-05
-9.18664382381984e-05   3.480918393709152e-06   -3.6648726923483876e-05
-9.18664382381984e-05   3.480918393709152e-06   -3.6648726923483876e-05
-0.0001184204959112394   0.0   -7.905962937528857e-05
-0.0001184204959112394   0.0   -7.905962937528857e-05
-0.0001184204959112394   0.0   -7.905962937528857e-05
-0.0001184204959112394   0.0   -7.905962937528857e-05
-7.058378904986754e-05   1.5047285845797289e-05   9.696586901142889e-06
-7.058378904986754e-05   1.5047285845797289e-05   9.696586901142889e-06
-7.058378904986754e-05   1.5047285845797289e-05   9.696586901142889e-06
-7.058378904986754e-05   1.5047285845797289e-05   9.696586901142889e-06
-7.078688856274057e-05   0.0   -7.174646460614529e-05
-7.078688856274057e-05   0.0   -7.174646460614529e-05
-7.078688856274057e-05   0.0   -7.174646460614529e-05
-7.078688856274057e-05   0.0   -7.174646460614529e-05
-0.0001221244094616771   1.6120008729441542e-05   4.144064987750973e-06
-0.0001221244094616771   1.6120008729441542e-05   4.144064987750973e-06
-0.0001221244094616771   1.6120008729441542e-05   4.144064987750973e-06
-0.0001221244094616771   1.6120008729441542e-05   4.144064987750973e-06
-9.46036922369898e-05   6.094303974286056e-06   -3.5708374200301134e-05
-9.46036922369898e-05   6.094303974286056e-06   -3.5708374200301134e-05
-9.46036922369898e-05   6.094303974286056e-06   -3.5708374200301134e-05
-9.46036922369898e-05   6.094303974286056e-06   -3.5708374200301134e-05
-0.0001221244094616773   0.0   -8.141846984381023e-05
-0.0001221244094616773   0.0   -8.141846984381023e-05
-0.0001221244094616773   0.0   -8.141846984381023e-05
-0.0001221244094616773   0.0   -8.141846984381023e-05
-7.078688856274043e-05   1.6120008729441542e-05   1.38160702254159e-05
-7.078688856274043e-05   1.6120008729441542e-05   1.38160702254159e-05
-7.078688856274043e-05   1.6120008729441542e-05   1.38160702254159e-05
-7.078688856274043e-05   1.6120008729441542e-05   1.38160702254159e-05
-7.075423645049447e-05   0.0   -7.218656714888926e-05
-7.075423645049447e-05   0.0   -7.218656714888926e-05
-7.075423645049447e-05   0.0   -7.218656714888926e-05
-7.075423645049447e-05   0.0   -7.218656714888926e-05
-0.00013009964965979122   1.8361214076089303e-05   1.5705726420952063e-05
-0.00013009964965979122   1.8361214076089303e-05   1.5705726420952063e-05
-0.00013009964965979122   1.8361214076089303e-05   1.5705726420952063e-05
-0.00013009964965979122   1.8361214076089303e-05   1.5705726420952063e-05
-9.643932295608572e-05   7.693252245767482e-06   -3.3994040987030623e-05
-9.643932295608572e-05   7.693252245767482e-06   -3.3994040987030623e-05
-9.643932295608572e-05   7.693252245767482e-06   -3.3994040987030623e-05
-9.643932295608572e-05   7.693252245767482e-06   -3.3994040987030623e-05
-7.200405950255297e-05   0.0   -6.66834034841486e-05
-7.200405950255297e-05   0.0   -6.66834034841486e-05
-7.200405950255297e-05   0.0   -6.66834034841486e-05
-7.200405950255297e-05   0.0   -6.66834034841486e-05
-3.278636524706598e-05   4.6010842562588765e-06   1.4400708287516905e-06
-3.278636524706598e-05   4.6010842562588765e-06   1.4400708287516905e-06
-3.278636524706598e-05   4.6010842562588765e-06   1.4400708287516905e-06
-3.278636524706598e-05   4.6010842562588765e-06   1.4400708287516905e-06
-3.1537400515515474e-05   0.0   -6.610229958983551e-05
-3.1537400515515474e-05   0.0   -6.610229958983551e-05
-3.1537400515515474e-05   0.0   -6.610229958983551e-05
-3.1537400515515474e-05   0.0   -6.610229958983551e-05
-7.058378904986754e-05   6.54826379662428e-06   -4.953943643890178e-06
-7.058378904986754e-05   6.54826379662428e-06   -4.953943643890178e-06
-7.058378904986754e-05   6.54826379662428e-06   -4.953943643890178e-06
-7.058378904986754e-05   6.54826379662428e-06   -4.953943643890178e-06
-5.1770730009034166e-05   4.842532452608119e-07   -3.267063571446082e-05
-5.1770730009034166e-05   4.842532452608119e-07   -3.267063571446082e-05
-5.1770730009034166e-05   4.842532452608119e-07   -3.267063571446082e-05
-5.1770730009034166e-05   4.842532452608119e-07   -3.267063571446082e-05
-7.058378904986748e-05   0.0   -7.003125786781013e-05
-7.058378904986748e-05   0.0   -7.003125786781013e-05
-7.058378904986748e-05   0.0   -7.003125786781013e-05
-7.058378904986748e-05   0.0   -7.003125786781013e-05
-3.1537400515515474e-05   6.548263796624267e-06   -1.0249853659156076e-06
-3.1537400515515474e-05   6.548263796624267e-06   -1.0249853659156076e-06
-3.1537400515515474e-05   6.548263796624267e-06   -1.0249853659156076e-06
-3.1537400515515474e-05   6.548263796624267e-06   -1.0249853659156076e-06
-3.083759521899727e-05   0.0   -6.693289741484558e-05
-3.083759521899727e-05   0.0   -6.693289741484558e-05
-3.083759521899727e-05   0.0   -6.693289741484558e-05
-3.083759521899727e-05   0.0   -6.693289741484558e-05
-7.078688856274057e-05   8.02261198549933e-06   -5.164309033239896e-06
-7.078688856274057e-05   8.02261198549933e-06   -5.164309033239896e-06
-7.078688856274057e-05   8.02261198549933e-06   -5.164309033239896e-06
-7.078688856274057e-05   8.02261198549933e-06   -5.164309033239896e-06
-5.0710692134432335e-05   2.5819670441370706e-06   -3.5360249448935974e-05
-5.0710692134432335e-05   2.5819670441370706e-06   -3.5360249448935974e-05
-5.0710692134432335e-05   2.5819670441370706e-06   -3.5360249448935974e-05
-5.0710692134432335e-05   2.5819670441370706e-06   -3.5360249448935974e-05
-7.078688856274057e-05   0.0   -7.174646460614529e-05
-7.078688856274057e-05   0.0   -7.174646460614529e-05
-7.078688856274057e-05   0.0   -7.174646460614529e-05
-7.078688856274057e-05   0.0   -7.174646460614529e-05
-3.0837595218997316e-05   8.02261198549933e-06   -3.507418419403094e-07
-3.0837595218997316e-05   8.02261198549933e-06   -3.507418419403094e-07
-3.0837595218997316e-05   8.02261198549933e-06   -3.507418419403094e-07
-3.0837595218997316e-05   8.02261198549933e-06   -3.507418419403094e-07
-3.020103518915454e-05   0.0   -6.658599500318701e-05
-3.020103518915454e-05   0.0   -6.658599500318701e-05
-3.020103518915454e-05   0.0   -6.658599500318701e-05
-3.020103518915454e-05   0.0   -6.658599500318701e-05
-7.07542364504943e-05   9.334286909503617e-06   -4.597898379989348e-06
-7.07542364504943e-05   9.334286909503617e-06   -4.597898379989348e-06
-7.07542364504943e-05   9.334286909503617e-06   -4.597898379989348e-06
-7.07542364504943e-05   9.334286909503617e-06   -4.597898379989348e-06
-5.0493961875947536e-05   4.300391335798527e-06   -3.53446853266778e-05
-5.0493961875947536e-05   4.300391335798527e-06   -3.53446853266778e-05
-5.0493961875947536e-05   4.300391335798527e-06   -3.53446853266778e-05
-5.0493961875947536e-05   4.300391335798527e-06   -3.53446853266778e-05
-3.278636524706603e-05   0.0   -6.392275293039327e-05
-3.278636524706603e-05   0.0   -6.392275293039327e-05
-3.278636524706603e-05   0.0   -6.392275293039327e-05
-3.278636524706603e-05   0.0   -6.392275293039327e-05
4.270441906780229e-06   -5.884724769181059e-07   -2.514491160133635e-06
4.270441906780229e-06   -5.884724769181059e-07   -2.514491160133635e-06
4.270441906780229e-06   -5.884724769181059e-07   -2.514491160133635e-06
4.270441906780229e-06   -5.884724769181059e-07   -2.514491160133635e-06
5.065780927415992e-06   0.0   -6.540601310509472e-05
5.065780927415992e-06   0.0   -6.540601310509472e-05
5.065780927415992e-06   0.0   -6.540601310509472e-05
5.065780927415992e-06   0.0   -6.540601310509472e-05
-3.1537400515515474e-05   1.160477474567787e-06   -5.096997184949726e-06
-3.1537400515515474e-05   1.160477474567787e-06   -5.096997184949726e-06
-3.1537400515515474e-05   1.160477474567787e-06   -5.096997184949726e-06
-3.1537400515515474e-05   1.160477474567787e-06   -5.096997184949726e-06
-1.3860292159824988e-05   -1.2360501455847329e-06   -3.312092787234232e-05
-1.3860292159824988e-05   -1.2360501455847329e-06   -3.312092787234232e-05
-1.3860292159824988e-05   -1.2360501455847329e-06   -3.312092787234232e-05
-1.3860292159824988e-05   -1.2360501455847329e-06   -3.312092787234232e-05
-3.153740051551553e-05   0.0   -6.610229958983562e-05
-3.153740051551553e-05   0.0   -6.610229958983562e-05
-3.153740051551553e-05   0.0   -6.610229958983562e-05
-3.153740051551553e-05   0.0   -6.610229958983562e-05
5.0657809274160005e-06   1.160477474567787e-06   -4.400710700209046e-06
5.0657809274160005e-06   1.160477474567787e-06   -4.400710700209046e-06
5.0657809274160005e-06   1.160477474567787e-06   -4.400710700209046e-06
5.0657809274160005e-06   1.160477474567787e-06   -4.400710700209046e-06
5.692978815544781e-06   0.0   -6.531275023971372e-05
5.692978815544781e-06   0.0   -6.531275023971372e-05
5.692978815544781e-06   0.0   -6.531275023971372e-05
5.692978815544781e-06   0.0   -6.531275023971372e-05
-3.0837595218997215e-05   2.7002452918864234e-06   -6.04860735727551e-06
-3.0837595218997215e-05   2.7002452918864234e-06   -6.04860735727551e-06
-3.0837595218997215e-05   2.7002452918864234e-06   -6.04860735727551e-06
-3.0837595218997215e-05   2.7002452918864234e-06   -6.04860735727551e-06
-1.2922210849985345e-05   6.57957791768149e-07   -3.4682208805557715e-05
-1.2922210849985345e-05   6.57957791768149e-07   -3.4682208805557715e-05
-1.2922210849985345e-05   6.57957791768149e-07   -3.4682208805557715e-05
-1.2922210849985345e-05   6.57957791768149e-07   -3.4682208805557715e-05
-3.0837595218997316e-05   0.0   -6.69328974148457e-05
-3.0837595218997316e-05   0.0   -6.69328974148457e-05
-3.0837595218997316e-05   0.0   -6.69328974148457e-05
-3.0837595218997316e-05   0.0   -6.69328974148457e-05
5.6929788155447916e-06   2.700245291886437e-06   -4.428460182143672e-06
5.6929788155447916e-06   2.700245291886437e-06   -4.428460182143672e-06
5.6929788155447916e-06   2.700245291886437e-06   -4.428460182143672e-06
5.6929788155447916e-06   2.700245291886437e-06   -4.428460182143672e-06
6.5382179181305484e-06   0.0   -6.389563754402729e-05
6.5382179181305484e-06   0.0   -6.389563754402729e-05
6.5382179181305484e-06   0.0   -6.389563754402729e-05
6.5382179181305484e-06   0.0   -6.389563754402729e-05
-3.0201035189154516e-05   4.483929098599438e-06   -5.3539064910451854e-06
-3.0201035189154516e-05   4.483929098599438e-06   -5.3539064910451854e-06
-3.0201035189154516e-05   4.483929098599438e-06   -5.3539064910451854e-06
-3.0201035189154516e-05   4.483929098599438e-06   -5.3539064910451854e-06
-1.214968865043336e-05   2.5310498923485737e-06   -3.42677565318299e-05
-1.214968865043336e-05   2.5310498923485737e-06   -3.42677565318299e-05
-1.214968865043336e-05   2.5310498923485737e-06   -3.42677565318299e-05
-1.214968865043336e-05   2.5310498923485737e-06   -3.42677565318299e-05
4.270441906780237e-06   0.0   -6.427583641654413e-05
4.270441906780237e-06   0.0   -6.427583641654413e-05
4.270441906780237e-06   0.0   -6.427583641654413e-05
4.270441906780237e-06   0.0   -6.427583641654413e-05
4.449160761436319e-05   -5.2183898416350915e-06   -3.715941422199881e-07
4.449160761436319e-05   -5.2183898416350915e-06   -3.715941422199881e-07
4.449160761436319e-05   -5.2183898416350915e-06   -3.715941422199881e-07
4.449160761436319e-05   -5.2183898416350915e-06   -3.715941422199881e-07
4.456496529891916e-05   0.0   -6.776708171274123e-05
4.456496529891916e-05   0.0   -6.776708171274123e-05
4.456496529891916e-05   0.0   -6.776708171274123e-05
4.456496529891916e-05   0.0   -6.776708171274123e-05
5.0657809274160005e-06   -3.935114346077144e-06   4.259608474103034e-07
5.0657809274160005e-06   -3.935114346077144e-06   4.259608474103034e-07
5.0657809274160005e-06   -3.935114346077144e-06   4.259608474103034e-07
5.0657809274160005e-06   -3.935114346077144e-06   4.259608474103034e-07
2.44177036028497e-05   -2.909371080164259e-06   -3.2442689571193554e-05
2.44177036028497e-05   -2.909371080164259e-06   -3.2442689571193554e-05
2.44177036028497e-05   -2.909371080164259e-06   -3.2442689571193554e-05
2.44177036028497e-05   -2.909371080164259e-06   -3.2442689571193554e-05
5.06578092741601e-06   0.0   -6.540601310509495e-05
5.06578092741601e-06   0.0   -6.540601310509495e-05
5.06578092741601e-06   0.0   -6.540601310509495e-05
5.06578092741601e-06   0.0   -6.540601310509495e-05
4.456496529891908e-05   -3.935114346077144e-06   -1.9351077602359975e-06
4.456496529891908e-05   -3.935114346077144e-06   -1.9351077602359975e-06
4.456496529891908e-05   -3.935114346077144e-06   -1.9351077602359975e-06
4.456496529891908e-05   -3.935114346077144e-06   -1.9351077602359975e-06
4.436913970831737e-05   0.0   -6.679935213656292e-05
4.436913970831737e-05   0.0   -6.679935213656292e-05
4.436913970831737e-05   0.0   -6.679935213656292e-05
4.436913970831737e-05   0.0   -6.679935213656292e-05
5.6929788155447916e-06   -2.477669828081805e-06   -8.524820850928941e-07
5.6929788155447916e-06   -2.477669828081805e-06   -8.524820850928941e-07
5.6929788155447916e-06   -2.477669828081805e-06   -8.524820850928941e-07
5.6929788155447916e-06   -2.477669828081805e-06   -8.524820850928941e-07
2.471746031786669e-05   -1.161115859556647e-06   -3.3349883636744446e-05
2.471746031786669e-05   -1.161115859556647e-06   -3.3349883636744446e-05
2.471746031786669e-05   -1.161115859556647e-06   -3.3349883636744446e-05
2.471746031786669e-05   -1.161115859556647e-06   -3.3349883636744446e-05
5.6929788155447916e-06   0.0   -6.531275023971385e-05
5.6929788155447916e-06   0.0   -6.531275023971385e-05
5.6929788155447916e-06   0.0   -6.531275023971385e-05
5.6929788155447916e-06   0.0   -6.531275023971385e-05
4.436913970831729e-05   -2.4776698280817914e-06   -2.3390839819419443e-06
4.436913970831729e-05   -2.4776698280817914e-06   -2.3390839819419443e-06
4.436913970831729e-05   -2.4776698280817914e-06   -2.3390839819419443e-06
4.436913970831729e-05   -2.4776698280817914e-06   -2.3390839819419443e-06
4.522367023923679e-05   0.0   -6.420697006960315e-05
4.522367023923679e-05   0.0   -6.420697006960315e-05
4.522367023923679e-05   0.0   -6.420697006960315e-05
4.522367023923679e-05   0.0   -6.420697006960315e-05
6.53821791813056e-06   -5.188875426262506e-07   5.801163244829639e-07
6.53821791813056e-06   -5.188875426262506e-07   5.801163244829639e-07
6.53821791813056e-06   -5.188875426262506e-07   5.801163244829639e-07
6.53821791813056e-06   -5.188875426262506e-07   5.801163244829639e-07
2.545832452739079e-05   9.214834750922434e-07   -3.181761730158182e-05
2.545832452739079e-05   9.214834750922434e-07   -3.181761730158182e-05
2.545832452739079e-05   9.214834750922434e-07   -3.181761730158182e-05
2.545832452739079e-05   9.214834750922434e-07   -3.181761730158182e-05
4.449160761436334e-05   0.0   -6.74068703215252e-05
4.449160761436334e-05   0.0   -6.74068703215252e-05
4.449160761436334e-05   0.0   -6.74068703215252e-05
4.449160761436334e-05   0.0   -6.74068703215252e-05
0.00010041572391739882   -1.322472195996865e-05   1.7865157007553083e-05
0.00010041572391739882   -1.322472195996865e-05   1.7865157007553083e-05
0.00010041572391739882   -1.322472195996865e-05   1.7865157007553083e-05
0.00010041572391739882   -1.322472195996865e-05   1.7865157007553083e-05
9.429909323385363e-05   0.0   -7.452018616349464e-05
9.429909323385363e-05   0.0   -7.452018616349464e-05
9.429909323385363e-05   0.0   -7.452018616349464e-05
9.429909323385363e-05   0.0   -7.452018616349464e-05
4.456496529891908e-05   -1.1255174084588988e-05   1.5123131512149516e-05
4.456496529891908e-05   -1.1255174084588988e-05   1.5123131512149516e-05
4.456496529891908e-05   -1.1255174084588988e-05   1.5123131512149516e-05
4.456496529891908e-05   -1.1255174084588988e-05   1.5123131512149516e-05
6.93953504241085e-05   -5.927763201641201e-06   -2.9457290226267978e-05
6.93953504241085e-05   -5.927763201641201e-06   -2.9457290226267978e-05
6.93953504241085e-05   -5.927763201641201e-06   -2.9457290226267978e-05
6.93953504241085e-05   -5.927763201641201e-06   -2.9457290226267978e-05
4.456496529891912e-05   0.0   -6.776708171274118e-05
4.456496529891912e-05   0.0   -6.776708171274118e-05
4.456496529891912e-05   0.0   -6.776708171274118e-05
4.456496529891912e-05   0.0   -6.776708171274118e-05
9.429909323385363e-05   -1.1255174084589016e-05   8.37002706139615e-06
9.429909323385363e-05   -1.1255174084589016e-05   8.37002706139615e-06
9.429909323385363e-05   -1.1255174084589016e-05   8.37002706139615e-06
9.429909323385363e-05   -1.1255174084589016e-05   8.37002706139615e-06
9.147622973433983e-05   0.0   -7.297081633630965e-05
9.147622973433983e-05   0.0   -7.297081633630965e-05
9.147622973433983e-05   0.0   -7.297081633630965e-05
9.147622973433983e-05   0.0   -7.297081633630965e-05
4.436913970831729e-05   -1.028577366624454e-05   1.1712464573474484e-05
4.436913970831729e-05   -1.028577366624454e-05   1.1712464573474484e-05
4.436913970831729e-05   -1.028577366624454e-05   1.1712464573474484e-05
4.436913970831729e-05   -1.028577366624454e-05   1.1712464573474484e-05
6.802059751662945e-05   -4.336445519640352e-06   -3.127622866167484e-05
6.802059751662945e-05   -4.336445519640352e-06   -3.127622866167484e-05
6.802059751662945e-05   -4.336445519640352e-06   -3.127622866167484e-05
6.802059751662945e-05   -4.336445519640352e-06   -3.127622866167484e-05
4.436913970831737e-05   0.0   -6.679935213656292e-05
4.436913970831737e-05   0.0   -6.679935213656292e-05
4.436913970831737e-05   0.0   -6.679935213656292e-05
4.436913970831737e-05   0.0   -6.679935213656292e-05
9.147622973433967e-05   -1.028577366624454e-05   5.541000373727762e-06
9.147622973433967e-05   -1.028577366624454e-05   5.541000373727762e-06
9.147622973433967e-05   -1.028577366624454e-05   5.541000373727762e-06
9.147622973433967e-05   -1.028577366624454e-05   5.541000373727762e-06
8.727724697417871e-05   0.0   -6.900572477574756e-05
8.727724697417871e-05   0.0   -6.900572477574756e-05
8.727724697417871e-05   0.0   -6.900572477574756e-05
8.727724697417871e-05   0.0   -6.900572477574756e-05
4.5223670239236667e-05   -7.99792451024066e-06   5.882324488633414e-06
4.5223670239236667e-05   -7.99792451024066e-06   5.882324488633414e-06
4.5223670239236667e-05   -7.99792451024066e-06   5.882324488633414e-06
4.5223670239236667e-05   -7.99792451024066e-06   5.882324488633414e-06
6.582319334124793e-05   -1.8386438659871973e-06   -3.21457824012707e-05
6.582319334124793e-05   -1.8386438659871973e-06   -3.21457824012707e-05
6.582319334124793e-05   -1.8386438659871973e-06   -3.21457824012707e-05
6.582319334124793e-05   -1.8386438659871973e-06   -3.21457824012707e-05
-9.821110394649357e-05   1.254159409352092e-05   -6.44048640249531e-05
-9.821110394649357e-05   1.254159409352092e-05   -6.44048640249531e-05
-9.821110394649357e-05   1.254159409352092e-05   -6.44048640249531e-05
-9.821110394649357e-05   1.254159409352092e-05   -6.44048640249531e-05
-6.289997666028102e-05   1.128075261966425e-05   -6.309490098912757e-06
-6.289997666028102e-05   1.128075261966425e-05   -6.309490098912757e-06
-6.289997666028102e-05   1.128075261966425e-05   -6.309490098912757e-06
-6.289997666028102e-05   1.128075261966425e-05   -6.309490098912757e-06
-6.448498037412617e-05   1.5047285845797261e-05   -5.4086485222656336e-05
-6.448498037412617e-05   1.5047285845797261e-05   -5.4086485222656336e-05
-6.448498037412617e-05   1.5047285845797261e-05   -5.4086485222656336e-05
-6.448498037412617e-05   1.5047285845797261e-05   -5.4086485222656336e-05
-9.927930442257723e-05   1.3537363517160264e-05   4.81000825527769e-06
-9.927930442257723e-05   1.3537363517160264e-05   4.81000825527769e-06
-9.927930442257723e-05   1.3537363517160264e-05   4.81000825527769e-06
-9.927930442257723e-05   1.3537363517160264e-05   4.81000825527769e-06
-7.80022026916124e-05   1.3099090447413032e-05   -3.038886412114896e-05
-7.80022026916124e-05   1.3099090447413032e-05   -3.038886412114896e-05
-7.80022026916124e-05   1.3099090447413032e-05   -3.038886412114896e-05
-7.80022026916124e-05   1.3099090447413032e-05   -3.038886412114896e-05
-9.927930442257723e-05   1.5047285845797261e-05   -5.3180531825474124e-05
-9.927930442257723e-05   1.5047285845797261e-05   -5.3180531825474124e-05
-9.927930442257723e-05   1.5047285845797261e-05   -5.3180531825474124e-05
-9.927930442257723e-05   1.5047285845797261e-05   -5.3180531825474124e-05
-6.448498037412639e-05   1.3537363517160319e-05   3.9040548580956545e-06
-6.448498037412639e-05   1.3537363517160319e-05   3.9040548580956545e-06
-6.448498037412639e-05   1.3537363517160319e-05   3.9040548580956545e-06
-6.448498037412639e-05   1.3537363517160319e-05   3.9040548580956545e-06
-6.481959001863482e-05   1.6120008729441528e-05   -4.8624483306775935e-05
-6.481959001863482e-05   1.6120008729441528e-05   -4.8624483306775935e-05
-6.481959001863482e-05   1.6120008729441528e-05   -4.8624483306775935e-05
-6.481959001863482e-05   1.6120008729441528e-05   -4.8624483306775935e-05
-9.998236125267752e-05   1.455575254489703e-05   1.0918689127355e-05
-9.998236125267752e-05   1.455575254489703e-05   1.0918689127355e-05
-9.998236125267752e-05   1.455575254489703e-05   1.0918689127355e-05
-9.998236125267752e-05   1.455575254489703e-05   1.0918689127355e-05
-8.029904020182372e-05   1.4518112667694468e-05   -2.1864262031079658e-05
-8.029904020182372e-05   1.4518112667694468e-05   -2.1864262031079658e-05
-8.029904020182372e-05   1.4518112667694468e-05   -2.1864262031079658e-05
-8.029904020182372e-05   1.4518112667694468e-05   -2.1864262031079658e-05
-9.998236125267733e-05   1.6120008729441528e-05   -4.768592959604928e-05
-9.998236125267733e-05   1.6120008729441528e-05   -4.768592959604928e-05
-9.998236125267733e-05   1.6120008729441528e-05   -4.768592959604928e-05
-9.998236125267733e-05   1.6120008729441528e-05   -4.768592959604928e-05
-6.481959001863492e-05   1.4555752544897084e-05   9.980135416628197e-06
-6.481959001863492e-05   1.4555752544897084e-05   9.980135416628197e-06
-6.481959001863492e-05   1.4555752544897084e-05   9.980135416628197e-06
-6.481959001863492e-05   1.4555752544897084e-05   9.980135416628197e-06
-6.445420210939567e-05   1.836121407608929e-05   -3.5920572732252244e-05
-6.445420210939567e-05   1.836121407608929e-05   -3.5920572732252244e-05
-6.445420210939567e-05   1.836121407608929e-05   -3.5920572732252244e-05
-6.445420210939567e-05   1.836121407608929e-05   -3.5920572732252244e-05
-9.721622990067745e-05   1.5364416988321663e-05   2.048088517254432e-05
-9.721622990067745e-05   1.5364416988321663e-05   2.048088517254432e-05
-9.721622990067745e-05   1.5364416988321663e-05   2.048088517254432e-05
-9.721622990067745e-05   1.5364416988321663e-05   2.048088517254432e-05
-7.821433552585654e-05   1.5923002802651547e-05   -1.1524090274088413e-05
-7.821433552585654e-05   1.5923002802651547e-05   -1.1524090274088413e-05
-7.821433552585654e-05   1.5923002802651547e-05   -1.1524090274088413e-05
-7.821433552585654e-05   1.5923002802651547e-05   -1.1524090274088413e-05
-6.289997666028102e-05   4.601084256258863e-06   -6.837359169008315e-05
-6.289997666028102e-05   4.601084256258863e-06   -6.837359169008315e-05
-6.289997666028102e-05   4.601084256258863e-06   -6.837359169008315e-05
-6.289997666028102e-05   4.601084256258863e-06   -6.837359169008315e-05
-2.979944683337817e-05   5.249035383842534e-06   -1.2817271302028104e-05
-2.979944683337817e-05   5.249035383842534e-06   -1.2817271302028104e-05
-2.979944683337817e-05   5.249035383842534e-06   -1.2817271302028104e-05
-2.979944683337817e-05   5.249035383842534e-06   -1.2817271302028104e-05
-3.0513983573261605e-05   6.548263796624267e-06   -6.827146295422613e-05
-3.0513983573261605e-05   6.548263796624267e-06   -6.827146295422613e-05
-3.0513983573261605e-05   6.548263796624267e-06   -6.827146295422613e-05
-3.0513983573261605e-05   6.548263796624267e-06   -6.827146295422613e-05
-6.448498037412617e-05   7.324185152396466e-06   -1.2118687766248312e-05
-6.448498037412617e-05   7.324185152396466e-06   -1.2118687766248312e-05
-6.448498037412617e-05   7.324185152396466e-06   -1.2118687766248312e-05
-6.448498037412617e-05   7.324185152396466e-06   -1.2118687766248312e-05
-4.6792632977338847e-05   5.897705919009907e-06   -4.075004588752881e-05
-4.6792632977338847e-05   5.897705919009907e-06   -4.075004588752881e-05
-4.6792632977338847e-05   5.897705919009907e-06   -4.075004588752881e-05
-4.6792632977338847e-05   5.897705919009907e-06   -4.075004588752881e-05
-6.448498037412613e-05   6.548263796624253e-06   -6.873701576768921e-05
-6.448498037412613e-05   6.548263796624253e-06   -6.873701576768921e-05
-6.448498037412613e-05   6.548263796624253e-06   -6.873701576768921e-05
-6.448498037412613e-05   6.548263796624253e-06   -6.873701576768921e-05
-3.0513983573261558e-05   7.324185152396466e-06   -1.165313495278484e-05
-3.0513983573261558e-05   7.324185152396466e-06   -1.165313495278484e-05
-3.0513983573261558e-05   7.324185152396466e-06   -1.165313495278484e-05
-3.0513983573261558e-05   7.324185152396466e-06   -1.165313495278484e-05
-3.074082125040571e-05   8.022611985499317e-06   -6.699347834016874e-05
-3.074082125040571e-05   8.022611985499317e-06   -6.699347834016874e-05
-3.074082125040571e-05   8.022611985499317e-06   -6.699347834016874e-05
-3.074082125040571e-05   8.022611985499317e-06   -6.699347834016874e-05
-6.481959001863482e-05   9.041585694271237e-06   -1.0806914618383137e-05
-6.481959001863482e-05   9.041585694271237e-06   -1.0806914618383137e-05
-6.481959001863482e-05   9.041585694271237e-06   -1.0806914618383137e-05
-6.481959001863482e-05   9.041585694271237e-06   -1.0806914618383137e-05
-4.716144840757036e-05   7.48435128984133e-06   -3.930280999416595e-05
-4.716144840757036e-05   7.48435128984133e-06   -3.930280999416595e-05
-4.716144840757036e-05   7.48435128984133e-06   -3.930280999416595e-05
-4.716144840757036e-05   7.48435128984133e-06   -3.930280999416595e-05
-6.481959001863482e-05   8.022611985499317e-06   -6.760486256543174e-05
-6.481959001863482e-05   8.022611985499317e-06   -6.760486256543174e-05
-6.481959001863482e-05   8.022611985499317e-06   -6.760486256543174e-05
-6.481959001863482e-05   8.022611985499317e-06   -6.760486256543174e-05
-3.074082125040577e-05   9.041585694271237e-06   -1.01955303931201e-05
-3.074082125040577e-05   9.041585694271237e-06   -1.01955303931201e-05
-3.074082125040577e-05   9.041585694271237e-06   -1.01955303931201e-05
-3.074082125040577e-05   9.041585694271237e-06   -1.01955303931201e-05
-3.066899662256774e-05   9.334286909503631e-06   -6.630797172777497e-05
-3.066899662256774e-05   9.334286909503631e-06   -6.630797172777497e-05
-3.066899662256774e-05   9.334286909503631e-06   -6.630797172777497e-05
-3.066899662256774e-05   9.334286909503631e-06   -6.630797172777497e-05
-6.445420210939574e-05   1.0889210661290695e-05   -1.0932250167467264e-05
-6.445420210939574e-05   1.0889210661290695e-05   -1.0932250167467264e-05
-6.445420210939574e-05   1.0889210661290695e-05   -1.0932250167467264e-05
-6.445420210939574e-05   1.0889210661290695e-05   -1.0932250167467264e-05
-4.7442339361802966e-05   8.920430815553387e-06   -3.810408683934618e-05
-4.7442339361802966e-05   8.920430815553387e-06   -3.810408683934618e-05
-4.7442339361802966e-05   8.920430815553387e-06   -3.810408683934618e-05
-4.7442339361802966e-05   8.920430815553387e-06   -3.810408683934618e-05
-2.9799446833378123e-05   -5.884724769181059e-07   -7.158629951626741e-05
-2.9799446833378123e-05   -5.884724769181059e-07   -7.158629951626741e-05
-2.9799446833378123e-05   -5.884724769181059e-07   -7.158629951626741e-05
-2.9799446833378123e-05   -5.884724769181059e-07   -7.158629951626741e-05
2.8839835524923916e-06   -1.5573183398642472e-07   -1.6854271154057498e-05
2.8839835524923916e-06   -1.5573183398642472e-07   -1.6854271154057498e-05
2.8839835524923916e-06   -1.5573183398642472e-07   -1.6854271154057498e-05
2.8839835524923916e-06   -1.5573183398642472e-07   -1.6854271154057498e-05
2.7464917010698643e-06   1.160477474567787e-06   -7.198610194095328e-05
2.7464917010698643e-06   1.160477474567787e-06   -7.198610194095328e-05
2.7464917010698643e-06   1.160477474567787e-06   -7.198610194095328e-05
2.7464917010698643e-06   1.160477474567787e-06   -7.198610194095328e-05
-3.0513983573261558e-05   1.7560988617458854e-06   -1.6909349316041083e-05
-3.0513983573261558e-05   1.7560988617458854e-06   -1.6909349316041083e-05
-3.0513983573261558e-05   1.7560988617458854e-06   -1.6909349316041083e-05
-3.0513983573261558e-05   1.7560988617458854e-06   -1.6909349316041083e-05
-1.3753290421611498e-05   5.8286952119039e-07   -4.4139900297791245e-05
-1.3753290421611498e-05   5.8286952119039e-07   -4.4139900297791245e-05
-1.3753290421611498e-05   5.8286952119039e-07   -4.4139900297791245e-05
-1.3753290421611498e-05   5.8286952119039e-07   -4.4139900297791245e-05
-3.0513983573261558e-05   1.160477474567787e-06   -7.234347477326014e-05
-3.0513983573261558e-05   1.160477474567787e-06   -7.234347477326014e-05
-3.0513983573261558e-05   1.160477474567787e-06   -7.234347477326014e-05
-3.0513983573261558e-05   1.160477474567787e-06   -7.234347477326014e-05
2.7464917010698694e-06   1.7560988617459396e-06   -1.655197648373412e-05
2.7464917010698694e-06   1.7560988617459396e-06   -1.655197648373412e-05
2.7464917010698694e-06   1.7560988617459396e-06   -1.655197648373412e-05
2.7464917010698694e-06   1.7560988617459396e-06   -1.655197648373412e-05
2.5601755222347675e-06   2.70024529188641e-06   -7.213708275453356e-05
2.5601755222347675e-06   2.70024529188641e-06   -7.213708275453356e-05
2.5601755222347675e-06   2.70024529188641e-06   -7.213708275453356e-05
2.5601755222347675e-06   2.70024529188641e-06   -7.213708275453356e-05
-3.074082125040565e-05   3.6240137935034805e-06   -1.7189682567769735e-05
-3.074082125040565e-05   3.6240137935034805e-06   -1.7189682567769735e-05
-3.074082125040565e-05   3.6240137935034805e-06   -1.7189682567769735e-05
-3.074082125040565e-05   3.6240137935034805e-06   -1.7189682567769735e-05
-1.4013207729708104e-05   2.2031983549290453e-06   -4.4216549172454275e-05
-1.4013207729708104e-05   2.2031983549290453e-06   -4.4216549172454275e-05
-1.4013207729708104e-05   2.2031983549290453e-06   -4.4216549172454275e-05
-1.4013207729708104e-05   2.2031983549290453e-06   -4.4216549172454275e-05
-3.074082125040565e-05   2.70024529188641e-06   -7.269134385550379e-05
-3.074082125040565e-05   2.70024529188641e-06   -7.269134385550379e-05
-3.074082125040565e-05   2.70024529188641e-06   -7.269134385550379e-05
-3.074082125040565e-05   2.70024529188641e-06   -7.269134385550379e-05
2.5601755222347675e-06   3.6240137935034805e-06   -1.6635421466799563e-05
2.5601755222347675e-06   3.6240137935034805e-06   -1.6635421466799563e-05
2.5601755222347675e-06   3.6240137935034805e-06   -1.6635421466799563e-05
2.5601755222347675e-06   3.6240137935034805e-06   -1.6635421466799563e-05
2.1883482536869017e-06   4.483929098599425e-06   -7.20127291297298e-05
2.1883482536869017e-06   4.483929098599425e-06   -7.20127291297298e-05
2.1883482536869017e-06   4.483929098599425e-06   -7.20127291297298e-05
2.1883482536869017e-06   4.483929098599425e-06   -7.20127291297298e-05
-3.0668996622567715e-05   5.5703005232713505e-06   -1.790231052410871e-05
-3.0668996622567715e-05   5.5703005232713505e-06   -1.790231052410871e-05
-3.0668996622567715e-05   5.5703005232713505e-06   -1.790231052410871e-05
-3.0668996622567715e-05   5.5703005232713505e-06   -1.790231052410871e-05
-1.417189696198787e-05   3.867767421244847e-06   -4.4375956763859106e-05
-1.417189696198787e-05   3.867767421244847e-06   -4.4375956763859106e-05
-1.417189696198787e-05   3.867767421244847e-06   -4.4375956763859106e-05
-1.417189696198787e-05   3.867767421244847e-06   -4.4375956763859106e-05
2.8839835524923916e-06   -5.2183898416350915e-06   -6.605272420761366e-05
2.8839835524923916e-06   -5.2183898416350915e-06   -6.605272420761366e-05
2.8839835524923916e-06   -5.2183898416350915e-06   -6.605272420761366e-05
2.8839835524923916e-06   -5.2183898416350915e-06   -6.605272420761366e-05
3.6564881962251404e-05   -5.365230071808461e-06   -1.0005997662785958e-05
3.6564881962251404e-05   -5.365230071808461e-06   -1.0005997662785958e-05
3.6564881962251404e-05   -5.365230071808461e-06   -1.0005997662785958e-05
3.6564881962251404e-05   -5.365230071808461e-06   -1.0005997662785958e-05
3.686095669203521e-05   -3.935114346077131e-06   -6.697548471165921e-05
3.686095669203521e-05   -3.935114346077131e-06   -6.697548471165921e-05
3.686095669203521e-05   -3.935114346077131e-06   -6.697548471165921e-05
3.686095669203521e-05   -3.935114346077131e-06   -6.697548471165921e-05
2.7464917010698694e-06   -3.6285382099526114e-06   -1.0301988741724964e-05
2.7464917010698694e-06   -3.6285382099526114e-06   -1.0301988741724964e-05
2.7464917010698694e-06   -3.6285382099526114e-06   -1.0301988741724964e-05
2.7464917010698694e-06   -3.6285382099526114e-06   -1.0301988741724964e-05
1.9511479454223824e-05   -4.342967324894129e-06   -3.781497752801669e-05
1.9511479454223824e-05   -4.342967324894129e-06   -3.781497752801669e-05
1.9511479454223824e-05   -4.342967324894129e-06   -3.781497752801669e-05
1.9511479454223824e-05   -4.342967324894129e-06   -3.781497752801669e-05
2.7464917010698643e-06   -3.935114346077131e-06   -6.715943039333394e-05
2.7464917010698643e-06   -3.935114346077131e-06   -6.715943039333394e-05
2.7464917010698643e-06   -3.935114346077131e-06   -6.715943039333394e-05
2.7464917010698643e-06   -3.935114346077131e-06   -6.715943039333394e-05
3.686095669203521e-05   -3.6285382099526114e-06   -1.0118043060050141e-05
3.686095669203521e-05   -3.6285382099526114e-06   -1.0118043060050141e-05
3.686095669203521e-05   -3.6285382099526114e-06   -1.0118043060050141e-05
3.686095669203521e-05   -3.6285382099526114e-06   -1.0118043060050141e-05
3.6674911044785715e-05   -2.4776698280817914e-06   -6.823077209066495e-05
3.6674911044785715e-05   -2.4776698280817914e-06   -6.823077209066495e-05
3.6674911044785715e-05   -2.4776698280817914e-06   -6.823077209066495e-05
3.6674911044785715e-05   -2.4776698280817914e-06   -6.823077209066495e-05
2.5601755222347675e-06   -1.9271155500518236e-06   -1.1703212119897947e-05
2.5601755222347675e-06   -1.9271155500518236e-06   -1.1703212119897947e-05
2.5601755222347675e-06   -1.9271155500518236e-06   -1.1703212119897947e-05
2.5601755222347675e-06   -1.9271155500518236e-06   -1.1703212119897947e-05
1.9299189633562504e-05   -2.95608866995162e-06   -3.898418510017099e-05
1.9299189633562504e-05   -2.95608866995162e-06   -3.898418510017099e-05
1.9299189633562504e-05   -2.95608866995162e-06   -3.898418510017099e-05
1.9299189633562504e-05   -2.95608866995162e-06   -3.898418510017099e-05
2.5601755222347675e-06   -2.4776698280817914e-06   -6.856110465748279e-05
2.5601755222347675e-06   -2.4776698280817914e-06   -6.856110465748279e-05
2.5601755222347675e-06   -2.4776698280817914e-06   -6.856110465748279e-05
2.5601755222347675e-06   -2.4776698280817914e-06   -6.856110465748279e-05
3.6674911044785715e-05   -1.9271155500517694e-06   -1.1372879553080107e-05
3.6674911044785715e-05   -1.9271155500517694e-06   -1.1372879553080107e-05
3.6674911044785715e-05   -1.9271155500517694e-06   -1.1372879553080107e-05
3.6674911044785715e-05   -1.9271155500517694e-06   -1.1372879553080107e-05
3.559951217200581e-05   -5.18887542626237e-07   -6.835114516967065e-05
3.559951217200581e-05   -5.18887542626237e-07   -6.835114516967065e-05
3.559951217200581e-05   -5.18887542626237e-07   -6.835114516967065e-05
3.559951217200581e-05   -5.18887542626237e-07   -6.835114516967065e-05
2.1883482536869017e-06   1.7764346352505244e-07   -1.3083790576163301e-05
2.1883482536869017e-06   1.7764346352505244e-07   -1.3083790576163301e-05
2.1883482536869017e-06   1.7764346352505244e-07   -1.3083790576163301e-05
2.1883482536869017e-06   1.7764346352505244e-07   -1.3083790576163301e-05
1.9084489561287118e-05   -1.3362172070849755e-06   -4.033570968646426e-05
1.9084489561287118e-05   -1.3362172070849755e-06   -4.033570968646426e-05
1.9084489561287118e-05   -1.3362172070849755e-06   -4.033570968646426e-05
1.9084489561287118e-05   -1.3362172070849755e-06   -4.033570968646426e-05
3.6564881962251404e-05   -1.3224721959968622e-05   -3.996924401996352e-05
3.6564881962251404e-05   -1.3224721959968622e-05   -3.996924401996352e-05
3.6564881962251404e-05   -1.3224721959968622e-05   -3.996924401996352e-05
3.6564881962251404e-05   -1.3224721959968622e-05   -3.996924401996352e-05
6.981223153429829e-05   -9.974276473020418e-06   1.7393272558950278e-05
6.981223153429829e-05   -9.974276473020418e-06   1.7393272558950278e-05
6.981223153429829e-05   -9.974276473020418e-06   1.7393272558950278e-05
6.981223153429829e-05   -9.974276473020418e-06   1.7393272558950278e-05
7.245770783222025e-05   -1.1255174084589002e-05   -4.859460940179166e-05
7.245770783222025e-05   -1.1255174084589002e-05   -4.859460940179166e-05
7.245770783222025e-05   -1.1255174084589002e-05   -4.859460940179166e-05
7.245770783222025e-05   -1.1255174084589002e-05   -4.859460940179166e-05
3.6860956692035274e-05   -9.050780688785458e-06   9.410673127701209e-06
3.6860956692035274e-05   -9.050780688785458e-06   9.410673127701209e-06
3.6860956692035274e-05   -9.050780688785458e-06   9.410673127701209e-06
3.6860956692035274e-05   -9.050780688785458e-06   9.410673127701209e-06
5.141630071318528e-05   -1.0830546440328373e-05   -1.3780374123289715e-05
5.141630071318528e-05   -1.0830546440328373e-05   -1.3780374123289715e-05
5.141630071318528e-05   -1.0830546440328373e-05   -1.3780374123289715e-05
5.141630071318528e-05   -1.0830546440328373e-05   -1.3780374123289715e-05
3.6860956692035186e-05   -1.1255174084588975e-05   -4.991724543927358e-05
3.6860956692035186e-05   -1.1255174084588975e-05   -4.991724543927358e-05
3.6860956692035186e-05   -1.1255174084588975e-05   -4.991724543927358e-05
3.6860956692035186e-05   -1.1255174084588975e-05   -4.991724543927358e-05
7.245770783222011e-05   -9.050780688785458e-06   1.0733309165183438e-05
7.245770783222011e-05   -9.050780688785458e-06   1.0733309165183438e-05
7.245770783222011e-05   -9.050780688785458e-06   1.0733309165183438e-05
7.245770783222011e-05   -9.050780688785458e-06   1.0733309165183438e-05
7.217913781400977e-05   -1.0285773666244554e-05   -5.285071753780211e-05
7.217913781400977e-05   -1.0285773666244554e-05   -5.285071753780211e-05
7.217913781400977e-05   -1.0285773666244554e-05   -5.285071753780211e-05
7.217913781400977e-05   -1.0285773666244554e-05   -5.285071753780211e-05
3.6674911044785715e-05   -8.071597003833913e-06   4.994487746791618e-06
3.6674911044785715e-05   -8.071597003833913e-06   4.994487746791618e-06
3.6674911044785715e-05   -8.071597003833913e-06   4.994487746791618e-06
3.6674911044785715e-05   -8.071597003833913e-06   4.994487746791618e-06
5.320652829856644e-05   -9.56637019514587e-06   -2.166134376138914e-05
5.320652829856644e-05   -9.56637019514587e-06   -2.166134376138914e-05
5.320652829856644e-05   -9.56637019514587e-06   -2.166134376138914e-05
5.320652829856644e-05   -9.56637019514587e-06   -2.166134376138914e-05
3.6674911044785654e-05   -1.0285773666244527e-05   -5.41792235352484e-05
3.6674911044785654e-05   -1.0285773666244527e-05   -5.41792235352484e-05
3.6674911044785654e-05   -1.0285773666244527e-05   -5.41792235352484e-05
3.6674911044785654e-05   -1.0285773666244527e-05   -5.41792235352484e-05
7.217913781400964e-05   -8.071597003833913e-06   6.322993744237897e-06
7.217913781400964e-05   -8.071597003833913e-06   6.322993744237897e-06
7.217913781400964e-05   -8.071597003833913e-06   6.322993744237897e-06
7.217913781400964e-05   -8.071597003833913e-06   6.322993744237897e-06
7.17341055468581e-05   -7.997924510240673e-06   -6.151739202049404e-05
7.17341055468581e-05   -7.997924510240673e-06   -6.151739202049404e-05
7.17341055468581e-05   -7.997924510240673e-06   -6.151739202049404e-05
7.17341055468581e-05   -7.997924510240673e-06   -6.151739202049404e-05
3.559951217200577e-05   -5.96423707782326e-06   -2.5132821885239393e-06
3.559951217200577e-05   -5.96423707782326e-06   -2.5132821885239393e-06
3.559951217200577e-05   -5.96423707782326e-06   -2.5132821885239393e-06
3.559951217200577e-05   -5.96423707782326e-06   -2.5132821885239393e-06
5.167775165028169e-05   -8.238221032779846e-06   -2.7945957612676483e-05
5.167775165028169e-05   -8.238221032779846e-06   -2.7945957612676483e-05
5.167775165028169e-05   -8.238221032779846e-06   -2.7945957612676483e-05
5.167775165028169e-05   -8.238221032779846e-06   -2.7945957612676483e-05
-7.826545518211571e-05   1.1280752619664304e-05   -5.399812953074256e-05
-7.826545518211571e-05   1.1280752619664304e-05   -5.399812953074256e-05
-7.826545518211571e-05   1.1280752619664304e-05   -5.399812953074256e-05
-7.826545518211571e-05   1.1280752619664304e-05   -5.399812953074256e-05
-5.130257078719505e-05   8.622344288885283e-06   -1.0655033871008847e-05
-5.130257078719505e-05   8.622344288885283e-06   -1.0655033871008847e-05
-5.130257078719505e-05   8.622344288885283e-06   -1.0655033871008847e-05
-5.130257078719505e-05   8.622344288885283e-06   -1.0655033871008847e-05
-5.155226225479355e-05   1.3537363517160264e-05   -4.483337807294728e-05
-5.155226225479355e-05   1.3537363517160264e-05   -4.483337807294728e-05
-5.155226225479355e-05   1.3537363517160264e-05   -4.483337807294728e-05
-5.155226225479355e-05   1.3537363517160264e-05   -4.483337807294728e-05
-7.708443034389555e-05   1.0429097408657805e-05   -4.1480492600915993e-07
-7.708443034389555e-05   1.0429097408657805e-05   -4.1480492600915993e-07
-7.708443034389555e-05   1.0429097408657805e-05   -4.1480492600915993e-07
-7.708443034389555e-05   1.0429097408657805e-05   -4.1480492600915993e-07
-6.182142086863786e-05   1.1470134700417104e-05   -2.6477776426494377e-05
-6.182142086863786e-05   1.1470134700417104e-05   -2.6477776426494377e-05
-6.182142086863786e-05   1.1470134700417104e-05   -2.6477776426494377e-05
-6.182142086863786e-05   1.1470134700417104e-05   -2.6477776426494377e-05
-7.708443034389555e-05   1.3537363517160264e-05   -4.296841840784578e-05
-7.708443034389555e-05   1.3537363517160264e-05   -4.296841840784578e-05
-7.708443034389555e-05   1.3537363517160264e-05   -4.296841840784578e-05
-7.708443034389555e-05   1.3537363517160264e-05   -4.296841840784578e-05
-5.155226225479355e-05   1.0429097408657805e-05   -2.2797645911106087e-06
-5.155226225479355e-05   1.0429097408657805e-05   -2.2797645911106087e-06
-5.155226225479355e-05   1.0429097408657805e-05   -2.2797645911106087e-06
-5.155226225479355e-05   1.0429097408657805e-05   -2.2797645911106087e-06
-5.150182028868932e-05   1.4555752544897084e-05   -3.835446494454488e-05
-5.150182028868932e-05   1.4555752544897084e-05   -3.835446494454488e-05
-5.150182028868932e-05   1.4555752544897084e-05   -3.835446494454488e-05
-5.150182028868932e-05   1.4555752544897084e-05   -3.835446494454488e-05
-7.593231782996603e-05   1.1222658166197509e-05   4.362887584802663e-06
-7.593231782996603e-05   1.1222658166197509e-05   4.362887584802663e-06
-7.593231782996603e-05   1.1222658166197509e-05   4.362887584802663e-06
-7.593231782996603e-05   1.1222658166197509e-05   4.362887584802663e-06
-6.235849470471427e-05   1.2517545329395602e-05   -1.903708325520246e-05
-6.235849470471427e-05   1.2517545329395602e-05   -1.903708325520246e-05
-6.235849470471427e-05   1.2517545329395602e-05   -1.903708325520246e-05
-6.235849470471427e-05   1.2517545329395602e-05   -1.903708325520246e-05
-7.593231782996603e-05   1.4555752544897084e-05   -3.635460831732522e-05
-7.593231782996603e-05   1.4555752544897084e-05   -3.635460831732522e-05
-7.593231782996603e-05   1.4555752544897084e-05   -3.635460831732522e-05
-7.593231782996603e-05   1.4555752544897084e-05   -3.635460831732522e-05
-5.15018202886894e-05   1.1222658166197509e-05   2.363030957583113e-06
-5.15018202886894e-05   1.1222658166197509e-05   2.363030957583113e-06
-5.15018202886894e-05   1.1222658166197509e-05   2.363030957583113e-06
-5.15018202886894e-05   1.1222658166197509e-05   2.363030957583113e-06
-5.1555625202199504e-05   1.5364416988321663e-05   -2.927979302959783e-05
-5.1555625202199504e-05   1.5364416988321663e-05   -2.927979302959783e-05
-5.1555625202199504e-05   1.5364416988321663e-05   -2.927979302959783e-05
-5.1555625202199504e-05   1.5364416988321663e-05   -2.927979302959783e-05
-7.442658239939181e-05   1.2002940581801137e-05   1.085535480963468e-05
-7.442658239939181e-05   1.2002940581801137e-05   1.085535480963468e-05
-7.442658239939181e-05   1.2002940581801137e-05   1.085535480963468e-05
-7.442658239939181e-05   1.2002940581801137e-05   1.085535480963468e-05
-6.094039708228315e-05   1.3068057412494549e-05   -1.2260690817295117e-05
-6.094039708228315e-05   1.3068057412494549e-05   -1.2260690817295117e-05
-6.094039708228315e-05   1.3068057412494549e-05   -1.2260690817295117e-05
-6.094039708228315e-05   1.3068057412494549e-05   -1.2260690817295117e-05
-5.130257078719505e-05   5.249035383842534e-06   -6.248972640887549e-05
-5.130257078719505e-05   5.249035383842534e-06   -6.248972640887549e-05
-5.130257078719505e-05   5.249035383842534e-06   -6.248972640887549e-05
-5.130257078719505e-05   5.249035383842534e-06   -6.248972640887549e-05
-2.6102923083280334e-05   4.298344588742542e-06   -2.1060728046077654e-05
-2.6102923083280334e-05   4.298344588742542e-06   -2.1060728046077654e-05
-2.6102923083280334e-05   4.298344588742542e-06   -2.1060728046077654e-05
-2.6102923083280334e-05   4.298344588742542e-06   -2.1060728046077654e-05
-2.6421410372853968e-05   7.324185152396466e-06   -6.160559918237999e-05
-2.6421410372853968e-05   7.324185152396466e-06   -6.160559918237999e-05
-2.6421410372853968e-05   7.324185152396466e-06   -6.160559918237999e-05
-2.6421410372853968e-05   7.324185152396466e-06   -6.160559918237999e-05
-5.155226225479355e-05   6.075054343914919e-06   -1.897136756072519e-05
-5.155226225479355e-05   6.075054343914919e-06   -1.897136756072519e-05
-5.155226225479355e-05   6.075054343914919e-06   -1.897136756072519e-05
-5.155226225479355e-05   6.075054343914919e-06   -1.897136756072519e-05
-3.851240995361114e-05   6.0523256612730295e-06   -4.0690817519777363e-05
-3.851240995361114e-05   6.0523256612730295e-06   -4.0690817519777363e-05
-3.851240995361114e-05   6.0523256612730295e-06   -4.0690817519777363e-05
-3.851240995361114e-05   6.0523256612730295e-06   -4.0690817519777363e-05
-5.1552262254793494e-05   7.324185152396466e-06   -6.085612069729095e-05
-5.1552262254793494e-05   7.324185152396466e-06   -6.085612069729095e-05
-5.1552262254793494e-05   7.324185152396466e-06   -6.085612069729095e-05
-5.1552262254793494e-05   7.324185152396466e-06   -6.085612069729095e-05
-2.6421410372854008e-05   6.075054343914919e-06   -1.9720846045814083e-05
-2.6421410372854008e-05   6.075054343914919e-06   -1.9720846045814083e-05
-2.6421410372854008e-05   6.075054343914919e-06   -1.9720846045814083e-05
-2.6421410372854008e-05   6.075054343914919e-06   -1.9720846045814083e-05
-2.662844238238779e-05   9.041585694271237e-06   -5.99745471574557e-05
-2.662844238238779e-05   9.041585694271237e-06   -5.99745471574557e-05
-2.662844238238779e-05   9.041585694271237e-06   -5.99745471574557e-05
-2.662844238238779e-05   9.041585694271237e-06   -5.99745471574557e-05
-5.150182028868932e-05   7.653198731105617e-06   -1.76858851357205e-05
-5.150182028868932e-05   7.653198731105617e-06   -1.76858851357205e-05
-5.150182028868932e-05   7.653198731105617e-06   -1.76858851357205e-05
-5.150182028868932e-05   7.653198731105617e-06   -1.76858851357205e-05
-3.858501393021275e-05   7.5138122943691995e-06   -3.913026387113936e-05
-3.858501393021275e-05   7.5138122943691995e-06   -3.913026387113936e-05
-3.858501393021275e-05   7.5138122943691995e-06   -3.913026387113936e-05
-3.858501393021275e-05   7.5138122943691995e-06   -3.913026387113936e-05
-5.150182028868932e-05   9.041585694271237e-06   -5.914151497955632e-05
-5.150182028868932e-05   9.041585694271237e-06   -5.914151497955632e-05
-5.150182028868932e-05   9.041585694271237e-06   -5.914151497955632e-05
-5.150182028868932e-05   9.041585694271237e-06   -5.914151497955632e-05
-2.6628442382387832e-05   7.653198731105617e-06   -1.8518917313619732e-05
-2.6628442382387832e-05   7.653198731105617e-06   -1.8518917313619732e-05
-2.6628442382387832e-05   7.653198731105617e-06   -1.8518917313619732e-05
-2.6628442382387832e-05   7.653198731105617e-06   -1.8518917313619732e-05
-2.6895802229770948e-05   1.0889210661290695e-05   -5.9829405553531254e-05
-2.6895802229770948e-05   1.0889210661290695e-05   -5.9829405553531254e-05
-2.6895802229770948e-05   1.0889210661290695e-05   -5.9829405553531254e-05
-2.6895802229770948e-05   1.0889210661290695e-05   -5.9829405553531254e-05
-5.155562520219945e-05   9.331618266986553e-06   -1.7795145162901422e-05
-5.155562520219945e-05   9.331618266986553e-06   -1.7795145162901422e-05
-5.155562520219945e-05   9.331618266986553e-06   -1.7795145162901422e-05
-5.155562520219945e-05   9.331618266986553e-06   -1.7795145162901422e-05
-3.9043638941132355e-05   8.961121815863858e-06   -3.8426157727339186e-05
-3.9043638941132355e-05   8.961121815863858e-06   -3.8426157727339186e-05
-3.9043638941132355e-05   8.961121815863858e-06   -3.8426157727339186e-05
-3.9043638941132355e-05   8.961121815863858e-06   -3.8426157727339186e-05
-2.610292308328028e-05   -1.5573183398642472e-07   -6.7356785123724e-05
-2.610292308328028e-05   -1.5573183398642472e-07   -6.7356785123724e-05
-2.610292308328028e-05   -1.5573183398642472e-07   -6.7356785123724e-05
-2.610292308328028e-05   -1.5573183398642472e-07   -6.7356785123724e-05
-1.1867302623472258e-06   2.2864393953115833e-07   -2.5599171624724994e-05
-1.1867302623472258e-06   2.2864393953115833e-07   -2.5599171624724994e-05
-1.1867302623472258e-06   2.2864393953115833e-07   -2.5599171624724994e-05
-1.1867302623472258e-06   2.2864393953115833e-07   -2.5599171624724994e-05
-1.4424568989883632e-06   1.7560988617459396e-06   -6.67291104542707e-05
-1.4424568989883632e-06   1.7560988617459396e-06   -6.67291104542707e-05
-1.4424568989883632e-06   1.7560988617459396e-06   -6.67291104542707e-05
-1.4424568989883632e-06   1.7560988617459396e-06   -6.67291104542707e-05
-2.6421410372853927e-05   1.9772706806882702e-06   -2.523022442252676e-05
-2.6421410372853927e-05   1.9772706806882702e-06   -2.523022442252676e-05
-2.6421410372853927e-05   1.9772706806882702e-06   -2.523022442252676e-05
-2.6421410372853927e-05   1.9772706806882702e-06   -2.523022442252676e-05
-1.3710980402361233e-05   1.1518302140544484e-06   -4.591901009336773e-05
-1.3710980402361233e-05   1.1518302140544484e-06   -4.591901009336773e-05
-1.3710980402361233e-05   1.1518302140544484e-06   -4.591901009336773e-05
-1.3710980402361233e-05   1.1518302140544484e-06   -4.591901009336773e-05
-2.6421410372853968e-05   1.7560988617459396e-06   -6.686181354563611e-05
-2.6421410372853968e-05   1.7560988617459396e-06   -6.686181354563611e-05
-2.6421410372853968e-05   1.7560988617459396e-06   -6.686181354563611e-05
-2.6421410372853968e-05   1.7560988617459396e-06   -6.686181354563611e-05
-1.4424568989883632e-06   1.9772706806882702e-06   -2.509752133116134e-05
-1.4424568989883632e-06   1.9772706806882702e-06   -2.509752133116134e-05
-1.4424568989883632e-06   1.9772706806882702e-06   -2.509752133116134e-05
-1.4424568989883632e-06   1.9772706806882702e-06   -2.509752133116134e-05
-1.6277450060096211e-06   3.6240137935034263e-06   -6.691071348125969e-05
-1.6277450060096211e-06   3.6240137935034263e-06   -6.691071348125969e-05
-1.6277450060096211e-06   3.6240137935034263e-06   -6.691071348125969e-05
-1.6277450060096211e-06   3.6240137935034263e-06   -6.691071348125969e-05
-2.662844238238779e-05   3.7206568782464835e-06   -2.5300870371475188e-05
-2.662844238238779e-05   3.7206568782464835e-06   -2.5300870371475188e-05
-2.662844238238779e-05   3.7206568782464835e-06   -2.5300870371475188e-05
-2.662844238238779e-05   3.7206568782464835e-06   -2.5300870371475188e-05
-1.4040620644472001e-05   2.693870145272333e-06   -4.5664501228217e-05
-1.4040620644472001e-05   2.693870145272333e-06   -4.5664501228217e-05
-1.4040620644472001e-05   2.693870145272333e-06   -4.5664501228217e-05
-1.4040620644472001e-05   2.693870145272333e-06   -4.5664501228217e-05
-2.662844238238779e-05   3.6240137935034263e-06   -6.696869933210545e-05
-2.662844238238779e-05   3.6240137935034263e-06   -6.696869933210545e-05
-2.662844238238779e-05   3.6240137935034263e-06   -6.696869933210545e-05
-2.662844238238779e-05   3.6240137935034263e-06   -6.696869933210545e-05
-1.6277450060096211e-06   3.7206568782464835e-06   -2.524288452062924e-05
-1.6277450060096211e-06   3.7206568782464835e-06   -2.524288452062924e-05
-1.6277450060096211e-06   3.7206568782464835e-06   -2.524288452062924e-05
-1.6277450060096211e-06   3.7206568782464835e-06   -2.524288452062924e-05
-1.91804466361128e-06   5.5703005232713505e-06   -6.777183888651505e-05
-1.91804466361128e-06   5.5703005232713505e-06   -6.777183888651505e-05
-1.91804466361128e-06   5.5703005232713505e-06   -6.777183888651505e-05
-1.91804466361128e-06   5.5703005232713505e-06   -6.777183888651505e-05
-2.689580222977098e-05   5.50460264782122e-06   -2.610282421764562e-05
-2.689580222977098e-05   5.50460264782122e-06   -2.610282421764562e-05
-2.689580222977098e-05   5.50460264782122e-06   -2.610282421764562e-05
-2.689580222977098e-05   5.50460264782122e-06   -2.610282421764562e-05
-1.4390729934820936e-05   4.254225340328052e-06   -4.6194384991399436e-05
-1.4390729934820936e-05   4.254225340328052e-06   -4.6194384991399436e-05
-1.4390729934820936e-05   4.254225340328052e-06   -4.6194384991399436e-05
-1.4390729934820936e-05   4.254225340328052e-06   -4.6194384991399436e-05
-1.1867302623472283e-06   -5.365230071808461e-06   -6.0189782030237865e-05
-1.1867302623472283e-06   -5.365230071808461e-06   -6.0189782030237865e-05
-1.1867302623472283e-06   -5.365230071808461e-06   -6.0189782030237865e-05
-1.1867302623472283e-06   -5.365230071808461e-06   -6.0189782030237865e-05
2.3605952497736854e-05   -3.599232533658633e-06   -1.7809045573874568e-05
2.3605952497736854e-05   -3.599232533658633e-06   -1.7809045573874568e-05
2.3605952497736854e-05   -3.599232533658633e-06   -1.7809045573874568e-05
2.3605952497736854e-05   -3.599232533658633e-06   -1.7809045573874568e-05
2.3586399394161028e-05   -3.6285382099526114e-06   -5.950007143318994e-05
2.3586399394161028e-05   -3.6285382099526114e-06   -5.950007143318994e-05
2.3586399394161028e-05   -3.6285382099526114e-06   -5.950007143318994e-05
2.3586399394161028e-05   -3.6285382099526114e-06   -5.950007143318994e-05
-1.4424568989883632e-06   -1.9967860781667374e-06   -1.8764362223679164e-05
-1.4424568989883632e-06   -1.9967860781667374e-06   -1.8764362223679164e-05
-1.4424568989883632e-06   -1.9967860781667374e-06   -1.8764362223679164e-05
-1.4424568989883632e-06   -1.9967860781667374e-06   -1.8764362223679164e-05
1.1055627188470086e-05   -3.5215492615716998e-06   -3.8679644459400274e-05
1.1055627188470086e-05   -3.5215492615716998e-06   -3.8679644459400274e-05
1.1055627188470086e-05   -3.5215492615716998e-06   -3.8679644459400274e-05
1.1055627188470086e-05   -3.5215492615716998e-06   -3.8679644459400274e-05
-1.4424568989883632e-06   -3.6285382099526114e-06   -6.047912271226144e-05
-1.4424568989883632e-06   -3.6285382099526114e-06   -6.047912271226144e-05
-1.4424568989883632e-06   -3.6285382099526114e-06   -6.047912271226144e-05
-1.4424568989883632e-06   -3.6285382099526114e-06   -6.047912271226144e-05
2.3586399394161055e-05   -1.9967860781667374e-06   -1.778531094460766e-05
2.3586399394161055e-05   -1.9967860781667374e-06   -1.778531094460766e-05
2.3586399394161055e-05   -1.9967860781667374e-06   -1.778531094460766e-05
2.3586399394161055e-05   -1.9967860781667374e-06   -1.778531094460766e-05
2.369585691939072e-05   -1.9271155500517694e-06   -6.107534153361037e-05
2.369585691939072e-05   -1.9271155500517694e-06   -6.107534153361037e-05
2.369585691939072e-05   -1.9271155500517694e-06   -6.107534153361037e-05
2.369585691939072e-05   -1.9271155500517694e-06   -6.107534153361037e-05
-1.6277450060096228e-06   -4.2184454880568774e-07   -1.9772500925357577e-05
-1.6277450060096228e-06   -4.2184454880568774e-07   -1.9772500925357577e-05
-1.6277450060096228e-06   -4.2184454880568774e-07   -1.9772500925357577e-05
-1.6277450060096228e-06   -4.2184454880568774e-07   -1.9772500925357577e-05
1.0715323536628662e-05   -2.1319634712026647e-06   -3.931821047631645e-05
1.0715323536628662e-05   -2.1319634712026647e-06   -3.931821047631645e-05
1.0715323536628662e-05   -2.1319634712026647e-06   -3.931821047631645e-05
1.0715323536628662e-05   -2.1319634712026647e-06   -3.931821047631645e-05
-1.6277450060096211e-06   -1.9271155500517694e-06   -6.197850413435809e-05
-1.6277450060096211e-06   -1.9271155500517694e-06   -6.197850413435809e-05
-1.6277450060096211e-06   -1.9271155500517694e-06   -6.197850413435809e-05
-1.6277450060096211e-06   -1.9271155500517694e-06   -6.197850413435809e-05
2.3695856919390748e-05   -4.218445488055793e-07   -1.886933832460978e-05
2.3695856919390748e-05   -4.218445488055793e-07   -1.886933832460978e-05
2.3695856919390748e-05   -4.218445488055793e-07   -1.886933832460978e-05
2.3695856919390748e-05   -4.218445488055793e-07   -1.886933832460978e-05
2.3512291941240254e-05   1.7764346352505244e-07   -6.28597472719902e-05
2.3512291941240254e-05   1.7764346352505244e-07   -6.28597472719902e-05
2.3512291941240254e-05   1.7764346352505244e-07   -6.28597472719902e-05
2.3512291941240254e-05   1.7764346352505244e-07   -6.28597472719902e-05
-1.9180446636112834e-06   1.4199676658296348e-06   -2.1221247451953926e-05
-1.9180446636112834e-06   1.4199676658296348e-06   -2.1221247451953926e-05
-1.9180446636112834e-06   1.4199676658296348e-06   -2.1221247451953926e-05
-1.9180446636112834e-06   1.4199676658296348e-06   -2.1221247451953926e-05
1.0595133379666113e-05   -6.448273025419591e-07   -4.083766720972634e-05
1.0595133379666113e-05   -6.448273025419591e-07   -4.083766720972634e-05
1.0595133379666113e-05   -6.448273025419591e-07   -4.083766720972634e-05
1.0595133379666113e-05   -6.448273025419591e-07   -4.083766720972634e-05
2.3605952497736813e-05   -9.974276473020364e-06   -3.368118057778068e-05
2.3605952497736813e-05   -9.974276473020364e-06   -3.368118057778068e-05
2.3605952497736813e-05   -9.974276473020364e-06   -3.368118057778068e-05
2.3605952497736813e-05   -9.974276473020364e-06   -3.368118057778068e-05
4.682968574799121e-05   -6.530256369499448e-06   7.091453568089314e-06
4.682968574799121e-05   -6.530256369499448e-06   7.091453568089314e-06
4.682968574799121e-05   -6.530256369499448e-06   7.091453568089314e-06
4.682968574799121e-05   -6.530256369499448e-06   7.091453568089314e-06
4.8403918087696176e-05   -9.050780688785404e-06   -3.7905347895003154e-05
4.8403918087696176e-05   -9.050780688785404e-06   -3.7905347895003154e-05
4.8403918087696176e-05   -9.050780688785404e-06   -3.7905347895003154e-05
4.8403918087696176e-05   -9.050780688785404e-06   -3.7905347895003154e-05
2.3586399394161028e-05   -5.607435104726583e-06   1.3911759104535764e-06
2.3586399394161028e-05   -5.607435104726583e-06   1.3911759104535764e-06
2.3586399394161028e-05   -5.607435104726583e-06   1.3911759104535764e-06
2.3586399394161028e-05   -5.607435104726583e-06   1.3911759104535764e-06
3.408464189273491e-05   -7.698519678639524e-06   -1.485124417615527e-05
3.408464189273491e-05   -7.698519678639524e-06   -1.485124417615527e-05
3.408464189273491e-05   -7.698519678639524e-06   -1.485124417615527e-05
3.408464189273491e-05   -7.698519678639524e-06   -1.485124417615527e-05
2.3586399394161e-05   -9.050780688785458e-06   -3.997135524543829e-05
2.3586399394161e-05   -9.050780688785458e-06   -3.997135524543829e-05
2.3586399394161e-05   -9.050780688785458e-06   -3.997135524543829e-05
2.3586399394161e-05   -9.050780688785458e-06   -3.997135524543829e-05
4.8403918087696176e-05   -5.607435104726583e-06   3.457183260888782e-06
4.8403918087696176e-05   -5.607435104726583e-06   3.457183260888782e-06
4.8403918087696176e-05   -5.607435104726583e-06   3.457183260888782e-06
4.8403918087696176e-05   -5.607435104726583e-06   3.457183260888782e-06
4.9613046757572776e-05   -8.071597003833967e-06   -4.275420049307206e-05
4.9613046757572776e-05   -8.071597003833967e-06   -4.275420049307206e-05
4.9613046757572776e-05   -8.071597003833967e-06   -4.275420049307206e-05
4.9613046757572776e-05   -8.071597003833967e-06   -4.275420049307206e-05
2.3695856919390667e-05   -4.815307436056024e-06   -1.5126578367687094e-06
2.3695856919390667e-05   -4.815307436056024e-06   -1.5126578367687094e-06
2.3695856919390667e-05   -4.815307436056024e-06   -1.5126578367687094e-06
2.3695856919390667e-05   -4.815307436056024e-06   -1.5126578367687094e-06
3.523994193593033e-05   -7.103056719514152e-06   -1.9380149960926524e-05
3.523994193593033e-05   -7.103056719514152e-06   -1.9380149960926524e-05
3.523994193593033e-05   -7.103056719514152e-06   -1.9380149960926524e-05
3.523994193593033e-05   -7.103056719514152e-06   -1.9380149960926524e-05
2.369585691939072e-05   -8.071597003833967e-06   -4.470797423373877e-05
2.369585691939072e-05   -8.071597003833967e-06   -4.470797423373877e-05
2.369585691939072e-05   -8.071597003833967e-06   -4.470797423373877e-05
2.369585691939072e-05   -8.071597003833967e-06   -4.470797423373877e-05
4.9613046757572695e-05   -4.815307436056024e-06   4.411159038981375e-07
4.9613046757572695e-05   -4.815307436056024e-06   4.411159038981375e-07
4.9613046757572695e-05   -4.815307436056024e-06   4.411159038981375e-07
4.9613046757572695e-05   -4.815307436056024e-06   4.411159038981375e-07
5.090081748576104e-05   -5.96423707782326e-06   -5.1002212340720294e-05
5.090081748576104e-05   -5.96423707782326e-06   -5.1002212340720294e-05
5.090081748576104e-05   -5.96423707782326e-06   -5.1002212340720294e-05
5.090081748576104e-05   -5.96423707782326e-06   -5.1002212340720294e-05
2.35122919412402e-05   -3.1226618322876924e-06   -7.0596149138402934e-06
2.35122919412402e-05   -3.1226618322876924e-06   -7.0596149138402934e-06
2.35122919412402e-05   -3.1226618322876924e-06   -7.0596149138402934e-06
2.35122919412402e-05   -3.1226618322876924e-06   -7.0596149138402934e-06
3.508676385984984e-05   -6.119856177962444e-06   -2.4552084837451332e-05
3.508676385984984e-05   -6.119856177962444e-06   -2.4552084837451332e-05
3.508676385984984e-05   -6.119856177962444e-06   -2.4552084837451332e-05
3.508676385984984e-05   -6.119856177962444e-06   -2.4552084837451332e-05
-5.62677420920673e-05   8.622344288885283e-06   -4.279204856121998e-05
-5.62677420920673e-05   8.622344288885283e-06   -4.279204856121998e-05
-5.62677420920673e-05   8.622344288885283e-06   -4.279204856121998e-05
-5.62677420920673e-05   8.622344288885283e-06   -4.279204856121998e-05
-3.8303137319542756e-05   5.4873721059976906e-06   -1.4732023916744796e-05
-3.8303137319542756e-05   5.4873721059976906e-06   -1.4732023916744796e-05
-3.8303137319542756e-05   5.4873721059976906e-06   -1.4732023916744796e-05
-3.8303137319542756e-05   5.4873721059976906e-06   -1.4732023916744796e-05
-3.816389699205506e-05   1.0429097408657805e-05   -3.6353151043164015e-05
-3.816389699205506e-05   1.0429097408657805e-05   -3.6353151043164015e-05
-3.816389699205506e-05   1.0429097408657805e-05   -3.6353151043164015e-05
-3.816389699205506e-05   1.0429097408657805e-05   -3.6353151043164015e-05
-5.458702898198856e-05   6.983422728755765e-06   -6.913859585333678e-06
-5.458702898198856e-05   6.983422728755765e-06   -6.913859585333678e-06
-5.458702898198856e-05   6.983422728755765e-06   -6.913859585333678e-06
-5.458702898198856e-05   6.983422728755765e-06   -6.913859585333678e-06
-4.484373984515365e-05   8.302358511297217e-06   -2.394403628291672e-05
-4.484373984515365e-05   8.302358511297217e-06   -2.394403628291672e-05
-4.484373984515365e-05   8.302358511297217e-06   -2.394403628291672e-05
-4.484373984515365e-05   8.302358511297217e-06   -2.394403628291672e-05
-5.458702898198856e-05   1.0429097408657805e-05   -3.4285746235222705e-05
-5.458702898198856e-05   1.0429097408657805e-05   -3.4285746235222705e-05
-5.458702898198856e-05   1.0429097408657805e-05   -3.4285746235222705e-05
-5.458702898198856e-05   1.0429097408657805e-05   -3.4285746235222705e-05
-3.8163896992055116e-05   6.983422728755765e-06   -8.981264393274883e-06
-3.8163896992055116e-05   6.983422728755765e-06   -8.981264393274883e-06
-3.8163896992055116e-05   6.983422728755765e-06   -8.981264393274883e-06
-3.8163896992055116e-05   6.983422728755765e-06   -8.981264393274883e-06
-3.7874595887713735e-05   1.1222658166197509e-05   -3.1699638739719586e-05
-3.7874595887713735e-05   1.1222658166197509e-05   -3.1699638739719586e-05
-3.7874595887713735e-05   1.1222658166197509e-05   -3.1699638739719586e-05
-3.7874595887713735e-05   1.1222658166197509e-05   -3.1699638739719586e-05
-5.333026567548913e-05   7.680180609696396e-06   -3.814702559526439e-06
-5.333026567548913e-05   7.680180609696396e-06   -3.814702559526439e-06
-5.333026567548913e-05   7.680180609696396e-06   -3.814702559526439e-06
-5.333026567548913e-05   7.680180609696396e-06   -3.814702559526439e-06
-4.484701709718563e-05   9.137091429053934e-06   -1.8827596681646883e-05
-4.484701709718563e-05   9.137091429053934e-06   -1.8827596681646883e-05
-4.484701709718563e-05   9.137091429053934e-06   -1.8827596681646883e-05
-4.484701709718563e-05   9.137091429053934e-06   -1.8827596681646883e-05
-5.333026567548913e-05   1.1222658166197509e-05   -2.9574152205818734e-05
-5.333026567548913e-05   1.1222658166197509e-05   -2.9574152205818734e-05
-5.333026567548913e-05   1.1222658166197509e-05   -2.9574152205818734e-05
-5.333026567548913e-05   1.1222658166197509e-05   -2.9574152205818734e-05
-3.7874595887713817e-05   7.680180609696179e-06   -5.94018909342712e-06
-3.7874595887713817e-05   7.680180609696179e-06   -5.94018909342712e-06
-3.7874595887713817e-05   7.680180609696179e-06   -5.94018909342712e-06
-3.7874595887713817e-05   7.680180609696179e-06   -5.94018909342712e-06
-3.775853629821126e-05   1.2002940581801137e-05   -2.5256885592074042e-05
-3.775853629821126e-05   1.2002940581801137e-05   -2.5256885592074042e-05
-3.775853629821126e-05   1.2002940581801137e-05   -2.5256885592074042e-05
-3.775853629821126e-05   1.2002940581801137e-05   -2.5256885592074042e-05
-5.1685447646377856e-05   8.555894970977253e-06   2.2860688031066563e-08
-5.1685447646377856e-05   8.555894970977253e-06   2.2860688031066563e-08
-5.1685447646377856e-05   8.555894970977253e-06   2.2860688031066563e-08
-5.1685447646377856e-05   8.555894970977253e-06   2.2860688031066563e-08
-4.352059672509275e-05   9.588843047238238e-06   -1.4204993026533739e-05
-4.352059672509275e-05   9.588843047238238e-06   -1.4204993026533739e-05
-4.352059672509275e-05   9.588843047238238e-06   -1.4204993026533739e-05
-4.352059672509275e-05   9.588843047238238e-06   -1.4204993026533739e-05
-3.8303137319542675e-05   4.298344588742542e-06   -5.45083115689611e-05
-3.8303137319542675e-05   4.298344588742542e-06   -5.45083115689611e-05
-3.8303137319542675e-05   4.298344588742542e-06   -5.45083115689611e-05
-3.8303137319542675e-05   4.298344588742542e-06   -5.45083115689611e-05
-2.2022801603871375e-05   2.835475336907282e-06   -2.8252140260610106e-05
-2.2022801603871375e-05   2.835475336907282e-06   -2.8252140260610106e-05
-2.2022801603871375e-05   2.835475336907282e-06   -2.8252140260610106e-05
-2.2022801603871375e-05   2.835475336907282e-06   -2.8252140260610106e-05
-2.2033408865109084e-05   6.075054343914919e-06   -5.404096734761032e-05
-2.2033408865109084e-05   6.075054343914919e-06   -5.404096734761032e-05
-2.2033408865109084e-05   6.075054343914919e-06   -5.404096734761032e-05
-2.2033408865109084e-05   6.075054343914919e-06   -5.404096734761032e-05
-3.816389699205506e-05   4.4146987858617506e-06   -2.6160607134535308e-05
-3.816389699205506e-05   4.4146987858617506e-06   -2.6160607134535308e-05
-3.816389699205506e-05   4.4146987858617506e-06   -2.6160607134535308e-05
-3.816389699205506e-05   4.4146987858617506e-06   -2.6160607134535308e-05
-2.9853090376900124e-05   4.700645441271616e-06   -4.018351948637276e-05
-2.9853090376900124e-05   4.700645441271616e-06   -4.018351948637276e-05
-2.9853090376900124e-05   4.700645441271616e-06   -4.018351948637276e-05
-2.9853090376900124e-05   4.700645441271616e-06   -4.018351948637276e-05
-3.8163896992055035e-05   6.075054343914919e-06   -5.304475401277827e-05
-3.8163896992055035e-05   6.075054343914919e-06   -5.304475401277827e-05
-3.8163896992055035e-05   6.075054343914919e-06   -5.304475401277827e-05
-3.8163896992055035e-05   6.075054343914919e-06   -5.304475401277827e-05
-2.2033408865109084e-05   4.4146987858617506e-06   -2.7156820469367138e-05
-2.2033408865109084e-05   4.4146987858617506e-06   -2.7156820469367138e-05
-2.2033408865109084e-05   4.4146987858617506e-06   -2.7156820469367138e-05
-2.2033408865109084e-05   4.4146987858617506e-06   -2.7156820469367138e-05
-2.2016961130292488e-05   7.653198731105617e-06   -5.282963666708223e-05
-2.2016961130292488e-05   7.653198731105617e-06   -5.282963666708223e-05
-2.2016961130292488e-05   7.653198731105617e-06   -5.282963666708223e-05
-2.2016961130292488e-05   7.653198731105617e-06   -5.282963666708223e-05
-3.7874595887713735e-05   5.851395674340157e-06   -2.531916357065414e-05
-3.7874595887713735e-05   5.851395674340157e-06   -2.531916357065414e-05
-3.7874595887713735e-05   5.851395674340157e-06   -2.531916357065414e-05
-3.7874595887713735e-05   5.851395674340157e-06   -2.531916357065414e-05
-2.971382766061488e-05   5.997275990704835e-06   -3.9007972138970764e-05
-2.971382766061488e-05   5.997275990704835e-06   -3.9007972138970764e-05
-2.971382766061488e-05   5.997275990704835e-06   -3.9007972138970764e-05
-2.971382766061488e-05   5.997275990704835e-06   -3.9007972138970764e-05
-3.7874595887713735e-05   7.653198731105617e-06   -5.17485548330229e-05
-3.7874595887713735e-05   7.653198731105617e-06   -5.17485548330229e-05
-3.7874595887713735e-05   7.653198731105617e-06   -5.17485548330229e-05
-3.7874595887713735e-05   7.653198731105617e-06   -5.17485548330229e-05
-2.2016961130292488e-05   5.851395674340157e-06   -2.640024540471328e-05
-2.2016961130292488e-05   5.851395674340157e-06   -2.640024540471328e-05
-2.2016961130292488e-05   5.851395674340157e-06   -2.640024540471328e-05
-2.2016961130292488e-05   5.851395674340157e-06   -2.640024540471328e-05
-2.2034342421070407e-05   9.331618266986553e-06   -5.3042474955096084e-05
-2.2034342421070407e-05   9.331618266986553e-06   -5.3042474955096084e-05
-2.2034342421070407e-05   9.331618266986553e-06   -5.3042474955096084e-05
-2.2034342421070407e-05   9.331618266986553e-06   -5.3042474955096084e-05
-3.775853629821123e-05   7.411659542989587e-06   -2.5683509925462998e-05
-3.775853629821123e-05   7.411659542989587e-06   -2.5683509925462998e-05
-3.775853629821123e-05   7.411659542989587e-06   -2.5683509925462998e-05
-3.775853629821123e-05   7.411659542989587e-06   -2.5683509925462998e-05
-2.990607430323076e-05   7.279711588537073e-06   -3.869177781109231e-05
-2.990607430323076e-05   7.279711588537073e-06   -3.869177781109231e-05
-2.990607430323076e-05   7.279711588537073e-06   -3.869177781109231e-05
-2.990607430323076e-05   7.279711588537073e-06   -3.869177781109231e-05
-2.2022801603871416e-05   2.2864393953115833e-07   -6.01551021628202e-05
-2.2022801603871416e-05   2.2864393953115833e-07   -6.01551021628202e-05
-2.2022801603871416e-05   2.2864393953115833e-07   -6.01551021628202e-05
-2.2022801603871416e-05   2.2864393953115833e-07   -6.01551021628202e-05
-5.970072376458405e-06   4.872264107648894e-07   -3.324540396772488e-05
-5.970072376458405e-06   4.872264107648894e-07   -3.324540396772488e-05
-5.970072376458405e-06   4.872264107648894e-07   -3.324540396772488e-05
-5.970072376458405e-06   4.872264107648894e-07   -3.324540396772488e-05
-5.981253995779391e-06   1.9772706806882702e-06   -5.949187911849269e-05
-5.981253995779391e-06   1.9772706806882702e-06   -5.949187911849269e-05
-5.981253995779391e-06   1.9772706806882702e-06   -5.949187911849269e-05
-5.981253995779391e-06   1.9772706806882702e-06   -5.949187911849269e-05
-2.2033408865109084e-05   2.074715023738915e-06   -3.2796754275440205e-05
-2.2033408865109084e-05   2.074715023738915e-06   -3.2796754275440205e-05
-2.2033408865109084e-05   2.074715023738915e-06   -3.2796754275440205e-05
-2.2033408865109084e-05   2.074715023738915e-06   -3.2796754275440205e-05
-1.3908937884586037e-05   1.397060082495552e-06   -4.5930946278232654e-05
-1.3908937884586037e-05   1.397060082495552e-06   -4.5930946278232654e-05
-1.3908937884586037e-05   1.397060082495552e-06   -4.5930946278232654e-05
-1.3908937884586037e-05   1.397060082495552e-06   -4.5930946278232654e-05
-2.2033408865109125e-05   1.9772706806882702e-06   -5.9550345724323184e-05
-2.2033408865109125e-05   1.9772706806882702e-06   -5.9550345724323184e-05
-2.2033408865109125e-05   1.9772706806882702e-06   -5.9550345724323184e-05
-2.2033408865109125e-05   1.9772706806882702e-06   -5.9550345724323184e-05
-5.981253995779391e-06   2.074715023738915e-06   -3.2738287669609905e-05
-5.981253995779391e-06   2.074715023738915e-06   -3.2738287669609905e-05
-5.981253995779391e-06   2.074715023738915e-06   -3.2738287669609905e-05
-5.981253995779391e-06   2.074715023738915e-06   -3.2738287669609905e-05
-5.960004959911778e-06   3.7206568782464835e-06   -5.964361955096973e-05
-5.960004959911778e-06   3.7206568782464835e-06   -5.964361955096973e-05
-5.960004959911778e-06   3.7206568782464835e-06   -5.964361955096973e-05
-5.960004959911778e-06   3.7206568782464835e-06   -5.964361955096973e-05
-2.2016961130292488e-05   3.6672738348592516e-06   -3.284999610763637e-05
-2.2016961130292488e-05   3.6672738348592516e-06   -3.284999610763637e-05
-2.2016961130292488e-05   3.6672738348592516e-06   -3.284999610763637e-05
-2.2016961130292488e-05   3.6672738348592516e-06   -3.284999610763637e-05
-1.400187791629438e-05   2.7855994899949124e-06   -4.567946352404789e-05
-1.400187791629438e-05   2.7855994899949124e-06   -4.567946352404789e-05
-1.400187791629438e-05   2.7855994899949124e-06   -4.567946352404789e-05
-1.400187791629438e-05   2.7855994899949124e-06   -4.567946352404789e-05
-2.2016961130292488e-05   3.7206568782464835e-06   -5.961158972493754e-05
-2.2016961130292488e-05   3.7206568782464835e-06   -5.961158972493754e-05
-2.2016961130292488e-05   3.7206568782464835e-06   -5.961158972493754e-05
-2.2016961130292488e-05   3.7206568782464835e-06   -5.961158972493754e-05
-5.960004959911778e-06   3.6672738348592516e-06   -3.2882025933668436e-05
-5.960004959911778e-06   3.6672738348592516e-06   -3.2882025933668436e-05
-5.960004959911778e-06   3.6672738348592516e-06   -3.2882025933668436e-05
-5.960004959911778e-06   3.6672738348592516e-06   -3.2882025933668436e-05
-5.969300476007942e-06   5.50460264782122e-06   -6.05457538863216e-05
-5.969300476007942e-06   5.50460264782122e-06   -6.05457538863216e-05
-5.969300476007942e-06   5.50460264782122e-06   -6.05457538863216e-05
-5.969300476007942e-06   5.50460264782122e-06   -6.05457538863216e-05
-2.203434242107042e-05   5.287677126048244e-06   -3.3640528664820074e-05
-2.203434242107042e-05   5.287677126048244e-06   -3.3640528664820074e-05
-2.203434242107042e-05   5.287677126048244e-06   -3.3640528664820074e-05
-2.203434242107042e-05   5.287677126048244e-06   -3.3640528664820074e-05
-1.4122087120080848e-05   4.192371620021082e-06   -4.6170437529519966e-05
-1.4122087120080848e-05   4.192371620021082e-06   -4.6170437529519966e-05
-1.4122087120080848e-05   4.192371620021082e-06   -4.6170437529519966e-05
-1.4122087120080848e-05   4.192371620021082e-06   -4.6170437529519966e-05
-5.970072376458395e-06   -3.599232533658633e-06   -5.326942515211934e-05
-5.970072376458395e-06   -3.599232533658633e-06   -5.326942515211934e-05
-5.970072376458395e-06   -3.599232533658633e-06   -5.326942515211934e-05
-5.970072376458395e-06   -3.599232533658633e-06   -5.326942515211934e-05
9.851123837274282e-06   -1.6606173492096296e-06   -2.573759568522897e-05
9.851123837274282e-06   -1.6606173492096296e-06   -2.573759568522897e-05
9.851123837274282e-06   -1.6606173492096296e-06   -2.573759568522897e-05
9.851123837274282e-06   -1.6606173492096296e-06   -2.573759568522897e-05
9.980377862208126e-06   -1.9967860781667374e-06   -5.20600511311503e-05
9.980377862208126e-06   -1.9967860781667374e-06   -5.20600511311503e-05
9.980377862208126e-06   -1.9967860781667374e-06   -5.20600511311503e-05
9.980377862208126e-06   -1.9967860781667374e-06   -5.20600511311503e-05
-5.98125399577938e-06   -1.6567127839972433e-07   -2.655600024769803e-05
-5.98125399577938e-06   -1.6567127839972433e-07   -2.655600024769803e-05
-5.98125399577938e-06   -1.6567127839972433e-07   -2.655600024769803e-05
-5.98125399577938e-06   -1.6567127839972433e-07   -2.655600024769803e-05
1.979032131970725e-06   -1.717640369260315e-06   -3.8891962339431875e-05
1.979032131970725e-06   -1.717640369260315e-06   -3.8891962339431875e-05
1.979032131970725e-06   -1.717640369260315e-06   -3.8891962339431875e-05
1.979032131970725e-06   -1.717640369260315e-06   -3.8891962339431875e-05
-5.981253995779391e-06   -1.9967860781667374e-06   -5.315872001101059e-05
-5.981253995779391e-06   -1.9967860781667374e-06   -5.315872001101059e-05
-5.981253995779391e-06   -1.9967860781667374e-06   -5.315872001101059e-05
-5.981253995779391e-06   -1.9967860781667374e-06   -5.315872001101059e-05
9.980377862208153e-06   -1.6567127839972433e-07   -2.5457331367837897e-05
9.980377862208153e-06   -1.6567127839972433e-07   -2.5457331367837897e-05
9.980377862208153e-06   -1.6567127839972433e-07   -2.5457331367837897e-05
9.980377862208153e-06   -1.6567127839972433e-07   -2.5457331367837897e-05
1.0284494095121844e-05   -4.2184454880568774e-07   -5.3156445634808844e-05
1.0284494095121844e-05   -4.2184454880568774e-07   -5.3156445634808844e-05
1.0284494095121844e-05   -4.2184454880568774e-07   -5.3156445634808844e-05
1.0284494095121844e-05   -4.2184454880568774e-07   -5.3156445634808844e-05
-5.960004959911769e-06   1.2728059860095658e-06   -2.709907086397527e-05
-5.960004959911769e-06   1.2728059860095658e-06   -2.709907086397527e-05
-5.960004959911769e-06   1.2728059860095658e-06   -2.709907086397527e-05
-5.960004959911769e-06   1.2728059860095658e-06   -2.709907086397527e-05
1.8876163922241856e-06   -4.7407650707637257e-07   -3.913031028835031e-05
1.8876163922241856e-06   -4.7407650707637257e-07   -3.913031028835031e-05
1.8876163922241856e-06   -4.7407650707637257e-07   -3.913031028835031e-05
1.8876163922241856e-06   -4.7407650707637257e-07   -3.913031028835031e-05
-5.960004959911778e-06   -4.2184454880568774e-07   -5.417323595569793e-05
-5.960004959911778e-06   -4.2184454880568774e-07   -5.417323595569793e-05
-5.960004959911778e-06   -4.2184454880568774e-07   -5.417323595569793e-05
-5.960004959911778e-06   -4.2184454880568774e-07   -5.417323595569793e-05
1.0284494095121871e-05   1.2728059860095658e-06   -2.6082280543085912e-05
1.0284494095121871e-05   1.2728059860095658e-06   -2.6082280543085912e-05
1.0284494095121871e-05   1.2728059860095658e-06   -2.6082280543085912e-05
1.0284494095121871e-05   1.2728059860095658e-06   -2.6082280543085912e-05
1.0433203193331952e-05   1.4199676658296348e-06   -5.4723645110191135e-05
1.0433203193331952e-05   1.4199676658296348e-06   -5.4723645110191135e-05
1.0433203193331952e-05   1.4199676658296348e-06   -5.4723645110191135e-05
1.0433203193331952e-05   1.4199676658296348e-06   -5.4723645110191135e-05
-5.969300476007942e-06   2.9218231411107416e-06   -2.828725227979308e-05
-5.969300476007942e-06   2.9218231411107416e-06   -2.828725227979308e-05
-5.969300476007942e-06   2.9218231411107416e-06   -2.828725227979308e-05
-5.969300476007942e-06   2.9218231411107416e-06   -2.828725227979308e-05
1.9428263684864665e-06   8.564226748333727e-07   -4.023489007418414e-05
1.9428263684864665e-06   8.564226748333727e-07   -4.023489007418414e-05
1.9428263684864665e-06   8.564226748333727e-07   -4.023489007418414e-05
1.9428263684864665e-06   8.564226748333727e-07   -4.023489007418414e-05
9.851123837274268e-06   -6.530256369499448e-06   -2.9272168961598565e-05
9.851123837274268e-06   -6.530256369499448e-06   -2.9272168961598565e-05
9.851123837274268e-06   -6.530256369499448e-06   -2.9272168961598565e-05
9.851123837274268e-06   -6.530256369499448e-06   -2.9272168961598565e-05
2.391022761612005e-05   -3.0532681911704836e-06   -3.7541364231915555e-06
2.391022761612005e-05   -3.0532681911704836e-06   -3.7541364231915555e-06
2.391022761612005e-05   -3.0532681911704836e-06   -3.7541364231915555e-06
2.391022761612005e-05   -3.0532681911704836e-06   -3.7541364231915555e-06
2.557738673920475e-05   -5.607435104726583e-06   -3.074376934051606e-05
2.557738673920475e-05   -5.607435104726583e-06   -3.074376934051606e-05
2.557738673920475e-05   -5.607435104726583e-06   -3.074376934051606e-05
2.557738673920475e-05   -5.607435104726583e-06   -3.074376934051606e-05
9.980377862208126e-06   -2.0411102121050025e-06   -6.888549481094718e-06
9.980377862208126e-06   -2.0411102121050025e-06   -6.888549481094718e-06
9.980377862208126e-06   -2.0411102121050025e-06   -6.888549481094718e-06
9.980377862208126e-06   -2.0411102121050025e-06   -6.888549481094718e-06
1.659085460989834e-05   -4.174621946374357e-06   -1.6625903686683425e-05
1.659085460989834e-05   -4.174621946374357e-06   -1.6625903686683425e-05
1.659085460989834e-05   -4.174621946374357e-06   -1.6625903686683425e-05
1.659085460989834e-05   -4.174621946374357e-06   -1.6625903686683425e-05
9.980377862208112e-06   -5.607435104726583e-06   -3.288356427608895e-05
9.980377862208112e-06   -5.607435104726583e-06   -3.288356427608895e-05
9.980377862208112e-06   -5.607435104726583e-06   -3.288356427608895e-05
9.980377862208112e-06   -5.607435104726583e-06   -3.288356427608895e-05
2.5577386739204696e-05   -2.0411102121047856e-06   -4.7487545455217155e-06
2.5577386739204696e-05   -2.0411102121047856e-06   -4.7487545455217155e-06
2.5577386739204696e-05   -2.0411102121047856e-06   -4.7487545455217155e-06
2.5577386739204696e-05   -2.0411102121047856e-06   -4.7487545455217155e-06
2.6860322528827807e-05   -4.815307436056024e-06   -3.371577522908649e-05
2.6860322528827807e-05   -4.815307436056024e-06   -3.371577522908649e-05
2.6860322528827807e-05   -4.815307436056024e-06   -3.371577522908649e-05
2.6860322528827807e-05   -4.815307436056024e-06   -3.371577522908649e-05
1.0284494095121871e-05   -1.341990906254158e-06   -8.17338442412436e-06
1.0284494095121871e-05   -1.341990906254158e-06   -8.17338442412436e-06
1.0284494095121871e-05   -1.341990906254158e-06   -8.17338442412436e-06
1.0284494095121871e-05   -1.341990906254158e-06   -8.17338442412436e-06
1.7610404627904793e-05   -3.6550315989640372e-06   -1.899541089647005e-05
1.7610404627904793e-05   -3.6550315989640372e-06   -1.899541089647005e-05
1.7610404627904793e-05   -3.6550315989640372e-06   -1.899541089647005e-05
1.7610404627904793e-05   -3.6550315989640372e-06   -1.899541089647005e-05
1.0284494095121844e-05   -4.815307436056024e-06   -3.5799765146967745e-05
1.0284494095121844e-05   -4.815307436056024e-06   -3.5799765146967745e-05
1.0284494095121844e-05   -4.815307436056024e-06   -3.5799765146967745e-05
1.0284494095121844e-05   -4.815307436056024e-06   -3.5799765146967745e-05
2.686032252882778e-05   -1.341990906254158e-06   -6.089394506243132e-06
2.686032252882778e-05   -1.341990906254158e-06   -6.089394506243132e-06
2.686032252882778e-05   -1.341990906254158e-06   -6.089394506243132e-06
2.686032252882778e-05   -1.341990906254158e-06   -6.089394506243132e-06
2.8564846029191168e-05   -3.1226618322876924e-06   -3.9413979275388695e-05
2.8564846029191168e-05   -3.1226618322876924e-06   -3.9413979275388695e-05
2.8564846029191168e-05   -3.1226618322876924e-06   -3.9413979275388695e-05
2.8564846029191168e-05   -3.1226618322876924e-06   -3.9413979275388695e-05
1.0433203193331965e-05   3.3051197831975715e-08   -1.1088002367028041e-05
1.0433203193331965e-05   3.3051197831975715e-08   -1.1088002367028041e-05
1.0433203193331965e-05   3.3051197831975715e-08   -1.1088002367028041e-05
1.0433203193331965e-05   3.3051197831975715e-08   -1.1088002367028041e-05
1.7948764572599864e-05   -2.8810922701983602e-06   -2.1865451918323396e-05
1.7948764572599864e-05   -2.8810922701983602e-06   -2.1865451918323396e-05
1.7948764572599864e-05   -2.8810922701983602e-06   -2.1865451918323396e-05
1.7948764572599864e-05   -2.8810922701983602e-06   -2.1865451918323396e-05
-3.40805381081368e-05   5.487372105997907e-06   -3.1925775848832855e-05
-3.40805381081368e-05   5.487372105997907e-06   -3.1925775848832855e-05
-3.40805381081368e-05   5.487372105997907e-06   -3.1925775848832855e-05
-3.40805381081368e-05   5.487372105997907e-06   -3.1925775848832855e-05
-2.515423942970669e-05   2.2374268539920254e-06   -1.8998578535986123e-05
-2.515423942970669e-05   2.2374268539920254e-06   -1.8998578535986123e-05
-2.515423942970669e-05   2.2374268539920254e-06   -1.8998578535986123e-05
-2.515423942970669e-05   2.2374268539920254e-06   -1.8998578535986123e-05
-2.4783711325773738e-05   6.9834227287555485e-06   -2.816423934121591e-05
-2.4783711325773738e-05   6.9834227287555485e-06   -2.816423934121591e-05
-2.4783711325773738e-05   6.9834227287555485e-06   -2.816423934121591e-05
-2.4783711325773738e-05   6.9834227287555485e-06   -2.816423934121591e-05
-3.222994766273159e-05   3.482657519528155e-06   -1.3653386320749018e-05
-3.222994766273159e-05   3.482657519528155e-06   -1.3653386320749018e-05
-3.222994766273159e-05   3.482657519528155e-06   -1.3653386320749018e-05
-3.222994766273159e-05   3.482657519528155e-06   -1.3653386320749018e-05
-2.78307814113433e-05   4.921835324801153e-06   -2.1848836756228052e-05
-2.78307814113433e-05   4.921835324801153e-06   -2.1848836756228052e-05
-2.78307814113433e-05   4.921835324801153e-06   -2.1848836756228052e-05
-2.78307814113433e-05   4.921835324801153e-06   -2.1848836756228052e-05
-3.222994766273159e-05   6.9834227287555485e-06   -2.6063780215679333e-05
-3.222994766273159e-05   6.9834227287555485e-06   -2.6063780215679333e-05
-3.222994766273159e-05   6.9834227287555485e-06   -2.6063780215679333e-05
-3.222994766273159e-05   6.9834227287555485e-06   -2.6063780215679333e-05
-2.4783711325773765e-05   3.482657519528372e-06   -1.5753845446285784e-05
-2.4783711325773765e-05   3.482657519528372e-06   -1.5753845446285784e-05
-2.4783711325773765e-05   3.482657519528372e-06   -1.5753845446285784e-05
-2.4783711325773765e-05   3.482657519528372e-06   -1.5753845446285784e-05
-2.4255052840292326e-05   7.680180609696179e-06   -2.514937508837239e-05
-2.4255052840292326e-05   7.680180609696179e-06   -2.514937508837239e-05
-2.4255052840292326e-05   7.680180609696179e-06   -2.514937508837239e-05
-2.4255052840292326e-05   7.680180609696179e-06   -2.514937508837239e-05
-3.075329840361552e-05   4.111507952965715e-06   -1.2177762222128448e-05
-3.075329840361552e-05   4.111507952965715e-06   -1.2177762222128448e-05
-3.075329840361552e-05   4.111507952965715e-06   -1.2177762222128448e-05
-3.075329840361552e-05   4.111507952965715e-06   -1.2177762222128448e-05
-2.7342436014925577e-05   5.593627507019462e-06   -1.8751804602377343e-05
-2.7342436014925577e-05   5.593627507019462e-06   -1.8751804602377343e-05
-2.7342436014925577e-05   5.593627507019462e-06   -1.8751804602377343e-05
-2.7342436014925577e-05   5.593627507019462e-06   -1.8751804602377343e-05
-3.0753298403615465e-05   7.680180609696179e-06   -2.3008171494334068e-05
-3.0753298403615465e-05   7.680180609696179e-06   -2.3008171494334068e-05
-3.0753298403615465e-05   7.680180609696179e-06   -2.3008171494334068e-05
-3.0753298403615465e-05   7.680180609696179e-06   -2.3008171494334068e-05
-2.425505284029238e-05   4.111507952965715e-06   -1.4318965816166877e-05
-2.425505284029238e-05   4.111507952965715e-06   -1.4318965816166877e-05
-2.425505284029238e-05   4.111507952965715e-06   -1.4318965816166877e-05
-2.425505284029238e-05   4.111507952965715e-06   -1.4318965816166877e-05
-2.3894436254413262e-05   8.55589497097747e-06   -2.128105554454287e-05
-2.3894436254413262e-05   8.55589497097747e-06   -2.128105554454287e-05
-2.3894436254413262e-05   8.55589497097747e-06   -2.128105554454287e-05
-2.3894436254413262e-05   8.55589497097747e-06   -2.128105554454287e-05
-2.887287560091533e-05   5.107486783712369e-06   -1.0914611721347185e-05
-2.887287560091533e-05   5.107486783712369e-06   -1.0914611721347185e-05
-2.887287560091533e-05   5.107486783712369e-06   -1.0914611721347185e-05
-2.887287560091533e-05   5.107486783712369e-06   -1.0914611721347185e-05
-2.6064442287061426e-05   6.058898187515549e-06   -1.6166180753385533e-05
-2.6064442287061426e-05   6.058898187515549e-06   -1.6166180753385533e-05
-2.6064442287061426e-05   6.058898187515549e-06   -1.6166180753385533e-05
-2.6064442287061426e-05   6.058898187515549e-06   -1.6166180753385533e-05
-2.515423942970669e-05   2.835475336907282e-06   -4.651813779280045e-05
-2.515423942970669e-05   2.835475336907282e-06   -4.651813779280045e-05
-2.515423942970669e-05   2.835475336907282e-06   -4.651813779280045e-05
-2.515423942970669e-05   2.835475336907282e-06   -4.651813779280045e-05
-1.7902711326150752e-05   1.2829117416650413e-06   -3.536379577735266e-05
-1.7902711326150752e-05   1.2829117416650413e-06   -3.536379577735266e-05
-1.7902711326150752e-05   1.2829117416650413e-06   -3.536379577735266e-05
-1.7902711326150752e-05   1.2829117416650413e-06   -3.536379577735266e-05
-1.7659722865791423e-05   4.414698785861534e-06   -4.636604317197451e-05
-1.7659722865791423e-05   4.414698785861534e-06   -4.636604317197451e-05
-1.7659722865791423e-05   4.414698785861534e-06   -4.636604317197451e-05
-1.7659722865791423e-05   4.414698785861534e-06   -4.636604317197451e-05
-2.4783711325773765e-05   2.7105969700313027e-06   -3.347026798250518e-05
-2.4783711325773765e-05   2.7105969700313027e-06   -3.347026798250518e-05
-2.4783711325773765e-05   2.7105969700313027e-06   -3.347026798250518e-05
-2.4783711325773765e-05   2.7105969700313027e-06   -3.347026798250518e-05
-2.116672222668596e-05   3.0844466868966587e-06   -3.9722892977771924e-05
-2.116672222668596e-05   3.0844466868966587e-06   -3.9722892977771924e-05
-2.116672222668596e-05   3.0844466868966587e-06   -3.9722892977771924e-05
-2.116672222668596e-05   3.0844466868966587e-06   -3.9722892977771924e-05
-2.478371132577371e-05   4.4146987858617506e-06   -4.5343582082475904e-05
-2.478371132577371e-05   4.4146987858617506e-06   -4.5343582082475904e-05
-2.478371132577371e-05   4.4146987858617506e-06   -4.5343582082475904e-05
-2.478371132577371e-05   4.4146987858617506e-06   -4.5343582082475904e-05
-1.765972286579145e-05   2.7105969700313027e-06   -3.449272907200384e-05
-1.765972286579145e-05   2.7105969700313027e-06   -3.449272907200384e-05
-1.765972286579145e-05   2.7105969700313027e-06   -3.449272907200384e-05
-1.765972286579145e-05   2.7105969700313027e-06   -3.449272907200384e-05
-1.739141626497034e-05   5.851395674340157e-06   -4.561646758740939e-05
-1.739141626497034e-05   5.851395674340157e-06   -4.561646758740939e-05
-1.739141626497034e-05   5.851395674340157e-06   -4.561646758740939e-05
-1.739141626497034e-05   5.851395674340157e-06   -4.561646758740939e-05
-2.4255052840292408e-05   4.037865637990462e-06   -3.308895527339578e-05
-2.4255052840292408e-05   4.037865637990462e-06   -3.308895527339578e-05
-2.4255052840292408e-05   4.037865637990462e-06   -3.308895527339578e-05
-2.4255052840292408e-05   4.037865637990462e-06   -3.308895527339578e-05
-2.0847389079575523e-05   4.238490654333185e-06   -3.888876988439598e-05
-2.0847389079575523e-05   4.238490654333185e-06   -3.888876988439598e-05
-2.0847389079575523e-05   4.238490654333185e-06   -3.888876988439598e-05
-2.0847389079575523e-05   4.238490654333185e-06   -3.888876988439598e-05
-2.4255052840292326e-05   5.851395674340157e-06   -4.452834956559929e-05
-2.4255052840292326e-05   5.851395674340157e-06   -4.452834956559929e-05
-2.4255052840292326e-05   5.851395674340157e-06   -4.452834956559929e-05
-2.4255052840292326e-05   5.851395674340157e-06   -4.452834956559929e-05
-1.739141626497034e-05   4.037865637990462e-06   -3.4177073295205715e-05
-1.739141626497034e-05   4.037865637990462e-06   -3.4177073295205715e-05
-1.739141626497034e-05   4.037865637990462e-06   -3.4177073295205715e-05
-1.739141626497034e-05   4.037865637990462e-06   -3.4177073295205715e-05
-1.7152658525638724e-05   7.411659542989587e-06   -4.6058730326992646e-05
-1.7152658525638724e-05   7.411659542989587e-06   -4.6058730326992646e-05
-1.7152658525638724e-05   7.411659542989587e-06   -4.6058730326992646e-05
-1.7152658525638724e-05   7.411659542989587e-06   -4.6058730326992646e-05
-2.3894436254413343e-05   5.512440317239969e-06   -3.368290257691842e-05
-2.3894436254413343e-05   5.512440317239969e-06   -3.368290257691842e-05
-2.3894436254413343e-05   5.512440317239969e-06   -3.368290257691842e-05
-2.3894436254413343e-05   5.512440317239969e-06   -3.368290257691842e-05
-2.072218127194446e-05   5.407114721334128e-06   -3.890679885682307e-05
-2.072218127194446e-05   5.407114721334128e-06   -3.890679885682307e-05
-2.072218127194446e-05   5.407114721334128e-06   -3.890679885682307e-05
-2.072218127194446e-05   5.407114721334128e-06   -3.890679885682307e-05
-1.790271132615067e-05   4.872264107648894e-07   -5.259808913980089e-05
-1.790271132615067e-05   4.872264107648894e-07   -5.259808913980089e-05
-1.790271132615067e-05   4.872264107648894e-07   -5.259808913980089e-05
-1.790271132615067e-05   4.872264107648894e-07   -5.259808913980089e-05
-1.0837465119494367e-05   7.341805351641396e-07   -4.0674506320734346e-05
-1.0837465119494367e-05   7.341805351641396e-07   -4.0674506320734346e-05
-1.0837465119494367e-05   7.341805351641396e-07   -4.0674506320734346e-05
-1.0837465119494367e-05   7.341805351641396e-07   -4.0674506320734346e-05
-1.0600565094993497e-05   2.074715023738915e-06   -5.1937994899075505e-05
-1.0600565094993497e-05   2.074715023738915e-06   -5.1937994899075505e-05
-1.0600565094993497e-05   2.074715023738915e-06   -5.1937994899075505e-05
-1.0600565094993497e-05   2.074715023738915e-06   -5.1937994899075505e-05
-1.7659722865791423e-05   2.1880184886925377e-06   -4.024071402671729e-05
-1.7659722865791423e-05   2.1880184886925377e-06   -4.024071402671729e-05
-1.7659722865791423e-05   2.1880184886925377e-06   -4.024071402671729e-05
-1.7659722865791423e-05   2.1880184886925377e-06   -4.024071402671729e-05
-1.4158835474374398e-05   1.573263872861868e-06   -4.570667357624845e-05
-1.4158835474374398e-05   1.573263872861868e-06   -4.570667357624845e-05
-1.4158835474374398e-05   1.573263872861868e-06   -4.570667357624845e-05
-1.4158835474374398e-05   1.573263872861868e-06   -4.570667357624845e-05
-1.765972286579137e-05   2.074715023738915e-06   -5.2005976978047535e-05
-1.765972286579137e-05   2.074715023738915e-06   -5.2005976978047535e-05
-1.765972286579137e-05   2.074715023738915e-06   -5.2005976978047535e-05
-1.765972286579137e-05   2.074715023738915e-06   -5.2005976978047535e-05
-1.060056509499348e-05   2.1880184886925377e-06   -4.0172731947745463e-05
-1.060056509499348e-05   2.1880184886925377e-06   -4.0172731947745463e-05
-1.060056509499348e-05   2.1880184886925377e-06   -4.0172731947745463e-05
-1.060056509499348e-05   2.1880184886925377e-06   -4.0172731947745463e-05
-1.0334191190342266e-05   3.6672738348592516e-06   -5.207381910683523e-05
-1.0334191190342266e-05   3.6672738348592516e-06   -5.207381910683523e-05
-1.0334191190342266e-05   3.6672738348592516e-06   -5.207381910683523e-05
-1.0334191190342266e-05   3.6672738348592516e-06   -5.207381910683523e-05
-1.7391416264970325e-05   3.6546058073542217e-06   -4.0304176499284926e-05
-1.7391416264970325e-05   3.6546058073542217e-06   -4.0304176499284926e-05
-1.7391416264970325e-05   3.6546058073542217e-06   -4.0304176499284926e-05
-1.7391416264970325e-05   3.6546058073542217e-06   -4.0304176499284926e-05
-1.3999727381325276e-05   2.8221547476941318e-06   -4.5457520669564154e-05
-1.3999727381325276e-05   2.8221547476941318e-06   -4.5457520669564154e-05
-1.3999727381325276e-05   2.8221547476941318e-06   -4.5457520669564154e-05
-1.3999727381325276e-05   2.8221547476941318e-06   -4.5457520669564154e-05
-1.7391416264970298e-05   3.6672738348594684e-06   -5.206621829033191e-05
-1.7391416264970298e-05   3.6672738348594684e-06   -5.206621829033191e-05
-1.7391416264970298e-05   3.6672738348594684e-06   -5.206621829033191e-05
-1.7391416264970298e-05   3.6672738348594684e-06   -5.206621829033191e-05
-1.0334191190342248e-05   3.6546058073542217e-06   -4.031177731578825e-05
-1.0334191190342248e-05   3.6546058073542217e-06   -4.031177731578825e-05
-1.0334191190342248e-05   3.6546058073542217e-06   -4.031177731578825e-05
-1.0334191190342248e-05   3.6546058073542217e-06   -4.031177731578825e-05
-1.009482946860999e-05   5.287677126048244e-06   -5.295039344578795e-05
-1.009482946860999e-05   5.287677126048244e-06   -5.295039344578795e-05
-1.009482946860999e-05   5.287677126048244e-06   -5.295039344578795e-05
-1.009482946860999e-05   5.287677126048244e-06   -5.295039344578795e-05
-1.7152658525638738e-05   5.14331110298776e-06   -4.11007254035703e-05
-1.7152658525638738e-05   5.14331110298776e-06   -4.11007254035703e-05
-1.7152658525638738e-05   5.14331110298776e-06   -4.11007254035703e-05
-1.7152658525638738e-05   5.14331110298776e-06   -4.11007254035703e-05
-1.38680362963799e-05   4.087644599767501e-06   -4.594169588373635e-05
-1.38680362963799e-05   4.087644599767501e-06   -4.594169588373635e-05
-1.38680362963799e-05   4.087644599767501e-06   -4.594169588373635e-05
-1.38680362963799e-05   4.087644599767501e-06   -4.594169588373635e-05
-1.083746511949433e-05   -1.6606173492096296e-06   -4.61052774933349e-05
-1.083746511949433e-05   -1.6606173492096296e-06   -4.61052774933349e-05
-1.083746511949433e-05   -1.6606173492096296e-06   -4.61052774933349e-05
-1.083746511949433e-05   -1.6606173492096296e-06   -4.61052774933349e-05
-3.983614763659188e-06   3.1188466372250416e-07   -3.349869235918384e-05
-3.983614763659188e-06   3.1188466372250416e-07   -3.349869235918384e-05
-3.983614763659188e-06   3.1188466372250416e-07   -3.349869235918384e-05
-3.983614763659188e-06   3.1188466372250416e-07   -3.349869235918384e-05
-3.6300263683565042e-06   -1.6567127839972433e-07   -4.462433860075068e-05
-3.6300263683565042e-06   -1.6567127839972433e-07   -4.462433860075068e-05
-3.6300263683565042e-06   -1.6567127839972433e-07   -4.462433860075068e-05
-3.6300263683565042e-06   -1.6567127839972433e-07   -4.462433860075068e-05
-1.060056509499348e-05   1.719943515621821e-06   -3.413814293276834e-05
-1.060056509499348e-05   1.719943515621821e-06   -3.413814293276834e-05
-1.060056509499348e-05   1.719943515621821e-06   -3.413814293276834e-05
-1.060056509499348e-05   1.719943515621821e-06   -3.413814293276834e-05
-7.189648532702132e-06   1.9847917661654484e-07   -3.89101252665181e-05
-7.189648532702132e-06   1.9847917661654484e-07   -3.89101252665181e-05
-7.189648532702132e-06   1.9847917661654484e-07   -3.89101252665181e-05
-7.189648532702132e-06   1.9847917661654484e-07   -3.89101252665181e-05
-1.060056509499346e-05   -1.6567127839972433e-07   -4.575570747716355e-05
-1.060056509499346e-05   -1.6567127839972433e-07   -4.575570747716355e-05
-1.060056509499346e-05   -1.6567127839972433e-07   -4.575570747716355e-05
-1.060056509499346e-05   -1.6567127839972433e-07   -4.575570747716355e-05
-3.6300263683565042e-06   1.719943515622038e-06   -3.300677405635561e-05
-3.6300263683565042e-06   1.719943515622038e-06   -3.300677405635561e-05
-3.6300263683565042e-06   1.719943515622038e-06   -3.300677405635561e-05
-3.6300263683565042e-06   1.719943515622038e-06   -3.300677405635561e-05
-3.105653303469582e-06   1.2728059860095658e-06   -4.522631855189015e-05
-3.105653303469582e-06   1.2728059860095658e-06   -4.522631855189015e-05
-3.105653303469582e-06   1.2728059860095658e-06   -4.522631855189015e-05
-3.105653303469582e-06   1.2728059860095658e-06   -4.522631855189015e-05
-1.0334191190342248e-05   3.047048461428826e-06   -3.4243300892353883e-05
-1.0334191190342248e-05   3.047048461428826e-06   -3.4243300892353883e-05
-1.0334191190342248e-05   3.047048461428826e-06   -3.4243300892353883e-05
-1.0334191190342248e-05   3.047048461428826e-06   -3.4243300892353883e-05
-6.975679258155514e-06   1.3351971774327879e-06   -3.881371000893414e-05
-6.975679258155514e-06   1.3351971774327879e-06   -3.881371000893414e-05
-6.975679258155514e-06   1.3351971774327879e-06   -3.881371000893414e-05
-6.975679258155514e-06   1.3351971774327879e-06   -3.881371000893414e-05
-1.033419119034223e-05   1.2728059860095658e-06   -4.629086403714163e-05
-1.033419119034223e-05   1.2728059860095658e-06   -4.629086403714163e-05
-1.033419119034223e-05   1.2728059860095658e-06   -4.629086403714163e-05
-1.033419119034223e-05   1.2728059860095658e-06   -4.629086403714163e-05
-3.1056533034695954e-06   3.047048461428826e-06   -3.317875540710235e-05
-3.1056533034695954e-06   3.047048461428826e-06   -3.317875540710235e-05
-3.1056533034695954e-06   3.047048461428826e-06   -3.317875540710235e-05
-3.1056533034695954e-06   3.047048461428826e-06   -3.317875540710235e-05
-2.7394341822078078e-06   2.9218231411105248e-06   -4.649129600226899e-05
-2.7394341822078078e-06   2.9218231411105248e-06   -4.649129600226899e-05
-2.7394341822078078e-06   2.9218231411105248e-06   -4.649129600226899e-05
-2.7394341822078078e-06   2.9218231411105248e-06   -4.649129600226899e-05
-1.009482946860999e-05   4.547932716824276e-06   -3.520796960369333e-05
-1.009482946860999e-05   4.547932716824276e-06   -3.520796960369333e-05
-1.009482946860999e-05   4.547932716824276e-06   -3.520796960369333e-05
-1.009482946860999e-05   4.547932716824276e-06   -3.520796960369333e-05
-6.751583127345513e-06   2.526872484483189e-06   -3.956741069972966e-05
-6.751583127345513e-06   2.526872484483189e-06   -3.956741069972966e-05
-6.751583127345513e-06   2.526872484483189e-06   -3.956741069972966e-05
-6.751583127345513e-06   2.526872484483189e-06   -3.956741069972966e-05
-3.983614763659188e-06   -3.0532681911702667e-06   -2.5024509930535632e-05
-3.983614763659188e-06   -3.0532681911702667e-06   -2.5024509930535632e-05
-3.983614763659188e-06   -3.0532681911702667e-06   -2.5024509930535632e-05
-3.983614763659188e-06   -3.0532681911702667e-06   -2.5024509930535632e-05
1.0937314809816867e-06   4.3032242119742797e-07   -1.4472111822046814e-05
1.0937314809816867e-06   4.3032242119742797e-07   -1.4472111822046814e-05
1.0937314809816867e-06   4.3032242119742797e-07   -1.4472111822046814e-05
1.0937314809816867e-06   4.3032242119742797e-07   -1.4472111822046814e-05
2.955520416594897e-06   -2.0411102121050025e-06   -2.390511634797819e-05
2.955520416594897e-06   -2.0411102121050025e-06   -2.390511634797819e-05
2.955520416594897e-06   -2.0411102121050025e-06   -2.390511634797819e-05
2.955520416594897e-06   -2.0411102121050025e-06   -2.390511634797819e-05
-3.6300263683564907e-06   1.5429570646109322e-06   -1.5079645405754972e-05
-3.6300263683564907e-06   1.5429570646109322e-06   -1.5079645405754972e-05
-3.6300263683564907e-06   1.5429570646109322e-06   -1.5079645405754972e-05
-3.6300263683564907e-06   1.5429570646109322e-06   -1.5079645405754972e-05
-8.68495302797941e-07   -6.297830793245123e-07   -1.8378553095325175e-05
-8.68495302797941e-07   -6.297830793245123e-07   -1.8378553095325175e-05
-8.68495302797941e-07   -6.297830793245123e-07   -1.8378553095325175e-05
-8.68495302797941e-07   -6.297830793245123e-07   -1.8378553095325175e-05
-3.6300263683564907e-06   -2.0411102121047856e-06   -2.6055556714007447e-05
-3.6300263683564907e-06   -2.0411102121047856e-06   -2.6055556714007447e-05
-3.6300263683564907e-06   -2.0411102121047856e-06   -2.6055556714007447e-05
-3.6300263683564907e-06   -2.0411102121047856e-06   -2.6055556714007447e-05
2.955520416594897e-06   1.5429570646107154e-06   -1.2929205039725715e-05
2.955520416594897e-06   1.5429570646107154e-06   -1.2929205039725715e-05
2.955520416594897e-06   1.5429570646107154e-06   -1.2929205039725715e-05
2.955520416594897e-06   1.5429570646107154e-06   -1.2929205039725715e-05
4.4254918916289225e-06   -1.341990906254158e-06   -2.521091665572497e-05
4.4254918916289225e-06   -1.341990906254158e-06   -2.521091665572497e-05
4.4254918916289225e-06   -1.341990906254158e-06   -2.521091665572497e-05
4.4254918916289225e-06   -1.341990906254158e-06   -2.521091665572497e-05
-3.105653303469582e-06   2.168852055752001e-06   -1.4765513774430794e-05
-3.105653303469582e-06   2.168852055752001e-06   -1.4765513774430794e-05
-3.105653303469582e-06   2.168852055752001e-06   -1.4765513774430794e-05
-3.105653303469582e-06   2.168852055752001e-06   -1.4765513774430794e-05
7.719697237771857e-08   -9.730665155940638e-08   -1.8710569009789416e-05
7.719697237771857e-08   -9.730665155940638e-08   -1.8710569009789416e-05
7.719697237771857e-08   -9.730665155940638e-08   -1.8710569009789416e-05
7.719697237771857e-08   -9.730665155940638e-08   -1.8710569009789416e-05
-3.105653303469582e-06   -1.341990906254158e-06   -2.731742243292849e-05
-3.105653303469582e-06   -1.341990906254158e-06   -2.731742243292849e-05
-3.105653303469582e-06   -1.341990906254158e-06   -2.731742243292849e-05
-3.105653303469582e-06   -1.341990906254158e-06   -2.731742243292849e-05
4.4254918916288954e-06   2.168852055752001e-06   -1.2659007997227164e-05
4.4254918916288954e-06   2.168852055752001e-06   -1.2659007997227164e-05
4.4254918916288954e-06   2.168852055752001e-06   -1.2659007997227164e-05
4.4254918916288954e-06   2.168852055752001e-06   -1.2659007997227164e-05
6.279739805536858e-06   3.3051197831975715e-08   -2.8245287264938655e-05
6.279739805536858e-06   3.3051197831975715e-08   -2.8245287264938655e-05
6.279739805536858e-06   3.3051197831975715e-08   -2.8245287264938655e-05
6.279739805536858e-06   3.3051197831975715e-08   -2.8245287264938655e-05
-2.7394341822078213e-06   3.2795047140556175e-06   -1.5161202728431237e-05
-2.7394341822078213e-06   3.2795047140556175e-06   -1.5161202728431237e-05
-2.7394341822078213e-06   3.2795047140556175e-06   -1.5161202728431237e-05
-2.7394341822078213e-06   3.2795047140556175e-06   -1.5161202728431237e-05
8.890449625536027e-07   5.111935871140267e-07   -1.9547681293535877e-05
8.890449625536027e-07   5.111935871140267e-07   -1.9547681293535877e-05
8.890449625536027e-07   5.111935871140267e-07   -1.9547681293535877e-05
8.890449625536027e-07   5.111935871140267e-07   -1.9547681293535877e-05
-1.1892297405914675e-05   2.2374268539920254e-06   -2.1295088856828313e-05
-1.1892297405914675e-05   2.2374268539920254e-06   -2.1295088856828313e-05
-1.1892297405914675e-05   2.2374268539920254e-06   -2.1295088856828313e-05
-1.1892297405914675e-05   2.2374268539920254e-06   -2.1295088856828313e-05
-1.203353910344076e-05   -1.0377812720149208e-06   -2.349561656164273e-05
-1.203353910344076e-05   -1.0377812720149208e-06   -2.349561656164273e-05
-1.203353910344076e-05   -1.0377812720149208e-06   -2.349561656164273e-05
-1.203353910344076e-05   -1.0377812720149208e-06   -2.349561656164273e-05
-1.1429715954454443e-05   3.482657519528155e-06   -2.0007829694561373e-05
-1.1429715954454443e-05   3.482657519528155e-06   -2.0007829694561373e-05
-1.1429715954454443e-05   3.482657519528155e-06   -2.0007829694561373e-05
-1.1429715954454443e-05   3.482657519528155e-06   -2.0007829694561373e-05
-9.818028698273555e-06   -3.007266196329052e-08   -2.058633701263455e-05
-9.818028698273555e-06   -3.007266196329052e-08   -2.058633701263455e-05
-9.818028698273555e-06   -3.007266196329052e-08   -2.058633701263455e-05
-9.818028698273555e-06   -3.007266196329052e-08   -2.058633701263455e-05
-1.079969454530872e-05   1.5402244473265714e-06   -1.9892405533150848e-05
-1.079969454530872e-05   1.5402244473265714e-06   -1.9892405533150848e-05
-1.079969454530872e-05   1.5402244473265714e-06   -1.9892405533150848e-05
-1.079969454530872e-05   1.5402244473265714e-06   -1.9892405533150848e-05
-9.818028698273609e-06   3.482657519528155e-06   -1.7900191585666495e-05
-9.818028698273609e-06   3.482657519528155e-06   -1.7900191585666495e-05
-9.818028698273609e-06   3.482657519528155e-06   -1.7900191585666495e-05
-9.818028698273609e-06   3.482657519528155e-06   -1.7900191585666495e-05
-1.1429715954454497e-05   -3.007266196350736e-08   -2.2693975121529592e-05
-1.1429715954454497e-05   -3.007266196350736e-08   -2.2693975121529592e-05
-1.1429715954454497e-05   -3.007266196350736e-08   -2.2693975121529592e-05
-1.1429715954454497e-05   -3.007266196350736e-08   -2.2693975121529592e-05
-1.0668252189745405e-05   4.111507952965715e-06   -1.8567583559797205e-05
-1.0668252189745405e-05   4.111507952965715e-06   -1.8567583559797205e-05
-1.0668252189745405e-05   4.111507952965715e-06   -1.8567583559797205e-05
-1.0668252189745405e-05   4.111507952965715e-06   -1.8567583559797205e-05
-8.102088360711066e-06   5.396253873147724e-07   -2.070139373546386e-05
-8.102088360711066e-06   5.396253873147724e-07   -2.070139373546386e-05
-8.102088360711066e-06   5.396253873147724e-07   -2.070139373546386e-05
-8.102088360711066e-06   5.396253873147724e-07   -2.070139373546386e-05
-9.817071594240428e-06   2.0573981751118844e-06   -1.875375201892748e-05
-9.817071594240428e-06   2.0573981751118844e-06   -1.875375201892748e-05
-9.817071594240428e-06   2.0573981751118844e-06   -1.875375201892748e-05
-9.817071594240428e-06   2.0573981751118844e-06   -1.875375201892748e-05
-8.102088360711066e-06   4.111507952965715e-06   -1.6424454020406737e-05
-8.102088360711066e-06   4.111507952965715e-06   -1.6424454020406737e-05
-8.102088360711066e-06   4.111507952965715e-06   -1.6424454020406737e-05
-8.102088360711066e-06   4.111507952965715e-06   -1.6424454020406737e-05
-1.0668252189745405e-05   5.396253873147724e-07   -2.284452327485449e-05
-1.0668252189745405e-05   5.396253873147724e-07   -2.284452327485449e-05
-1.0668252189745405e-05   5.396253873147724e-07   -2.284452327485449e-05
-1.0668252189745405e-05   5.396253873147724e-07   -2.284452327485449e-05
-1.0073818031237078e-05   5.107486783712586e-06   -1.7227685462407622e-05
-1.0073818031237078e-05   5.107486783712586e-06   -1.7227685462407622e-05
-1.0073818031237078e-05   5.107486783712586e-06   -1.7227685462407622e-05
-1.0073818031237078e-05   5.107486783712586e-06   -1.7227685462407622e-05
-5.983454000923973e-06   1.675971881112074e-06   -2.198604990470232e-05
-5.983454000923973e-06   1.675971881112074e-06   -2.198604990470232e-05
-5.983454000923973e-06   1.675971881112074e-06   -2.198604990470232e-05
-5.983454000923973e-06   1.675971881112074e-06   -2.198604990470232e-05
-8.588431262431656e-06   2.5525769068325934e-06   -1.8170384150954452e-05
-8.588431262431656e-06   2.5525769068325934e-06   -1.8170384150954452e-05
-8.588431262431656e-06   2.5525769068325934e-06   -1.8170384150954452e-05
-8.588431262431656e-06   2.5525769068325934e-06   -1.8170384150954452e-05
-1.2033539103440706e-05   1.2829117416652581e-06   -3.869389281665358e-05
-1.2033539103440706e-05   1.2829117416652581e-06   -3.869389281665358e-05
-1.2033539103440706e-05   1.2829117416652581e-06   -3.869389281665358e-05
-1.2033539103440706e-05   1.2829117416652581e-06   -3.869389281665358e-05
-1.3850678368308966e-05   -2.259501109243625e-07   -4.2627775369654384e-05
-1.3850678368308966e-05   -2.259501109243625e-07   -4.2627775369654384e-05
-1.3850678368308966e-05   -2.259501109243625e-07   -4.2627775369654384e-05
-1.3850678368308966e-05   -2.259501109243625e-07   -4.2627775369654384e-05
-1.3362400984699653e-05   2.710596970031086e-06   -3.8723433381666764e-05
-1.3362400984699653e-05   2.710596970031086e-06   -3.8723433381666764e-05
-1.3362400984699653e-05   2.710596970031086e-06   -3.8723433381666764e-05
-1.3362400984699653e-05   2.710596970031086e-06   -3.8723433381666764e-05
-1.1429715954454497e-05   1.0452950518883859e-06   -4.0945393947856346e-05
-1.1429715954454497e-05   1.0452950518883859e-06   -4.0945393947856346e-05
-1.1429715954454497e-05   1.0452950518883859e-06   -4.0945393947856346e-05
-1.1429715954454497e-05   1.0452950518883859e-06   -4.0945393947856346e-05
-1.2521480944793903e-05   1.4818897203467763e-06   -3.938774243169961e-05
-1.2521480944793903e-05   1.4818897203467763e-06   -3.938774243169961e-05
-1.2521480944793903e-05   1.4818897203467763e-06   -3.938774243169961e-05
-1.2521480944793903e-05   1.4818897203467763e-06   -3.938774243169961e-05
-1.1429715954454443e-05   2.7105969700313027e-06   -3.7724252230780905e-05
-1.1429715954454443e-05   2.7105969700313027e-06   -3.7724252230780905e-05
-1.1429715954454443e-05   2.7105969700313027e-06   -3.7724252230780905e-05
-1.1429715954454443e-05   2.7105969700313027e-06   -3.7724252230780905e-05
-1.3362400984699626e-05   1.0452950518886027e-06   -4.194457509874231e-05
-1.3362400984699626e-05   1.0452950518886027e-06   -4.194457509874231e-05
-1.3362400984699626e-05   1.0452950518886027e-06   -4.194457509874231e-05
-1.3362400984699626e-05   1.0452950518886027e-06   -4.194457509874231e-05
-1.2854605737302408e-05   4.037865637990462e-06   -3.839889848972406e-05
-1.2854605737302408e-05   4.037865637990462e-06   -3.839889848972406e-05
-1.2854605737302408e-05   4.037865637990462e-06   -3.839889848972406e-05
-1.2854605737302408e-05   4.037865637990462e-06   -3.839889848972406e-05
-1.0668252189745405e-05   2.26898985016097e-06   -4.09814955962878e-05
-1.0668252189745405e-05   2.26898985016097e-06   -4.09814955962878e-05
-1.0668252189745405e-05   2.26898985016097e-06   -4.09814955962878e-05
-1.0668252189745405e-05   2.26898985016097e-06   -4.09814955962878e-05
-1.2032162072412033e-05   2.5064739397070252e-06   -3.8850802912237885e-05
-1.2032162072412033e-05   2.5064739397070252e-06   -3.8850802912237885e-05
-1.2032162072412033e-05   2.5064739397070252e-06   -3.8850802912237885e-05
-1.2032162072412033e-05   2.5064739397070252e-06   -3.8850802912237885e-05
-1.0668252189745405e-05   4.037865637990462e-06   -3.7337573017026026e-05
-1.0668252189745405e-05   4.037865637990462e-06   -3.7337573017026026e-05
-1.0668252189745405e-05   4.037865637990462e-06   -3.7337573017026026e-05
-1.0668252189745405e-05   4.037865637990462e-06   -3.7337573017026026e-05
-1.2854605737302381e-05   2.26898985016097e-06   -4.204282106898521e-05
-1.2854605737302381e-05   2.26898985016097e-06   -4.204282106898521e-05
-1.2854605737302381e-05   2.26898985016097e-06   -4.204282106898521e-05
-1.2854605737302381e-05   2.26898985016097e-06   -4.204282106898521e-05
-1.2376214573905307e-05   5.512440317239969e-06   -3.903474737628116e-05
-1.2376214573905307e-05   5.512440317239969e-06   -3.903474737628116e-05
-1.2376214573905307e-05   5.512440317239969e-06   -3.903474737628116e-05
-1.2376214573905307e-05   5.512440317239969e-06   -3.903474737628116e-05
-1.0073818031237078e-05   3.6660803661373986e-06   -4.176425897673352e-05
-1.0073818031237078e-05   3.6660803661373986e-06   -4.176425897673352e-05
-1.0073818031237078e-05   3.6660803661373986e-06   -4.176425897673352e-05
-1.0073818031237078e-05   3.6660803661373986e-06   -4.176425897673352e-05
-1.1601488394078e-05   3.5809938233830616e-06   -3.91670897796787e-05
-1.1601488394078e-05   3.5809938233830616e-06   -3.91670897796787e-05
-1.1601488394078e-05   3.5809938233830616e-06   -3.91670897796787e-05
-1.1601488394078e-05   3.5809938233830616e-06   -3.91670897796787e-05
-1.3850678368308939e-05   7.341805351639228e-07   -4.505809294622848e-05
-1.3850678368308939e-05   7.341805351639228e-07   -4.505809294622848e-05
-1.3850678368308939e-05   7.341805351639228e-07   -4.505809294622848e-05
-1.3850678368308939e-05   7.341805351639228e-07   -4.505809294622848e-05
-1.5766097814493895e-05   1.0526362402335423e-06   -4.805938526682835e-05
-1.5766097814493895e-05   1.0526362402335423e-06   -4.805938526682835e-05
-1.5766097814493895e-05   1.0526362402335423e-06   -4.805938526682835e-05
-1.5766097814493895e-05   1.0526362402335423e-06   -4.805938526682835e-05
-1.5286143464973112e-05   2.1880184886925377e-06   -4.436446404484885e-05
-1.5286143464973112e-05   2.1880184886925377e-06   -4.436446404484885e-05
-1.5286143464973112e-05   2.1880184886925377e-06   -4.436446404484885e-05
-1.5286143464973112e-05   2.1880184886925377e-06   -4.436446404484885e-05
-1.3362400984699626e-05   2.3662756412454623e-06   -4.767765580350296e-05
-1.3362400984699626e-05   2.3662756412454623e-06   -4.767765580350296e-05
-1.3362400984699626e-05   2.3662756412454623e-06   -4.767765580350296e-05
-1.3362400984699626e-05   2.3662756412454623e-06   -4.767765580350296e-05
-1.4478652398372514e-05   1.7897943789979987e-06   -4.547134802336712e-05
-1.4478652398372514e-05   1.7897943789979987e-06   -4.547134802336712e-05
-1.4478652398372514e-05   1.7897943789979987e-06   -4.547134802336712e-05
-1.4478652398372514e-05   1.7897943789979987e-06   -4.547134802336712e-05
-1.3362400984699626e-05   2.188018488692321e-06   -4.4471418336380593e-05
-1.3362400984699626e-05   2.188018488692321e-06   -4.4471418336380593e-05
-1.3362400984699626e-05   2.188018488692321e-06   -4.4471418336380593e-05
-1.3362400984699626e-05   2.188018488692321e-06   -4.4471418336380593e-05
-1.5286143464973112e-05   2.3662756412452454e-06   -4.7570701511971485e-05
-1.5286143464973112e-05   2.3662756412452454e-06   -4.7570701511971485e-05
-1.5286143464973112e-05   2.3662756412452454e-06   -4.7570701511971485e-05
-1.5286143464973112e-05   2.3662756412452454e-06   -4.7570701511971485e-05
-1.4781479528161675e-05   3.6546058073542217e-06   -4.44934610715317e-05
-1.4781479528161675e-05   3.6546058073542217e-06   -4.44934610715317e-05
-1.4781479528161675e-05   3.6546058073542217e-06   -4.44934610715317e-05
-1.4781479528161675e-05   3.6546058073542217e-06   -4.44934610715317e-05
-1.2854605737302381e-05   3.708840177807371e-06   -4.773745801190201e-05
-1.2854605737302381e-05   3.708840177807371e-06   -4.773745801190201e-05
-1.2854605737302381e-05   3.708840177807371e-06   -4.773745801190201e-05
-1.2854605737302381e-05   3.708840177807371e-06   -4.773745801190201e-05
-1.4075676957774034e-05   2.9133229280173386e-06   -4.522502896124261e-05
-1.4075676957774034e-05   2.9133229280173386e-06   -4.522502896124261e-05
-1.4075676957774034e-05   2.9133229280173386e-06   -4.522502896124261e-05
-1.4075676957774034e-05   2.9133229280173386e-06   -4.522502896124261e-05
-1.2854605737302354e-05   3.6546058073542217e-06   -4.4526001693803396e-05
-1.2854605737302354e-05   3.6546058073542217e-06   -4.4526001693803396e-05
-1.2854605737302354e-05   3.6546058073542217e-06   -4.4526001693803396e-05
-1.2854605737302354e-05   3.6546058073542217e-06   -4.4526001693803396e-05
-1.4781479528161648e-05   3.708840177807371e-06   -4.7704917389630166e-05
-1.4781479528161648e-05   3.708840177807371e-06   -4.7704917389630166e-05
-1.4781479528161648e-05   3.708840177807371e-06   -4.7704917389630166e-05
-1.4781479528161648e-05   3.708840177807371e-06   -4.7704917389630166e-05
-1.4305476536633939e-05   5.143311102987543e-06   -4.5357047963502086e-05
-1.4305476536633939e-05   5.143311102987543e-06   -4.5357047963502086e-05
-1.4305476536633939e-05   5.143311102987543e-06   -4.5357047963502086e-05
-1.4305476536633939e-05   5.143311102987543e-06   -4.5357047963502086e-05
-1.2376214573905334e-05   5.069962276289808e-06   -4.8528475272031305e-05
-1.2376214573905334e-05   5.069962276289808e-06   -4.8528475272031305e-05
-1.2376214573905334e-05   5.069962276289808e-06   -4.8528475272031305e-05
-1.2376214573905334e-05   5.069962276289808e-06   -4.8528475272031305e-05
-1.3704652575357578e-05   4.052562781504498e-06   -4.570397223940543e-05
-1.3704652575357578e-05   4.052562781504498e-06   -4.570397223940543e-05
-1.3704652575357578e-05   4.052562781504498e-06   -4.570397223940543e-05
-1.3704652575357578e-05   4.052562781504498e-06   -4.570397223940543e-05
-1.5766097814493865e-05   3.1188466372250416e-07   -3.88747067693955e-05
-1.5766097814493865e-05   3.1188466372250416e-07   -3.88747067693955e-05
-1.5766097814493865e-05   3.1188466372250416e-07   -3.88747067693955e-05
-1.5766097814493865e-05   3.1188466372250416e-07   -3.88747067693955e-05
-1.7787307957440836e-05   2.340248838870497e-06   -4.1026371835884996e-05
-1.7787307957440836e-05   2.340248838870497e-06   -4.1026371835884996e-05
-1.7787307957440836e-05   2.340248838870497e-06   -4.1026371835884996e-05
-1.7787307957440836e-05   2.340248838870497e-06   -4.1026371835884996e-05
-1.7206844355308596e-05   1.719943515621821e-06   -3.716694179473328e-05
-1.7206844355308596e-05   1.719943515621821e-06   -3.716694179473328e-05
-1.7206844355308596e-05   1.719943515621821e-06   -3.716694179473328e-05
-1.7206844355308596e-05   1.719943515621821e-06   -3.716694179473328e-05
-1.5286143464973112e-05   3.6581655741864394e-06   -4.153104318043105e-05
-1.5286143464973112e-05   3.6581655741864394e-06   -4.153104318043105e-05
-1.5286143464973112e-05   3.6581655741864394e-06   -4.153104318043105e-05
-1.5286143464973112e-05   3.6581655741864394e-06   -4.153104318043105e-05
-1.6384029688277055e-05   2.1544921334894305e-06   -3.879902874384005e-05
-1.6384029688277055e-05   2.1544921334894305e-06   -3.879902874384005e-05
-1.6384029688277055e-05   2.1544921334894305e-06   -3.879902874384005e-05
-1.6384029688277055e-05   2.1544921334894305e-06   -3.879902874384005e-05
-1.5286143464973085e-05   1.719943515622038e-06   -3.8329875029871944e-05
-1.5286143464973085e-05   1.719943515622038e-06   -3.8329875029871944e-05
-1.5286143464973085e-05   1.719943515622038e-06   -3.8329875029871944e-05
-1.5286143464973085e-05   1.719943515622038e-06   -3.8329875029871944e-05
-1.7206844355308596e-05   3.6581655741864394e-06   -4.03681099452925e-05
-1.7206844355308596e-05   3.6581655741864394e-06   -4.03681099452925e-05
-1.7206844355308596e-05   3.6581655741864394e-06   -4.03681099452925e-05
-1.7206844355308596e-05   3.6581655741864394e-06   -4.03681099452925e-05
-1.645732620192495e-05   3.047048461428826e-06   -3.732871947702287e-05
-1.645732620192495e-05   3.047048461428826e-06   -3.732871947702287e-05
-1.645732620192495e-05   3.047048461428826e-06   -3.732871947702287e-05
-1.645732620192495e-05   3.047048461428826e-06   -3.732871947702287e-05
-1.4781479528161648e-05   4.874157079885972e-06   -4.121806243770256e-05
-1.4781479528161648e-05   4.874157079885972e-06   -4.121806243770256e-05
-1.4781479528161648e-05   4.874157079885972e-06   -4.121806243770256e-05
-1.4781479528161648e-05   4.874157079885972e-06   -4.121806243770256e-05
-1.5865305312255178e-05   3.1999325014715014e-06   -3.840715138383186e-05
-1.5865305312255178e-05   3.1999325014715014e-06   -3.840715138383186e-05
-1.5865305312255178e-05   3.1999325014715014e-06   -3.840715138383186e-05
-1.5865305312255178e-05   3.1999325014715014e-06   -3.840715138383186e-05
-1.4781479528161624e-05   3.047048461428826e-06   -3.84249846480972e-05
-1.4781479528161624e-05   3.047048461428826e-06   -3.84249846480972e-05
-1.4781479528161624e-05   3.047048461428826e-06   -3.84249846480972e-05
-1.4781479528161624e-05   3.047048461428826e-06   -3.84249846480972e-05
-1.6457326201924964e-05   4.874157079885972e-06   -4.012179726662832e-05
-1.6457326201924964e-05   4.874157079885972e-06   -4.012179726662832e-05
-1.6457326201924964e-05   4.874157079885972e-06   -4.012179726662832e-05
-1.6457326201924964e-05   4.874157079885972e-06   -4.012179726662832e-05
-1.586835291606355e-05   4.547932716824276e-06   -3.8364104231398185e-05
-1.586835291606355e-05   4.547932716824276e-06   -3.8364104231398185e-05
-1.586835291606355e-05   4.547932716824276e-06   -3.8364104231398185e-05
-1.586835291606355e-05   4.547932716824276e-06   -3.8364104231398185e-05
-1.4305476536633939e-05   6.2372132474750996e-06   -4.1982466515504916e-05
-1.4305476536633939e-05   6.2372132474750996e-06   -4.1982466515504916e-05
-1.4305476536633939e-05   6.2372132474750996e-06   -4.1982466515504916e-05
-1.4305476536633939e-05   6.2372132474750996e-06   -4.1982466515504916e-05
-1.5476257963418325e-05   4.268617995559004e-06   -3.885000698638071e-05
-1.5476257963418325e-05   4.268617995559004e-06   -3.885000698638071e-05
-1.5476257963418325e-05   4.268617995559004e-06   -3.885000698638071e-05
-1.5476257963418325e-05   4.268617995559004e-06   -3.885000698638071e-05
-1.778730795744077e-05   4.3032242119742797e-07   -2.0721262094590572e-05
-1.778730795744077e-05   4.3032242119742797e-07   -2.0721262094590572e-05
-1.778730795744077e-05   4.3032242119742797e-07   -2.0721262094590572e-05
-1.778730795744077e-05   4.3032242119742797e-07   -2.0721262094590572e-05
-2.1530745462933725e-05   3.931443586625534e-06   -2.4859651904488413e-05
-2.1530745462933725e-05   3.931443586625534e-06   -2.4859651904488413e-05
-2.1530745462933725e-05   3.931443586625534e-06   -2.4859651904488413e-05
-2.1530745462933725e-05   3.931443586625534e-06   -2.4859651904488413e-05
-1.9473062053264702e-05   1.5429570646109322e-06   -1.7089990963712752e-05
-1.9473062053264702e-05   1.5429570646109322e-06   -1.7089990963712752e-05
-1.9473062053264702e-05   1.5429570646109322e-06   -1.7089990963712752e-05
-1.9473062053264702e-05   1.5429570646109322e-06   -1.7089990963712752e-05
-1.720684435530857e-05   5.125994031977962e-06   -2.3016842640726236e-05
-1.720684435530857e-05   5.125994031977962e-06   -2.3016842640726236e-05
-1.720684435530857e-05   5.125994031977962e-06   -2.3016842640726236e-05
-1.720684435530857e-05   5.125994031977962e-06   -2.3016842640726236e-05
-1.8230532864463268e-05   2.9025541828309664e-06   -1.9976631215980417e-05
-1.8230532864463268e-05   2.9025541828309664e-06   -1.9976631215980417e-05
-1.8230532864463268e-05   2.9025541828309664e-06   -1.9976631215980417e-05
-1.8230532864463268e-05   2.9025541828309664e-06   -1.9976631215980417e-05
-1.7206844355308515e-05   1.5429570646109322e-06   -1.92398131441327e-05
-1.7206844355308515e-05   1.5429570646109322e-06   -1.92398131441327e-05
-1.7206844355308515e-05   1.5429570646109322e-06   -1.92398131441327e-05
-1.7206844355308515e-05   1.5429570646109322e-06   -1.92398131441327e-05
-1.9473062053264702e-05   5.125994031977962e-06   -2.0867020460306343e-05
-1.9473062053264702e-05   5.125994031977962e-06   -2.0867020460306343e-05
-1.9473062053264702e-05   5.125994031977962e-06   -2.0867020460306343e-05
-1.9473062053264702e-05   5.125994031977962e-06   -2.0867020460306343e-05
-1.7799424036265963e-05   2.168852055752001e-06   -1.6813008064041368e-05
-1.7799424036265963e-05   2.168852055752001e-06   -1.6813008064041368e-05
-1.7799424036265963e-05   2.168852055752001e-06   -1.6813008064041368e-05
-1.7799424036265963e-05   2.168852055752001e-06   -1.6813008064041368e-05
-1.645732620192495e-05   5.672968356268838e-06   -2.1152307568252852e-05
-1.645732620192495e-05   5.672968356268838e-06   -2.1152307568252852e-05
-1.645732620192495e-05   5.672968356268838e-06   -2.1152307568252852e-05
-1.645732620192495e-05   5.672968356268838e-06   -2.1152307568252852e-05
-1.7350870779972178e-05   3.455288194103754e-06   -1.8332458507542074e-05
-1.7350870779972178e-05   3.455288194103754e-06   -1.8332458507542074e-05
-1.7350870779972178e-05   3.455288194103754e-06   -1.8332458507542074e-05
-1.7350870779972178e-05   3.455288194103754e-06   -1.8332458507542074e-05
-1.6457326201924923e-05   2.168852055752001e-06   -1.891547784435148e-05
-1.6457326201924923e-05   2.168852055752001e-06   -1.891547784435148e-05
-1.6457326201924923e-05   2.168852055752001e-06   -1.891547784435148e-05
-1.6457326201924923e-05   2.168852055752001e-06   -1.891547784435148e-05
-1.7799424036265936e-05   5.672968356268838e-06   -1.9049837787942902e-05
-1.7799424036265936e-05   5.672968356268838e-06   -1.9049837787942902e-05
-1.7799424036265936e-05   5.672968356268838e-06   -1.9049837787942902e-05
-1.7799424036265936e-05   5.672968356268838e-06   -1.9049837787942902e-05
-1.575313998026929e-05   3.2795047140554007e-06   -1.7347952169590808e-05
-1.575313998026929e-05   3.2795047140554007e-06   -1.7347952169590808e-05
-1.575313998026929e-05   3.2795047140554007e-06   -1.7347952169590808e-05
-1.575313998026929e-05   3.2795047140554007e-06   -1.7347952169590808e-05
-1.5868352916063524e-05   6.521256267345236e-06   -1.910098154190719e-05
-1.5868352916063524e-05   6.521256267345236e-06   -1.910098154190719e-05
-1.5868352916063524e-05   6.521256267345236e-06   -1.910098154190719e-05
-1.5868352916063524e-05   6.521256267345236e-06   -1.910098154190719e-05
-1.6059216983254054e-05   3.902627258752498e-06   -1.721169735810084e-05
-1.6059216983254054e-05   3.902627258752498e-06   -1.721169735810084e-05
-1.6059216983254054e-05   3.902627258752498e-06   -1.721169735810084e-05
-1.6059216983254054e-05   3.902627258752498e-06   -1.721169735810084e-05
1.0486315916096649e-05   -1.0377812720149208e-06   -1.0799487338762582e-05
1.0486315916096649e-05   -1.0377812720149208e-06   -1.0799487338762582e-05
1.0486315916096649e-05   -1.0377812720149208e-06   -1.0799487338762582e-05
1.0486315916096649e-05   -1.0377812720149208e-06   -1.0799487338762582e-05
1.0725096570695508e-06   -4.3730776812240905e-06   -2.849034228266656e-05
1.0725096570695508e-06   -4.3730776812240905e-06   -2.849034228266656e-05
1.0725096570695508e-06   -4.3730776812240905e-06   -2.849034228266656e-05
1.0725096570695508e-06   -4.3730776812240905e-06   -2.849034228266656e-05
1.9005923646381274e-06   -3.007266196329052e-08   -1.192708924471395e-05
1.9005923646381274e-06   -3.007266196329052e-08   -1.192708924471395e-05
1.9005923646381274e-06   -3.007266196329052e-08   -1.192708924471395e-05
1.9005923646381274e-06   -3.007266196329052e-08   -1.192708924471395e-05
1.2796105587080994e-05   -3.5932700763081915e-06   -2.7948359500178403e-05
1.2796105587080994e-05   -3.5932700763081915e-06   -2.7948359500178403e-05
1.2796105587080994e-05   -3.5932700763081915e-06   -2.7948359500178403e-05
1.2796105587080994e-05   -3.5932700763081915e-06   -2.7948359500178403e-05
6.319543495915826e-06   -1.8238434318053809e-06   -1.8215745334938273e-05
6.319543495915826e-06   -1.8238434318053809e-06   -1.8215745334938273e-05
6.319543495915826e-06   -1.8238434318053809e-06   -1.8215745334938273e-05
6.319543495915826e-06   -1.8238434318053809e-06   -1.8215745334938273e-05
1.2796105587081048e-05   -3.007266196329052e-08   -9.78917079610714e-06
1.2796105587081048e-05   -3.007266196329052e-08   -9.78917079610714e-06
1.2796105587081048e-05   -3.007266196329052e-08   -9.78917079610714e-06
1.2796105587081048e-05   -3.007266196329052e-08   -9.78917079610714e-06
1.9005923646381274e-06   -3.593270076307758e-06   -3.008627794878554e-05
1.9005923646381274e-06   -3.593270076307758e-06   -3.008627794878554e-05
1.9005923646381274e-06   -3.593270076307758e-06   -3.008627794878554e-05
1.9005923646381274e-06   -3.593270076307758e-06   -3.008627794878554e-05
2.87656941308441e-06   5.396253873147724e-07   -1.2017130721761124e-05
2.87656941308441e-06   5.396253873147724e-07   -1.2017130721761124e-05
2.87656941308441e-06   5.396253873147724e-07   -1.2017130721761124e-05
2.87656941308441e-06   5.396253873147724e-07   -1.2017130721761124e-05
1.4749125174250025e-05   -3.073802186271974e-06   -2.9636667112884884e-05
1.4749125174250025e-05   -3.073802186271974e-06   -2.9636667112884884e-05
1.4749125174250025e-05   -3.073802186271974e-06   -2.9636667112884884e-05
1.4749125174250025e-05   -3.073802186271974e-06   -2.9636667112884884e-05
7.785168063425055e-06   -1.4597195846545452e-06   -1.899852148914814e-05
7.785168063425055e-06   -1.4597195846545452e-06   -1.899852148914814e-05
7.785168063425055e-06   -1.4597195846545452e-06   -1.899852148914814e-05
7.785168063425055e-06   -1.4597195846545452e-06   -1.899852148914814e-05
1.4749125174250025e-05   5.396253873147724e-07   -9.84907417760886e-06
1.4749125174250025e-05   5.396253873147724e-07   -9.84907417760886e-06
1.4749125174250025e-05   5.396253873147724e-07   -9.84907417760886e-06
1.4749125174250025e-05   5.396253873147724e-07   -9.84907417760886e-06
2.87656941308441e-06   -3.0738021862724077e-06   -3.180472365703693e-05
2.87656941308441e-06   -3.0738021862724077e-06   -3.180472365703693e-05
2.87656941308441e-06   -3.0738021862724077e-06   -3.180472365703693e-05
2.87656941308441e-06   -3.0738021862724077e-06   -3.180472365703693e-05
3.680486293920922e-06   1.6759718811118571e-06   -1.3164142888558161e-05
3.680486293920922e-06   1.6759718811118571e-06   -1.3164142888558161e-05
3.680486293920922e-06   1.6759718811118571e-06   -1.3164142888558161e-05
3.680486293920922e-06   1.6759718811118571e-06   -1.3164142888558161e-05
1.7095136678730465e-05   -1.7644666828048328e-06   -3.3457630391557506e-05
1.7095136678730465e-05   -1.7644666828048328e-06   -3.3457630391557506e-05
1.7095136678730465e-05   -1.7644666828048328e-06   -3.3457630391557506e-05
1.7095136678730465e-05   -1.7644666828048328e-06   -3.3457630391557506e-05
8.952227566988479e-06   -9.253748274194642e-07   -2.0389570318552147e-05
8.952227566988479e-06   -9.253748274194642e-07   -2.0389570318552147e-05
8.952227566988479e-06   -9.253748274194642e-07   -2.0389570318552147e-05
8.952227566988479e-06   -9.253748274194642e-07   -2.0389570318552147e-05
1.0725096570695508e-06   -2.2595011092457935e-07   -3.1027506880746265e-05
1.0725096570695508e-06   -2.2595011092457935e-07   -3.1027506880746265e-05
1.0725096570695508e-06   -2.2595011092457935e-07   -3.1027506880746265e-05
1.0725096570695508e-06   -2.2595011092457935e-07   -3.1027506880746265e-05
-9.921127823105428e-06   -1.7314809382319891e-06   -5.025355451075556e-05
-9.921127823105428e-06   -1.7314809382319891e-06   -5.025355451075556e-05
-9.921127823105428e-06   -1.7314809382319891e-06   -5.025355451075556e-05
-9.921127823105428e-06   -1.7314809382319891e-06   -5.025355451075556e-05
-9.194387216900085e-06   1.0452950518883859e-06   -3.1203364700939634e-05
-9.194387216900085e-06   1.0452950518883859e-06   -3.1203364700939634e-05
-9.194387216900085e-06   1.0452950518883859e-06   -3.1203364700939634e-05
-9.194387216900085e-06   1.0452950518883859e-06   -3.1203364700939634e-05
1.9005923646381274e-06   -6.62799331276314e-07   -4.867014070693786e-05
1.9005923646381274e-06   -6.62799331276314e-07   -4.867014070693786e-05
1.9005923646381274e-06   -6.62799331276314e-07   -4.867014070693786e-05
1.9005923646381274e-06   -6.62799331276314e-07   -4.867014070693786e-05
-3.942222563327465e-06   -6.66429813120286e-08   -3.928980963697375e-05
-3.942222563327465e-06   -6.66429813120286e-08   -3.928980963697375e-05
-3.942222563327465e-06   -6.66429813120286e-08   -3.928980963697375e-05
-3.942222563327465e-06   -6.66429813120286e-08   -3.928980963697375e-05
1.9005923646381274e-06   1.0452950518883859e-06   -3.0178508071040597e-05
1.9005923646381274e-06   1.0452950518883859e-06   -3.0178508071040597e-05
1.9005923646381274e-06   1.0452950518883859e-06   -3.0178508071040597e-05
1.9005923646381274e-06   1.0452950518883859e-06   -3.0178508071040597e-05
-9.194387216900085e-06   -6.627993312767477e-07   -4.969499733683679e-05
-9.194387216900085e-06   -6.627993312767477e-07   -4.969499733683679e-05
-9.194387216900085e-06   -6.627993312767477e-07   -4.969499733683679e-05
-9.194387216900085e-06   -6.627993312767477e-07   -4.969499733683679e-05
-8.463517078782762e-06   2.26898985016097e-06   -3.125023998967074e-05
-8.463517078782762e-06   2.26898985016097e-06   -3.125023998967074e-05
-8.463517078782762e-06   2.26898985016097e-06   -3.125023998967074e-05
-8.463517078782762e-06   2.26898985016097e-06   -3.125023998967074e-05
2.87656941308441e-06   4.4209493936693545e-07   -4.905424719630616e-05
2.87656941308441e-06   4.4209493936693545e-07   -4.905424719630616e-05
2.87656941308441e-06   4.4209493936693545e-07   -4.905424719630616e-05
2.87656941308441e-06   4.4209493936693545e-07   -4.905424719630616e-05
-3.2982978422618076e-06   8.107977554699334e-07   -3.8984023460390956e-05
-3.2982978422618076e-06   8.107977554699334e-07   -3.8984023460390956e-05
-3.2982978422618076e-06   8.107977554699334e-07   -3.8984023460390956e-05
-3.2982978422618076e-06   8.107977554699334e-07   -3.8984023460390956e-05
2.87656941308441e-06   2.26898985016097e-06   -3.0154103043194186e-05
2.87656941308441e-06   2.26898985016097e-06   -3.0154103043194186e-05
2.87656941308441e-06   2.26898985016097e-06   -3.0154103043194186e-05
2.87656941308441e-06   2.26898985016097e-06   -3.0154103043194186e-05
-8.463517078782762e-06   4.4209493936693545e-07   -5.015038414278258e-05
-8.463517078782762e-06   4.4209493936693545e-07   -5.015038414278258e-05
-8.463517078782762e-06   4.4209493936693545e-07   -5.015038414278258e-05
-8.463517078782762e-06   4.4209493936693545e-07   -5.015038414278258e-05
-7.765060194533295e-06   3.6660803661373986e-06   -3.203288368189088e-05
-7.765060194533295e-06   3.6660803661373986e-06   -3.203288368189088e-05
-7.765060194533295e-06   3.6660803661373986e-06   -3.203288368189088e-05
-7.765060194533295e-06   3.6660803661373986e-06   -3.203288368189088e-05
3.680486293920922e-06   1.7503459280340632e-06   -4.99593538331193e-05
3.680486293920922e-06   1.7503459280340632e-06   -4.99593538331193e-05
3.680486293920922e-06   1.7503459280340632e-06   -4.99593538331193e-05
3.680486293920922e-06   1.7503459280340632e-06   -4.99593538331193e-05
-2.5815219005327e-06   1.783208214258111e-06   -3.9542390880764546e-05
-2.5815219005327e-06   1.783208214258111e-06   -3.9542390880764546e-05
-2.5815219005327e-06   1.783208214258111e-06   -3.9542390880764546e-05
-2.5815219005327e-06   1.783208214258111e-06   -3.9542390880764546e-05
-9.921127823105455e-06   1.0526362402337591e-06   -3.755350869734656e-05
-9.921127823105455e-06   1.0526362402337591e-06   -3.755350869734656e-05
-9.921127823105455e-06   1.0526362402337591e-06   -3.755350869734656e-05
-9.921127823105455e-06   1.0526362402337591e-06   -3.755350869734656e-05
-2.081997873482866e-05   1.327031787545438e-06   -5.555362288849823e-05
-2.081997873482866e-05   1.327031787545438e-06   -5.555362288849823e-05
-2.081997873482866e-05   1.327031787545438e-06   -5.555362288849823e-05
-2.081997873482866e-05   1.327031787545438e-06   -5.555362288849823e-05
-2.0087993613229928e-05   2.3662756412454623e-06   -3.688175426992354e-05
-2.0087993613229928e-05   2.3662756412454623e-06   -3.688175426992354e-05
-2.0087993613229928e-05   2.3662756412454623e-06   -3.688175426992354e-05
-2.0087993613229928e-05   2.3662756412454623e-06   -3.688175426992354e-05
-9.194387216900112e-06   2.4574275342072356e-06   -5.509245606625038e-05
-9.194387216900112e-06   2.4574275342072356e-06   -5.509245606625038e-05
-9.194387216900112e-06   2.4574275342072356e-06   -5.509245606625038e-05
-9.194387216900112e-06   2.4574275342072356e-06   -5.509245606625038e-05
-1.4918963716943455e-05   2.0314818490802704e-06   -4.529592782176852e-05
-1.4918963716943455e-05   2.0314818490802704e-06   -4.529592782176852e-05
-1.4918963716943455e-05   2.0314818490802704e-06   -4.529592782176852e-05
-1.4918963716943455e-05   2.0314818490802704e-06   -4.529592782176852e-05
-9.194387216900112e-06   2.3662756412454623e-06   -3.6936445405700725e-05
-9.194387216900112e-06   2.3662756412454623e-06   -3.6936445405700725e-05
-9.194387216900112e-06   2.3662756412454623e-06   -3.6936445405700725e-05
-9.194387216900112e-06   2.3662756412454623e-06   -3.6936445405700725e-05
-2.008799361322989e-05   2.4574275342072356e-06   -5.5037764930473314e-05
-2.008799361322989e-05   2.4574275342072356e-06   -5.5037764930473314e-05
-2.008799361322989e-05   2.4574275342072356e-06   -5.5037764930473314e-05
-2.008799361322989e-05   2.4574275342072356e-06   -5.5037764930473314e-05
-1.9344361190632568e-05   3.708840177807371e-06   -3.69775784742211e-05
-1.9344361190632568e-05   3.708840177807371e-06   -3.69775784742211e-05
-1.9344361190632568e-05   3.708840177807371e-06   -3.69775784742211e-05
-1.9344361190632568e-05   3.708840177807371e-06   -3.69775784742211e-05
-8.463517078782762e-06   3.654337608417421e-06   -5.5079617119003664e-05
-8.463517078782762e-06   3.654337608417421e-06   -5.5079617119003664e-05
-8.463517078782762e-06   3.654337608417421e-06   -5.5079617119003664e-05
-8.463517078782762e-06   3.654337608417421e-06   -5.5079617119003664e-05
-1.4274676560402597e-05   3.0180091208589386e-06   -4.501255422376951e-05
-1.4274676560402597e-05   3.0180091208589386e-06   -4.501255422376951e-05
-1.4274676560402597e-05   3.0180091208589386e-06   -4.501255422376951e-05
-1.4274676560402597e-05   3.0180091208589386e-06   -4.501255422376951e-05
-8.463517078782762e-06   3.708840177807371e-06   -3.694487693258723e-05
-8.463517078782762e-06   3.708840177807371e-06   -3.694487693258723e-05
-8.463517078782762e-06   3.708840177807371e-06   -3.694487693258723e-05
-8.463517078782762e-06   3.708840177807371e-06   -3.694487693258723e-05
-1.934436119063253e-05   3.654337608417855e-06   -5.511231866063733e-05
-1.934436119063253e-05   3.654337608417855e-06   -5.511231866063733e-05
-1.934436119063253e-05   3.654337608417855e-06   -5.511231866063733e-05
-1.934436119063253e-05   3.654337608417855e-06   -5.511231866063733e-05
-1.863524173122456e-05   5.069962276289808e-06   -3.780810886375272e-05
-1.863524173122456e-05   5.069962276289808e-06   -3.780810886375272e-05
-1.863524173122456e-05   5.069962276289808e-06   -3.780810886375272e-05
-1.863524173122456e-05   5.069962276289808e-06   -3.780810886375272e-05
-7.765060194533295e-06   4.8719208475805215e-06   -5.580625323434586e-05
-7.765060194533295e-06   4.8719208475805215e-06   -5.580625323434586e-05
-7.765060194533295e-06   4.8719208475805215e-06   -5.580625323434586e-05
-7.765060194533295e-06   4.8719208475805215e-06   -5.580625323434586e-05
-1.3675184929327758e-05   4.019501074199782e-06   -4.544459347899344e-05
-1.3675184929327758e-05   4.019501074199782e-06   -4.544459347899344e-05
-1.3675184929327758e-05   4.019501074199782e-06   -4.544459347899344e-05
-1.3675184929327758e-05   4.019501074199782e-06   -4.544459347899344e-05
-2.0819978734828702e-05   2.340248838870497e-06   -3.157287644310497e-05
-2.0819978734828702e-05   2.340248838870497e-06   -3.157287644310497e-05
-2.0819978734828702e-05   2.340248838870497e-06   -3.157287644310497e-05
-2.0819978734828702e-05   2.340248838870497e-06   -3.157287644310497e-05
-3.158657056420345e-05   4.2948539520637485e-06   -4.834443309081329e-05
-3.158657056420345e-05   4.2948539520637485e-06   -4.834443309081329e-05
-3.158657056420345e-05   4.2948539520637485e-06   -4.834443309081329e-05
-3.158657056420345e-05   4.2948539520637485e-06   -4.834443309081329e-05
-3.075040320792034e-05   3.6581655741864394e-06   -2.973614423836023e-05
-3.075040320792034e-05   3.6581655741864394e-06   -2.973614423836023e-05
-3.075040320792034e-05   3.6581655741864394e-06   -2.973614423836023e-05
-3.075040320792034e-05   3.6581655741864394e-06   -2.973614423836023e-05
-2.008799361322989e-05   5.501418407557936e-06   -4.8612778596200494e-05
-2.008799361322989e-05   5.501418407557936e-06   -4.8612778596200494e-05
-2.008799361322989e-05   5.501418407557936e-06   -4.8612778596200494e-05
-2.008799361322989e-05   5.501418407557936e-06   -4.8612778596200494e-05
-2.5632494948444573e-05   4.105661757899037e-06   -3.8534489047714116e-05
-2.5632494948444573e-05   4.105661757899037e-06   -3.8534489047714116e-05
-2.5632494948444573e-05   4.105661757899037e-06   -3.8534489047714116e-05
-2.5632494948444573e-05   4.105661757899037e-06   -3.8534489047714116e-05
-2.0087993613229928e-05   3.6581655741864394e-06   -3.0842095938383133e-05
-2.0087993613229928e-05   3.6581655741864394e-06   -3.0842095938383133e-05
-2.0087993613229928e-05   3.6581655741864394e-06   -3.0842095938383133e-05
-2.0087993613229928e-05   3.6581655741864394e-06   -3.0842095938383133e-05
-3.0750403207920396e-05   5.501418407557936e-06   -4.750682689617816e-05
-3.0750403207920396e-05   5.501418407557936e-06   -4.750682689617816e-05
-3.0750403207920396e-05   5.501418407557936e-06   -4.750682689617816e-05
-3.0750403207920396e-05   5.501418407557936e-06   -4.750682689617816e-05
-2.9749808908751914e-05   4.874157079885972e-06   -2.946218130281549e-05
-2.9749808908751914e-05   4.874157079885972e-06   -2.946218130281549e-05
-2.9749808908751914e-05   4.874157079885972e-06   -2.946218130281549e-05
-2.9749808908751914e-05   4.874157079885972e-06   -2.946218130281549e-05
-1.9344361190632568e-05   6.588394112349606e-06   -4.783313638582576e-05
-1.9344361190632568e-05   6.588394112349606e-06   -4.783313638582576e-05
-1.9344361190632568e-05   6.588394112349606e-06   -4.783313638582576e-05
-1.9344361190632568e-05   6.588394112349606e-06   -4.783313638582576e-05
-2.4790044631510986e-05   5.058155108119658e-06   -3.7838853915157984e-05
-2.4790044631510986e-05   5.058155108119658e-06   -3.7838853915157984e-05
-2.4790044631510986e-05   5.058155108119658e-06   -3.7838853915157984e-05
-2.4790044631510986e-05   5.058155108119658e-06   -3.7838853915157984e-05
-1.9344361190632568e-05   4.874157079885972e-06   -3.049072352229355e-05
-1.9344361190632568e-05   4.874157079885972e-06   -3.049072352229355e-05
-1.9344361190632568e-05   4.874157079885972e-06   -3.049072352229355e-05
-1.9344361190632568e-05   4.874157079885972e-06   -3.049072352229355e-05
-2.9749808908751914e-05   6.588394112349606e-06   -4.680459416634775e-05
-2.9749808908751914e-05   6.588394112349606e-06   -4.680459416634775e-05
-2.9749808908751914e-05   6.588394112349606e-06   -4.680459416634775e-05
-2.9749808908751914e-05   6.588394112349606e-06   -4.680459416634775e-05
-2.8916044565578203e-05   6.237213247475316e-06   -3.0277483365583665e-05
-2.8916044565578203e-05   6.237213247475316e-06   -3.0277483365583665e-05
-2.8916044565578203e-05   6.237213247475316e-06   -3.0277483365583665e-05
-2.8916044565578203e-05   6.237213247475316e-06   -3.0277483365583665e-05
-1.863524173122456e-05   7.80489232351557e-06   -4.8352762201797324e-05
-1.863524173122456e-05   7.80489232351557e-06   -4.8352762201797324e-05
-1.863524173122456e-05   7.80489232351557e-06   -4.8352762201797324e-05
-1.863524173122456e-05   7.80489232351557e-06   -4.8352762201797324e-05
-2.4225059472244257e-05   5.996875833546829e-06   -3.7951589406116514e-05
-2.4225059472244257e-05   5.996875833546829e-06   -3.7951589406116514e-05
-2.4225059472244257e-05   5.996875833546829e-06   -3.7951589406116514e-05
-2.4225059472244257e-05   5.996875833546829e-06   -3.7951589406116514e-05
-3.158657056420345e-05   3.931443586625751e-06   -1.6334066143049272e-05
-3.158657056420345e-05   3.931443586625751e-06   -1.6334066143049272e-05
-3.158657056420345e-05   3.931443586625751e-06   -1.6334066143049272e-05
-3.158657056420345e-05   3.931443586625751e-06   -1.6334066143049272e-05
-4.385445152149897e-05   7.383418842294744e-06   -3.470934925180712e-05
-4.385445152149897e-05   7.383418842294744e-06   -3.470934925180712e-05
-4.385445152149897e-05   7.383418842294744e-06   -3.470934925180712e-05
-4.385445152149897e-05   7.383418842294744e-06   -3.470934925180712e-05
-4.1559995329976655e-05   5.125994031977962e-06   -1.0278984662392271e-05
-4.1559995329976655e-05   5.125994031977962e-06   -1.0278984662392271e-05
-4.1559995329976655e-05   5.125994031977962e-06   -1.0278984662392271e-05
-4.1559995329976655e-05   5.125994031977962e-06   -1.0278984662392271e-05
-3.075040320792034e-05   8.635814484314955e-06   -3.0400863803887882e-05
-3.075040320792034e-05   8.635814484314955e-06   -3.0400863803887882e-05
-3.075040320792034e-05   8.635814484314955e-06   -3.0400863803887882e-05
-3.075040320792034e-05   8.635814484314955e-06   -3.0400863803887882e-05
-3.5435020902432185e-05   6.412781030244513e-06   -2.1259347573926164e-05
-3.5435020902432185e-05   6.412781030244513e-06   -2.1259347573926164e-05
-3.5435020902432185e-05   6.412781030244513e-06   -2.1259347573926164e-05
-3.5435020902432185e-05   6.412781030244513e-06   -2.1259347573926164e-05
-3.075040320792037e-05   5.125994031977962e-06   -1.2384876933793968e-05
-3.075040320792037e-05   5.125994031977962e-06   -1.2384876933793968e-05
-3.075040320792037e-05   5.125994031977962e-06   -1.2384876933793968e-05
-3.075040320792037e-05   5.125994031977962e-06   -1.2384876933793968e-05
-4.155999532997652e-05   8.635814484314955e-06   -2.8294971532486076e-05
-4.155999532997652e-05   8.635814484314955e-06   -2.8294971532486076e-05
-4.155999532997652e-05   8.635814484314955e-06   -2.8294971532486076e-05
-4.155999532997652e-05   8.635814484314955e-06   -2.8294971532486076e-05
-3.9663584613807535e-05   5.672968356268838e-06   -8.445789524478935e-06
-3.9663584613807535e-05   5.672968356268838e-06   -8.445789524478935e-06
-3.9663584613807535e-05   5.672968356268838e-06   -8.445789524478935e-06
-3.9663584613807535e-05   5.672968356268838e-06   -8.445789524478935e-06
-2.974980890875186e-05   9.084471822871053e-06   -2.701565111286634e-05
-2.974980890875186e-05   9.084471822871053e-06   -2.701565111286634e-05
-2.974980890875186e-05   9.084471822871053e-06   -2.701565111286634e-05
-2.974980890875186e-05   9.084471822871053e-06   -2.701565111286634e-05
-3.459267056324128e-05   6.9756002918222116e-06   -1.7678892103421438e-05
-3.459267056324128e-05   6.9756002918222116e-06   -1.7678892103421438e-05
-3.459267056324128e-05   6.9756002918222116e-06   -1.7678892103421438e-05
-3.459267056324128e-05   6.9756002918222116e-06   -1.7678892103421438e-05
-2.9749808908751914e-05   5.672968356268838e-06   -1.0492691604440296e-05
-2.9749808908751914e-05   5.672968356268838e-06   -1.0492691604440296e-05
-2.9749808908751914e-05   5.672968356268838e-06   -1.0492691604440296e-05
-2.9749808908751914e-05   5.672968356268838e-06   -1.0492691604440296e-05
-3.966358461380748e-05   9.084471822871053e-06   -2.4968749032904924e-05
-3.966358461380748e-05   9.084471822871053e-06   -2.4968749032904924e-05
-3.966358461380748e-05   9.084471822871053e-06   -2.4968749032904924e-05
-3.966358461380748e-05   9.084471822871053e-06   -2.4968749032904924e-05
-3.7421609335514574e-05   6.521256267345019e-06   -6.529765583293177e-06
-3.7421609335514574e-05   6.521256267345019e-06   -6.529765583293177e-06
-3.7421609335514574e-05   6.521256267345019e-06   -6.529765583293177e-06
-3.7421609335514574e-05   6.521256267345019e-06   -6.529765583293177e-06
-2.8916044565578176e-05   9.654258145818089e-06   -2.258550799360366e-05
-2.8916044565578176e-05   9.654258145818089e-06   -2.258550799360366e-05
-2.8916044565578176e-05   9.654258145818089e-06   -2.258550799360366e-05
-2.8916044565578176e-05   9.654258145818089e-06   -2.258550799360366e-05
-3.281103762922254e-05   7.247685404678048e-06   -1.4649909242846638e-05
-3.281103762922254e-05   7.247685404678048e-06   -1.4649909242846638e-05
-3.281103762922254e-05   7.247685404678048e-06   -1.4649909242846638e-05
-3.281103762922254e-05   7.247685404678048e-06   -1.4649909242846638e-05
3.332803346326905e-05   -4.3730776812240905e-06   -2.832152567075431e-07
3.332803346326905e-05   -4.3730776812240905e-06   -2.832152567075431e-07
3.332803346326905e-05   -4.3730776812240905e-06   -2.832152567075431e-07
3.332803346326905e-05   -4.3730776812240905e-06   -2.832152567075431e-07
1.4209336243425354e-05   -7.892663779740603e-06   -3.4259462282223486e-05
1.4209336243425354e-05   -7.892663779740603e-06   -3.4259462282223486e-05
1.4209336243425354e-05   -7.892663779740603e-06   -3.4259462282223486e-05
1.4209336243425354e-05   -7.892663779740603e-06   -3.4259462282223486e-05
1.5219535484306681e-05   -3.593270076307758e-06   -3.793099380377824e-06
1.5219535484306681e-05   -3.593270076307758e-06   -3.793099380377824e-06
1.5219535484306681e-05   -3.593270076307758e-06   -3.793099380377824e-06
1.5219535484306681e-05   -3.593270076307758e-06   -3.793099380377824e-06
3.5854816951548225e-05   -7.339726876414397e-06   -3.593736107904968e-05
3.5854816951548225e-05   -7.339726876414397e-06   -3.593736107904968e-05
3.5854816951548225e-05   -7.339726876414397e-06   -3.593736107904968e-05
3.5854816951548225e-05   -7.339726876414397e-06   -3.593736107904968e-05
2.3659020347628352e-05   -5.200399186937104e-06   -1.6894630019536315e-05
2.3659020347628352e-05   -5.200399186937104e-06   -1.6894630019536315e-05
2.3659020347628352e-05   -5.200399186937104e-06   -1.6894630019536315e-05
2.3659020347628352e-05   -5.200399186937104e-06   -1.6894630019536315e-05
3.585481695154828e-05   -3.593270076307758e-06   -1.5452253003139273e-06
3.585481695154828e-05   -3.593270076307758e-06   -1.5452253003139273e-06
3.585481695154828e-05   -3.593270076307758e-06   -1.5452253003139273e-06
3.585481695154828e-05   -3.593270076307758e-06   -1.5452253003139273e-06
1.5219535484306654e-05   -7.339726876414397e-06   -3.818523515911347e-05
1.5219535484306654e-05   -7.339726876414397e-06   -3.818523515911347e-05
1.5219535484306654e-05   -7.339726876414397e-06   -3.818523515911347e-05
1.5219535484306654e-05   -7.339726876414397e-06   -3.818523515911347e-05
1.633843678158119e-05   -3.0738021862724077e-06   -5.330999233337571e-06
1.633843678158119e-05   -3.0738021862724077e-06   -5.330999233337571e-06
1.633843678158119e-05   -3.0738021862724077e-06   -5.330999233337571e-06
1.633843678158119e-05   -3.0738021862724077e-06   -5.330999233337571e-06
3.7978195807468636e-05   -6.865171372546358e-06   -3.9122442764718494e-05
3.7978195807468636e-05   -6.865171372546358e-06   -3.9122442764718494e-05
3.7978195807468636e-05   -6.865171372546358e-06   -3.9122442764718494e-05
3.7978195807468636e-05   -6.865171372546358e-06   -3.9122442764718494e-05
2.5556936160545714e-05   -4.9892068920904305e-06   -1.9545922041454137e-05
2.5556936160545714e-05   -4.9892068920904305e-06   -1.9545922041454137e-05
2.5556936160545714e-05   -4.9892068920904305e-06   -1.9545922041454137e-05
2.5556936160545714e-05   -4.9892068920904305e-06   -1.9545922041454137e-05
3.7978195807468744e-05   -3.0738021862724077e-06   -3.056177721572897e-06
3.7978195807468744e-05   -3.0738021862724077e-06   -3.056177721572897e-06
3.7978195807468744e-05   -3.0738021862724077e-06   -3.056177721572897e-06
3.7978195807468744e-05   -3.0738021862724077e-06   -3.056177721572897e-06
1.633843678158119e-05   -6.865171372546358e-06   -4.139726427648349e-05
1.633843678158119e-05   -6.865171372546358e-06   -4.139726427648349e-05
1.633843678158119e-05   -6.865171372546358e-06   -4.139726427648349e-05
1.633843678158119e-05   -6.865171372546358e-06   -4.139726427648349e-05
1.726390584257085e-05   -1.7644666828048328e-06   -8.882555094097628e-06
1.726390584257085e-05   -1.7644666828048328e-06   -8.882555094097628e-06
1.726390584257085e-05   -1.7644666828048328e-06   -8.882555094097628e-06
1.726390584257085e-05   -1.7644666828048328e-06   -8.882555094097628e-06
4.044357107684958e-05   -5.3637081030197785e-06   -4.535578563243277e-05
4.044357107684958e-05   -5.3637081030197785e-06   -4.535578563243277e-05
4.044357107684958e-05   -5.3637081030197785e-06   -4.535578563243277e-05
4.044357107684958e-05   -5.3637081030197785e-06   -4.535578563243277e-05
2.6587425346100797e-05   -4.403267025757454e-06   -2.2838474060876723e-05
2.6587425346100797e-05   -4.403267025757454e-06   -2.2838474060876723e-05
2.6587425346100797e-05   -4.403267025757454e-06   -2.2838474060876723e-05
2.6587425346100797e-05   -4.403267025757454e-06   -2.2838474060876723e-05
1.4209336243425354e-05   -1.7314809382319891e-06   -2.3254860647521733e-05
1.4209336243425354e-05   -1.7314809382319891e-06   -2.3254860647521733e-05
1.4209336243425354e-05   -1.7314809382319891e-06   -2.3254860647521733e-05
1.4209336243425354e-05   -1.7314809382319891e-06   -2.3254860647521733e-05
-6.034699463214837e-06   -3.69954613411343e-06   -5.817575927611783e-05
-6.034699463214837e-06   -3.69954613411343e-06   -5.817575927611783e-05
-6.034699463214837e-06   -3.69954613411343e-06   -5.817575927611783e-05
-6.034699463214837e-06   -3.69954613411343e-06   -5.817575927611783e-05
-5.094375030343236e-06   -6.62799331276314e-07   -2.373881294466507e-05
-5.094375030343236e-06   -6.62799331276314e-07   -2.373881294466507e-05
-5.094375030343236e-06   -6.62799331276314e-07   -2.373881294466507e-05
-5.094375030343236e-06   -6.62799331276314e-07   -2.373881294466507e-05
1.5219535484306681e-05   -2.9325506748353533e-06   -5.623347966294645e-05
1.5219535484306681e-05   -2.9325506748353533e-06   -5.623347966294645e-05
1.5219535484306681e-05   -2.9325506748353533e-06   -5.623347966294645e-05
1.5219535484306681e-05   -2.9325506748353533e-06   -5.623347966294645e-05
4.625525772447244e-06   -1.789448065446595e-06   -3.926265837548074e-05
4.625525772447244e-06   -1.789448065446595e-06   -3.926265837548074e-05
4.625525772447244e-06   -1.789448065446595e-06   -3.926265837548074e-05
4.625525772447244e-06   -1.789448065446595e-06   -3.926265837548074e-05
1.5219535484306681e-05   -6.62799331276314e-07   -2.2376962138529713e-05
1.5219535484306681e-05   -6.62799331276314e-07   -2.2376962138529713e-05
1.5219535484306681e-05   -6.62799331276314e-07   -2.2376962138529713e-05
1.5219535484306681e-05   -6.62799331276314e-07   -2.2376962138529713e-05
-5.094375030343236e-06   -2.9325506748353533e-06   -5.7595330469081916e-05
-5.094375030343236e-06   -2.9325506748353533e-06   -5.7595330469081916e-05
-5.094375030343236e-06   -2.9325506748353533e-06   -5.7595330469081916e-05
-5.094375030343236e-06   -2.9325506748353533e-06   -5.7595330469081916e-05
-4.19654431687739e-06   4.4209493936693545e-07   -2.4042725583586864e-05
-4.19654431687739e-06   4.4209493936693545e-07   -2.4042725583586864e-05
-4.19654431687739e-06   4.4209493936693545e-07   -2.4042725583586864e-05
-4.19654431687739e-06   4.4209493936693545e-07   -2.4042725583586864e-05
1.633843678158119e-05   -1.9949097456004213e-06   -5.680549127003772e-05
1.633843678158119e-05   -1.9949097456004213e-06   -5.680549127003772e-05
1.633843678158119e-05   -1.9949097456004213e-06   -5.680549127003772e-05
1.633843678158119e-05   -1.9949097456004213e-06   -5.680549127003772e-05
5.372106643360689e-06   -1.1112968991856126e-06   -3.9058442080851545e-05
5.372106643360689e-06   -1.1112968991856126e-06   -3.9058442080851545e-05
5.372106643360689e-06   -1.1112968991856126e-06   -3.9058442080851545e-05
5.372106643360689e-06   -1.1112968991856126e-06   -3.9058442080851545e-05
1.633843678158119e-05   4.4209493936736913e-07   -2.2580522772606797e-05
1.633843678158119e-05   4.4209493936736913e-07   -2.2580522772606797e-05
1.633843678158119e-05   4.4209493936736913e-07   -2.2580522772606797e-05
1.633843678158119e-05   4.4209493936736913e-07   -2.2580522772606797e-05
-4.19654431687739e-06   -1.9949097456004213e-06   -5.826769408101822e-05
-4.19654431687739e-06   -1.9949097456004213e-06   -5.826769408101822e-05
-4.19654431687739e-06   -1.9949097456004213e-06   -5.826769408101822e-05
-4.19654431687739e-06   -1.9949097456004213e-06   -5.826769408101822e-05
-3.3530601477334396e-06   1.7503459280340632e-06   -2.4859438252164932e-05
-3.3530601477334396e-06   1.7503459280340632e-06   -2.4859438252164932e-05
-3.3530601477334396e-06   1.7503459280340632e-06   -2.4859438252164932e-05
-3.3530601477334396e-06   1.7503459280340632e-06   -2.4859438252164932e-05
1.726390584257082e-05   -8.153588300580453e-07   -5.768162538115004e-05
1.726390584257082e-05   -8.153588300580453e-07   -5.768162538115004e-05
1.726390584257082e-05   -8.153588300580453e-07   -5.768162538115004e-05
1.726390584257082e-05   -8.153588300580453e-07   -5.768162538115004e-05
6.302681808822096e-06   -2.7507994342741357e-07   -3.97370859902146e-05
6.302681808822096e-06   -2.7507994342741357e-07   -3.97370859902146e-05
6.302681808822096e-06   -2.7507994342741357e-07   -3.97370859902146e-05
6.302681808822096e-06   -2.7507994342741357e-07   -3.97370859902146e-05
-6.034699463214837e-06   1.3270317875450043e-06   -2.99004054711802e-05
-6.034699463214837e-06   1.3270317875450043e-06   -2.99004054711802e-05
-6.034699463214837e-06   1.3270317875450043e-06   -2.99004054711802e-05
-6.034699463214837e-06   1.3270317875450043e-06   -2.99004054711802e-05
-2.5922186518031577e-05   6.667429198830253e-07   -6.344239054980575e-05
-2.5922186518031577e-05   6.667429198830253e-07   -6.344239054980575e-05
-2.5922186518031577e-05   6.667429198830253e-07   -6.344239054980575e-05
-2.5922186518031577e-05   6.667429198830253e-07   -6.344239054980575e-05
-2.491001510275776e-05   2.4574275342072356e-06   -2.969394821636059e-05
-2.491001510275776e-05   2.4574275342072356e-06   -2.969394821636059e-05
-2.491001510275776e-05   2.4574275342072356e-06   -2.969394821636059e-05
-2.491001510275776e-05   2.4574275342072356e-06   -2.969394821636059e-05
-5.094375030343236e-06   1.5279666304040575e-06   -6.216233846143655e-05
-5.094375030343236e-06   1.5279666304040575e-06   -6.216233846143655e-05
-5.094375030343236e-06   1.5279666304040575e-06   -6.216233846143655e-05
-5.094375030343236e-06   1.5279666304040575e-06   -6.216233846143655e-05
-1.538413802406535e-05   1.8192238762232416e-06   -4.518748781939092e-05
-1.538413802406535e-05   1.8192238762232416e-06   -4.518748781939092e-05
-1.538413802406535e-05   1.8192238762232416e-06   -4.518748781939092e-05
-1.538413802406535e-05   1.8192238762232416e-06   -4.518748781939092e-05
-5.094375030343236e-06   2.4574275342072356e-06   -2.9136271674079012e-05
-5.094375030343236e-06   2.4574275342072356e-06   -2.9136271674079012e-05
-5.094375030343236e-06   2.4574275342072356e-06   -2.9136271674079012e-05
-5.094375030343236e-06   2.4574275342072356e-06   -2.9136271674079012e-05
-2.491001510275776e-05   1.5279666304040575e-06   -6.272001500371815e-05
-2.491001510275776e-05   1.5279666304040575e-06   -6.272001500371815e-05
-2.491001510275776e-05   1.5279666304040575e-06   -6.272001500371815e-05
-2.491001510275776e-05   1.5279666304040575e-06   -6.272001500371815e-05
-2.3933842258144166e-05   3.654337608417855e-06   -2.9649192416507288e-05
-2.3933842258144166e-05   3.654337608417855e-06   -2.9649192416507288e-05
-2.3933842258144166e-05   3.654337608417855e-06   -2.9649192416507288e-05
-2.3933842258144166e-05   3.654337608417855e-06   -2.9649192416507288e-05
-4.1965443168774175e-06   2.525614513918667e-06   -6.186745512858603e-05
-4.1965443168774175e-06   2.525614513918667e-06   -6.186745512858603e-05
-4.1965443168774175e-06   2.525614513918667e-06   -6.186745512858603e-05
-4.1965443168774175e-06   2.525614513918667e-06   -6.186745512858603e-05
-1.4513029858639935e-05   2.6254519926117645e-06   -4.473321504619746e-05
-1.4513029858639935e-05   2.6254519926117645e-06   -4.473321504619746e-05
-1.4513029858639935e-05   2.6254519926117645e-06   -4.473321504619746e-05
-1.4513029858639935e-05   2.6254519926117645e-06   -4.473321504619746e-05
-4.1965443168774175e-06   3.654337608417421e-06   -2.8971958559808098e-05
-4.1965443168774175e-06   3.654337608417421e-06   -2.8971958559808098e-05
-4.1965443168774175e-06   3.654337608417421e-06   -2.8971958559808098e-05
-4.1965443168774175e-06   3.654337608417421e-06   -2.8971958559808098e-05
-2.3933842258144166e-05   2.5256145139191007e-06   -6.254468898528537e-05
-2.3933842258144166e-05   2.5256145139191007e-06   -6.254468898528537e-05
-2.3933842258144166e-05   2.5256145139191007e-06   -6.254468898528537e-05
-2.3933842258144166e-05   2.5256145139191007e-06   -6.254468898528537e-05
-2.3031791460125896e-05   4.8719208475805215e-06   -3.034602128090618e-05
-2.3031791460125896e-05   4.8719208475805215e-06   -3.034602128090618e-05
-2.3031791460125896e-05   4.8719208475805215e-06   -3.034602128090618e-05
-2.3031791460125896e-05   4.8719208475805215e-06   -3.034602128090618e-05
-3.3530601477334396e-06   3.556713696951843e-06   -6.235478251118338e-05
-3.3530601477334396e-06   3.556713696951843e-06   -6.235478251118338e-05
-3.3530601477334396e-06   3.556713696951843e-06   -6.235478251118338e-05
-3.3530601477334396e-06   3.556713696951843e-06   -6.235478251118338e-05
-1.3734642125246476e-05   3.4527276180403976e-06   -4.498975423464875e-05
-1.3734642125246476e-05   3.4527276180403976e-06   -4.498975423464875e-05
-1.3734642125246476e-05   3.4527276180403976e-06   -4.498975423464875e-05
-1.3734642125246476e-05   3.4527276180403976e-06   -4.498975423464875e-05
-2.5922186518031624e-05   4.2948539520637485e-06   -2.4260152062008833e-05
-2.5922186518031624e-05   4.2948539520637485e-06   -2.4260152062008833e-05
-2.5922186518031624e-05   4.2948539520637485e-06   -2.4260152062008833e-05
-2.5922186518031624e-05   4.2948539520637485e-06   -2.4260152062008833e-05
-4.54375469989509e-05   5.189132432929268e-06   -5.624918577502164e-05
-4.54375469989509e-05   5.189132432929268e-06   -5.624918577502164e-05
-4.54375469989509e-05   5.189132432929268e-06   -5.624918577502164e-05
-4.54375469989509e-05   5.189132432929268e-06   -5.624918577502164e-05
-4.4217798162124996e-05   5.501418407557936e-06   -2.2799887621075378e-05
-4.4217798162124996e-05   5.501418407557936e-06   -2.2799887621075378e-05
-4.4217798162124996e-05   5.501418407557936e-06   -2.2799887621075378e-05
-4.4217798162124996e-05   5.501418407557936e-06   -2.2799887621075378e-05
-2.49100151027578e-05   6.2832088425792375e-06   -5.544860031436705e-05
-2.49100151027578e-05   6.2832088425792375e-06   -5.544860031436705e-05
-2.49100151027578e-05   6.2832088425792375e-06   -5.544860031436705e-05
-2.49100151027578e-05   6.2832088425792375e-06   -5.544860031436705e-05
-3.486520519980624e-05   5.546170046499604e-06   -3.8414393541638366e-05
-3.486520519980624e-05   5.546170046499604e-06   -3.8414393541638366e-05
-3.486520519980624e-05   5.546170046499604e-06   -3.8414393541638366e-05
-3.486520519980624e-05   5.546170046499604e-06   -3.8414393541638366e-05
-2.49100151027578e-05   5.501418407557936e-06   -2.326896188208842e-05
-2.49100151027578e-05   5.501418407557936e-06   -2.326896188208842e-05
-2.49100151027578e-05   5.501418407557936e-06   -2.326896188208842e-05
-2.49100151027578e-05   5.501418407557936e-06   -2.326896188208842e-05
-4.4217798162124996e-05   6.2832088425792375e-06   -5.497952605335401e-05
-4.4217798162124996e-05   6.2832088425792375e-06   -5.497952605335401e-05
-4.4217798162124996e-05   6.2832088425792375e-06   -5.497952605335401e-05
-4.4217798162124996e-05   6.2832088425792375e-06   -5.497952605335401e-05
-4.2868606036922845e-05   6.588394112349606e-06   -2.198775279240459e-05
-4.2868606036922845e-05   6.588394112349606e-06   -2.198775279240459e-05
-4.2868606036922845e-05   6.588394112349606e-06   -2.198775279240459e-05
-4.2868606036922845e-05   6.588394112349606e-06   -2.198775279240459e-05
-2.3933842258144207e-05   7.225489694501121e-06   -5.392794977299338e-05
-2.3933842258144207e-05   7.225489694501121e-06   -5.392794977299338e-05
-2.3933842258144207e-05   7.225489694501121e-06   -5.392794977299338e-05
-2.3933842258144207e-05   7.225489694501121e-06   -5.392794977299338e-05
-3.363197300207483e-05   6.397753924230337e-06   -3.726775707094663e-05
-3.363197300207483e-05   6.397753924230337e-06   -3.726775707094663e-05
-3.363197300207483e-05   6.397753924230337e-06   -3.726775707094663e-05
-3.363197300207483e-05   6.397753924230337e-06   -3.726775707094663e-05
-2.3933842258144207e-05   6.588394112349606e-06   -2.237001014169566e-05
-2.3933842258144207e-05   6.588394112349606e-06   -2.237001014169566e-05
-2.3933842258144207e-05   6.588394112349606e-06   -2.237001014169566e-05
-2.3933842258144207e-05   6.588394112349606e-06   -2.237001014169566e-05
-4.2868606036922845e-05   7.225489694501121e-06   -5.3545692423702254e-05
-4.2868606036922845e-05   7.225489694501121e-06   -5.3545692423702254e-05
-4.2868606036922845e-05   7.225489694501121e-06   -5.3545692423702254e-05
-4.2868606036922845e-05   7.225489694501121e-06   -5.3545692423702254e-05
-4.172840521107496e-05   7.80489232351557e-06   -2.2495692434119788e-05
-4.172840521107496e-05   7.80489232351557e-06   -2.2495692434119788e-05
-4.172840521107496e-05   7.80489232351557e-06   -2.2495692434119788e-05
-4.172840521107496e-05   7.80489232351557e-06   -2.2495692434119788e-05
-2.3031791460125943e-05   8.268247251870097e-06   -5.393472830938074e-05
-2.3031791460125943e-05   8.268247251870097e-06   -5.393472830938074e-05
-2.3031791460125943e-05   8.268247251870097e-06   -5.393472830938074e-05
-2.3031791460125943e-05   8.268247251870097e-06   -5.393472830938074e-05
-3.286365788686565e-05   7.182280619400655e-06   -3.6896704285333416e-05
-3.286365788686565e-05   7.182280619400655e-06   -3.6896704285333416e-05
-3.286365788686565e-05   7.182280619400655e-06   -3.6896704285333416e-05
-3.286365788686565e-05   7.182280619400655e-06   -3.6896704285333416e-05
-4.54375469989509e-05   7.383418842295177e-06   -1.2159686287885004e-05
-4.54375469989509e-05   7.383418842295177e-06   -1.2159686287885004e-05
-4.54375469989509e-05   7.383418842295177e-06   -1.2159686287885004e-05
-4.54375469989509e-05   7.383418842295177e-06   -1.2159686287885004e-05
-6.598831450745656e-05   1.0203921083020047e-05   -4.471866412429312e-05
-6.598831450745656e-05   1.0203921083020047e-05   -4.471866412429312e-05
-6.598831450745656e-05   1.0203921083020047e-05   -4.471866412429312e-05
-6.598831450745656e-05   1.0203921083020047e-05   -4.471866412429312e-05
-6.319029216188877e-05   8.635814484314955e-06   -3.880892573053171e-06
-6.319029216188877e-05   8.635814484314955e-06   -3.880892573053171e-06
-6.319029216188877e-05   8.635814484314955e-06   -3.880892573053171e-06
-6.319029216188877e-05   8.635814484314955e-06   -3.880892573053171e-06
-4.421779816212492e-05   1.1657534410535776e-05   -3.731474786172555e-05
-4.421779816212492e-05   1.1657534410535776e-05   -3.731474786172555e-05
-4.421779816212492e-05   1.1657534410535776e-05   -3.731474786172555e-05
-4.421779816212492e-05   1.1657534410535776e-05   -3.731474786172555e-05
-5.244651311814223e-05   9.721371252671479e-06   -2.2438525040311308e-05
-5.244651311814223e-05   9.721371252671479e-06   -2.2438525040311308e-05
-5.244651311814223e-05   9.721371252671479e-06   -2.2438525040311308e-05
-5.244651311814223e-05   9.721371252671479e-06   -2.2438525040311308e-05
-4.421779816212496e-05   8.635814484314955e-06   -5.693924528785697e-06
-4.421779816212496e-05   8.635814484314955e-06   -5.693924528785697e-06
-4.421779816212496e-05   8.635814484314955e-06   -5.693924528785697e-06
-4.421779816212496e-05   8.635814484314955e-06   -5.693924528785697e-06
-6.319029216188867e-05   1.165753441053621e-05   -3.550171590599297e-05
-6.319029216188867e-05   1.165753441053621e-05   -3.550171590599297e-05
-6.319029216188867e-05   1.165753441053621e-05   -3.550171590599297e-05
-6.319029216188867e-05   1.165753441053621e-05   -3.550171590599297e-05
-6.0887751870857026e-05   9.084471822870619e-06   -4.256767071370189e-07
-6.0887751870857026e-05   9.084471822870619e-06   -4.256767071370189e-07
-6.0887751870857026e-05   9.084471822870619e-06   -4.256767071370189e-07
-6.0887751870857026e-05   9.084471822870619e-06   -4.256767071370189e-07
-4.2868606036922845e-05   1.2039693542514798e-05   -3.223071946214704e-05
-4.2868606036922845e-05   1.2039693542514798e-05   -3.223071946214704e-05
-4.2868606036922845e-05   1.2039693542514798e-05   -3.223071946214704e-05
-4.2868606036922845e-05   1.2039693542514798e-05   -3.223071946214704e-05
-5.149054346036807e-05   1.0299706460180792e-05   -1.6816831507004103e-05
-5.149054346036807e-05   1.0299706460180792e-05   -1.6816831507004103e-05
-5.149054346036807e-05   1.0299706460180792e-05   -1.6816831507004103e-05
-5.149054346036807e-05   1.0299706460180792e-05   -1.6816831507004103e-05
-4.2868606036922845e-05   9.084471822870619e-06   -2.198809738923179e-06
-4.2868606036922845e-05   9.084471822870619e-06   -2.198809738923179e-06
-4.2868606036922845e-05   9.084471822870619e-06   -2.198809738923179e-06
-4.2868606036922845e-05   9.084471822870619e-06   -2.198809738923179e-06
-6.088775187085681e-05   1.2039693542514364e-05   -3.045758643036088e-05
-6.088775187085681e-05   1.2039693542514364e-05   -3.045758643036088e-05
-6.088775187085681e-05   1.2039693542514364e-05   -3.045758643036088e-05
-6.088775187085681e-05   1.2039693542514364e-05   -3.045758643036088e-05
-5.840459361620154e-05   9.654258145817655e-06   3.960334217551972e-06
-5.840459361620154e-05   9.654258145817655e-06   3.960334217551972e-06
-5.840459361620154e-05   9.654258145817655e-06   3.960334217551972e-06
-5.840459361620154e-05   9.654258145817655e-06   3.960334217551972e-06
-4.172840521107492e-05   1.236989129432169e-05   -2.5462693013428295e-05
-4.172840521107492e-05   1.236989129432169e-05   -2.5462693013428295e-05
-4.172840521107492e-05   1.236989129432169e-05   -2.5462693013428295e-05
-4.172840521107492e-05   1.236989129432169e-05   -2.5462693013428295e-05
-4.91578228660918e-05   1.0394271168988247e-05   -1.1894958179867621e-05
-4.91578228660918e-05   1.0394271168988247e-05   -1.1894958179867621e-05
-4.91578228660918e-05   1.0394271168988247e-05   -1.1894958179867621e-05
-4.91578228660918e-05   1.0394271168988247e-05   -1.1894958179867621e-05
5.658799512751986e-05   -7.89266377974017e-06   1.1185735538140956e-05
5.658799512751986e-05   -7.89266377974017e-06   1.1185735538140956e-05
5.658799512751986e-05   -7.89266377974017e-06   1.1185735538140956e-05
5.658799512751986e-05   -7.89266377974017e-06   1.1185735538140956e-05
2.7278041162061653e-05   -1.1691758666020069e-05   -3.994364466939032e-05
2.7278041162061653e-05   -1.1691758666020069e-05   -3.994364466939032e-05
2.7278041162061653e-05   -1.1691758666020069e-05   -3.994364466939032e-05
2.7278041162061653e-05   -1.1691758666020069e-05   -3.994364466939032e-05
2.8397806842040112e-05   -7.339726876414397e-06   5.376740481582813e-06
2.8397806842040112e-05   -7.339726876414397e-06   5.376740481582813e-06
2.8397806842040112e-05   -7.339726876414397e-06   5.376740481582813e-06
2.8397806842040112e-05   -7.339726876414397e-06   5.376740481582813e-06
5.9184625035387265e-05   -1.141811947542393e-05   -4.348758761459049e-05
5.9184625035387265e-05   -1.141811947542393e-05   -4.348758761459049e-05
5.9184625035387265e-05   -1.141811947542393e-05   -4.348758761459049e-05
5.9184625035387265e-05   -1.141811947542393e-05   -4.348758761459049e-05
4.1119844734921495e-05   -8.642979403380774e-06   -1.5044704490373671e-05
4.1119844734921495e-05   -8.642979403380774e-06   -1.5044704490373671e-05
4.1119844734921495e-05   -8.642979403380774e-06   -1.5044704490373671e-05
4.1119844734921495e-05   -8.642979403380774e-06   -1.5044704490373671e-05
5.9184625035387374e-05   -7.339726876414397e-06   7.823776040988587e-06
5.9184625035387374e-05   -7.339726876414397e-06   7.823776040988587e-06
5.9184625035387374e-05   -7.339726876414397e-06   7.823776040988587e-06
5.9184625035387374e-05   -7.339726876414397e-06   7.823776040988587e-06
2.8397806842040085e-05   -1.141811947542393e-05   -4.593462317399621e-05
2.8397806842040085e-05   -1.141811947542393e-05   -4.593462317399621e-05
2.8397806842040085e-05   -1.141811947542393e-05   -4.593462317399621e-05
2.8397806842040085e-05   -1.141811947542393e-05   -4.593462317399621e-05
2.9511650037546247e-05   -6.865171372546792e-06   2.5361408390548595e-06
2.9511650037546247e-05   -6.865171372546792e-06   2.5361408390548595e-06
2.9511650037546247e-05   -6.865171372546792e-06   2.5361408390548595e-06
2.9511650037546247e-05   -6.865171372546792e-06   2.5361408390548595e-06
6.117819542948949e-05   -1.1021915182146593e-05   -4.774738852842417e-05
6.117819542948949e-05   -1.1021915182146593e-05   -4.774738852842417e-05
6.117819542948949e-05   -1.1021915182146593e-05   -4.774738852842417e-05
6.117819542948949e-05   -1.1021915182146593e-05   -4.774738852842417e-05
4.3306208051124785e-05   -8.61456322236425e-06   -1.9405154073685784e-05
4.3306208051124785e-05   -8.61456322236425e-06   -1.9405154073685784e-05
4.3306208051124785e-05   -8.61456322236425e-06   -1.9405154073685784e-05
4.3306208051124785e-05   -8.61456322236425e-06   -1.9405154073685784e-05
6.117819542948949e-05   -6.865171372546792e-06   5.0301871248146644e-06
6.117819542948949e-05   -6.865171372546792e-06   5.0301871248146644e-06
6.117819542948949e-05   -6.865171372546792e-06   5.0301871248146644e-06
6.117819542948949e-05   -6.865171372546792e-06   5.0301871248146644e-06
2.9511650037546247e-05   -1.1021915182147027e-05   -5.024143481418414e-05
2.9511650037546247e-05   -1.1021915182147027e-05   -5.024143481418414e-05
2.9511650037546247e-05   -1.1021915182147027e-05   -5.024143481418414e-05
2.9511650037546247e-05   -1.1021915182147027e-05   -5.024143481418414e-05
3.0268690379561342e-05   -5.363708103020212e-06   -3.1878160056775066e-06
3.0268690379561342e-05   -5.363708103020212e-06   -3.1878160056775066e-06
3.0268690379561342e-05   -5.363708103020212e-06   -3.1878160056775066e-06
3.0268690379561342e-05   -5.363708103020212e-06   -3.1878160056775066e-06
6.328609662616466e-05   -9.475804691270323e-06   -5.574956846373237e-05
6.328609662616466e-05   -9.475804691270323e-06   -5.574956846373237e-05
6.328609662616466e-05   -9.475804691270323e-06   -5.574956846373237e-05
6.328609662616466e-05   -9.475804691270323e-06   -5.574956846373237e-05
4.391986432141087e-05   -7.95283517120919e-06   -2.4386296334513507e-05
4.391986432141087e-05   -7.95283517120919e-06   -2.4386296334513507e-05
4.391986432141087e-05   -7.95283517120919e-06   -2.4386296334513507e-05
4.391986432141087e-05   -7.95283517120919e-06   -2.4386296334513507e-05
2.7278041162061707e-05   -3.69954613411343e-06   -1.3829179269992168e-05
2.7278041162061707e-05   -3.69954613411343e-06   -1.3829179269992168e-05
2.7278041162061707e-05   -3.69954613411343e-06   -1.3829179269992168e-05
2.7278041162061707e-05   -3.69954613411343e-06   -1.3829179269992168e-05
-1.6369093009030292e-06   -7.5854337136965246e-06   -6.4352295922683e-05
-1.6369093009030292e-06   -7.5854337136965246e-06   -6.4352295922683e-05
-1.6369093009030292e-06   -7.5854337136965246e-06   -6.4352295922683e-05
-1.6369093009030292e-06   -7.5854337136965246e-06   -6.4352295922683e-05
-4.8716956193979e-07   -2.9325506748353533e-06   -1.5246073828141743e-05
-4.8716956193979e-07   -2.9325506748353533e-06   -1.5246073828141743e-05
-4.8716956193979e-07   -2.9325506748353533e-06   -1.5246073828141743e-05
-4.8716956193979e-07   -2.9325506748353533e-06   -1.5246073828141743e-05
2.8397806842040112e-05   -7.223500351321351e-06   -6.081313136221695e-05
2.8397806842040112e-05   -7.223500351321351e-06   -6.081313136221695e-05
2.8397806842040112e-05   -7.223500351321351e-06   -6.081313136221695e-05
2.8397806842040112e-05   -7.223500351321351e-06   -6.081313136221695e-05
1.3428543561962321e-05   -4.588759874880714e-06   -3.7445203514618127e-05
1.3428543561962321e-05   -4.588759874880714e-06   -3.7445203514618127e-05
1.3428543561962321e-05   -4.588759874880714e-06   -3.7445203514618127e-05
1.3428543561962321e-05   -4.588759874880714e-06   -3.7445203514618127e-05
2.8397806842040112e-05   -2.9325506748353533e-06   -1.2671504022250058e-05
2.8397806842040112e-05   -2.9325506748353533e-06   -1.2671504022250058e-05
2.8397806842040112e-05   -2.9325506748353533e-06   -1.2671504022250058e-05
2.8397806842040112e-05   -2.9325506748353533e-06   -1.2671504022250058e-05
-4.8716956193979e-07   -7.223500351321351e-06   -6.338770116810842e-05
-4.8716956193979e-07   -7.223500351321351e-06   -6.338770116810842e-05
-4.8716956193979e-07   -7.223500351321351e-06   -6.338770116810842e-05
-4.8716956193979e-07   -7.223500351321351e-06   -6.338770116810842e-05
5.259128129382455e-07   -1.9949097456004213e-06   -1.5604402069294317e-05
5.259128129382455e-07   -1.9949097456004213e-06   -1.5604402069294317e-05
5.259128129382455e-07   -1.9949097456004213e-06   -1.5604402069294317e-05
5.259128129382455e-07   -1.9949097456004213e-06   -1.5604402069294317e-05
2.9511650037546247e-05   -6.548769603590809e-06   -6.11816481955131e-05
2.9511650037546247e-05   -6.548769603590809e-06   -6.11816481955131e-05
2.9511650037546247e-05   -6.548769603590809e-06   -6.11816481955131e-05
2.9511650037546247e-05   -6.548769603590809e-06   -6.11816481955131e-05
1.4211935595230876e-05   -4.2135779375921875e-06   -3.708323912458584e-05
1.4211935595230876e-05   -4.2135779375921875e-06   -3.708323912458584e-05
1.4211935595230876e-05   -4.2135779375921875e-06   -3.708323912458584e-05
1.4211935595230876e-05   -4.2135779375921875e-06   -3.708323912458584e-05
2.9511650037546247e-05   -1.9949097455999876e-06   -1.287208615449964e-05
2.9511650037546247e-05   -1.9949097455999876e-06   -1.287208615449964e-05
2.9511650037546247e-05   -1.9949097455999876e-06   -1.287208615449964e-05
2.9511650037546247e-05   -1.9949097455999876e-06   -1.287208615449964e-05
5.259128129382726e-07   -6.548769603590375e-06   -6.391396411030772e-05
5.259128129382726e-07   -6.548769603590375e-06   -6.391396411030772e-05
5.259128129382726e-07   -6.548769603590375e-06   -6.391396411030772e-05
5.259128129382726e-07   -6.548769603590375e-06   -6.391396411030772e-05
1.247501941703137e-06   -8.153588300580453e-07   -1.6218205382661317e-05
1.247501941703137e-06   -8.153588300580453e-07   -1.6218205382661317e-05
1.247501941703137e-06   -8.153588300580453e-07   -1.6218205382661317e-05
1.247501941703137e-06   -8.153588300580453e-07   -1.6218205382661317e-05
3.0268690379561423e-05   -5.588849630718592e-06   -6.17227582986957e-05
3.0268690379561423e-05   -5.588849630718592e-06   -6.17227582986957e-05
3.0268690379561423e-05   -5.588849630718592e-06   -6.17227582986957e-05
3.0268690379561423e-05   -5.588849630718592e-06   -6.17227582986957e-05
1.514857703560006e-05   -3.551903216785293e-06   -3.7744737240453944e-05
1.514857703560006e-05   -3.551903216785293e-06   -3.7744737240453944e-05
1.514857703560006e-05   -3.551903216785293e-06   -3.7744737240453944e-05
1.514857703560006e-05   -3.551903216785293e-06   -3.7744737240453944e-05
-1.6369093009030292e-06   6.667429198825917e-07   -2.1031169770832127e-05
-1.6369093009030292e-06   6.667429198825917e-07   -2.1031169770832127e-05
-1.6369093009030292e-06   6.667429198825917e-07   -2.1031169770832127e-05
-1.6369093009030292e-06   6.667429198825917e-07   -2.1031169770832127e-05
-3.0124677373755907e-05   -3.99670291854155e-06   -7.130885072864157e-05
-3.0124677373755907e-05   -3.99670291854155e-06   -7.130885072864157e-05
-3.0124677373755907e-05   -3.99670291854155e-06   -7.130885072864157e-05
-3.0124677373755907e-05   -3.99670291854155e-06   -7.130885072864157e-05
-2.874532154771323e-05   1.5279666304044912e-06   -2.287224323310592e-05
-2.874532154771323e-05   1.5279666304044912e-06   -2.287224323310592e-05
-2.874532154771323e-05   1.5279666304044912e-06   -2.287224323310592e-05
-2.874532154771323e-05   1.5279666304044912e-06   -2.287224323310592e-05
-4.8716956193979e-07   -3.5706357239444556e-06   -6.691000179678548e-05
-4.8716956193979e-07   -3.5706357239444556e-06   -6.691000179678548e-05
-4.8716956193979e-07   -3.5706357239444556e-06   -6.691000179678548e-05
-4.8716956193979e-07   -3.5706357239444556e-06   -6.691000179678548e-05
-1.506697267418609e-05   -7.817140826457073e-07   -4.428368292782095e-05
-1.506697267418609e-05   -7.817140826457073e-07   -4.428368292782095e-05
-1.506697267418609e-05   -7.817140826457073e-07   -4.428368292782095e-05
-1.506697267418609e-05   -7.817140826457073e-07   -4.428368292782095e-05
-4.8716956193979e-07   1.5279666304044912e-06   -1.981308182049646e-05
-4.8716956193979e-07   1.5279666304044912e-06   -1.981308182049646e-05
-4.8716956193979e-07   1.5279666304044912e-06   -1.981308182049646e-05
-4.8716956193979e-07   1.5279666304044912e-06   -1.981308182049646e-05
-2.874532154771323e-05   -3.5706357239444556e-06   -6.996916320939502e-05
-2.874532154771323e-05   -3.5706357239444556e-06   -6.996916320939502e-05
-2.874532154771323e-05   -3.5706357239444556e-06   -6.996916320939502e-05
-2.874532154771323e-05   -3.5706357239444556e-06   -6.996916320939502e-05
-2.747981901385367e-05   2.525614513918667e-06   -2.2463172490060123e-05
-2.747981901385367e-05   2.525614513918667e-06   -2.2463172490060123e-05
-2.747981901385367e-05   2.525614513918667e-06   -2.2463172490060123e-05
-2.747981901385367e-05   2.525614513918667e-06   -2.2463172490060123e-05
5.259128129382726e-07   -2.9060677747441525e-06   -6.588038282818206e-05
5.259128129382726e-07   -2.9060677747441525e-06   -6.588038282818206e-05
5.259128129382726e-07   -2.9060677747441525e-06   -6.588038282818206e-05
5.259128129382726e-07   -2.9060677747441525e-06   -6.588038282818206e-05
-1.3943244436719101e-05   -2.934234613013488e-07   -4.333270733348539e-05
-1.3943244436719101e-05   -2.934234613013488e-07   -4.333270733348539e-05
-1.3943244436719101e-05   -2.934234613013488e-07   -4.333270733348539e-05
-1.3943244436719101e-05   -2.934234613013488e-07   -4.333270733348539e-05
5.259128129382726e-07   2.525614513918667e-06   -1.9204163116862263e-05
5.259128129382726e-07   2.525614513918667e-06   -1.9204163116862263e-05
5.259128129382726e-07   2.525614513918667e-06   -1.9204163116862263e-05
5.259128129382726e-07   2.525614513918667e-06   -1.9204163116862263e-05
-2.747981901385367e-05   -2.9060677747445862e-06   -6.913939220138006e-05
-2.747981901385367e-05   -2.9060677747445862e-06   -6.913939220138006e-05
-2.747981901385367e-05   -2.9060677747445862e-06   -6.913939220138006e-05
-2.747981901385367e-05   -2.9060677747445862e-06   -6.913939220138006e-05
-2.6626439251083625e-05   3.5567136969522767e-06   -2.2851594969634922e-05
-2.6626439251083625e-05   3.5567136969522767e-06   -2.2851594969634922e-05
-2.6626439251083625e-05   3.5567136969522767e-06   -2.2851594969634922e-05
-2.6626439251083625e-05   3.5567136969522767e-06   -2.2851594969634922e-05
1.247501941703137e-06   -2.276045156040206e-06   -6.580850831248443e-05
1.247501941703137e-06   -2.276045156040206e-06   -6.580850831248443e-05
1.247501941703137e-06   -2.276045156040206e-06   -6.580850831248443e-05
1.247501941703137e-06   -2.276045156040206e-06   -6.580850831248443e-05
-1.314145414138036e-05   2.5494567897858117e-07   -4.3345509341690324e-05
-1.314145414138036e-05   2.5494567897858117e-07   -4.3345509341690324e-05
-1.314145414138036e-05   2.5494567897858117e-07   -4.3345509341690324e-05
-1.314145414138036e-05   2.5494567897858117e-07   -4.3345509341690324e-05
-3.0124677373755907e-05   5.189132432929268e-06   -1.7172599587622188e-05
-3.0124677373755907e-05   5.189132432929268e-06   -1.7172599587622188e-05
-3.0124677373755907e-05   5.189132432929268e-06   -1.7172599587622188e-05
-3.0124677373755907e-05   5.189132432929268e-06   -1.7172599587622188e-05
-5.900785053441221e-05   9.852325192848642e-07   -6.783356147023597e-05
-5.900785053441221e-05   9.852325192848642e-07   -6.783356147023597e-05
-5.900785053441221e-05   9.852325192848642e-07   -6.783356147023597e-05
-5.900785053441221e-05   9.852325192848642e-07   -6.783356147023597e-05
-5.7044326493533345e-05   6.2832088425792375e-06   -1.830581000984797e-05
-5.7044326493533345e-05   6.2832088425792375e-06   -1.830581000984797e-05
-5.7044326493533345e-05   6.2832088425792375e-06   -1.830581000984797e-05
-5.7044326493533345e-05   6.2832088425792375e-06   -1.830581000984797e-05
-2.874532154771323e-05   1.7749063990902918e-06   -6.276583678678808e-05
-2.874532154771323e-05   1.7749063990902918e-06   -6.276583678678808e-05
-2.874532154771323e-05   1.7749063990902918e-06   -6.276583678678808e-05
-2.874532154771323e-05   1.7749063990902918e-06   -6.276583678678808e-05
-4.327592608259652e-05   3.934673477432602e-06   -3.9844022808987914e-05
-4.327592608259652e-05   3.934673477432602e-06   -3.9844022808987914e-05
-4.327592608259652e-05   3.934673477432602e-06   -3.9844022808987914e-05
-4.327592608259652e-05   3.934673477432602e-06   -3.9844022808987914e-05
-2.874532154771323e-05   6.2832088425792375e-06   -1.5600828543754567e-05
-2.874532154771323e-05   6.2832088425792375e-06   -1.5600828543754567e-05
-2.874532154771323e-05   6.2832088425792375e-06   -1.5600828543754567e-05
-2.874532154771323e-05   6.2832088425792375e-06   -1.5600828543754567e-05
-5.704432649353345e-05   1.7749063990902918e-06   -6.547081825288145e-05
-5.704432649353345e-05   1.7749063990902918e-06   -6.547081825288145e-05
-5.704432649353345e-05   1.7749063990902918e-06   -6.547081825288145e-05
-5.704432649353345e-05   1.7749063990902918e-06   -6.547081825288145e-05
-5.514680750177014e-05   7.225489694501121e-06   -1.6680500943226824e-05
-5.514680750177014e-05   7.225489694501121e-06   -1.6680500943226824e-05
-5.514680750177014e-05   7.225489694501121e-06   -1.6680500943226824e-05
-5.514680750177014e-05   7.225489694501121e-06   -1.6680500943226824e-05
-2.747981901385371e-05   2.5020435854027946e-06   -5.995808075762903e-05
-2.747981901385371e-05   2.5020435854027946e-06   -5.995808075762903e-05
-2.747981901385371e-05   2.5020435854027946e-06   -5.995808075762903e-05
-2.747981901385371e-05   2.5020435854027946e-06   -5.995808075762903e-05
-4.1502217316681906e-05   4.6217133577025615e-06   -3.785921878296159e-05
-4.1502217316681906e-05   4.6217133577025615e-06   -3.785921878296159e-05
-4.1502217316681906e-05   4.6217133577025615e-06   -3.785921878296159e-05
-4.1502217316681906e-05   4.6217133577025615e-06   -3.785921878296159e-05
-2.747981901385367e-05   7.225489694501121e-06   -1.3846433277768016e-05
-2.747981901385367e-05   7.225489694501121e-06   -1.3846433277768016e-05
-2.747981901385367e-05   7.225489694501121e-06   -1.3846433277768016e-05
-2.747981901385367e-05   7.225489694501121e-06   -1.3846433277768016e-05
-5.5146807501770234e-05   2.5020435854032283e-06   -6.279214842308794e-05
-5.5146807501770234e-05   2.5020435854032283e-06   -6.279214842308794e-05
-5.5146807501770234e-05   2.5020435854032283e-06   -6.279214842308794e-05
-5.5146807501770234e-05   2.5020435854032283e-06   -6.279214842308794e-05
-5.37065223171803e-05   8.268247251870097e-06   -1.6732842296314932e-05
-5.37065223171803e-05   8.268247251870097e-06   -1.6732842296314932e-05
-5.37065223171803e-05   8.268247251870097e-06   -1.6732842296314932e-05
-5.37065223171803e-05   8.268247251870097e-06   -1.6732842296314932e-05
-2.6626439251083652e-05   3.11753755376969e-06   -5.877588825428269e-05
-2.6626439251083652e-05   3.11753755376969e-06   -5.877588825428269e-05
-2.6626439251083652e-05   3.11753755376969e-06   -5.877588825428269e-05
-2.6626439251083652e-05   3.11753755376969e-06   -5.877588825428269e-05
-4.0506629803858243e-05   5.101136342010142e-06   -3.683239660593645e-05
-4.0506629803858243e-05   5.101136342010142e-06   -3.683239660593645e-05
-4.0506629803858243e-05   5.101136342010142e-06   -3.683239660593645e-05
-4.0506629803858243e-05   5.101136342010142e-06   -3.683239660593645e-05
-5.900785053441221e-05   1.0203921083020047e-05   -9.856719229515227e-06
-5.900785053441221e-05   1.0203921083020047e-05   -9.856719229515227e-06
-5.900785053441221e-05   1.0203921083020047e-05   -9.856719229515227e-06
-5.900785053441221e-05   1.0203921083020047e-05   -9.856719229515227e-06
-8.917939851528086e-05   9.627649095464777e-06   -6.048839572349589e-05
-8.917939851528086e-05   9.627649095464777e-06   -6.048839572349589e-05
-8.917939851528086e-05   9.627649095464777e-06   -6.048839572349589e-05
-8.917939851528086e-05   9.627649095464777e-06   -6.048839572349589e-05
-8.531069019993629e-05   1.1657534410535776e-05   -3.182333977247778e-07
-8.531069019993629e-05   1.1657534410535776e-05   -3.182333977247778e-07
-8.531069019993629e-05   1.1657534410535776e-05   -3.182333977247778e-07
-8.531069019993629e-05   1.1657534410535776e-05   -3.182333977247778e-07
-5.704432649353325e-05   1.2195531778026562e-05   -4.77516379955576e-05
-5.704432649353325e-05   1.2195531778026562e-05   -4.77516379955576e-05
-5.704432649353325e-05   1.2195531778026562e-05   -4.77516379955576e-05
-5.704432649353325e-05   1.2195531778026562e-05   -4.77516379955576e-05
-6.950272715052565e-05   1.1500179227023422e-05   -2.657042536996859e-05
-6.950272715052565e-05   1.1500179227023422e-05   -2.657042536996859e-05
-6.950272715052565e-05   1.1500179227023422e-05   -2.657042536996859e-05
-6.950272715052565e-05   1.1500179227023422e-05   -2.657042536996859e-05
-5.70443264935334e-05   1.1657534410535776e-05   -6.410318182192387e-07
-5.70443264935334e-05   1.1657534410535776e-05   -6.410318182192387e-07
-5.70443264935334e-05   1.1657534410535776e-05   -6.410318182192387e-07
-5.70443264935334e-05   1.1657534410535776e-05   -6.410318182192387e-07
-8.531069019993614e-05   1.2195531778026562e-05   -4.7428839575063084e-05
-8.531069019993614e-05   1.2195531778026562e-05   -4.7428839575063084e-05
-8.531069019993614e-05   1.2195531778026562e-05   -4.7428839575063084e-05
-8.531069019993614e-05   1.2195531778026562e-05   -4.7428839575063084e-05
-8.210127937814703e-05   1.2039693542514364e-05   5.0740311133556926e-06
-8.210127937814703e-05   1.2039693542514364e-05   5.0740311133556926e-06
-8.210127937814703e-05   1.2039693542514364e-05   5.0740311133556926e-06
-8.210127937814703e-05   1.2039693542514364e-05   5.0740311133556926e-06
-5.514680750177014e-05   1.2772292034226532e-05   -4.028964777563304e-05
-5.514680750177014e-05   1.2772292034226532e-05   -4.028964777563304e-05
-5.514680750177014e-05   1.2772292034226532e-05   -4.028964777563304e-05
-5.514680750177014e-05   1.2772292034226532e-05   -4.028964777563304e-05
-6.803389729680235e-05   1.233642853328801e-05   -1.854964668334888e-05
-6.803389729680235e-05   1.233642853328801e-05   -1.854964668334888e-05
-6.803389729680235e-05   1.233642853328801e-05   -1.854964668334888e-05
-6.803389729680235e-05   1.233642853328801e-05   -1.854964668334888e-05
-5.5146807501770234e-05   1.2039693542514364e-05   4.634472018328446e-06
-5.5146807501770234e-05   1.2039693542514364e-05   4.634472018328446e-06
-5.5146807501770234e-05   1.2039693542514364e-05   4.634472018328446e-06
-5.5146807501770234e-05   1.2039693542514364e-05   4.634472018328446e-06
-8.210127937814717e-05   1.2772292034226532e-05   -3.985008868060617e-05
-8.210127937814717e-05   1.2772292034226532e-05   -3.985008868060617e-05
-8.210127937814717e-05   1.2772292034226532e-05   -3.985008868060617e-05
-8.210127937814717e-05   1.2772292034226532e-05   -3.985008868060617e-05
-7.874546971706602e-05   1.236989129432169e-05   1.2298317151955736e-05
-7.874546971706602e-05   1.236989129432169e-05   1.2298317151955736e-05
-7.874546971706602e-05   1.236989129432169e-05   1.2298317151955736e-05
-7.874546971706602e-05   1.236989129432169e-05   1.2298317151955736e-05
-5.370652231718034e-05   1.3765119809873612e-05   -3.0270398957184773e-05
-5.370652231718034e-05   1.3765119809873612e-05   -3.0270398957184773e-05
-5.370652231718034e-05   1.3765119809873612e-05   -3.0270398957184773e-05
-5.370652231718034e-05   1.3765119809873612e-05   -3.0270398957184773e-05
-6.479588293454407e-05   1.2618397599567684e-05   -1.1100097935396337e-05
-6.479588293454407e-05   1.2618397599567684e-05   -1.1100097935396337e-05
-6.479588293454407e-05   1.2618397599567684e-05   -1.1100097935396337e-05
-6.479588293454407e-05   1.2618397599567684e-05   -1.1100097935396337e-05
7.781795953451455e-05   -1.1691758666020069e-05   2.652120549288562e-05
7.781795953451455e-05   -1.1691758666020069e-05   2.652120549288562e-05
7.781795953451455e-05   -1.1691758666020069e-05   2.652120549288562e-05
7.781795953451455e-05   -1.1691758666020069e-05   2.652120549288562e-05
3.9124128507570335e-05   -1.479007637946025e-05   -3.982750351341877e-05
3.9124128507570335e-05   -1.479007637946025e-05   -3.982750351341877e-05
3.9124128507570335e-05   -1.479007637946025e-05   -3.982750351341877e-05
3.9124128507570335e-05   -1.479007637946025e-05   -3.982750351341877e-05
4.008276640268848e-05   -1.1418119475424364e-05   1.9017263186885125e-05
4.008276640268848e-05   -1.1418119475424364e-05   1.9017263186885125e-05
4.008276640268848e-05   -1.1418119475424364e-05   1.9017263186885125e-05
4.008276640268848e-05   -1.1418119475424364e-05   1.9017263186885125e-05
7.9760617627769e-05   -1.5160038267136161e-05   -4.486733757988839e-05
7.9760617627769e-05   -1.5160038267136161e-05   -4.486733757988839e-05
7.9760617627769e-05   -1.5160038267136161e-05   -4.486733757988839e-05
7.9760617627769e-05   -1.5160038267136161e-05   -4.486733757988839e-05
5.683887460479855e-05   -1.1942978870714332e-05   -8.594668179457733e-06
5.683887460479855e-05   -1.1942978870714332e-05   -8.594668179457733e-06
5.683887460479855e-05   -1.1942978870714332e-05   -8.594668179457733e-06
5.683887460479855e-05   -1.1942978870714332e-05   -8.594668179457733e-06
7.9760617627769e-05   -1.1418119475424364e-05   2.1262414461912355e-05
7.9760617627769e-05   -1.1418119475424364e-05   2.1262414461912355e-05
7.9760617627769e-05   -1.1418119475424364e-05   2.1262414461912355e-05
7.9760617627769e-05   -1.1418119475424364e-05   2.1262414461912355e-05
4.008276640268848e-05   -1.5160038267136161e-05   -4.711248885491573e-05
4.008276640268848e-05   -1.5160038267136161e-05   -4.711248885491573e-05
4.008276640268848e-05   -1.5160038267136161e-05   -4.711248885491573e-05
4.008276640268848e-05   -1.5160038267136161e-05   -4.711248885491573e-05
4.08931157172132e-05   -1.1021915182147027e-05   1.5002093983181551e-05
4.08931157172132e-05   -1.1021915182147027e-05   1.5002093983181551e-05
4.08931157172132e-05   -1.1021915182147027e-05   1.5002093983181551e-05
4.08931157172132e-05   -1.1021915182147027e-05   1.5002093983181551e-05
8.097157859944648e-05   -1.502322791031548e-05   -4.939455651697261e-05
8.097157859944648e-05   -1.502322791031548e-05   -4.939455651697261e-05
8.097157859944648e-05   -1.502322791031548e-05   -4.939455651697261e-05
8.097157859944648e-05   -1.502322791031548e-05   -4.939455651697261e-05
5.884507358785117e-05   -1.2320859159283774e-05   -1.4138469414932942e-05
5.884507358785117e-05   -1.2320859159283774e-05   -1.4138469414932942e-05
5.884507358785117e-05   -1.2320859159283774e-05   -1.4138469414932942e-05
5.884507358785117e-05   -1.2320859159283774e-05   -1.4138469414932942e-05
8.097157859944648e-05   -1.1021915182147027e-05   1.7402881620082894e-05
8.097157859944648e-05   -1.1021915182147027e-05   1.7402881620082894e-05
8.097157859944648e-05   -1.1021915182147027e-05   1.7402881620082894e-05
8.097157859944648e-05   -1.1021915182147027e-05   1.7402881620082894e-05
4.08931157172132e-05   -1.502322791031548e-05   -5.1795344153874115e-05
4.08931157172132e-05   -1.502322791031548e-05   -5.1795344153874115e-05
4.08931157172132e-05   -1.502322791031548e-05   -5.1795344153874115e-05
4.08931157172132e-05   -1.502322791031548e-05   -5.1795344153874115e-05
4.174014415016456e-05   -9.475804691270757e-06   7.208138054538155e-06
4.174014415016456e-05   -9.475804691270757e-06   7.208138054538155e-06
4.174014415016456e-05   -9.475804691270757e-06   7.208138054538155e-06
4.174014415016456e-05   -9.475804691270757e-06   7.208138054538155e-06
8.216392577086717e-05   -1.4189014861847819e-05   -5.7336905210952915e-05
8.216392577086717e-05   -1.4189014861847819e-05   -5.7336905210952915e-05
8.216392577086717e-05   -1.4189014861847819e-05   -5.7336905210952915e-05
8.216392577086717e-05   -1.4189014861847819e-05   -5.7336905210952915e-05
5.887685236436081e-05   -1.185834343453841e-05   -1.9923519056494975e-05
5.887685236436081e-05   -1.185834343453841e-05   -1.9923519056494975e-05
5.887685236436081e-05   -1.185834343453841e-05   -1.9923519056494975e-05
5.887685236436081e-05   -1.185834343453841e-05   -1.9923519056494975e-05
3.9124128507570335e-05   -7.585433713696091e-06   2.585096159278663e-06
3.9124128507570335e-05   -7.585433713696091e-06   2.585096159278663e-06
3.9124128507570335e-05   -7.585433713696091e-06   2.585096159278663e-06
3.9124128507570335e-05   -7.585433713696091e-06   2.585096159278663e-06
4.664277265001277e-06   -1.4859449884324985e-05   -5.921239894738045e-05
4.664277265001277e-06   -1.4859449884324985e-05   -5.921239894738045e-05
4.664277265001277e-06   -1.4859449884324985e-05   -5.921239894738045e-05
4.664277265001277e-06   -1.4859449884324985e-05   -5.921239894738045e-05
5.781828226466906e-06   -7.2235003513209176e-06   -3.976176122513428e-07
5.781828226466906e-06   -7.2235003513209176e-06   -3.976176122513428e-07
5.781828226466906e-06   -7.2235003513209176e-06   -3.976176122513428e-07
5.781828226466906e-06   -7.2235003513209176e-06   -3.976176122513428e-07
4.008276640268856e-05   -1.4784121369513722e-05   -5.3029475295038146e-05
4.008276640268856e-05   -1.4784121369513722e-05   -5.3029475295038146e-05
4.008276640268856e-05   -1.4784121369513722e-05   -5.3029475295038146e-05
4.008276640268856e-05   -1.4784121369513722e-05   -5.3029475295038146e-05
2.2501073158412346e-05   -1.0023658484876932e-05   -2.658293095202666e-05
2.2501073158412346e-05   -1.0023658484876932e-05   -2.658293095202666e-05
2.2501073158412346e-05   -1.0023658484876932e-05   -2.658293095202666e-05
2.2501073158412346e-05   -1.0023658484876932e-05   -2.658293095202666e-05
4.008276640268845e-05   -7.2235003513209176e-06   4.138754998664492e-06
4.008276640268845e-05   -7.2235003513209176e-06   4.138754998664492e-06
4.008276640268845e-05   -7.2235003513209176e-06   4.138754998664492e-06
4.008276640268845e-05   -7.2235003513209176e-06   4.138754998664492e-06
5.781828226466906e-06   -1.4784121369513722e-05   -5.7565847905953656e-05
5.781828226466906e-06   -1.4784121369513722e-05   -5.7565847905953656e-05
5.781828226466906e-06   -1.4784121369513722e-05   -5.7565847905953656e-05
5.781828226466906e-06   -1.4784121369513722e-05   -5.7565847905953656e-05
6.790635197030914e-06   -6.548769603590809e-06   -7.609892249869042e-07
6.790635197030914e-06   -6.548769603590809e-06   -7.609892249869042e-07
6.790635197030914e-06   -6.548769603590809e-06   -7.609892249869042e-07
6.790635197030914e-06   -6.548769603590809e-06   -7.609892249869042e-07
4.08931157172132e-05   -1.458688598165699e-05   -5.277558693178477e-05
4.08931157172132e-05   -1.458688598165699e-05   -5.277558693178477e-05
4.08931157172132e-05   -1.458688598165699e-05   -5.277558693178477e-05
4.08931157172132e-05   -1.458688598165699e-05   -5.277558693178477e-05
2.313639615728741e-05   -1.0135075601131133e-05   -2.5852140560222894e-05
2.313639615728741e-05   -1.0135075601131133e-05   -2.5852140560222894e-05
2.313639615728741e-05   -1.0135075601131133e-05   -2.5852140560222894e-05
2.313639615728741e-05   -1.0135075601131133e-05   -2.5852140560222894e-05
4.08931157172132e-05   -6.548769603590375e-06   4.061880601852425e-06
4.08931157172132e-05   -6.548769603590375e-06   4.061880601852425e-06
4.08931157172132e-05   -6.548769603590375e-06   4.061880601852425e-06
4.08931157172132e-05   -6.548769603590375e-06   4.061880601852425e-06
6.790635197030914e-06   -1.458688598165699e-05   -5.759845675862426e-05
6.790635197030914e-06   -1.458688598165699e-05   -5.759845675862426e-05
6.790635197030914e-06   -1.458688598165699e-05   -5.759845675862426e-05
6.790635197030914e-06   -1.458688598165699e-05   -5.759845675862426e-05
8.296032534763678e-06   -5.588849630718158e-06   -1.4597164637256826e-06
8.296032534763678e-06   -5.588849630718158e-06   -1.4597164637256826e-06
8.296032534763678e-06   -5.588849630718158e-06   -1.4597164637256826e-06
8.296032534763678e-06   -5.588849630718158e-06   -1.4597164637256826e-06
4.1740144150164505e-05   -1.4192054024470772e-05   -5.203797985314264e-05
4.1740144150164505e-05   -1.4192054024470772e-05   -5.203797985314264e-05
4.1740144150164505e-05   -1.4192054024470772e-05   -5.203797985314264e-05
4.1740144150164505e-05   -1.4192054024470772e-05   -5.203797985314264e-05
2.434584956533865e-05   -9.979238947775866e-06   -2.557517792444949e-05
2.434584956533865e-05   -9.979238947775866e-06   -2.557517792444949e-05
2.434584956533865e-05   -9.979238947775866e-06   -2.557517792444949e-05
2.434584956533865e-05   -9.979238947775866e-06   -2.557517792444949e-05
4.664277265001277e-06   -3.99670291854155e-06   -5.937800846002653e-06
4.664277265001277e-06   -3.99670291854155e-06   -5.937800846002653e-06
4.664277265001277e-06   -3.99670291854155e-06   -5.937800846002653e-06
4.664277265001277e-06   -3.99670291854155e-06   -5.937800846002653e-06
-2.944018868872712e-05   -1.7948816901018454e-05   -7.114984582503605e-05
-2.944018868872712e-05   -1.7948816901018454e-05   -7.114984582503605e-05
-2.944018868872712e-05   -1.7948816901018454e-05   -7.114984582503605e-05
-2.944018868872712e-05   -1.7948816901018454e-05   -7.114984582503605e-05
-2.7699629325073777e-05   -3.5706357239448892e-06   -1.2785874653958168e-05
-2.7699629325073777e-05   -3.5706357239448892e-06   -1.2785874653958168e-05
-2.7699629325073777e-05   -3.5706357239448892e-06   -1.2785874653958168e-05
-2.7699629325073777e-05   -3.5706357239448892e-06   -1.2785874653958168e-05
5.781828226466906e-06   -1.8347229745661452e-05   -5.9722347493496334e-05
5.781828226466906e-06   -1.8347229745661452e-05   -5.9722347493496334e-05
5.781828226466906e-06   -1.8347229745661452e-05   -5.9722347493496334e-05
5.781828226466906e-06   -1.8347229745661452e-05   -5.9722347493496334e-05
-1.1278725236374464e-05   -1.0154149699155481e-05   -3.620393974999728e-05
-1.1278725236374464e-05   -1.0154149699155481e-05   -3.620393974999728e-05
-1.1278725236374464e-05   -1.0154149699155481e-05   -3.620393974999728e-05
-1.1278725236374464e-05   -1.0154149699155481e-05   -3.620393974999728e-05
5.781828226466906e-06   -3.5706357239448892e-06   -3.919918240928241e-06
5.781828226466906e-06   -3.5706357239448892e-06   -3.919918240928241e-06
5.781828226466906e-06   -3.5706357239448892e-06   -3.919918240928241e-06
5.781828226466906e-06   -3.5706357239448892e-06   -3.919918240928241e-06
-2.7699629325073817e-05   -1.8347229745661452e-05   -6.858830390652632e-05
-2.7699629325073817e-05   -1.8347229745661452e-05   -6.858830390652632e-05
-2.7699629325073817e-05   -1.8347229745661452e-05   -6.858830390652632e-05
-2.7699629325073817e-05   -1.8347229745661452e-05   -6.858830390652632e-05
-2.620002565310613e-05   -2.9060677747445862e-06   -1.1941669663610276e-05
-2.620002565310613e-05   -2.9060677747445862e-06   -1.1941669663610276e-05
-2.620002565310613e-05   -2.9060677747445862e-06   -1.1941669663610276e-05
-2.620002565310613e-05   -2.9060677747445862e-06   -1.1941669663610276e-05
6.790635197030914e-06   -1.8263170642658557e-05   -5.7711842693090225e-05
6.790635197030914e-06   -1.8263170642658557e-05   -5.7711842693090225e-05
6.790635197030914e-06   -1.8263170642658557e-05   -5.7711842693090225e-05
6.790635197030914e-06   -1.8263170642658557e-05   -5.7711842693090225e-05
-1.0042638782651269e-05   -1.0385533297880807e-05   -3.438296846715338e-05
-1.0042638782651269e-05   -1.0385533297880807e-05   -3.438296846715338e-05
-1.0042638782651269e-05   -1.0385533297880807e-05   -3.438296846715338e-05
-1.0042638782651269e-05   -1.0385533297880807e-05   -3.438296846715338e-05
6.790635197030914e-06   -2.9060677747445862e-06   -2.72740794286165e-06
6.790635197030914e-06   -2.9060677747445862e-06   -2.72740794286165e-06
6.790635197030914e-06   -2.9060677747445862e-06   -2.72740794286165e-06
6.790635197030914e-06   -2.9060677747445862e-06   -2.72740794286165e-06
-2.6200025653106226e-05   -1.8263170642658557e-05   -6.692610441383861e-05
-2.6200025653106226e-05   -1.8263170642658557e-05   -6.692610441383861e-05
-2.6200025653106226e-05   -1.8263170642658557e-05   -6.692610441383861e-05
-2.6200025653106226e-05   -1.8263170642658557e-05   -6.692610441383861e-05
-2.3612831383588713e-05   -2.276045156040206e-06   -1.1890651009717132e-05
-2.3612831383588713e-05   -2.276045156040206e-06   -1.1890651009717132e-05
-2.3612831383588713e-05   -2.276045156040206e-06   -1.1890651009717132e-05
-2.3612831383588713e-05   -2.276045156040206e-06   -1.1890651009717132e-05
8.296032534763678e-06   -1.7624843510371732e-05   -5.586281186103874e-05
8.296032534763678e-06   -1.7624843510371732e-05   -5.586281186103874e-05
8.296032534763678e-06   -1.7624843510371732e-05   -5.586281186103874e-05
8.296032534763678e-06   -1.7624843510371732e-05   -5.586281186103874e-05
-8.436393698584027e-06   -1.0156826784146452e-05   -3.245624484119467e-05
-8.436393698584027e-06   -1.0156826784146452e-05   -3.245624484119467e-05
-8.436393698584027e-06   -1.0156826784146452e-05   -3.245624484119467e-05
-8.436393698584027e-06   -1.0156826784146452e-05   -3.245624484119467e-05
-2.944018868872708e-05   9.852325192848642e-07   -8.311440028896169e-06
-2.944018868872708e-05   9.852325192848642e-07   -8.311440028896169e-06
-2.944018868872708e-05   9.852325192848642e-07   -8.311440028896169e-06
-2.944018868872708e-05   9.852325192848642e-07   -8.311440028896169e-06
-6.749899597052527e-05   -2.2402030664999545e-05   -8.577514340913045e-05
-6.749899597052527e-05   -2.2402030664999545e-05   -8.577514340913045e-05
-6.749899597052527e-05   -2.2402030664999545e-05   -8.577514340913045e-05
-6.749899597052527e-05   -2.2402030664999545e-05   -8.577514340913045e-05
-6.542208854901148e-05   1.7749063990902918e-06   -2.1650430922426443e-05
-6.542208854901148e-05   1.7749063990902918e-06   -2.1650430922426443e-05
-6.542208854901148e-05   1.7749063990902918e-06   -2.1650430922426443e-05
-6.542208854901148e-05   1.7749063990902918e-06   -2.1650430922426443e-05
-2.7699629325073777e-05   -2.500489808603514e-05   -6.845331360458089e-05
-2.7699629325073777e-05   -2.500489808603514e-05   -6.845331360458089e-05
-2.7699629325073777e-05   -2.500489808603514e-05   -6.845331360458089e-05
-2.7699629325073777e-05   -2.500489808603514e-05   -6.845331360458089e-05
-4.683047866040313e-05   -1.1404256170049164e-05   -4.472894986195662e-05
-4.683047866040313e-05   -1.1404256170049164e-05   -4.472894986195662e-05
-4.683047866040313e-05   -1.1404256170049164e-05   -4.472894986195662e-05
-4.683047866040313e-05   -1.1404256170049164e-05   -4.472894986195662e-05
-2.7699629325073777e-05   1.7749063990902918e-06   -5.582548231351336e-06
-2.7699629325073777e-05   1.7749063990902918e-06   -5.582548231351336e-06
-2.7699629325073777e-05   1.7749063990902918e-06   -5.582548231351336e-06
-2.7699629325073777e-05   1.7749063990902918e-06   -5.582548231351336e-06
-6.542208854901159e-05   -2.5004898086034705e-05   -8.452119629565611e-05
-6.542208854901159e-05   -2.5004898086034705e-05   -8.452119629565611e-05
-6.542208854901159e-05   -2.5004898086034705e-05   -8.452119629565611e-05
-6.542208854901159e-05   -2.5004898086034705e-05   -8.452119629565611e-05
-6.343098706849517e-05   2.5020435854027946e-06   -1.9349309598921255e-05
-6.343098706849517e-05   2.5020435854027946e-06   -1.9349309598921255e-05
-6.343098706849517e-05   2.5020435854027946e-06   -1.9349309598921255e-05
-6.343098706849517e-05   2.5020435854027946e-06   -1.9349309598921255e-05
-2.6200025653106185e-05   -2.514620871303403e-05   -6.481196057884077e-05
-2.6200025653106185e-05   -2.514620871303403e-05   -6.481196057884077e-05
-2.6200025653106185e-05   -2.514620871303403e-05   -6.481196057884077e-05
-2.6200025653106185e-05   -2.514620871303403e-05   -6.481196057884077e-05
-4.480545275977287e-05   -1.1444535694649658e-05   -4.202391921209368e-05
-4.480545275977287e-05   -1.1444535694649658e-05   -4.202391921209368e-05
-4.480545275977287e-05   -1.1444535694649658e-05   -4.202391921209368e-05
-4.480545275977287e-05   -1.1444535694649658e-05   -4.202391921209368e-05
-2.6200025653106185e-05   2.5020435854027946e-06   -2.760358219859192e-06
-2.6200025653106185e-05   2.5020435854027946e-06   -2.760358219859192e-06
-2.6200025653106185e-05   2.5020435854027946e-06   -2.760358219859192e-06
-2.6200025653106185e-05   2.5020435854027946e-06   -2.760358219859192e-06
-6.343098706849528e-05   -2.514620871303403e-05   -8.140091195790321e-05
-6.343098706849528e-05   -2.514620871303403e-05   -8.140091195790321e-05
-6.343098706849528e-05   -2.514620871303403e-05   -8.140091195790321e-05
-6.343098706849528e-05   -2.514620871303403e-05   -8.140091195790321e-05
-6.016872875756612e-05   3.11753755376969e-06   -1.700455349928757e-05
-6.016872875756612e-05   3.11753755376969e-06   -1.700455349928757e-05
-6.016872875756612e-05   3.11753755376969e-06   -1.700455349928757e-05
-6.016872875756612e-05   3.11753755376969e-06   -1.700455349928757e-05
-2.3612831383588808e-05   -2.2959425545509334e-05   -6.228487126301607e-05
-2.3612831383588808e-05   -2.2959425545509334e-05   -6.228487126301607e-05
-2.3612831383588808e-05   -2.2959425545509334e-05   -6.228487126301607e-05
-2.3612831383588808e-05   -2.2959425545509334e-05   -6.228487126301607e-05
-4.280438363276751e-05   -1.011590986485034e-05   -3.8005060256113385e-05
-4.280438363276751e-05   -1.011590986485034e-05   -3.8005060256113385e-05
-4.280438363276751e-05   -1.011590986485034e-05   -3.8005060256113385e-05
-4.280438363276751e-05   -1.011590986485034e-05   -3.8005060256113385e-05
-6.749899597052527e-05   9.627649095464777e-06   -1.465286900019445e-05
-6.749899597052527e-05   9.627649095464777e-06   -1.465286900019445e-05
-6.749899597052527e-05   9.627649095464777e-06   -1.465286900019445e-05
-6.749899597052527e-05   9.627649095464777e-06   -1.465286900019445e-05
-0.0001162615799169773   0.0   -0.00010170043170156071
-0.0001162615799169773   0.0   -0.00010170043170156071
-0.0001162615799169773   0.0   -0.00010170043170156071
-0.0001162615799169773   0.0   -0.00010170043170156071
-0.00011322116702368527   1.2195531778026562e-05   -1.1248569731918488e-05
-0.00011322116702368527   1.2195531778026562e-05   -1.1248569731918488e-05
-0.00011322116702368527   1.2195531778026562e-05   -1.1248569731918488e-05
-0.00011322116702368527   1.2195531778026562e-05   -1.1248569731918488e-05
-6.542208854901148e-05   0.0   -8.359638145622535e-05
-6.542208854901148e-05   0.0   -8.359638145622535e-05
-6.542208854901148e-05   0.0   -8.359638145622535e-05
-6.542208854901148e-05   0.0   -8.359638145622535e-05
-8.675094614322369e-05   3.723130510638068e-06   -5.0282163772254564e-05
-8.675094614322369e-05   3.723130510638068e-06   -5.0282163772254564e-05
-8.675094614322369e-05   3.723130510638068e-06   -5.0282163772254564e-05
-8.675094614322369e-05   3.723130510638068e-06   -5.0282163772254564e-05
-6.542208854901153e-05   1.2195531778026996e-05   -3.931250665102329e-06
-6.542208854901153e-05   1.2195531778026996e-05   -3.931250665102329e-06
-6.542208854901153e-05   1.2195531778026996e-05   -3.931250665102329e-06
-6.542208854901153e-05   1.2195531778026996e-05   -3.931250665102329e-06
-0.00011322116702368508   0.0   -9.091370052304146e-05
-0.00011322116702368508   0.0   -9.091370052304146e-05
-0.00011322116702368508   0.0   -9.091370052304146e-05
-0.00011322116702368508   0.0   -9.091370052304146e-05
-0.000110650080001639   1.2772292034226966e-05   -4.510184172002623e-06
-0.000110650080001639   1.2772292034226966e-05   -4.510184172002623e-06
-0.000110650080001639   1.2772292034226966e-05   -4.510184172002623e-06
-0.000110650080001639   1.2772292034226966e-05   -4.510184172002623e-06
-6.343098706849528e-05   0.0   -7.554529717337336e-05
-6.343098706849528e-05   0.0   -7.554529717337336e-05
-6.343098706849528e-05   0.0   -7.554529717337336e-05
-6.343098706849528e-05   0.0   -7.554529717337336e-05
-8.584123272127433e-05   5.904657444679795e-06   -4.1737682218881346e-05
-8.584123272127433e-05   5.904657444679795e-06   -4.1737682218881346e-05
-8.584123272127433e-05   5.904657444679795e-06   -4.1737682218881346e-05
-8.584123272127433e-05   5.904657444679795e-06   -4.1737682218881346e-05
-6.343098706849528e-05   1.2772292034226532e-05   3.1531910485331965e-06
-6.343098706849528e-05   1.2772292034226532e-05   3.1531910485331965e-06
-6.343098706849528e-05   1.2772292034226532e-05   3.1531910485331965e-06
-6.343098706849528e-05   1.2772292034226532e-05   3.1531910485331965e-06
-0.00011065008000163882   0.0   -8.320867239390876e-05
-0.00011065008000163882   0.0   -8.320867239390876e-05
-0.00011065008000163882   0.0   -8.320867239390876e-05
-0.00011065008000163882   0.0   -8.320867239390876e-05
-0.0001055212085308584   1.3765119809873612e-05   6.3322897307458575e-06
-0.0001055212085308584   1.3765119809873612e-05   6.3322897307458575e-06
-0.0001055212085308584   1.3765119809873612e-05   6.3322897307458575e-06
-0.0001055212085308584   1.3765119809873612e-05   6.3322897307458575e-06
-6.016872875756617e-05   0.0   -6.099610467215008e-05
-6.016872875756617e-05   0.0   -6.099610467215008e-05
-6.016872875756617e-05   0.0   -6.099610467215008e-05
-6.016872875756617e-05   0.0   -6.099610467215008e-05
-8.136807988655722e-05   7.2845717318953136e-06   -3.0034595829636353e-05
-8.136807988655722e-05   7.2845717318953136e-06   -3.0034595829636353e-05
-8.136807988655722e-05   7.2845717318953136e-06   -3.0034595829636353e-05
-8.136807988655722e-05   7.2845717318953136e-06   -3.0034595829636353e-05
8.609372845997008e-05   -1.479007637946025e-05   5.140324189875428e-05
8.609372845997008e-05   -1.479007637946025e-05   5.140324189875428e-05
8.609372845997008e-05   -1.479007637946025e-05   5.140324189875428e-05
8.609372845997008e-05   -1.479007637946025e-05   5.140324189875428e-05
4.467674037409591e-05   -1.1390551123313664e-05   -1.5585356424014686e-05
4.467674037409591e-05   -1.1390551123313664e-05   -1.5585356424014686e-05
4.467674037409591e-05   -1.1390551123313664e-05   -1.5585356424014686e-05
4.467674037409591e-05   -1.1390551123313664e-05   -1.5585356424014686e-05
4.35510738260101e-05   -1.5160038267136161e-05   4.540603087349951e-05
4.35510738260101e-05   -1.5160038267136161e-05   4.540603087349951e-05
4.35510738260101e-05   -1.5160038267136161e-05   4.540603087349951e-05
4.35510738260101e-05   -1.5160038267136161e-05   4.540603087349951e-05
8.517056093375933e-05   -1.2524683609806218e-05   -2.5540993767147243e-05
8.517056093375933e-05   -1.2524683609806218e-05   -2.5540993767147243e-05
8.517056093375933e-05   -1.2524683609806218e-05   -2.5540993767147243e-05
8.517056093375933e-05   -1.2524683609806218e-05   -2.5540993767147243e-05
6.221890268011897e-05   -1.2740793003035433e-05   1.2841435624857348e-05
6.221890268011897e-05   -1.2740793003035433e-05   1.2841435624857348e-05
6.221890268011897e-05   -1.2740793003035433e-05   1.2841435624857348e-05
6.221890268011897e-05   -1.2740793003035433e-05   1.2841435624857348e-05
8.517056093375933e-05   -1.5160038267136161e-05   4.382481807910151e-05
8.517056093375933e-05   -1.5160038267136161e-05   4.382481807910151e-05
8.517056093375933e-05   -1.5160038267136161e-05   4.382481807910151e-05
8.517056093375933e-05   -1.5160038267136161e-05   4.382481807910151e-05
4.35510738260101e-05   -1.2524683609806218e-05   -2.395978097274919e-05
4.35510738260101e-05   -1.2524683609806218e-05   -2.395978097274919e-05
4.35510738260101e-05   -1.2524683609806218e-05   -2.395978097274919e-05
4.35510738260101e-05   -1.2524683609806218e-05   -2.395978097274919e-05
4.253292640717189e-05   -1.502322791031548e-05   4.0770710646975596e-05
4.253292640717189e-05   -1.502322791031548e-05   4.0770710646975596e-05
4.253292640717189e-05   -1.502322791031548e-05   4.0770710646975596e-05
4.253292640717189e-05   -1.502322791031548e-05   4.0770710646975596e-05
8.410349723118433e-05   -1.2629500723192189e-05   -2.9949810371985913e-05
8.410349723118433e-05   -1.2629500723192189e-05   -2.9949810371985913e-05
8.410349723118433e-05   -1.2629500723192189e-05   -2.9949810371985913e-05
8.410349723118433e-05   -1.2629500723192189e-05   -2.9949810371985913e-05
6.21696447572493e-05   -1.296422563434093e-05   6.807445364595088e-06
6.21696447572493e-05   -1.296422563434093e-05   6.807445364595088e-06
6.21696447572493e-05   -1.296422563434093e-05   6.807445364595088e-06
6.21696447572493e-05   -1.296422563434093e-05   6.807445364595088e-06
8.410349723118445e-05   -1.5023227910315913e-05   3.9334474334701535e-05
8.410349723118445e-05   -1.5023227910315913e-05   3.9334474334701535e-05
8.410349723118445e-05   -1.5023227910315913e-05   3.9334474334701535e-05
8.410349723118445e-05   -1.5023227910315913e-05   3.9334474334701535e-05
4.253292640717189e-05   -1.2629500723192189e-05   -2.851357405971185e-05
4.253292640717189e-05   -1.2629500723192189e-05   -2.851357405971185e-05
4.253292640717189e-05   -1.2629500723192189e-05   -2.851357405971185e-05
4.253292640717189e-05   -1.2629500723192189e-05   -2.851357405971185e-05
4.1290844317427774e-05   -1.4189014861847819e-05   3.322947785441713e-05
4.1290844317427774e-05   -1.4189014861847819e-05   3.322947785441713e-05
4.1290844317427774e-05   -1.4189014861847819e-05   3.322947785441713e-05
4.1290844317427774e-05   -1.4189014861847819e-05   3.322947785441713e-05
8.243165249084248e-05   -1.2367532899487665e-05   -3.643142494535643e-05
8.243165249084248e-05   -1.2367532899487665e-05   -3.643142494535643e-05
8.243165249084248e-05   -1.2367532899487665e-05   -3.643142494535643e-05
8.243165249084248e-05   -1.2367532899487665e-05   -3.643142494535643e-05
6.004550239462674e-05   -1.232787295387598e-05   8.550292476357984e-07
6.004550239462674e-05   -1.232787295387598e-05   8.550292476357984e-07
6.004550239462674e-05   -1.232787295387598e-05   8.550292476357984e-07
6.004550239462674e-05   -1.232787295387598e-05   8.550292476357984e-07
4.467674037409591e-05   -1.4859449884324985e-05   3.842247132085781e-05
4.467674037409591e-05   -1.4859449884324985e-05   3.842247132085781e-05
4.467674037409591e-05   -1.4859449884324985e-05   3.842247132085781e-05
4.467674037409591e-05   -1.4859449884324985e-05   3.842247132085781e-05
9.539916493420683e-06   -7.05032169172554e-06   -1.5453424898041355e-05
9.539916493420683e-06   -7.05032169172554e-06   -1.5453424898041355e-05
9.539916493420683e-06   -7.05032169172554e-06   -1.5453424898041355e-05
9.539916493420683e-06   -7.05032169172554e-06   -1.5453424898041355e-05
7.75835838712918e-06   -1.4784121369513722e-05   4.387249986983772e-05
7.75835838712918e-06   -1.4784121369513722e-05   4.387249986983772e-05
7.75835838712918e-06   -1.4784121369513722e-05   4.387249986983772e-05
7.75835838712918e-06   -1.4784121369513722e-05   4.387249986983772e-05
4.35510738260101e-05   -7.478362308745504e-06   -2.0165481298091382e-05
4.35510738260101e-05   -7.478362308745504e-06   -2.0165481298091382e-05
4.35510738260101e-05   -7.478362308745504e-06   -2.0165481298091382e-05
4.35510738260101e-05   -7.478362308745504e-06   -2.0165481298091382e-05
2.6345100705180027e-05   -1.0634404404345765e-05   1.0404765827318977e-05
2.6345100705180027e-05   -1.0634404404345765e-05   1.0404765827318977e-05
2.6345100705180027e-05   -1.0634404404345765e-05   1.0404765827318977e-05
2.6345100705180027e-05   -1.0634404404345765e-05   1.0404765827318977e-05
4.3551073826010074e-05   -1.4784121369513722e-05   3.948904443337709e-05
4.3551073826010074e-05   -1.4784121369513722e-05   3.948904443337709e-05
4.3551073826010074e-05   -1.4784121369513722e-05   3.948904443337709e-05
4.3551073826010074e-05   -1.4784121369513722e-05   3.948904443337709e-05
7.75835838712918e-06   -7.478362308745504e-06   -1.578202586163032e-05
7.75835838712918e-06   -7.478362308745504e-06   -1.578202586163032e-05
7.75835838712918e-06   -7.478362308745504e-06   -1.578202586163032e-05
7.75835838712918e-06   -7.478362308745504e-06   -1.578202586163032e-05
6.488166520184221e-06   -1.458688598165699e-05   4.39410269301309e-05
6.488166520184221e-06   -1.458688598165699e-05   4.39410269301309e-05
6.488166520184221e-06   -1.458688598165699e-05   4.39410269301309e-05
6.488166520184221e-06   -1.458688598165699e-05   4.39410269301309e-05
4.253292640717189e-05   -7.669287546546982e-06   -2.028413194258118e-05
4.253292640717189e-05   -7.669287546546982e-06   -2.028413194258118e-05
4.253292640717189e-05   -7.669287546546982e-06   -2.028413194258118e-05
4.253292640717189e-05   -7.669287546546982e-06   -2.028413194258118e-05
2.481854435854448e-05   -1.0416974332310433e-05   1.0888450209923508e-05
2.481854435854448e-05   -1.0416974332310433e-05   1.0888450209923508e-05
2.481854435854448e-05   -1.0416974332310433e-05   1.0888450209923508e-05
2.481854435854448e-05   -1.0416974332310433e-05   1.0888450209923508e-05
4.253292640717194e-05   -1.4586885981656555e-05   3.979046786906502e-05
4.253292640717194e-05   -1.4586885981656555e-05   3.979046786906502e-05
4.253292640717194e-05   -1.4586885981656555e-05   3.979046786906502e-05
4.253292640717194e-05   -1.4586885981656555e-05   3.979046786906502e-05
6.488166520184221e-06   -7.669287546546982e-06   -1.613357288151522e-05
6.488166520184221e-06   -7.669287546546982e-06   -1.613357288151522e-05
6.488166520184221e-06   -7.669287546546982e-06   -1.613357288151522e-05
6.488166520184221e-06   -7.669287546546982e-06   -1.613357288151522e-05
5.075094676241376e-06   -1.4192054024470772e-05   4.537311843867773e-05
5.075094676241376e-06   -1.4192054024470772e-05   4.537311843867773e-05
5.075094676241376e-06   -1.4192054024470772e-05   4.537311843867773e-05
5.075094676241376e-06   -1.4192054024470772e-05   4.537311843867773e-05
4.1290844317427747e-05   -7.4974054842980205e-06   -1.9003253420736294e-05
4.1290844317427747e-05   -7.4974054842980205e-06   -1.9003253420736294e-05
4.1290844317427747e-05   -7.4974054842980205e-06   -1.9003253420736294e-05
4.1290844317427747e-05   -7.4974054842980205e-06   -1.9003253420736294e-05
2.3884470433447626e-05   -9.960760894333698e-06   1.1485382965251839e-05
2.3884470433447626e-05   -9.960760894333698e-06   1.1485382965251839e-05
2.3884470433447626e-05   -9.960760894333698e-06   1.1485382965251839e-05
2.3884470433447626e-05   -9.960760894333698e-06   1.1485382965251839e-05
9.539916493420683e-06   -1.7948816901018454e-05   3.954176974824841e-05
9.539916493420683e-06   -1.7948816901018454e-05   3.954176974824841e-05
9.539916493420683e-06   -1.7948816901018454e-05   3.954176974824841e-05
9.539916493420683e-06   -1.7948816901018454e-05   3.954176974824841e-05
-2.421175011544074e-05   -2.975921001398523e-06   -7.727270393415682e-06
-2.421175011544074e-05   -2.975921001398523e-06   -7.727270393415682e-06
-2.421175011544074e-05   -2.975921001398523e-06   -7.727270393415682e-06
-2.421175011544074e-05   -2.975921001398523e-06   -7.727270393415682e-06
-2.6983364238461152e-05   -1.8347229745661452e-05   5.0838677654794356e-05
-2.6983364238461152e-05   -1.8347229745661452e-05   5.0838677654794356e-05
-2.6983364238461152e-05   -1.8347229745661452e-05   5.0838677654794356e-05
-2.6983364238461152e-05   -1.8347229745661452e-05   5.0838677654794356e-05
7.75835838712918e-06   -3.142767458163241e-06   -1.6186870760354945e-05
7.75835838712918e-06   -3.142767458163241e-06   -1.6186870760354945e-05
7.75835838712918e-06   -3.142767458163241e-06   -1.6186870760354945e-05
7.75835838712918e-06   -3.142767458163241e-06   -1.6186870760354945e-05
-8.171268877764604e-06   -1.0262975053316765e-05   1.463463257156026e-05
-8.171268877764604e-06   -1.0262975053316765e-05   1.463463257156026e-05
-8.171268877764604e-06   -1.0262975053316765e-05   1.463463257156026e-05
-8.171268877764604e-06   -1.0262975053316765e-05   1.463463257156026e-05
7.75835838712918e-06   -1.8347229745661452e-05   4.171600028229566e-05
7.75835838712918e-06   -1.8347229745661452e-05   4.171600028229566e-05
7.75835838712918e-06   -1.8347229745661452e-05   4.171600028229566e-05
7.75835838712918e-06   -1.8347229745661452e-05   4.171600028229566e-05
-2.6983364238461098e-05   -3.142767458163241e-06   -7.064193387856061e-06
-2.6983364238461098e-05   -3.142767458163241e-06   -7.064193387856061e-06
-2.6983364238461098e-05   -3.142767458163241e-06   -7.064193387856061e-06
-2.6983364238461098e-05   -3.142767458163241e-06   -7.064193387856061e-06
-2.8676972120991447e-05   -1.8263170642658557e-05   5.277736482741128e-05
-2.8676972120991447e-05   -1.8263170642658557e-05   5.277736482741128e-05
-2.8676972120991447e-05   -1.8263170642658557e-05   5.277736482741128e-05
-2.8676972120991447e-05   -1.8263170642658557e-05   5.277736482741128e-05
6.488166520184221e-06   -3.3469642564147237e-06   -1.4780923406294399e-05
6.488166520184221e-06   -3.3469642564147237e-06   -1.4780923406294399e-05
6.488166520184221e-06   -3.3469642564147237e-06   -1.4780923406294399e-05
6.488166520184221e-06   -3.3469642564147237e-06   -1.4780923406294399e-05
-1.004744858556093e-05   -1.0231447188147275e-05   1.6909124862320634e-05
-1.004744858556093e-05   -1.0231447188147275e-05   1.6909124862320634e-05
-1.004744858556093e-05   -1.0231447188147275e-05   1.6909124862320634e-05
-1.004744858556093e-05   -1.0231447188147275e-05   1.6909124862320634e-05
6.488166520184221e-06   -1.8263170642658557e-05   4.3827640995664966e-05
6.488166520184221e-06   -1.8263170642658557e-05   4.3827640995664966e-05
6.488166520184221e-06   -1.8263170642658557e-05   4.3827640995664966e-05
6.488166520184221e-06   -1.8263170642658557e-05   4.3827640995664966e-05
-2.8676972120991406e-05   -3.3469642564147237e-06   -5.831199574548055e-06
-2.8676972120991406e-05   -3.3469642564147237e-06   -5.831199574548055e-06
-2.8676972120991406e-05   -3.3469642564147237e-06   -5.831199574548055e-06
-2.8676972120991406e-05   -3.3469642564147237e-06   -5.831199574548055e-06
-3.066939148812011e-05   -1.7624843510371732e-05   5.528826913921625e-05
-3.066939148812011e-05   -1.7624843510371732e-05   5.528826913921625e-05
-3.066939148812011e-05   -1.7624843510371732e-05   5.528826913921625e-05
-3.066939148812011e-05   -1.7624843510371732e-05   5.528826913921625e-05
5.075094676241403e-06   -3.328076723398826e-06   -1.2863934540236323e-05
5.075094676241403e-06   -3.328076723398826e-06   -1.2863934540236323e-05
5.075094676241403e-06   -3.328076723398826e-06   -1.2863934540236323e-05
5.075094676241403e-06   -3.328076723398826e-06   -1.2863934540236323e-05
-1.1575009623380648e-05   -9.825713791853513e-06   1.8784821533539536e-05
-1.1575009623380648e-05   -9.825713791853513e-06   1.8784821533539536e-05
-1.1575009623380648e-05   -9.825713791853513e-06   1.8784821533539536e-05
-1.1575009623380648e-05   -9.825713791853513e-06   1.8784821533539536e-05
-2.4211750115440793e-05   -2.2402030664999545e-05   4.793256761449622e-05
-2.4211750115440793e-05   -2.2402030664999545e-05   4.793256761449622e-05
-2.4211750115440793e-05   -2.2402030664999545e-05   4.793256761449622e-05
-2.4211750115440793e-05   -2.2402030664999545e-05   4.793256761449622e-05
-6.265838589697602e-05   3.1680919718268634e-06   -8.030851059665032e-07
-6.265838589697602e-05   3.1680919718268634e-06   -8.030851059665032e-07
-6.265838589697602e-05   3.1680919718268634e-06   -8.030851059665032e-07
-6.265838589697602e-05   3.1680919718268634e-06   -8.030851059665032e-07
-6.598744201864424e-05   -2.5004898086034705e-05   6.776221934493508e-05
-6.598744201864424e-05   -2.5004898086034705e-05   6.776221934493508e-05
-6.598744201864424e-05   -2.5004898086034705e-05   6.776221934493508e-05
-6.598744201864424e-05   -2.5004898086034705e-05   6.776221934493508e-05
-2.6983364238461098e-05   2.9760208942906582e-06   -1.4033128343565477e-05
-2.6983364238461098e-05   2.9760208942906582e-06   -1.4033128343565477e-05
-2.6983364238461098e-05   2.9760208942906582e-06   -1.4033128343565477e-05
-2.6983364238461098e-05   2.9760208942906582e-06   -1.4033128343565477e-05
-4.433076207964618e-05   -9.314404565141437e-06   2.22534566674021e-05
-4.433076207964618e-05   -9.314404565141437e-06   2.22534566674021e-05
-4.433076207964618e-05   -9.314404565141437e-06   2.22534566674021e-05
-4.433076207964618e-05   -9.314404565141437e-06   2.22534566674021e-05
-2.6983364238461098e-05   -2.500489808603514e-05   5.097366795673986e-05
-2.6983364238461098e-05   -2.500489808603514e-05   5.097366795673986e-05
-2.6983364238461098e-05   -2.500489808603514e-05   5.097366795673986e-05
-2.6983364238461098e-05   -2.500489808603514e-05   5.097366795673986e-05
-6.598744201864414e-05   2.9760208942906582e-06   2.7554230446300444e-06
-6.598744201864414e-05   2.9760208942906582e-06   2.7554230446300444e-06
-6.598744201864414e-05   2.9760208942906582e-06   2.7554230446300444e-06
-6.598744201864414e-05   2.9760208942906582e-06   2.7554230446300444e-06
-6.801684696998237e-05   -2.514620871303403e-05   7.155362995253135e-05
-6.801684696998237e-05   -2.514620871303403e-05   7.155362995253135e-05
-6.801684696998237e-05   -2.514620871303403e-05   7.155362995253135e-05
-6.801684696998237e-05   -2.514620871303403e-05   7.155362995253135e-05
-2.8676972120991406e-05   2.6239934371695417e-06   -1.067494941924224e-05
-2.8676972120991406e-05   2.6239934371695417e-06   -1.067494941924224e-05
-2.8676972120991406e-05   2.6239934371695417e-06   -1.067494941924224e-05
-2.8676972120991406e-05   2.6239934371695417e-06   -1.067494941924224e-05
-4.649450126293573e-05   -1.0718930462169174e-05   2.7026686823601554e-05
-4.649450126293573e-05   -1.0718930462169174e-05   2.7026686823601554e-05
-4.649450126293573e-05   -1.0718930462169174e-05   2.7026686823601554e-05
-4.649450126293573e-05   -1.0718930462169174e-05   2.7026686823601554e-05
-2.8676972120991406e-05   -2.514620871303403e-05   5.489150866240931e-05
-2.8676972120991406e-05   -2.514620871303403e-05   5.489150866240931e-05
-2.8676972120991406e-05   -2.514620871303403e-05   5.489150866240931e-05
-2.8676972120991406e-05   -2.514620871303403e-05   5.489150866240931e-05
-6.801684696998226e-05   2.6239934371695417e-06   5.987171870879991e-06
-6.801684696998226e-05   2.6239934371695417e-06   5.987171870879991e-06
-6.801684696998226e-05   2.6239934371695417e-06   5.987171870879991e-06
-6.801684696998226e-05   2.6239934371695417e-06   5.987171870879991e-06
-7.020308287715966e-05   -2.2959425545509334e-05   7.318655424333898e-05
-7.020308287715966e-05   -2.2959425545509334e-05   7.318655424333898e-05
-7.020308287715966e-05   -2.2959425545509334e-05   7.318655424333898e-05
-7.020308287715966e-05   -2.2959425545509334e-05   7.318655424333898e-05
-3.066939148812011e-05   2.2256836103252617e-06   -7.81399689856084e-06
-3.066939148812011e-05   2.2256836103252617e-06   -7.81399689856084e-06
-3.066939148812011e-05   2.2256836103252617e-06   -7.81399689856084e-06
-3.066939148812011e-05   2.2256836103252617e-06   -7.81399689856084e-06
-4.872250190580103e-05   -1.080007245981467e-05   3.008997410632486e-05
-4.872250190580103e-05   -1.080007245981467e-05   3.008997410632486e-05
-4.872250190580103e-05   -1.080007245981467e-05   3.008997410632486e-05
-4.872250190580103e-05   -1.080007245981467e-05   3.008997410632486e-05
-6.26583858969758e-05   0.0   5.312594236144065e-05
-6.26583858969758e-05   0.0   5.312594236144065e-05
-6.26583858969758e-05   0.0   5.312594236144065e-05
-6.26583858969758e-05   0.0   5.312594236144065e-05
-0.0001103922988837282   1.447036758177745e-05   -1.774835873408014e-05
-0.0001103922988837282   1.447036758177745e-05   -1.774835873408014e-05
-0.0001103922988837282   1.447036758177745e-05   -1.774835873408014e-05
-0.0001103922988837282   1.447036758177745e-05   -1.774835873408014e-05
-0.00011498635573201931   0.0   7.706469527542833e-05
-0.00011498635573201931   0.0   7.706469527542833e-05
-0.00011498635573201931   0.0   7.706469527542833e-05
-0.00011498635573201931   0.0   7.706469527542833e-05
-6.598744201864414e-05   1.396276848510472e-05   -1.2977822004593903e-05
-6.598744201864414e-05   1.396276848510472e-05   -1.2977822004593903e-05
-6.598744201864414e-05   1.396276848510472e-05   -1.2977822004593903e-05
-6.598744201864414e-05   1.396276848510472e-05   -1.2977822004593903e-05
-8.473148272472689e-05   8.58538273451506e-06   2.148867728923149e-05
-8.473148272472689e-05   8.58538273451506e-06   2.148867728923149e-05
-8.473148272472689e-05   8.58538273451506e-06   2.148867728923149e-05
-8.473148272472689e-05   8.58538273451506e-06   2.148867728923149e-05
-6.598744201864408e-05   0.0   6.868703418436533e-05
-6.598744201864408e-05   0.0   6.868703418436533e-05
-6.598744201864408e-05   0.0   6.868703418436533e-05
-6.598744201864408e-05   0.0   6.868703418436533e-05
-0.0001149863557320195   1.396276848510472e-05   -4.600160913530767e-06
-0.0001149863557320195   1.396276848510472e-05   -4.600160913530767e-06
-0.0001149863557320195   1.396276848510472e-05   -4.600160913530767e-06
-0.0001149863557320195   1.396276848510472e-05   -4.600160913530767e-06
-0.0001173004310771913   0.0   8.557129257136904e-05
-0.0001173004310771913   0.0   8.557129257136904e-05
-0.0001173004310771913   0.0   8.557129257136904e-05
-0.0001173004310771913   0.0   8.557129257136904e-05
-6.801684696998226e-05   1.3603413057180092e-05   -4.730062108287579e-06
-6.801684696998226e-05   1.3603413057180092e-05   -4.730062108287579e-06
-6.801684696998226e-05   1.3603413057180092e-05   -4.730062108287579e-06
-6.801684696998226e-05   1.3603413057180092e-05   -4.730062108287579e-06
-8.915909222310188e-05   7.167869975792558e-06   3.436833916241203e-05
-8.915909222310188e-05   7.167869975792558e-06   3.436833916241203e-05
-8.915909222310188e-05   7.167869975792558e-06   3.436833916241203e-05
-8.915909222310188e-05   7.167869975792558e-06   3.436833916241203e-05
-6.801684696998226e-05   0.0   7.740924473706117e-05
-6.801684696998226e-05   0.0   7.740924473706117e-05
-6.801684696998226e-05   0.0   7.740924473706117e-05
-6.801684696998226e-05   0.0   7.740924473706117e-05
-0.00011730043107719149   1.3603413057180092e-05   3.4319857260204766e-06
-0.00011730043107719149   1.3603413057180092e-05   3.4319857260204766e-06
-0.00011730043107719149   1.3603413057180092e-05   3.4319857260204766e-06
-0.00011730043107719149   1.3603413057180092e-05   3.4319857260204766e-06
-0.0001198786814814456   0.0   9.691541718986137e-05
-0.0001198786814814456   0.0   9.691541718986137e-05
-0.0001198786814814456   0.0   9.691541718986137e-05
-0.0001198786814814456   0.0   9.691541718986137e-05
-7.02030828771596e-05   1.1323197493482654e-05   7.328834353294593e-06
-7.02030828771596e-05   1.1323197493482654e-05   7.328834353294593e-06
-7.02030828771596e-05   1.1323197493482654e-05   7.328834353294593e-06
-7.02030828771596e-05   1.1323197493482654e-05   7.328834353294593e-06
-8.990643973266875e-05   5.0292423410965535e-06   4.3944135537241015e-05
-8.990643973266875e-05   5.0292423410965535e-06   4.3944135537241015e-05
-8.990643973266875e-05   5.0292423410965535e-06   4.3944135537241015e-05
-8.990643973266875e-05   5.0292423410965535e-06   4.3944135537241015e-05
7.569620544363272e-05   -1.1390551123313664e-05   5.376546726738822e-05
7.569620544363272e-05   -1.1390551123313664e-05   5.376546726738822e-05
7.569620544363272e-05   -1.1390551123313664e-05   5.376546726738822e-05
7.569620544363272e-05   -1.1390551123313664e-05   5.376546726738822e-05
3.828983505416434e-05   -8.585551177536094e-06   -6.895483414259612e-06
3.828983505416434e-05   -8.585551177536094e-06   -6.895483414259612e-06
3.828983505416434e-05   -8.585551177536094e-06   -6.895483414259612e-06
3.828983505416434e-05   -8.585551177536094e-06   -6.895483414259612e-06
3.727774864058429e-05   -1.2524683609806218e-05   4.693581217475617e-05
3.727774864058429e-05   -1.2524683609806218e-05   4.693581217475617e-05
3.727774864058429e-05   -1.2524683609806218e-05   4.693581217475617e-05
3.727774864058429e-05   -1.2524683609806218e-05   4.693581217475617e-05
7.388855512982001e-05   -9.732130215262327e-06   -1.5757730677362506e-05
7.388855512982001e-05   -9.732130215262327e-06   -1.5757730677362506e-05
7.388855512982001e-05   -9.732130215262327e-06   -1.5757730677362506e-05
7.388855512982001e-05   -9.732130215262327e-06   -1.5757730677362506e-05
5.37822290682999e-05   -1.0135807794284463e-05   1.7995019305917792e-05
5.37822290682999e-05   -1.0135807794284463e-05   1.7995019305917792e-05
5.37822290682999e-05   -1.0135807794284463e-05   1.7995019305917792e-05
5.37822290682999e-05   -1.0135807794284463e-05   1.7995019305917792e-05
7.388855512981987e-05   -1.2524683609806218e-05   4.5260280138030486e-05
7.388855512981987e-05   -1.2524683609806218e-05   4.5260280138030486e-05
7.388855512981987e-05   -1.2524683609806218e-05   4.5260280138030486e-05
7.388855512981987e-05   -1.2524683609806218e-05   4.5260280138030486e-05
3.727774864058437e-05   -9.732130215262327e-06   -1.4082198640636171e-05
3.727774864058437e-05   -9.732130215262327e-06   -1.4082198640636171e-05
3.727774864058437e-05   -9.732130215262327e-06   -1.4082198640636171e-05
3.727774864058437e-05   -9.732130215262327e-06   -1.4082198640636171e-05
3.597358218590432e-05   -1.2629500723192189e-05   4.2132847103309654e-05
3.597358218590432e-05   -1.2629500723192189e-05   4.2132847103309654e-05
3.597358218590432e-05   -1.2629500723192189e-05   4.2132847103309654e-05
3.597358218590432e-05   -1.2629500723192189e-05   4.2132847103309654e-05
7.206069005857952e-05   -9.902905246733911e-06   -1.9648289970357335e-05
7.206069005857952e-05   -9.902905246733911e-06   -1.9648289970357335e-05
7.206069005857952e-05   -9.902905246733911e-06   -1.9648289970357335e-05
7.206069005857952e-05   -9.902905246733911e-06   -1.9648289970357335e-05
5.327342788651416e-05   -1.057872866391113e-05   1.2069307700057785e-05
5.327342788651416e-05   -1.057872866391113e-05   1.2069307700057785e-05
5.327342788651416e-05   -1.057872866391113e-05   1.2069307700057785e-05
5.327342788651416e-05   -1.057872866391113e-05   1.2069307700057785e-05
7.206069005857952e-05   -1.2629500723192189e-05   4.0496889817434714e-05
7.206069005857952e-05   -1.2629500723192189e-05   4.0496889817434714e-05
7.206069005857952e-05   -1.2629500723192189e-05   4.0496889817434714e-05
7.206069005857952e-05   -1.2629500723192189e-05   4.0496889817434714e-05
3.597358218590432e-05   -9.902905246733911e-06   -1.801233268448237e-05
3.597358218590432e-05   -9.902905246733911e-06   -1.801233268448237e-05
3.597358218590432e-05   -9.902905246733911e-06   -1.801233268448237e-05
3.597358218590432e-05   -9.902905246733911e-06   -1.801233268448237e-05
3.4605403222704275e-05   -1.2367532899487665e-05   3.5009702986367594e-05
3.4605403222704275e-05   -1.2367532899487665e-05   3.5009702986367594e-05
3.4605403222704275e-05   -1.2367532899487665e-05   3.5009702986367594e-05
3.4605403222704275e-05   -1.2367532899487665e-05   3.5009702986367594e-05
6.977269633127786e-05   -9.841810656446067e-06   -2.5117885540413198e-05
6.977269633127786e-05   -9.841810656446067e-06   -2.5117885540413198e-05
6.977269633127786e-05   -9.841810656446067e-06   -2.5117885540413198e-05
6.977269633127786e-05   -9.841810656446067e-06   -2.5117885540413198e-05
5.089625958626158e-05   -1.0302319575060436e-05   6.619147719116696e-06
5.089625958626158e-05   -1.0302319575060436e-05   6.619147719116696e-06
5.089625958626158e-05   -1.0302319575060436e-05   6.619147719116696e-06
5.089625958626158e-05   -1.0302319575060436e-05   6.619147719116696e-06
3.828983505416434e-05   -7.050321691725106e-06   5.089492184526828e-05
3.828983505416434e-05   -7.050321691725106e-06   5.089492184526828e-05
3.828983505416434e-05   -7.050321691725106e-06   5.089492184526828e-05
3.828983505416434e-05   -7.050321691725106e-06   5.089492184526828e-05
4.211972365348996e-06   -3.031170314800151e-06   -3.490025143268634e-06
4.211972365348996e-06   -3.031170314800151e-06   -3.490025143268634e-06
4.211972365348996e-06   -3.031170314800151e-06   -3.490025143268634e-06
4.211972365348996e-06   -3.031170314800151e-06   -3.490025143268634e-06
3.2067451348203376e-06   -7.478362308745937e-06   5.302854837147615e-05
3.2067451348203376e-06   -7.478362308745937e-06   5.302854837147615e-05
3.2067451348203376e-06   -7.478362308745937e-06   5.302854837147615e-05
3.2067451348203376e-06   -7.478362308745937e-06   5.302854837147615e-05
3.727774864058437e-05   -3.647634771976587e-06   -6.0548939935251705e-06
3.727774864058437e-05   -3.647634771976587e-06   -6.0548939935251705e-06
3.727774864058437e-05   -3.647634771976587e-06   -6.0548939935251705e-06
3.727774864058437e-05   -3.647634771976587e-06   -6.0548939935251705e-06
2.0547895639956953e-05   -4.929668632463937e-06   2.2597414657146144e-05
2.0547895639956953e-05   -4.929668632463937e-06   2.2597414657146144e-05
2.0547895639956953e-05   -4.929668632463937e-06   2.2597414657146144e-05
2.0547895639956953e-05   -4.929668632463937e-06   2.2597414657146144e-05
3.7277748640584315e-05   -7.478362308745937e-06   5.073011184941482e-05
3.7277748640584315e-05   -7.478362308745937e-06   5.073011184941482e-05
3.7277748640584315e-05   -7.478362308745937e-06   5.073011184941482e-05
3.7277748640584315e-05   -7.478362308745937e-06   5.073011184941482e-05
3.2067451348203376e-06   -3.647634771976587e-06   -3.756457471463864e-06
3.2067451348203376e-06   -3.647634771976587e-06   -3.756457471463864e-06
3.2067451348203376e-06   -3.647634771976587e-06   -3.756457471463864e-06
3.2067451348203376e-06   -3.647634771976587e-06   -3.756457471463864e-06
1.9233638246918922e-06   -7.669287546546982e-06   5.253247055081586e-05
1.9233638246918922e-06   -7.669287546546982e-06   5.253247055081586e-05
1.9233638246918922e-06   -7.669287546546982e-06   5.253247055081586e-05
1.9233638246918922e-06   -7.669287546546982e-06   5.253247055081586e-05
3.597358218590432e-05   -4.052318662588553e-06   -6.388074714913693e-06
3.597358218590432e-05   -4.052318662588553e-06   -6.388074714913693e-06
3.597358218590432e-05   -4.052318662588553e-06   -6.388074714913693e-06
3.597358218590432e-05   -4.052318662588553e-06   -6.388074714913693e-06
1.9273458194032063e-05   -5.1632536803509e-06   2.2112026282198553e-05
1.9273458194032063e-05   -5.1632536803509e-06   2.2112026282198553e-05
1.9273458194032063e-05   -5.1632536803509e-06   2.2112026282198553e-05
1.9273458194032063e-05   -5.1632536803509e-06   2.2112026282198553e-05
3.5973582185904265e-05   -7.669287546547415e-06   5.0362289220440406e-05
3.5973582185904265e-05   -7.669287546547415e-06   5.0362289220440406e-05
3.5973582185904265e-05   -7.669287546547415e-06   5.0362289220440406e-05
3.5973582185904265e-05   -7.669287546547415e-06   5.0362289220440406e-05
1.9233638246918922e-06   -4.052318662588553e-06   -4.2178933845383754e-06
1.9233638246918922e-06   -4.052318662588553e-06   -4.2178933845383754e-06
1.9233638246918922e-06   -4.052318662588553e-06   -4.2178933845383754e-06
1.9233638246918922e-06   -4.052318662588553e-06   -4.2178933845383754e-06
5.056092085227221e-07   -7.497405484298454e-06   5.3307627677095897e-05
5.056092085227221e-07   -7.497405484298454e-06   5.3307627677095897e-05
5.056092085227221e-07   -7.497405484298454e-06   5.3307627677095897e-05
5.056092085227221e-07   -7.497405484298454e-06   5.3307627677095897e-05
3.460540322270425e-05   -4.226334911758018e-06   -5.4880046900644165e-06
3.460540322270425e-05   -4.226334911758018e-06   -5.4880046900644165e-06
3.460540322270425e-05   -4.226334911758018e-06   -5.4880046900644165e-06
3.460540322270425e-05   -4.226334911758018e-06   -5.4880046900644165e-06
1.823456071185511e-05   -5.114911731102147e-06   2.2329878919624875e-05
1.823456071185511e-05   -5.114911731102147e-06   2.2329878919624875e-05
1.823456071185511e-05   -5.114911731102147e-06   2.2329878919624875e-05
1.823456071185511e-05   -5.114911731102147e-06   2.2329878919624875e-05
4.211972365349023e-06   -2.975921001398523e-06   5.204882963627744e-05
4.211972365349023e-06   -2.975921001398523e-06   5.204882963627744e-05
4.211972365349023e-06   -2.975921001398523e-06   5.204882963627744e-05
4.211972365349023e-06   -2.975921001398523e-06   5.204882963627744e-05
-2.880067148235645e-05   2.690050005514557e-06   4.2733916091604145e-07
-2.880067148235645e-05   2.690050005514557e-06   4.2733916091604145e-07
-2.880067148235645e-05   2.690050005514557e-06   4.2733916091604145e-07
-2.880067148235645e-05   2.690050005514557e-06   4.2733916091604145e-07
-2.9933212120747833e-05   -3.1427674581628075e-06   5.583998162872689e-05
-2.9933212120747833e-05   -3.1427674581628075e-06   5.583998162872689e-05
-2.9933212120747833e-05   -3.1427674581628075e-06   5.583998162872689e-05
-2.9933212120747833e-05   -3.1427674581628075e-06   5.583998162872689e-05
3.2067451348203376e-06   2.217696135128379e-06   -2.609558619862378e-06
3.2067451348203376e-06   2.217696135128379e-06   -2.609558619862378e-06
3.2067451348203376e-06   2.217696135128379e-06   -2.609558619862378e-06
3.2067451348203376e-06   2.217696135128379e-06   -2.609558619862378e-06
-1.2805192891308242e-05   -5.401475382639867e-08   2.5440031290391773e-05
-1.2805192891308242e-05   -5.401475382639867e-08   2.5440031290391773e-05
-1.2805192891308242e-05   -5.401475382639867e-08   2.5440031290391773e-05
-1.2805192891308242e-05   -5.401475382639867e-08   2.5440031290391773e-05
3.2067451348203376e-06   -3.142767458163241e-06   5.262370347275185e-05
3.2067451348203376e-06   -3.142767458163241e-06   5.262370347275185e-05
3.2067451348203376e-06   -3.142767458163241e-06   5.262370347275185e-05
3.2067451348203376e-06   -3.142767458163241e-06   5.262370347275185e-05
-2.9933212120747833e-05   2.217696135128379e-06   6.067195361129842e-07
-2.9933212120747833e-05   2.217696135128379e-06   6.067195361129842e-07
-2.9933212120747833e-05   2.217696135128379e-06   6.067195361129842e-07
-2.9933212120747833e-05   2.217696135128379e-06   6.067195361129842e-07
-3.145193632621938e-05   -3.34696425641429e-06   5.6960089275813084e-05
-3.145193632621938e-05   -3.34696425641429e-06   5.6960089275813084e-05
-3.145193632621938e-05   -3.34696425641429e-06   5.6960089275813084e-05
-3.145193632621938e-05   -3.34696425641429e-06   5.6960089275813084e-05
1.9233638246918922e-06   1.7779844932136295e-06   -1.7403802254824675e-06
1.9233638246918922e-06   1.7779844932136295e-06   -1.7403802254824675e-06
1.9233638246918922e-06   1.7779844932136295e-06   -1.7403802254824675e-06
1.9233638246918922e-06   1.7779844932136295e-06   -1.7403802254824675e-06
-1.3922445322122012e-05   -1.8718400356370485e-07   2.5848402783940397e-05
-1.3922445322122012e-05   -1.8718400356370485e-07   2.5848402783940397e-05
-1.3922445322122012e-05   -1.8718400356370485e-07   2.5848402783940397e-05
-1.3922445322122012e-05   -1.8718400356370485e-07   2.5848402783940397e-05
1.9233638246918922e-06   -3.3469642564147237e-06   5.388512002603652e-05
1.9233638246918922e-06   -3.3469642564147237e-06   5.388512002603652e-05
1.9233638246918922e-06   -3.3469642564147237e-06   5.388512002603652e-05
1.9233638246918922e-06   -3.3469642564147237e-06   5.388512002603652e-05
-3.145193632621938e-05   1.7779844932136295e-06   1.334589024294371e-06
-3.145193632621938e-05   1.7779844932136295e-06   1.334589024294371e-06
-3.145193632621938e-05   1.7779844932136295e-06   1.334589024294371e-06
-3.145193632621938e-05   1.7779844932136295e-06   1.334589024294371e-06
-3.3070037117779804e-05   -3.3280767233983925e-06   5.8303683395901284e-05
-3.3070037117779804e-05   -3.3280767233983925e-06   5.8303683395901284e-05
-3.3070037117779804e-05   -3.3280767233983925e-06   5.8303683395901284e-05
-3.3070037117779804e-05   -3.3280767233983925e-06   5.8303683395901284e-05
5.056092085227221e-07   1.461133213949764e-06   -5.292531103451639e-07
5.056092085227221e-07   1.461133213949764e-06   -5.292531103451639e-07
5.056092085227221e-07   1.461133213949764e-06   -5.292531103451639e-07
5.056092085227221e-07   1.461133213949764e-06   -5.292531103451639e-07
-1.534740754754961e-05   -2.8296517889069006e-07   2.6938900518814145e-05
-1.534740754754961e-05   -2.8296517889069006e-07   2.6938900518814145e-05
-1.534740754754961e-05   -2.8296517889069006e-07   2.6938900518814145e-05
-1.534740754754961e-05   -2.8296517889069006e-07   2.6938900518814145e-05
-2.880067148235634e-05   3.168091971827297e-06   4.703052394577819e-05
-2.880067148235634e-05   3.168091971827297e-06   4.703052394577819e-05
-2.880067148235634e-05   3.168091971827297e-06   4.703052394577819e-05
-2.880067148235634e-05   3.168091971827297e-06   4.703052394577819e-05
-6.113782508419507e-05   8.768369601688374e-06   -3.504565479369587e-06
-6.113782508419507e-05   8.768369601688374e-06   -3.504565479369587e-06
-6.113782508419507e-05   8.768369601688374e-06   -3.504565479369587e-06
-6.113782508419507e-05   8.768369601688374e-06   -3.504565479369587e-06
-6.278809008563837e-05   2.9760208942906582e-06   5.206215644744513e-05
-6.278809008563837e-05   2.9760208942906582e-06   5.206215644744513e-05
-6.278809008563837e-05   2.9760208942906582e-06   5.206215644744513e-05
-6.278809008563837e-05   2.9760208942906582e-06   5.206215644744513e-05
-2.9933212120747805e-05   8.29453718500248e-06   -5.887083268466551e-06
-2.9933212120747805e-05   8.29453718500248e-06   -5.887083268466551e-06
-2.9933212120747805e-05   8.29453718500248e-06   -5.887083268466551e-06
-2.9933212120747805e-05   8.29453718500248e-06   -5.887083268466551e-06
-4.530426779592492e-05   5.903658550912832e-06   2.11658700372822e-05
-4.530426779592492e-05   5.903658550912832e-06   2.11658700372822e-05
-4.530426779592492e-05   5.903658550912832e-06   2.11658700372822e-05
-4.530426779592492e-05   5.903658550912832e-06   2.11658700372822e-05
-2.9933212120747833e-05   2.9760208942902246e-06   4.887104667301742e-05
-2.9933212120747833e-05   2.9760208942902246e-06   4.887104667301742e-05
-2.9933212120747833e-05   2.9760208942902246e-06   4.887104667301742e-05
-2.9933212120747833e-05   2.9760208942902246e-06   4.887104667301742e-05
-6.278809008563823e-05   8.294537185002913e-06   -2.6959734940393276e-06
-6.278809008563823e-05   8.294537185002913e-06   -2.6959734940393276e-06
-6.278809008563823e-05   8.294537185002913e-06   -2.6959734940393276e-06
-6.278809008563823e-05   8.294537185002913e-06   -2.6959734940393276e-06
-6.481022427547568e-05   2.6239934371695417e-06   5.525589236270124e-05
-6.481022427547568e-05   2.6239934371695417e-06   5.525589236270124e-05
-6.481022427547568e-05   2.6239934371695417e-06   5.525589236270124e-05
-6.481022427547568e-05   2.6239934371695417e-06   5.525589236270124e-05
-3.145193632621938e-05   7.856581656472648e-06   -3.4808071509746796e-06
-3.145193632621938e-05   7.856581656472648e-06   -3.4808071509746796e-06
-3.145193632621938e-05   7.856581656472648e-06   -3.4808071509746796e-06
-3.145193632621938e-05   7.856581656472648e-06   -3.4808071509746796e-06
-4.653401239122974e-05   5.793751332460904e-06   2.289368448511655e-05
-4.653401239122974e-05   5.793751332460904e-06   2.289368448511655e-05
-4.653401239122974e-05   5.793751332460904e-06   2.289368448511655e-05
-4.653401239122974e-05   5.793751332460904e-06   2.289368448511655e-05
-3.145193632621938e-05   2.6239934371695417e-06   5.2116339431119226e-05
-3.145193632621938e-05   2.6239934371695417e-06   5.2116339431119226e-05
-3.145193632621938e-05   2.6239934371695417e-06   5.2116339431119226e-05
-3.145193632621938e-05   2.6239934371695417e-06   5.2116339431119226e-05
-6.481022427547555e-05   7.856581656472648e-06   -3.412542193927722e-07
-6.481022427547555e-05   7.856581656472648e-06   -3.412542193927722e-07
-6.481022427547555e-05   7.856581656472648e-06   -3.412542193927722e-07
-6.481022427547555e-05   7.856581656472648e-06   -3.412542193927722e-07
-6.695011842321519e-05   2.225683610324828e-06   5.7801034732369444e-05
-6.695011842321519e-05   2.225683610324828e-06   5.7801034732369444e-05
-6.695011842321519e-05   2.225683610324828e-06   5.7801034732369444e-05
-6.695011842321519e-05   2.225683610324828e-06   5.7801034732369444e-05
-3.307003711777975e-05   7.268139888617995e-06   -1.6912412103319355e-06
-3.307003711777975e-05   7.268139888617995e-06   -1.6912412103319355e-06
-3.307003711777975e-05   7.268139888617995e-06   -1.6912412103319355e-06
-3.307003711777975e-05   7.268139888617995e-06   -1.6912412103319355e-06
-4.858041005146709e-05   5.438147599095026e-06   2.5257375719527964e-05
-4.858041005146709e-05   5.438147599095026e-06   2.5257375719527964e-05
-4.858041005146709e-05   5.438147599095026e-06   2.5257375719527964e-05
-4.858041005146709e-05   5.438147599095026e-06   2.5257375719527964e-05
-6.113782508419507e-05   1.4470367581777017e-05   2.4763196346514913e-05
-6.113782508419507e-05   1.4470367581777017e-05   2.4763196346514913e-05
-6.113782508419507e-05   1.4470367581777017e-05   2.4763196346514913e-05
-6.113782508419507e-05   1.4470367581777017e-05   2.4763196346514913e-05
-9.210196733298436e-05   1.4260198949921955e-05   -2.696980858058048e-05
-9.210196733298436e-05   1.4260198949921955e-05   -2.696980858058048e-05
-9.210196733298436e-05   1.4260198949921955e-05   -2.696980858058048e-05
-9.210196733298436e-05   1.4260198949921955e-05   -2.696980858058048e-05
-9.50639230629653e-05   1.396276848510472e-05   3.667069161265727e-05
-9.50639230629653e-05   1.396276848510472e-05   3.667069161265727e-05
-9.50639230629653e-05   1.396276848510472e-05   3.667069161265727e-05
-9.50639230629653e-05   1.396276848510472e-05   3.667069161265727e-05
-6.278809008563823e-05   1.4532402175831526e-05   -1.7464143563990795e-05
-6.278809008563823e-05   1.4532402175831526e-05   -1.7464143563990795e-05
-6.278809008563823e-05   1.4532402175831526e-05   -1.7464143563990795e-05
-6.278809008563823e-05   1.4532402175831526e-05   -1.7464143563990795e-05
-7.464248634712098e-05   1.453284818172802e-05   2.2929159349421337e-06
-7.464248634712098e-05   1.453284818172802e-05   2.2929159349421337e-06
-7.464248634712098e-05   1.453284818172802e-05   2.2929159349421337e-06
-7.464248634712098e-05   1.453284818172802e-05   2.2929159349421337e-06
-6.27880900856382e-05   1.396276848510472e-05   3.6328911398221075e-05
-6.27880900856382e-05   1.396276848510472e-05   3.6328911398221075e-05
-6.27880900856382e-05   1.396276848510472e-05   3.6328911398221075e-05
-6.27880900856382e-05   1.396276848510472e-05   3.6328911398221075e-05
-9.50639230629653e-05   1.4532402175831526e-05   -1.7122363349554928e-05
-9.50639230629653e-05   1.4532402175831526e-05   -1.7122363349554928e-05
-9.50639230629653e-05   1.4532402175831526e-05   -1.7122363349554928e-05
-9.50639230629653e-05   1.4532402175831526e-05   -1.7122363349554928e-05
-9.796859732589641e-05   1.3603413057180092e-05   4.503296813928009e-05
-9.796859732589641e-05   1.3603413057180092e-05   4.503296813928009e-05
-9.796859732589641e-05   1.3603413057180092e-05   4.503296813928009e-05
-9.796859732589641e-05   1.3603413057180092e-05   4.503296813928009e-05
-6.481022427547555e-05   1.4427262650090929e-05   -1.0725296700501681e-05
-6.481022427547555e-05   1.4427262650090929e-05   -1.0725296700501681e-05
-6.481022427547555e-05   1.4427262650090929e-05   -1.0725296700501681e-05
-6.481022427547555e-05   1.4427262650090929e-05   -1.0725296700501681e-05
-7.803583457786841e-05   1.4529501588972501e-05   1.1256043773492062e-05
-7.803583457786841e-05   1.4529501588972501e-05   1.1256043773492062e-05
-7.803583457786841e-05   1.4529501588972501e-05   1.1256043773492062e-05
-7.803583457786841e-05   1.4529501588972501e-05   1.1256043773492062e-05
-6.481022427547555e-05   1.3603413057180092e-05   4.45386583835334e-05
-6.481022427547555e-05   1.3603413057180092e-05   4.45386583835334e-05
-6.481022427547555e-05   1.3603413057180092e-05   4.45386583835334e-05
-6.481022427547555e-05   1.3603413057180092e-05   4.45386583835334e-05
-9.79685973258966e-05   1.4427262650090929e-05   -1.0230986944754833e-05
-9.79685973258966e-05   1.4427262650090929e-05   -1.0230986944754833e-05
-9.79685973258966e-05   1.4427262650090929e-05   -1.0230986944754833e-05
-9.79685973258966e-05   1.4427262650090929e-05   -1.0230986944754833e-05
-0.00010139400544427091   1.1323197493482654e-05   5.900683781516437e-05
-0.00010139400544427091   1.1323197493482654e-05   5.900683781516437e-05
-0.00010139400544427091   1.1323197493482654e-05   5.900683781516437e-05
-0.00010139400544427091   1.1323197493482654e-05   5.900683781516437e-05
-6.695011842321514e-05   1.3279926367550533e-05   4.2632212229735435e-07
-6.695011842321514e-05   1.3279926367550533e-05   4.2632212229735435e-07
-6.695011842321514e-05   1.3279926367550533e-05   4.2632212229735435e-07
-6.695011842321514e-05   1.3279926367550533e-05   4.2632212229735435e-07
-7.925679761536659e-05   1.38386846780616e-05   2.0602199122909666e-05
-7.925679761536659e-05   1.38386846780616e-05   2.0602199122909666e-05
-7.925679761536659e-05   1.38386846780616e-05   2.0602199122909666e-05
-7.925679761536659e-05   1.38386846780616e-05   2.0602199122909666e-05
6.136052322193976e-05   -8.585551177536527e-06   4.737443951954463e-05
6.136052322193976e-05   -8.585551177536527e-06   4.737443951954463e-05
6.136052322193976e-05   -8.585551177536527e-06   4.737443951954463e-05
6.136052322193976e-05   -8.585551177536527e-06   4.737443951954463e-05
3.038398501594263e-05   -6.2905803524088665e-06   -2.876141662040352e-06
3.038398501594263e-05   -6.2905803524088665e-06   -2.876141662040352e-06
3.038398501594263e-05   -6.2905803524088665e-06   -2.876141662040352e-06
3.038398501594263e-05   -6.2905803524088665e-06   -2.876141662040352e-06
2.921823512830176e-05   -9.732130215262761e-06   4.1200494711371395e-05
2.921823512830176e-05   -9.732130215262761e-06   4.1200494711371395e-05
2.921823512830176e-05   -9.732130215262761e-06   4.1200494711371395e-05
2.921823512830176e-05   -9.732130215262761e-06   4.1200494711371395e-05
5.921634729712824e-05   -7.3001131530745986e-06   -1.0255569140652171e-05
5.921634729712824e-05   -7.3001131530745986e-06   -1.0255569140652171e-05
5.921634729712824e-05   -7.3001131530745986e-06   -1.0255569140652171e-05
5.921634729712824e-05   -7.3001131530745986e-06   -1.0255569140652171e-05
4.298241315142845e-05   -7.895555748509663e-06   1.7158253326108653e-05
4.298241315142845e-05   -7.895555748509663e-06   1.7158253326108653e-05
4.298241315142845e-05   -7.895555748509663e-06   1.7158253326108653e-05
4.298241315142845e-05   -7.895555748509663e-06   1.7158253326108653e-05
5.9216347297128146e-05   -9.732130215262327e-06   3.9741284474058714e-05
5.9216347297128146e-05   -9.732130215262327e-06   3.9741284474058714e-05
5.9216347297128146e-05   -9.732130215262327e-06   3.9741284474058714e-05
5.9216347297128146e-05   -9.732130215262327e-06   3.9741284474058714e-05
2.9218235128301856e-05   -7.3001131530745986e-06   -8.796358903339057e-06
2.9218235128301856e-05   -7.3001131530745986e-06   -8.796358903339057e-06
2.9218235128301856e-05   -7.3001131530745986e-06   -8.796358903339057e-06
2.9218235128301856e-05   -7.3001131530745986e-06   -8.796358903339057e-06
2.7923010164202403e-05   -9.902905246734345e-06   3.692564821960098e-05
2.7923010164202403e-05   -9.902905246734345e-06   3.692564821960098e-05
2.7923010164202403e-05   -9.902905246734345e-06   3.692564821960098e-05
2.7923010164202403e-05   -9.902905246734345e-06   3.692564821960098e-05
5.7275032422384205e-05   -7.503171871926697e-06   -1.3434228902253157e-05
5.7275032422384205e-05   -7.503171871926697e-06   -1.3434228902253157e-05
5.7275032422384205e-05   -7.503171871926697e-06   -1.3434228902253157e-05
5.7275032422384205e-05   -7.503171871926697e-06   -1.3434228902253157e-05
4.217388726759757e-05   -8.286682767858237e-06   1.2204452893283565e-05
4.217388726759757e-05   -8.286682767858237e-06   1.2204452893283565e-05
4.217388726759757e-05   -8.286682767858237e-06   1.2204452893283565e-05
4.217388726759757e-05   -8.286682767858237e-06   1.2204452893283565e-05
5.727503242238401e-05   -9.902905246733911e-06   3.5485808194716314e-05
5.727503242238401e-05   -9.902905246733911e-06   3.5485808194716314e-05
5.727503242238401e-05   -9.902905246733911e-06   3.5485808194716314e-05
5.727503242238401e-05   -9.902905246733911e-06   3.5485808194716314e-05
2.7923010164202444e-05   -7.503171871926697e-06   -1.1994388877368438e-05
2.7923010164202444e-05   -7.503171871926697e-06   -1.1994388877368438e-05
2.7923010164202444e-05   -7.503171871926697e-06   -1.1994388877368438e-05
2.7923010164202444e-05   -7.503171871926697e-06   -1.1994388877368438e-05
2.6677398628395608e-05   -9.8418106564465e-06   3.0966451982949875e-05
2.6677398628395608e-05   -9.8418106564465e-06   3.0966451982949875e-05
2.6677398628395608e-05   -9.8418106564465e-06   3.0966451982949875e-05
2.6677398628395608e-05   -9.8418106564465e-06   3.0966451982949875e-05
5.507661844773058e-05   -7.586515260274516e-06   -1.771875828697803e-05
5.507661844773058e-05   -7.586515260274516e-06   -1.771875828697803e-05
5.507661844773058e-05   -7.586515260274516e-06   -1.771875828697803e-05
5.507661844773058e-05   -7.586515260274516e-06   -1.771875828697803e-05
3.99993358530603e-05   -8.14715570492358e-06   7.746430304262481e-06
3.99993358530603e-05   -8.14715570492358e-06   7.746430304262481e-06
3.99993358530603e-05   -8.14715570492358e-06   7.746430304262481e-06
3.99993358530603e-05   -8.14715570492358e-06   7.746430304262481e-06
3.038398501594263e-05   -3.0311703147997172e-06   4.9745389459456864e-05
3.038398501594263e-05   -3.0311703147997172e-06   4.9745389459456864e-05
3.038398501594263e-05   -3.0311703147997172e-06   4.9745389459456864e-05
3.038398501594263e-05   -3.0311703147997172e-06   4.9745389459456864e-05
1.3080621250477497e-06   -1.2026937703359455e-06   2.382603901310027e-06
1.3080621250477497e-06   -1.2026937703359455e-06   2.382603901310027e-06
1.3080621250477497e-06   -1.2026937703359455e-06   2.382603901310027e-06
1.3080621250477497e-06   -1.2026937703359455e-06   2.382603901310027e-06
1.8912991413575853e-07   -3.6476347719761534e-06   5.0265064789303555e-05
1.8912991413575853e-07   -3.6476347719761534e-06   5.0265064789303555e-05
1.8912991413575853e-07   -3.6476347719761534e-06   5.0265064789303555e-05
1.8912991413575853e-07   -3.6476347719761534e-06   5.0265064789303555e-05
2.9218235128301856e-05   -1.9188590539404547e-06   8.45957334872369e-07
2.9218235128301856e-05   -1.9188590539404547e-06   8.45957334872369e-07
2.9218235128301856e-05   -1.9188590539404547e-06   8.45957334872369e-07
2.9218235128301856e-05   -1.9188590539404547e-06   8.45957334872369e-07
1.5089592602029477e-05   -2.3592151490441516e-06   2.465790853572146e-05
1.5089592602029477e-05   -2.3592151490441516e-06   2.465790853572146e-05
1.5089592602029477e-05   -2.3592151490441516e-06   2.465790853572146e-05
1.5089592602029477e-05   -2.3592151490441516e-06   2.465790853572146e-05
2.921823512830183e-05   -3.6476347719761534e-06   4.922779935848218e-05
2.921823512830183e-05   -3.6476347719761534e-06   4.922779935848218e-05
2.921823512830183e-05   -3.6476347719761534e-06   4.922779935848218e-05
2.921823512830183e-05   -3.6476347719761534e-06   4.922779935848218e-05
1.8912991413575853e-07   -1.9188590539404547e-06   1.883222765693528e-06
1.8912991413575853e-07   -1.9188590539404547e-06   1.883222765693528e-06
1.8912991413575853e-07   -1.9188590539404547e-06   1.883222765693528e-06
1.8912991413575853e-07   -1.9188590539404547e-06   1.883222765693528e-06
-9.73917520511586e-07   -4.052318662588119e-06   4.951054241241859e-05
-9.73917520511586e-07   -4.052318662588119e-06   4.951054241241859e-05
-9.73917520511586e-07   -4.052318662588119e-06   4.951054241241859e-05
-9.73917520511586e-07   -4.052318662588119e-06   4.951054241241859e-05
2.7923010164202444e-05   -2.451258290506273e-06   3.8836004797974943e-07
2.7923010164202444e-05   -2.451258290506273e-06   3.8836004797974943e-07
2.7923010164202444e-05   -2.451258290506273e-06   3.8836004797974943e-07
2.7923010164202444e-05   -2.451258290506273e-06   3.8836004797974943e-07
1.3805453337564842e-05   -2.7346200991951956e-06   2.4087638510923064e-05
1.3805453337564842e-05   -2.7346200991951956e-06   2.4087638510923064e-05
1.3805453337564842e-05   -2.7346200991951956e-06   2.4087638510923064e-05
1.3805453337564842e-05   -2.7346200991951956e-06   2.4087638510923064e-05
2.7923010164202403e-05   -4.052318662588119e-06   4.854990618916976e-05
2.7923010164202403e-05   -4.052318662588119e-06   4.854990618916976e-05
2.7923010164202403e-05   -4.052318662588119e-06   4.854990618916976e-05
2.7923010164202403e-05   -4.052318662588119e-06   4.854990618916976e-05
-9.73917520511586e-07   -2.451258290506707e-06   1.3489962712284666e-06
-9.73917520511586e-07   -2.451258290506707e-06   1.3489962712284666e-06
-9.73917520511586e-07   -2.451258290506707e-06   1.3489962712284666e-06
-9.73917520511586e-07   -2.451258290506707e-06   1.3489962712284666e-06
-2.1847270148610373e-06   -4.226334911758018e-06   4.9893668238452926e-05
-2.1847270148610373e-06   -4.226334911758018e-06   4.9893668238452926e-05
-2.1847270148610373e-06   -4.226334911758018e-06   4.9893668238452926e-05
-2.1847270148610373e-06   -4.226334911758018e-06   4.9893668238452926e-05
2.6677398628395676e-05   -2.8717203267927816e-06   9.773567487122645e-07
2.6677398628395676e-05   -2.8717203267927816e-06   9.773567487122645e-07
2.6677398628395676e-05   -2.8717203267927816e-06   9.773567487122645e-07
2.6677398628395676e-05   -2.8717203267927816e-06   9.773567487122645e-07
1.283931876282766e-05   -2.9366839354276475e-06   2.4079801356507394e-05
1.283931876282766e-05   -2.9366839354276475e-06   2.4079801356507394e-05
1.283931876282766e-05   -2.9366839354276475e-06   2.4079801356507394e-05
1.283931876282766e-05   -2.9366839354276475e-06   2.4079801356507394e-05
1.3080621250477497e-06   2.6900500055141233e-06   5.136025708617171e-05
1.3080621250477497e-06   2.6900500055141233e-06   5.136025708617171e-05
1.3080621250477497e-06   2.6900500055141233e-06   5.136025708617171e-05
1.3080621250477497e-06   2.6900500055141233e-06   5.136025708617171e-05
-2.6917541605638268e-05   3.907859384174109e-06   5.048269828890903e-06
-2.6917541605638268e-05   3.907859384174109e-06   5.048269828890903e-06
-2.6917541605638268e-05   3.907859384174109e-06   5.048269828890903e-06
-2.6917541605638268e-05   3.907859384174109e-06   5.048269828890903e-06
-2.808656253549109e-05   2.217696135128379e-06   5.206822449952916e-05
-2.808656253549109e-05   2.217696135128379e-06   5.206822449952916e-05
-2.808656253549109e-05   2.217696135128379e-06   5.206822449952916e-05
-2.808656253549109e-05   2.217696135128379e-06   5.206822449952916e-05
1.8912991413575853e-07   3.311464232834665e-06   4.285809558193842e-06
1.8912991413575853e-07   3.311464232834665e-06   4.285809558193842e-06
1.8912991413575853e-07   3.311464232834665e-06   4.285809558193842e-06
1.8912991413575853e-07   3.311464232834665e-06   4.285809558193842e-06
-1.3397479922761858e-05   3.066706241286292e-06   2.7077014081285642e-05
-1.3397479922761858e-05   3.066706241286292e-06   2.7077014081285642e-05
-1.3397479922761858e-05   3.066706241286292e-06   2.7077014081285642e-05
-1.3397479922761858e-05   3.066706241286292e-06   2.7077014081285642e-05
1.8912991413575853e-07   2.217696135128379e-06   5.14119636409052e-05
1.8912991413575853e-07   2.217696135128379e-06   5.14119636409052e-05
1.8912991413575853e-07   2.217696135128379e-06   5.14119636409052e-05
1.8912991413575853e-07   2.217696135128379e-06   5.14119636409052e-05
-2.808656253549109e-05   3.311464232834665e-06   4.942070416817743e-06
-2.808656253549109e-05   3.311464232834665e-06   4.942070416817743e-06
-2.808656253549109e-05   3.311464232834665e-06   4.942070416817743e-06
-2.808656253549109e-05   3.311464232834665e-06   4.942070416817743e-06
-2.932113667317076e-05   1.7779844932131958e-06   5.256067151286235e-05
-2.932113667317076e-05   1.7779844932131958e-06   5.256067151286235e-05
-2.932113667317076e-05   1.7779844932131958e-06   5.256067151286235e-05
-2.932113667317076e-05   1.7779844932131958e-06   5.256067151286235e-05
-9.73917520511586e-07   2.732344395526068e-06   4.742690317042966e-06
-9.73917520511586e-07   2.732344395526068e-06   4.742690317042966e-06
-9.73917520511586e-07   2.732344395526068e-06   4.742690317042966e-06
-9.73917520511586e-07   2.732344395526068e-06   4.742690317042966e-06
-1.448352455361157e-05   2.7259890243963147e-06   2.726251526155392e-05
-1.448352455361157e-05   2.7259890243963147e-06   2.726251526155392e-05
-1.448352455361157e-05   2.7259890243963147e-06   2.726251526155392e-05
-1.448352455361157e-05   2.7259890243963147e-06   2.726251526155392e-05
-9.73917520511586e-07   1.7779844932131958e-06   5.1988055571474605e-05
-9.73917520511586e-07   1.7779844932131958e-06   5.1988055571474605e-05
-9.73917520511586e-07   1.7779844932131958e-06   5.1988055571474605e-05
-9.73917520511586e-07   1.7779844932131958e-06   5.1988055571474605e-05
-2.932113667317076e-05   2.732344395526068e-06   5.315306258430385e-06
-2.932113667317076e-05   2.732344395526068e-06   5.315306258430385e-06
-2.932113667317076e-05   2.732344395526068e-06   5.315306258430385e-06
-2.932113667317076e-05   2.732344395526068e-06   5.315306258430385e-06
-3.059518095267327e-05   1.4611332139501977e-06   5.334319548911922e-05
-3.059518095267327e-05   1.4611332139501977e-06   5.334319548911922e-05
-3.059518095267327e-05   1.4611332139501977e-06   5.334319548911922e-05
-3.059518095267327e-05   1.4611332139501977e-06   5.334319548911922e-05
-2.1847270148610644e-06   2.216829904735408e-06   5.539020911627616e-06
-2.1847270148610644e-06   2.216829904735408e-06   5.539020911627616e-06
-2.1847270148610644e-06   2.216829904735408e-06   5.539020911627616e-06
-2.1847270148610644e-06   2.216829904735408e-06   5.539020911627616e-06
-1.565879322529371e-05   2.3995198646792337e-06   2.7886183953050136e-05
-1.565879322529371e-05   2.3995198646792337e-06   2.7886183953050136e-05
-1.565879322529371e-05   2.3995198646792337e-06   2.7886183953050136e-05
-1.565879322529371e-05   2.3995198646792337e-06   2.7886183953050136e-05
-2.6917541605638376e-05   8.768369601688374e-06   4.479887149516534e-05
-2.6917541605638376e-05   8.768369601688374e-06   4.479887149516534e-05
-2.6917541605638376e-05   8.768369601688374e-06   4.479887149516534e-05
-2.6917541605638376e-05   8.768369601688374e-06   4.479887149516534e-05
-5.4249493931298994e-05   8.879239577590237e-06   -6.878603953945541e-07
-5.4249493931298994e-05   8.879239577590237e-06   -6.878603953945541e-07
-5.4249493931298994e-05   8.879239577590237e-06   -6.878603953945541e-07
-5.4249493931298994e-05   8.879239577590237e-06   -6.878603953945541e-07
-5.5606707971222915e-05   8.294537185002913e-06   4.558328604138727e-05
-5.5606707971222915e-05   8.294537185002913e-06   4.558328604138727e-05
-5.5606707971222915e-05   8.294537185002913e-06   4.558328604138727e-05
-5.5606707971222915e-05   8.294537185002913e-06   4.558328604138727e-05
-2.8086562535491118e-05   8.309311095732255e-06   -2.9248736460314555e-07
-2.8086562535491118e-05   8.309311095732255e-06   -2.9248736460314555e-07
-2.8086562535491118e-05   8.309311095732255e-06   -2.9248736460314555e-07
-2.8086562535491118e-05   8.309311095732255e-06   -2.9248736460314555e-07
-4.103087398188394e-05   8.542768830345363e-06   2.1141290405283716e-05
-4.103087398188394e-05   8.542768830345363e-06   2.1141290405283716e-05
-4.103087398188394e-05   8.542768830345363e-06   2.1141290405283716e-05
-4.103087398188394e-05   8.542768830345363e-06   2.1141290405283716e-05
-2.8086562535491118e-05   8.294537185002913e-06   4.557442169494968e-05
-2.8086562535491118e-05   8.294537185002913e-06   4.557442169494968e-05
-2.8086562535491118e-05   8.294537185002913e-06   4.557442169494968e-05
-2.8086562535491118e-05   8.294537185002913e-06   4.557442169494968e-05
-5.5606707971222915e-05   8.309311095732255e-06   -2.836230181654971e-07
-5.5606707971222915e-05   8.309311095732255e-06   -2.836230181654971e-07
-5.5606707971222915e-05   8.309311095732255e-06   -2.836230181654971e-07
-5.5606707971222915e-05   8.309311095732255e-06   -2.836230181654971e-07
-5.711115327407308e-05   7.856581656472648e-06   4.7701881871533734e-05
-5.711115327407308e-05   7.856581656472648e-06   4.7701881871533734e-05
-5.711115327407308e-05   7.856581656472648e-06   4.7701881871533734e-05
-5.711115327407308e-05   7.856581656472648e-06   4.7701881871533734e-05
-2.9321136673170813e-05   7.78425921303975e-06   1.428581002756472e-06
-2.9321136673170813e-05   7.78425921303975e-06   1.428581002756472e-06
-2.9321136673170813e-05   7.78425921303975e-06   1.428581002756472e-06
-2.9321136673170813e-05   7.78425921303975e-06   1.428581002756472e-06
-4.20128570900829e-05   8.220662860393716e-06   2.2319606175864306e-05
-4.20128570900829e-05   8.220662860393716e-06   2.2319606175864306e-05
-4.20128570900829e-05   8.220662860393716e-06   2.2319606175864306e-05
-4.20128570900829e-05   8.220662860393716e-06   2.2319606175864306e-05
-2.9321136673170813e-05   7.856581656472648e-06   4.774527533759373e-05
-2.9321136673170813e-05   7.856581656472648e-06   4.774527533759373e-05
-2.9321136673170813e-05   7.856581656472648e-06   4.774527533759373e-05
-2.9321136673170813e-05   7.856581656472648e-06   4.774527533759373e-05
-5.711115327407308e-05   7.78425921303975e-06   1.38518753669669e-06
-5.711115327407308e-05   7.78425921303975e-06   1.38518753669669e-06
-5.711115327407308e-05   7.78425921303975e-06   1.38518753669669e-06
-5.711115327407308e-05   7.78425921303975e-06   1.38518753669669e-06
-5.8545088511808766e-05   7.268139888617995e-06   4.9232821752068483e-05
-5.8545088511808766e-05   7.268139888617995e-06   4.9232821752068483e-05
-5.8545088511808766e-05   7.268139888617995e-06   4.9232821752068483e-05
-5.8545088511808766e-05   7.268139888617995e-06   4.9232821752068483e-05
-3.059518095267327e-05   7.143373764193026e-06   2.7245021614974527e-06
-3.059518095267327e-05   7.143373764193026e-06   2.7245021614974527e-06
-3.059518095267327e-05   7.143373764193026e-06   2.7245021614974527e-06
-3.059518095267327e-05   7.143373764193026e-06   2.7245021614974527e-06
-4.357339194732918e-05   7.802758770273721e-06   2.395922281560965e-05
-4.357339194732918e-05   7.802758770273721e-06   2.395922281560965e-05
-4.357339194732918e-05   7.802758770273721e-06   2.395922281560965e-05
-4.357339194732918e-05   7.802758770273721e-06   2.395922281560965e-05
-5.424949393129891e-05   1.4260198949921955e-05   2.1526251558608915e-05
-5.424949393129891e-05   1.4260198949921955e-05   2.1526251558608915e-05
-5.424949393129891e-05   1.4260198949921955e-05   2.1526251558608915e-05
-5.424949393129891e-05   1.4260198949921955e-05   2.1526251558608915e-05
-8.021204839218189e-05   1.277975007756612e-05   -2.2632941866276455e-05
-8.021204839218189e-05   1.277975007756612e-05   -2.2632941866276455e-05
-8.021204839218189e-05   1.277975007756612e-05   -2.2632941866276455e-05
-8.021204839218189e-05   1.277975007756612e-05   -2.2632941866276455e-05
-8.234925404288168e-05   1.4532402175831526e-05   2.984402620165869e-05
-8.234925404288168e-05   1.4532402175831526e-05   2.984402620165869e-05
-8.234925404288168e-05   1.4532402175831526e-05   2.984402620165869e-05
-8.234925404288168e-05   1.4532402175831526e-05   2.984402620165869e-05
-5.5606707971222915e-05   1.2913919226203215e-05   -1.3755794147996122e-05
-5.5606707971222915e-05   1.2913919226203215e-05   -1.3755794147996122e-05
-5.5606707971222915e-05   1.2913919226203215e-05   -1.3755794147996122e-05
-5.5606707971222915e-05   1.2913919226203215e-05   -1.3755794147996122e-05
-6.549683162489998e-05   1.3542939537111373e-05   2.350333088253949e-06
-6.549683162489998e-05   1.3542939537111373e-05   2.350333088253949e-06
-6.549683162489998e-05   1.3542939537111373e-05   2.350333088253949e-06
-6.549683162489998e-05   1.3542939537111373e-05   2.350333088253949e-06
-5.560670797122275e-05   1.4532402175831526e-05   3.081511597143537e-05
-5.560670797122275e-05   1.4532402175831526e-05   3.081511597143537e-05
-5.560670797122275e-05   1.4532402175831526e-05   3.081511597143537e-05
-5.560670797122275e-05   1.4532402175831526e-05   3.081511597143537e-05
-8.234925404288184e-05   1.2913919226203215e-05   -1.4726883917773022e-05
-8.234925404288184e-05   1.2913919226203215e-05   -1.4726883917773022e-05
-8.234925404288184e-05   1.2913919226203215e-05   -1.4726883917773022e-05
-8.234925404288184e-05   1.2913919226203215e-05   -1.4726883917773022e-05
-8.443645704846273e-05   1.4427262650091362e-05   3.632432114241942e-05
-8.443645704846273e-05   1.4427262650091362e-05   3.632432114241942e-05
-8.443645704846273e-05   1.4427262650091362e-05   3.632432114241942e-05
-8.443645704846273e-05   1.4427262650091362e-05   3.632432114241942e-05
-5.711115327407308e-05   1.277139890341547e-05   -8.224333566891808e-06
-5.711115327407308e-05   1.277139890341547e-05   -8.224333566891808e-06
-5.711115327407308e-05   1.277139890341547e-05   -8.224333566891808e-06
-5.711115327407308e-05   1.277139890341547e-05   -8.224333566891808e-06
-6.81203434184905e-05   1.3789617023914546e-05   9.513385801505924e-06
-6.81203434184905e-05   1.3789617023914546e-05   9.513385801505924e-06
-6.81203434184905e-05   1.3789617023914546e-05   9.513385801505924e-06
-6.81203434184905e-05   1.3789617023914546e-05   9.513385801505924e-06
-5.711115327407308e-05   1.4427262650091362e-05   3.7317839390425096e-05
-5.711115327407308e-05   1.4427262650091362e-05   3.7317839390425096e-05
-5.711115327407308e-05   1.4427262650091362e-05   3.7317839390425096e-05
-5.711115327407308e-05   1.4427262650091362e-05   3.7317839390425096e-05
-8.44364570484629e-05   1.277139890341547e-05   -9.217851814896996e-06
-8.44364570484629e-05   1.277139890341547e-05   -9.217851814896996e-06
-8.44364570484629e-05   1.277139890341547e-05   -9.217851814896996e-06
-8.44364570484629e-05   1.277139890341547e-05   -9.217851814896996e-06
-8.687439264279287e-05   1.3279926367550533e-05   4.7428338543273676e-05
-8.687439264279287e-05   1.3279926367550533e-05   4.7428338543273676e-05
-8.687439264279287e-05   1.3279926367550533e-05   4.7428338543273676e-05
-8.687439264279287e-05   1.3279926367550533e-05   4.7428338543273676e-05
-5.854508851180874e-05   1.1785638410137089e-05   1.109404432747714e-06
-5.854508851180874e-05   1.1785638410137089e-05   1.109404432747714e-06
-5.854508851180874e-05   1.1785638410137089e-05   1.109404432747714e-06
-5.854508851180874e-05   1.1785638410137089e-05   1.109404432747714e-06
-6.879021269924363e-05   1.338300974955864e-05   1.722618860815347e-05
-6.879021269924363e-05   1.338300974955864e-05   1.722618860815347e-05
-6.879021269924363e-05   1.338300974955864e-05   1.722618860815347e-05
-6.879021269924363e-05   1.338300974955864e-05   1.722618860815347e-05
4.6549058516005116e-05   -6.2905803524088665e-06   3.9530743909393514e-05
4.6549058516005116e-05   -6.2905803524088665e-06   3.9530743909393514e-05
4.6549058516005116e-05   -6.2905803524088665e-06   3.9530743909393514e-05
4.6549058516005116e-05   -6.2905803524088665e-06   3.9530743909393514e-05
2.191707470937142e-05   -4.153298271958577e-06   -2.401931867262574e-07
2.191707470937142e-05   -4.153298271958577e-06   -2.401931867262574e-07
2.191707470937142e-05   -4.153298271958577e-06   -2.401931867262574e-07
2.191707470937142e-05   -4.153298271958577e-06   -2.401931867262574e-07
2.0876186050205605e-05   -7.3001131530745986e-06   3.473761178231921e-05
2.0876186050205605e-05   -7.3001131530745986e-06   3.473761178231921e-05
2.0876186050205605e-05   -7.3001131530745986e-06   3.473761178231921e-05
2.0876186050205605e-05   -7.3001131530745986e-06   3.473761178231921e-05
4.453539818354455e-05   -5.0424899061935445e-06   -6.048982388040308e-06
4.453539818354455e-05   -5.0424899061935445e-06   -6.048982388040308e-06
4.453539818354455e-05   -5.0424899061935445e-06   -6.048982388040308e-06
4.453539818354455e-05   -5.0424899061935445e-06   -6.048982388040308e-06
3.189486927799848e-05   -5.740309622228419e-06   1.543725761749058e-05
3.189486927799848e-05   -5.740309622228419e-06   1.543725761749058e-05
3.189486927799848e-05   -5.740309622228419e-06   1.543725761749058e-05
3.189486927799848e-05   -5.740309622228419e-06   1.543725761749058e-05
4.4535398183544466e-05   -7.300113153074165e-06   3.338303783419093e-05
4.4535398183544466e-05   -7.300113153074165e-06   3.338303783419093e-05
4.4535398183544466e-05   -7.300113153074165e-06   3.338303783419093e-05
4.4535398183544466e-05   -7.300113153074165e-06   3.338303783419093e-05
2.0876186050205652e-05   -5.0424899061935445e-06   -4.694408439912066e-06
2.0876186050205652e-05   -5.0424899061935445e-06   -4.694408439912066e-06
2.0876186050205652e-05   -5.0424899061935445e-06   -4.694408439912066e-06
2.0876186050205652e-05   -5.0424899061935445e-06   -4.694408439912066e-06
1.972754659325952e-05   -7.503171871926263e-06   3.1368048485258494e-05
1.972754659325952e-05   -7.503171871926263e-06   3.1368048485258494e-05
1.972754659325952e-05   -7.503171871926263e-06   3.1368048485258494e-05
1.972754659325952e-05   -7.503171871926263e-06   3.1368048485258494e-05
4.277095253499131e-05   -5.280264110766979e-06   -8.371372740990273e-06
4.277095253499131e-05   -5.280264110766979e-06   -8.371372740990273e-06
4.277095253499131e-05   -5.280264110766979e-06   -8.371372740990273e-06
4.277095253499131e-05   -5.280264110766979e-06   -8.371372740990273e-06
3.105872588065661e-05   -6.100948892872465e-06   1.1641415885498192e-05
3.105872588065661e-05   -6.100948892872465e-06   1.1641415885498192e-05
3.105872588065661e-05   -6.100948892872465e-06   1.1641415885498192e-05
3.105872588065661e-05   -6.100948892872465e-06   1.1641415885498192e-05
4.277095253499124e-05   -7.503171871926263e-06   3.003430382856248e-05
4.277095253499124e-05   -7.503171871926263e-06   3.003430382856248e-05
4.277095253499124e-05   -7.503171871926263e-06   3.003430382856248e-05
4.277095253499124e-05   -7.503171871926263e-06   3.003430382856248e-05
1.972754659325957e-05   -5.280264110766979e-06   -7.037628084294529e-06
1.972754659325957e-05   -5.280264110766979e-06   -7.037628084294529e-06
1.972754659325957e-05   -5.280264110766979e-06   -7.037628084294529e-06
1.972754659325957e-05   -5.280264110766979e-06   -7.037628084294529e-06
1.8667072483177686e-05   -7.586515260274516e-06   2.6806628380778713e-05
1.8667072483177686e-05   -7.586515260274516e-06   2.6806628380778713e-05
1.8667072483177686e-05   -7.586515260274516e-06   2.6806628380778713e-05
1.8667072483177686e-05   -7.586515260274516e-06   2.6806628380778713e-05
4.080000590083581e-05   -5.503533658351902e-06   -1.1331382943137978e-05
4.080000590083581e-05   -5.503533658351902e-06   -1.1331382943137978e-05
4.080000590083581e-05   -5.503533658351902e-06   -1.1331382943137978e-05
4.080000590083581e-05   -5.503533658351902e-06   -1.1331382943137978e-05
2.921853405617832e-05   -6.066577403402969e-06   8.308896378321669e-06
2.921853405617832e-05   -6.066577403402969e-06   8.308896378321669e-06
2.921853405617832e-05   -6.066577403402969e-06   8.308896378321669e-06
2.921853405617832e-05   -6.066577403402969e-06   8.308896378321669e-06
2.1917074709371333e-05   -1.2026937703363792e-06   4.497477279433569e-05
2.1917074709371333e-05   -1.2026937703363792e-06   4.497477279433569e-05
2.1917074709371333e-05   -1.2026937703363792e-06   4.497477279433569e-05
2.1917074709371333e-05   -1.2026937703363792e-06   4.497477279433569e-05
-1.3992259905293682e-06   -1.91570229076711e-08   6.824393676291328e-06
-1.3992259905293682e-06   -1.91570229076711e-08   6.824393676291328e-06
-1.3992259905293682e-06   -1.91570229076711e-08   6.824393676291328e-06
-1.3992259905293682e-06   -1.91570229076711e-08   6.824393676291328e-06
-2.377667718010733e-06   -1.9188590539404547e-06   4.505544099749894e-05
-2.377667718010733e-06   -1.9188590539404547e-06   4.505544099749894e-05
-2.377667718010733e-06   -1.9188590539404547e-06   4.505544099749894e-05
-2.377667718010733e-06   -1.9188590539404547e-06   4.505544099749894e-05
2.0876186050205652e-05   -7.930040923269724e-07   5.623505073503159e-06
2.0876186050205652e-05   -7.930040923269724e-07   5.623505073503159e-06
2.0876186050205652e-05   -7.930040923269724e-07   5.623505073503159e-06
2.0876186050205652e-05   -7.930040923269724e-07   5.623505073503159e-06
9.596147471035025e-06   -1.01145284104329e-06   2.455463862135077e-05
9.596147471035025e-06   -1.01145284104329e-06   2.455463862135077e-05
9.596147471035025e-06   -1.01145284104329e-06   2.455463862135077e-05
9.596147471035025e-06   -1.01145284104329e-06   2.455463862135077e-05
2.0876186050205557e-05   -1.9188590539408884e-06   4.4379928020530366e-05
2.0876186050205557e-05   -1.9188590539408884e-06   4.4379928020530366e-05
2.0876186050205557e-05   -1.9188590539408884e-06   4.4379928020530366e-05
2.0876186050205557e-05   -1.9188590539408884e-06   4.4379928020530366e-05
-2.377667718010733e-06   -7.930040923269724e-07   6.299018050471682e-06
-2.377667718010733e-06   -7.930040923269724e-07   6.299018050471682e-06
-2.377667718010733e-06   -7.930040923269724e-07   6.299018050471682e-06
-2.377667718010733e-06   -7.930040923269724e-07   6.299018050471682e-06
-3.3768700701163534e-06   -2.451258290506707e-06   4.437951690770391e-05
-3.3768700701163534e-06   -2.451258290506707e-06   4.437951690770391e-05
-3.3768700701163534e-06   -2.451258290506707e-06   4.437951690770391e-05
-3.3768700701163534e-06   -2.451258290506707e-06   4.437951690770391e-05
1.972754659325957e-05   -1.4033924620108877e-06   5.2434363049802535e-06
1.972754659325957e-05   -1.4033924620108877e-06   5.2434363049802535e-06
1.972754659325957e-05   -1.4033924620108877e-06   5.2434363049802535e-06
1.972754659325957e-05   -1.4033924620108877e-06   5.2434363049802535e-06
8.499041288440414e-06   -1.4892437617880158e-06   2.4009122592879933e-05
8.499041288440414e-06   -1.4892437617880158e-06   2.4009122592879933e-05
8.499041288440414e-06   -1.4892437617880158e-06   2.4009122592879933e-05
8.499041288440414e-06   -1.4892437617880158e-06   2.4009122592879933e-05
1.972754659325952e-05   -2.451258290506707e-06   4.375079741060657e-05
1.972754659325952e-05   -2.451258290506707e-06   4.375079741060657e-05
1.972754659325952e-05   -2.451258290506707e-06   4.375079741060657e-05
1.972754659325952e-05   -2.451258290506707e-06   4.375079741060657e-05
-3.3768700701163534e-06   -1.4033924620108877e-06   5.872155802077485e-06
-3.3768700701163534e-06   -1.4033924620108877e-06   5.872155802077485e-06
-3.3768700701163534e-06   -1.4033924620108877e-06   5.872155802077485e-06
-3.3768700701163534e-06   -1.4033924620108877e-06   5.872155802077485e-06
-4.381458445812072e-06   -2.8717203267927816e-06   4.469107789212626e-05
-4.381458445812072e-06   -2.8717203267927816e-06   4.469107789212626e-05
-4.381458445812072e-06   -2.8717203267927816e-06   4.469107789212626e-05
-4.381458445812072e-06   -2.8717203267927816e-06   4.469107789212626e-05
1.86670724831777e-05   -1.9692008045263214e-06   5.735347963783423e-06
1.86670724831777e-05   -1.9692008045263214e-06   5.735347963783423e-06
1.86670724831777e-05   -1.9692008045263214e-06   5.735347963783423e-06
1.86670724831777e-05   -1.9692008045263214e-06   5.735347963783423e-06
7.660622282609357e-06   -1.843417265398736e-06   2.4003961507920897e-05
7.660622282609357e-06   -1.843417265398736e-06   2.4003961507920897e-05
7.660622282609357e-06   -1.843417265398736e-06   2.4003961507920897e-05
7.660622282609357e-06   -1.843417265398736e-06   2.4003961507920897e-05
-1.3992259905293682e-06   3.907859384174109e-06   4.761987514317759e-05
-1.3992259905293682e-06   3.907859384174109e-06   4.761987514317759e-05
-1.3992259905293682e-06   3.907859384174109e-06   4.761987514317759e-05
-1.3992259905293682e-06   3.907859384174109e-06   4.761987514317759e-05
-2.422639812433113e-05   4.021453539365238e-06   9.642744746622472e-06
-2.422639812433113e-05   4.021453539365238e-06   9.642744746622472e-06
-2.422639812433113e-05   4.021453539365238e-06   9.642744746622472e-06
-2.422639812433113e-05   4.021453539365238e-06   9.642744746622472e-06
-2.5209968771079005e-05   3.311464232834665e-06   4.7475768552577863e-05
-2.5209968771079005e-05   3.311464232834665e-06   4.7475768552577863e-05
-2.5209968771079005e-05   3.311464232834665e-06   4.7475768552577863e-05
-2.5209968771079005e-05   3.311464232834665e-06   4.7475768552577863e-05
-2.377667718010733e-06   3.341032170465965e-06   9.404192701552164e-06
-2.377667718010733e-06   3.341032170465965e-06   9.404192701552164e-06
-2.377667718010733e-06   3.341032170465965e-06   9.404192701552164e-06
-2.377667718010733e-06   3.341032170465965e-06   9.404192701552164e-06
-1.3337871457814749e-05   3.5820009747008098e-06   2.7526617652017904e-05
-1.3337871457814749e-05   3.5820009747008098e-06   2.7526617652017904e-05
-1.3337871457814749e-05   3.5820009747008098e-06   2.7526617652017904e-05
-1.3337871457814749e-05   3.5820009747008098e-06   2.7526617652017904e-05
-2.377667718010733e-06   3.311464232834665e-06   4.7458027789999474e-05
-2.377667718010733e-06   3.311464232834665e-06   4.7458027789999474e-05
-2.377667718010733e-06   3.311464232834665e-06   4.7458027789999474e-05
-2.377667718010733e-06   3.311464232834665e-06   4.7458027789999474e-05
-2.5209968771079005e-05   3.341032170465965e-06   9.42193346413077e-06
-2.5209968771079005e-05   3.341032170465965e-06   9.42193346413077e-06
-2.5209968771079005e-05   3.341032170465965e-06   9.42193346413077e-06
-2.5209968771079005e-05   3.341032170465965e-06   9.42193346413077e-06
-2.6218176228078543e-05   2.732344395526068e-06   4.7736637514072394e-05
-2.6218176228078543e-05   2.732344395526068e-06   4.7736637514072394e-05
-2.6218176228078543e-05   2.732344395526068e-06   4.7736637514072394e-05
-2.6218176228078543e-05   2.732344395526068e-06   4.7736637514072394e-05
-3.3768700701163534e-06   2.6713886631165445e-06   9.704367356914339e-06
-3.3768700701163534e-06   2.6713886631165445e-06   9.704367356914339e-06
-3.3768700701163534e-06   2.6713886631165445e-06   9.704367356914339e-06
-3.3768700701163534e-06   2.6713886631165445e-06   9.704367356914339e-06
-1.4251206498654882e-05   3.1243138776042116e-06   2.7556506275786897e-05
-1.4251206498654882e-05   3.1243138776042116e-06   2.7556506275786897e-05
-1.4251206498654882e-05   3.1243138776042116e-06   2.7556506275786897e-05
-1.4251206498654882e-05   3.1243138776042116e-06   2.7556506275786897e-05
-3.3768700701163534e-06   2.732344395526068e-06   4.7773210953518087e-05
-3.3768700701163534e-06   2.732344395526068e-06   4.7773210953518087e-05
-3.3768700701163534e-06   2.732344395526068e-06   4.7773210953518087e-05
-3.3768700701163534e-06   2.732344395526068e-06   4.7773210953518087e-05
-2.6218176228078597e-05   2.6713886631165445e-06   9.667793917468321e-06
-2.6218176228078597e-05   2.6713886631165445e-06   9.667793917468321e-06
-2.6218176228078597e-05   2.6713886631165445e-06   9.667793917468321e-06
-2.6218176228078597e-05   2.6713886631165445e-06   9.667793917468321e-06
-2.7226051163066446e-05   2.216829904735408e-06   4.833142599855477e-05
-2.7226051163066446e-05   2.216829904735408e-06   4.833142599855477e-05
-2.7226051163066446e-05   2.216829904735408e-06   4.833142599855477e-05
-2.7226051163066446e-05   2.216829904735408e-06   4.833142599855477e-05
-4.381458445812045e-06   2.035917728889468e-06   1.0365652108638383e-05
-4.381458445812045e-06   2.035917728889468e-06   1.0365652108638383e-05
-4.381458445812045e-06   2.035917728889468e-06   1.0365652108638383e-05
-4.381458445812045e-06   2.035917728889468e-06   1.0365652108638383e-05
-1.5207321997869224e-05   2.6782701912108665e-06   2.8023346551340968e-05
-1.5207321997869224e-05   2.6782701912108665e-06   2.8023346551340968e-05
-1.5207321997869224e-05   2.6782701912108665e-06   2.8023346551340968e-05
-1.5207321997869224e-05   2.6782701912108665e-06   2.8023346551340968e-05
-2.4226398124331105e-05   8.879239577590237e-06   4.188537942646564e-05
-2.4226398124331105e-05   8.879239577590237e-06   4.188537942646564e-05
-2.4226398124331105e-05   8.879239577590237e-06   4.188537942646564e-05
-2.4226398124331105e-05   8.879239577590237e-06   4.188537942646564e-05
-4.6545452250411974e-05   7.909208139444002e-06   4.104937020109724e-06
-4.6545452250411974e-05   7.909208139444002e-06   4.104937020109724e-06
-4.6545452250411974e-05   7.909208139444002e-06   4.104937020109724e-06
-4.6545452250411974e-05   7.909208139444002e-06   4.104937020109724e-06
-4.760367715589365e-05   8.309311095732255e-06   4.1609924285853543e-05
-4.760367715589365e-05   8.309311095732255e-06   4.1609924285853543e-05
-4.760367715589365e-05   8.309311095732255e-06   4.1609924285853543e-05
-4.760367715589365e-05   8.309311095732255e-06   4.1609924285853543e-05
-2.520996877107906e-05   7.257166953560448e-06   4.918363463132661e-06
-2.520996877107906e-05   7.257166953560448e-06   4.918363463132661e-06
-2.520996877107906e-05   7.257166953560448e-06   4.918363463132661e-06
-2.520996877107906e-05   7.257166953560448e-06   4.918363463132661e-06
-3.5777883388601276e-05   7.983745354176201e-06   2.2095607451966736e-05
-3.5777883388601276e-05   7.983745354176201e-06   2.2095607451966736e-05
-3.5777883388601276e-05   7.983745354176201e-06   2.2095607451966736e-05
-3.5777883388601276e-05   7.983745354176201e-06   2.2095607451966736e-05
-2.5209968771079005e-05   8.309311095732689e-06   4.2241210771156866e-05
-2.5209968771079005e-05   8.309311095732689e-06   4.2241210771156866e-05
-2.5209968771079005e-05   8.309311095732689e-06   4.2241210771156866e-05
-2.5209968771079005e-05   8.309311095732689e-06   4.2241210771156866e-05
-4.76036771558936e-05   7.257166953560448e-06   4.28707697782923e-06
-4.76036771558936e-05   7.257166953560448e-06   4.28707697782923e-06
-4.76036771558936e-05   7.257166953560448e-06   4.28707697782923e-06
-4.76036771558936e-05   7.257166953560448e-06   4.28707697782923e-06
-4.8768813638927044e-05   7.78425921303975e-06   4.316936192043201e-05
-4.8768813638927044e-05   7.78425921303975e-06   4.316936192043201e-05
-4.8768813638927044e-05   7.78425921303975e-06   4.316936192043201e-05
-4.8768813638927044e-05   7.78425921303975e-06   4.316936192043201e-05
-2.6218176228078597e-05   6.650008649763169e-06   6.265516573650699e-06
-2.6218176228078597e-05   6.650008649763169e-06   6.265516573650699e-06
-2.6218176228078597e-05   6.650008649763169e-06   6.265516573650699e-06
-2.6218176228078597e-05   6.650008649763169e-06   6.265516573650699e-06
-3.653832597288911e-05   7.567285467355691e-06   2.2915400057780502e-05
-3.653832597288911e-05   7.567285467355691e-06   2.2915400057780502e-05
-3.653832597288911e-05   7.567285467355691e-06   2.2915400057780502e-05
-3.653832597288911e-05   7.567285467355691e-06   2.2915400057780502e-05
-2.6218176228078597e-05   7.78425921303975e-06   4.384991225839799e-05
-2.6218176228078597e-05   7.78425921303975e-06   4.384991225839799e-05
-2.6218176228078597e-05   7.78425921303975e-06   4.384991225839799e-05
-2.6218176228078597e-05   7.78425921303975e-06   4.384991225839799e-05
-4.8768813638926935e-05   6.650008649763169e-06   5.584966235684663e-06
-4.8768813638926935e-05   6.650008649763169e-06   5.584966235684663e-06
-4.8768813638926935e-05   6.650008649763169e-06   5.584966235684663e-06
-4.8768813638926935e-05   6.650008649763169e-06   5.584966235684663e-06
-4.983439498361722e-05   7.143373764193026e-06   4.434345677644812e-05
-4.983439498361722e-05   7.143373764193026e-06   4.434345677644812e-05
-4.983439498361722e-05   7.143373764193026e-06   4.434345677644812e-05
-4.983439498361722e-05   7.143373764193026e-06   4.434345677644812e-05
-2.7226051163066473e-05   5.943319668351259e-06   7.382916199702048e-06
-2.7226051163066473e-05   5.943319668351259e-06   7.382916199702048e-06
-2.7226051163066473e-05   5.943319668351259e-06   7.382916199702048e-06
-2.7226051163066473e-05   5.943319668351259e-06   7.382916199702048e-06
-3.774651043980383e-05   7.097950347980395e-06   2.4224236586486937e-05
-3.774651043980383e-05   7.097950347980395e-06   2.4224236586486937e-05
-3.774651043980383e-05   7.097950347980395e-06   2.4224236586486937e-05
-3.774651043980383e-05   7.097950347980395e-06   2.4224236586486937e-05
-4.6545452250411974e-05   1.277975007756612e-05   2.0246548416109423e-05
-4.6545452250411974e-05   1.277975007756612e-05   2.0246548416109423e-05
-4.6545452250411974e-05   1.277975007756612e-05   2.0246548416109423e-05
-4.6545452250411974e-05   1.277975007756612e-05   2.0246548416109423e-05
-6.773047468939321e-05   1.0895047413967632e-05   -1.619264391368512e-05
-6.773047468939321e-05   1.0895047413967632e-05   -1.619264391368512e-05
-6.773047468939321e-05   1.0895047413967632e-05   -1.619264391368512e-05
-6.773047468939321e-05   1.0895047413967632e-05   -1.619264391368512e-05
-6.963182955656017e-05   1.2913919226202782e-05   2.6892833202786428e-05
-6.963182955656017e-05   1.2913919226202782e-05   2.6892833202786428e-05
-6.963182955656017e-05   1.2913919226202782e-05   2.6892833202786428e-05
-6.963182955656017e-05   1.2913919226202782e-05   2.6892833202786428e-05
-4.760367715589365e-05   1.0839052637474575e-05   -8.575834178421466e-06
-4.760367715589365e-05   1.0839052637474575e-05   -8.575834178421466e-06
-4.760367715589365e-05   1.0839052637474575e-05   -8.575834178421466e-06
-4.760367715589365e-05   1.0839052637474575e-05   -8.575834178421466e-06
-5.567609434668373e-05   1.168388709410842e-05   4.371293798915239e-06
-5.567609434668373e-05   1.168388709410842e-05   4.371293798915239e-06
-5.567609434668373e-05   1.168388709410842e-05   4.371293798915239e-06
-5.567609434668373e-05   1.168388709410842e-05   4.371293798915239e-06
-4.7603677155893436e-05   1.2913919226202782e-05   2.8137753156023027e-05
-4.7603677155893436e-05   1.2913919226202782e-05   2.8137753156023027e-05
-4.7603677155893436e-05   1.2913919226202782e-05   2.8137753156023027e-05
-4.7603677155893436e-05   1.2913919226202782e-05   2.8137753156023027e-05
-6.963182955656028e-05   1.0839052637474575e-05   -9.82075413165839e-06
-6.963182955656028e-05   1.0839052637474575e-05   -9.82075413165839e-06
-6.963182955656028e-05   1.0839052637474575e-05   -9.82075413165839e-06
-6.963182955656028e-05   1.0839052637474575e-05   -9.82075413165839e-06
-7.13346485260343e-05   1.2771398903415037e-05   3.226760264068507e-05
-7.13346485260343e-05   1.2771398903415037e-05   3.226760264068507e-05
-7.13346485260343e-05   1.2771398903415037e-05   3.226760264068507e-05
-7.13346485260343e-05   1.2771398903415037e-05   3.226760264068507e-05
-4.8768813638927044e-05   1.0617668609817776e-05   -4.049883995001875e-06
-4.8768813638927044e-05   1.0617668609817776e-05   -4.049883995001875e-06
-4.8768813638927044e-05   1.0617668609817776e-05   -4.049883995001875e-06
-4.8768813638927044e-05   1.0617668609817776e-05   -4.049883995001875e-06
-5.785930260097721e-05   1.1812366302066087e-05   1.0384112326401328e-05
-5.785930260097721e-05   1.1812366302066087e-05   1.0384112326401328e-05
-5.785930260097721e-05   1.1812366302066087e-05   1.0384112326401328e-05
-5.785930260097721e-05   1.1812366302066087e-05   1.0384112326401328e-05
-4.8768813638927044e-05   1.277139890341547e-05   3.355984081684384e-05
-4.8768813638927044e-05   1.277139890341547e-05   3.355984081684384e-05
-4.8768813638927044e-05   1.277139890341547e-05   3.355984081684384e-05
-4.8768813638927044e-05   1.277139890341547e-05   3.355984081684384e-05
-7.133464852603441e-05   1.0617668609817776e-05   -5.3421221711604265e-06
-7.133464852603441e-05   1.0617668609817776e-05   -5.3421221711604265e-06
-7.133464852603441e-05   1.0617668609817776e-05   -5.3421221711604265e-06
-7.133464852603441e-05   1.0617668609817776e-05   -5.3421221711604265e-06
-7.329169101975277e-05   1.1785638410137089e-05   4.1517225558263936e-05
-7.329169101975277e-05   1.1785638410137089e-05   4.1517225558263936e-05
-7.329169101975277e-05   1.1785638410137089e-05   4.1517225558263936e-05
-7.329169101975277e-05   1.1785638410137089e-05   4.1517225558263936e-05
-4.9834394983617114e-05   9.642316469987613e-06   3.707725328793701e-06
-4.9834394983617114e-05   9.642316469987613e-06   3.707725328793701e-06
-4.9834394983617114e-05   9.642316469987613e-06   3.707725328793701e-06
-4.9834394983617114e-05   9.642316469987613e-06   3.707725328793701e-06
-5.8329692248447994e-05   1.1408116827703839e-05   1.6807073888881426e-05
-5.8329692248447994e-05   1.1408116827703839e-05   1.6807073888881426e-05
-5.8329692248447994e-05   1.1408116827703839e-05   1.6807073888881426e-05
-5.8329692248447994e-05   1.1408116827703839e-05   1.6807073888881426e-05
3.203982001909371e-05   -4.153298271958577e-06   3.215969192510371e-05
3.203982001909371e-05   -4.153298271958577e-06   3.215969192510371e-05
3.203982001909371e-05   -4.153298271958577e-06   3.215969192510371e-05
3.203982001909371e-05   -4.153298271958577e-06   3.215969192510371e-05
1.3292617264348929e-05   -2.0371648110375194e-06   2.184034077081995e-06
1.3292617264348929e-05   -2.0371648110375194e-06   2.184034077081995e-06
1.3292617264348929e-05   -2.0371648110375194e-06   2.184034077081995e-06
1.3292617264348929e-05   -2.0371648110375194e-06   2.184034077081995e-06
1.2455854891212137e-05   -5.0424899061935445e-06   2.891804662516202e-05
1.2455854891212137e-05   -5.0424899061935445e-06   2.891804662516202e-05
1.2455854891212137e-05   -5.0424899061935445e-06   2.891804662516202e-05
1.2455854891212137e-05   -5.0424899061935445e-06   2.891804662516202e-05
3.0259215377317126e-05   -2.8319574636209884e-06   -2.0805403172230452e-06
3.0259215377317126e-05   -2.8319574636209884e-06   -2.0805403172230452e-06
3.0259215377317126e-05   -2.8319574636209884e-06   -2.0805403172230452e-06
3.0259215377317126e-05   -2.8319574636209884e-06   -2.0805403172230452e-06
2.0916470286693426e-05   -3.6010230377503047e-06   1.3952140844961146e-05
2.0916470286693426e-05   -3.6010230377503047e-06   1.3952140844961146e-05
2.0916470286693426e-05   -3.6010230377503047e-06   1.3952140844961146e-05
2.0916470286693426e-05   -3.6010230377503047e-06   1.3952140844961146e-05
3.0259215377317173e-05   -5.042489906193978e-06   2.7591727159618693e-05
3.0259215377317173e-05   -5.042489906193978e-06   2.7591727159618693e-05
3.0259215377317173e-05   -5.042489906193978e-06   2.7591727159618693e-05
3.0259215377317173e-05   -5.042489906193978e-06   2.7591727159618693e-05
1.2455854891212103e-05   -2.8319574636209884e-06   -7.542208516795549e-07
1.2455854891212103e-05   -2.8319574636209884e-06   -7.542208516795549e-07
1.2455854891212103e-05   -2.8319574636209884e-06   -7.542208516795549e-07
1.2455854891212103e-05   -2.8319574636209884e-06   -7.542208516795549e-07
1.1516333255105806e-05   -5.280264110766979e-06   2.6510261296618445e-05
1.1516333255105806e-05   -5.280264110766979e-06   2.6510261296618445e-05
1.1516333255105806e-05   -5.280264110766979e-06   2.6510261296618445e-05
1.1516333255105806e-05   -5.280264110766979e-06   2.6510261296618445e-05
2.8730979808912984e-05   -3.1058780252642484e-06   -3.485447944361845e-06
2.8730979808912984e-05   -3.1058780252642484e-06   -3.485447944361845e-06
2.8730979808912984e-05   -3.1058780252642484e-06   -3.485447944361845e-06
2.8730979808912984e-05   -3.1058780252642484e-06   -3.485447944361845e-06
2.012293090426968e-05   -3.938033527807689e-06   1.1360593531570544e-05
2.012293090426968e-05   -3.938033527807689e-06   1.1360593531570544e-05
2.012293090426968e-05   -3.938033527807689e-06   1.1360593531570544e-05
2.012293090426968e-05   -3.938033527807689e-06   1.1360593531570544e-05
2.8730979808913038e-05   -5.280264110766979e-06   2.5205629645316666e-05
2.8730979808913038e-05   -5.280264110766979e-06   2.5205629645316666e-05
2.8730979808913038e-05   -5.280264110766979e-06   2.5205629645316666e-05
2.8730979808913038e-05   -5.280264110766979e-06   2.5205629645316666e-05
1.1516333255105779e-05   -3.1058780252642484e-06   -2.1808162930603368e-06
1.1516333255105779e-05   -3.1058780252642484e-06   -2.1808162930603368e-06
1.1516333255105779e-05   -3.1058780252642484e-06   -2.1808162930603368e-06
1.1516333255105779e-05   -3.1058780252642484e-06   -2.1808162930603368e-06
1.0674269685279167e-05   -5.503533658352336e-06   2.3386046623670876e-05
1.0674269685279167e-05   -5.503533658352336e-06   2.3386046623670876e-05
1.0674269685279167e-05   -5.503533658352336e-06   2.3386046623670876e-05
1.0674269685279167e-05   -5.503533658352336e-06   2.3386046623670876e-05
2.6998134042227013e-05   -3.4689885979725422e-06   -5.041121007470003e-06
2.6998134042227013e-05   -3.4689885979725422e-06   -5.041121007470003e-06
2.6998134042227013e-05   -3.4689885979725422e-06   -5.041121007470003e-06
2.6998134042227013e-05   -3.4689885979725422e-06   -5.041121007470003e-06
1.8657382556226783e-05   -4.004767539072824e-06   9.181598833856775e-06
1.8657382556226783e-05   -4.004767539072824e-06   9.181598833856775e-06
1.8657382556226783e-05   -4.004767539072824e-06   9.181598833856775e-06
1.8657382556226783e-05   -4.004767539072824e-06   9.181598833856775e-06
1.329261726434897e-05   -1.915702290810478e-08   3.9783836816217335e-05
1.329261726434897e-05   -1.915702290810478e-08   3.9783836816217335e-05
1.329261726434897e-05   -1.915702290810478e-08   3.9783836816217335e-05
1.329261726434897e-05   -1.915702290810478e-08   3.9783836816217335e-05
-4.30217188711549e-06   1.0542961686810584e-06   1.1103260145396698e-05
-4.30217188711549e-06   1.0542961686810584e-06   1.1103260145396698e-05
-4.30217188711549e-06   1.0542961686810584e-06   1.1103260145396698e-05
-4.30217188711549e-06   1.0542961686810584e-06   1.1103260145396698e-05
-5.070915563062055e-06   -7.930040923269724e-07   3.986123657513164e-05
-5.070915563062055e-06   -7.930040923269724e-07   3.986123657513164e-05
-5.070915563062055e-06   -7.930040923269724e-07   3.986123657513164e-05
-5.070915563062055e-06   -7.930040923269724e-07   3.986123657513164e-05
1.2455854891212103e-05   2.4912330192977325e-07   1.002467604812045e-05
1.2455854891212103e-05   2.4912330192977325e-07   1.002467604812045e-05
1.2455854891212103e-05   2.4912330192977325e-07   1.002467604812045e-05
1.2455854891212103e-05   2.4912330192977325e-07   1.002467604812045e-05
3.96851829184034e-06   5.378746037649519e-08   2.428743855200635e-05
3.96851829184034e-06   5.378746037649519e-08   2.428743855200635e-05
3.96851829184034e-06   5.378746037649519e-08   2.428743855200635e-05
3.96851829184034e-06   5.378746037649519e-08   2.428743855200635e-05
1.245585489121213e-05   -7.930040923265387e-07   3.923596013857757e-05
1.245585489121213e-05   -7.930040923265387e-07   3.923596013857757e-05
1.245585489121213e-05   -7.930040923265387e-07   3.923596013857757e-05
1.245585489121213e-05   -7.930040923265387e-07   3.923596013857757e-05
-5.070915563062055e-06   2.4912330193020693e-07   1.0649952484674628e-05
-5.070915563062055e-06   2.4912330193020693e-07   1.0649952484674628e-05
-5.070915563062055e-06   2.4912330193020693e-07   1.0649952484674628e-05
-5.070915563062055e-06   2.4912330193020693e-07   1.0649952484674628e-05
-5.856834825781061e-06   -1.4033924620108877e-06   3.9387284246899775e-05
-5.856834825781061e-06   -1.4033924620108877e-06   3.9387284246899775e-05
-5.856834825781061e-06   -1.4033924620108877e-06   3.9387284246899775e-05
-5.856834825781061e-06   -1.4033924620108877e-06   3.9387284246899775e-05
1.1516333255105779e-05   -4.101281936659193e-07   9.836045551081616e-06
1.1516333255105779e-05   -4.101281936659193e-07   9.836045551081616e-06
1.1516333255105779e-05   -4.101281936659193e-07   9.836045551081616e-06
1.1516333255105779e-05   -4.101281936659193e-07   9.836045551081616e-06
3.1236118835315175e-06   -4.834888836099342e-07   2.386793091767325e-05
3.1236118835315175e-06   -4.834888836099342e-07   2.386793091767325e-05
3.1236118835315175e-06   -4.834888836099342e-07   2.386793091767325e-05
3.1236118835315175e-06   -4.834888836099342e-07   2.386793091767325e-05
1.1516333255105826e-05   -1.4033924620108877e-06   3.879132568589293e-05
1.1516333255105826e-05   -1.4033924620108877e-06   3.879132568589293e-05
1.1516333255105826e-05   -1.4033924620108877e-06   3.879132568589293e-05
1.1516333255105826e-05   -1.4033924620108877e-06   3.879132568589293e-05
-5.856834825781061e-06   -4.101281936659193e-07   1.0432004112088597e-05
-5.856834825781061e-06   -4.101281936659193e-07   1.0432004112088597e-05
-5.856834825781061e-06   -4.101281936659193e-07   1.0432004112088597e-05
-5.856834825781061e-06   -4.101281936659193e-07   1.0432004112088597e-05
-6.636101453224994e-06   -1.9692008045258877e-06   3.974832651079956e-05
-6.636101453224994e-06   -1.9692008045258877e-06   3.974832651079956e-05
-6.636101453224994e-06   -1.9692008045258877e-06   3.974832651079956e-05
-6.636101453224994e-06   -1.9692008045258877e-06   3.974832651079956e-05
1.0674269685279127e-05   -1.060304235591357e-06   1.035237000526529e-05
1.0674269685279127e-05   -1.060304235591357e-06   1.035237000526529e-05
1.0674269685279127e-05   -1.060304235591357e-06   1.035237000526529e-05
1.0674269685279127e-05   -1.060304235591357e-06   1.035237000526529e-05
2.45563697701908e-06   -9.319100460656541e-07   2.3973054671982703e-05
2.45563697701908e-06   -9.319100460656541e-07   2.3973054671982703e-05
2.45563697701908e-06   -9.319100460656541e-07   2.3973054671982703e-05
2.45563697701908e-06   -9.319100460656541e-07   2.3973054671982703e-05
-4.302171887115463e-06   4.021453539365238e-06   4.3178103308387126e-05
-4.302171887115463e-06   4.021453539365238e-06   4.3178103308387126e-05
-4.302171887115463e-06   4.021453539365238e-06   4.3178103308387126e-05
-4.302171887115463e-06   4.021453539365238e-06   4.3178103308387126e-05
-2.16081337206789e-05   3.956077200069092e-06   1.4295607782203795e-05
-2.16081337206789e-05   3.956077200069092e-06   1.4295607782203795e-05
-2.16081337206789e-05   3.956077200069092e-06   1.4295607782203795e-05
-2.16081337206789e-05   3.956077200069092e-06   1.4295607782203795e-05
-2.2366418905003495e-05   3.341032170465965e-06   4.2896173273205196e-05
-2.2366418905003495e-05   3.341032170465965e-06   4.2896173273205196e-05
-2.2366418905003495e-05   3.341032170465965e-06   4.2896173273205196e-05
-2.2366418905003495e-05   3.341032170465965e-06   4.2896173273205196e-05
-5.070915563062028e-06   3.223968915454928e-06   1.4140572322976497e-05
-5.070915563062028e-06   3.223968915454928e-06   1.4140572322976497e-05
-5.070915563062028e-06   3.223968915454928e-06   1.4140572322976497e-05
-5.070915563062028e-06   3.223968915454928e-06   1.4140572322976497e-05
-1.3370133932703323e-05   3.5458526496091013e-06   2.7779472698553226e-05
-1.3370133932703323e-05   3.5458526496091013e-06   2.7779472698553226e-05
-1.3370133932703323e-05   3.5458526496091013e-06   2.7779472698553226e-05
-1.3370133932703323e-05   3.5458526496091013e-06   2.7779472698553226e-05
-5.070915563062055e-06   3.341032170465965e-06   4.296641122621223e-05
-5.070915563062055e-06   3.341032170465965e-06   4.296641122621223e-05
-5.070915563062055e-06   3.341032170465965e-06   4.296641122621223e-05
-5.070915563062055e-06   3.341032170465965e-06   4.296641122621223e-05
-2.2366418905003522e-05   3.223968915454928e-06   1.4070334369969571e-05
-2.2366418905003522e-05   3.223968915454928e-06   1.4070334369969571e-05
-2.2366418905003522e-05   3.223968915454928e-06   1.4070334369969571e-05
-2.2366418905003522e-05   3.223968915454928e-06   1.4070334369969571e-05
-2.3143001671161248e-05   2.6713886631165445e-06   4.311680919595953e-05
-2.3143001671161248e-05   2.6713886631165445e-06   4.311680919595953e-05
-2.3143001671161248e-05   2.6713886631165445e-06   4.311680919595953e-05
-2.3143001671161248e-05   2.6713886631165445e-06   4.311680919595953e-05
-5.856834825781034e-06   2.5002443201547174e-06   1.4409217726103155e-05
-5.856834825781034e-06   2.5002443201547174e-06   1.4409217726103155e-05
-5.856834825781034e-06   2.5002443201547174e-06   1.4409217726103155e-05
-5.856834825781034e-06   2.5002443201547174e-06   1.4409217726103155e-05
-1.4064745695168828e-05   3.0142839417407474e-06   2.7780645402131893e-05
-1.4064745695168828e-05   3.0142839417407474e-06   2.7780645402131893e-05
-1.4064745695168828e-05   3.0142839417407474e-06   2.7780645402131893e-05
-1.4064745695168828e-05   3.0142839417407474e-06   2.7780645402131893e-05
-5.856834825781061e-06   2.6713886631165445e-06   4.321949580173674e-05
-5.856834825781061e-06   2.6713886631165445e-06   4.321949580173674e-05
-5.856834825781061e-06   2.6713886631165445e-06   4.321949580173674e-05
-5.856834825781061e-06   2.6713886631165445e-06   4.321949580173674e-05
-2.314300167116133e-05   2.5002443201542837e-06   1.4306531120326276e-05
-2.314300167116133e-05   2.5002443201542837e-06   1.4306531120326276e-05
-2.314300167116133e-05   2.5002443201542837e-06   1.4306531120326276e-05
-2.314300167116133e-05   2.5002443201542837e-06   1.4306531120326276e-05
-2.3910604076356217e-05   2.035917728889468e-06   4.369762414227593e-05
-2.3910604076356217e-05   2.035917728889468e-06   4.369762414227593e-05
-2.3910604076356217e-05   2.035917728889468e-06   4.369762414227593e-05
-2.3910604076356217e-05   2.035917728889468e-06   4.369762414227593e-05
-6.636101453224967e-06   1.8034263955246654e-06   1.5046281237075841e-05
-6.636101453224967e-06   1.8034263955246654e-06   1.5046281237075841e-05
-6.636101453224967e-06   1.8034263955246654e-06   1.5046281237075841e-05
-6.636101453224967e-06   1.8034263955246654e-06   1.5046281237075841e-05
-1.4791224111992474e-05   2.4951619823508544e-06   2.8223110982925504e-05
-1.4791224111992474e-05   2.4951619823508544e-06   2.8223110982925504e-05
-1.4791224111992474e-05   2.4951619823508544e-06   2.8223110982925504e-05
-1.4791224111992474e-05   2.4951619823508544e-06   2.8223110982925504e-05
-2.16081337206789e-05   7.909208139444002e-06   3.8183088641184355e-05
-2.16081337206789e-05   7.909208139444002e-06   3.8183088641184355e-05
-2.16081337206789e-05   7.909208139444002e-06   3.8183088641184355e-05
-2.16081337206789e-05   7.909208139444002e-06   3.8183088641184355e-05
-3.862009143024077e-05   6.778686692387233e-06   9.151512923680628e-06
-3.862009143024077e-05   6.778686692387233e-06   9.151512923680628e-06
-3.862009143024077e-05   6.778686692387233e-06   9.151512923680628e-06
-3.862009143024077e-05   6.778686692387233e-06   9.151512923680628e-06
-3.9433308765369026e-05   7.257166953560448e-06   3.767620186838545e-05
-3.9433308765369026e-05   7.257166953560448e-06   3.767620186838545e-05
-3.9433308765369026e-05   7.257166953560448e-06   3.767620186838545e-05
-3.9433308765369026e-05   7.257166953560448e-06   3.767620186838545e-05
-2.2366418905003468e-05   6.0631646138574295e-06   9.947786838264633e-06
-2.2366418905003468e-05   6.0631646138574295e-06   9.947786838264633e-06
-2.2366418905003468e-05   6.0631646138574295e-06   9.947786838264633e-06
-2.2366418905003468e-05   6.0631646138574295e-06   9.947786838264633e-06
-3.0420894120879735e-05   6.8834843409925055e-06   2.287972036177832e-05
-3.0420894120879735e-05   6.8834843409925055e-06   2.287972036177832e-05
-3.0420894120879735e-05   6.8834843409925055e-06   2.287972036177832e-05
-3.0420894120879735e-05   6.8834843409925055e-06   2.287972036177832e-05
-2.2366418905003522e-05   7.257166953560015e-06   3.839260327220698e-05
-2.2366418905003522e-05   7.257166953560015e-06   3.839260327220698e-05
-2.2366418905003522e-05   7.257166953560015e-06   3.839260327220698e-05
-2.2366418905003522e-05   7.257166953560015e-06   3.839260327220698e-05
-3.943330876536897e-05   6.063164613857863e-06   9.231385434443212e-06
-3.943330876536897e-05   6.063164613857863e-06   9.231385434443212e-06
-3.943330876536897e-05   6.063164613857863e-06   9.231385434443212e-06
-3.943330876536897e-05   6.063164613857863e-06   9.231385434443212e-06
-4.034869324132876e-05   6.650008649763169e-06   3.896539955685718e-05
-4.034869324132876e-05   6.650008649763169e-06   3.896539955685718e-05
-4.034869324132876e-05   6.650008649763169e-06   3.896539955685718e-05
-4.034869324132876e-05   6.650008649763169e-06   3.896539955685718e-05
-2.314300167116122e-05   5.401454824287971e-06   1.1038379235196304e-05
-2.314300167116122e-05   5.401454824287971e-06   1.1038379235196304e-05
-2.314300167116122e-05   5.401454824287971e-06   1.1038379235196304e-05
-2.314300167116122e-05   5.401454824287971e-06   1.1038379235196304e-05
-3.098495535406909e-05   6.395916041379438e-06   2.3511625309788906e-05
-3.098495535406909e-05   6.395916041379438e-06   2.3511625309788906e-05
-3.098495535406909e-05   6.395916041379438e-06   2.3511625309788906e-05
-3.098495535406909e-05   6.395916041379438e-06   2.3511625309788906e-05
-2.314300167116133e-05   6.650008649763169e-06   3.971453185214202e-05
-2.314300167116133e-05   6.650008649763169e-06   3.971453185214202e-05
-2.314300167116133e-05   6.650008649763169e-06   3.971453185214202e-05
-2.314300167116133e-05   6.650008649763169e-06   3.971453185214202e-05
-4.034869324132871e-05   5.401454824288405e-06   1.0289246939911467e-05
-4.034869324132871e-05   5.401454824288405e-06   1.0289246939911467e-05
-4.034869324132871e-05   5.401454824288405e-06   1.0289246939911467e-05
-4.034869324132871e-05   5.401454824288405e-06   1.0289246939911467e-05
-4.116282007024535e-05   5.943319668350825e-06   4.005470662397036e-05
-4.116282007024535e-05   5.943319668350825e-06   4.005470662397036e-05
-4.116282007024535e-05   5.943319668350825e-06   4.005470662397036e-05
-4.116282007024535e-05   5.943319668350825e-06   4.005470662397036e-05
-2.391060407635611e-05   4.662104810222896e-06   1.2069742215698375e-05
-2.391060407635611e-05   4.662104810222896e-06   1.2069742215698375e-05
-2.391060407635611e-05   4.662104810222896e-06   1.2069742215698375e-05
-2.391060407635611e-05   4.662104810222896e-06   1.2069742215698375e-05
-3.1901988909510464e-05   5.883137687821361e-06   2.465609721106208e-05
-3.1901988909510464e-05   5.883137687821361e-06   2.465609721106208e-05
-3.1901988909510464e-05   5.883137687821361e-06   2.465609721106208e-05
-3.1901988909510464e-05   5.883137687821361e-06   2.465609721106208e-05
-3.862009143024077e-05   1.0895047413968066e-05   1.833801643731474e-05
-3.862009143024077e-05   1.0895047413968066e-05   1.833801643731474e-05
-3.862009143024077e-05   1.0895047413968066e-05   1.833801643731474e-05
-3.862009143024077e-05   1.0895047413968066e-05   1.833801643731474e-05
-5.4561567123331974e-05   8.886271242609153e-06   -9.436375420652284e-06
-5.4561567123331974e-05   8.886271242609153e-06   -9.436375420652284e-06
-5.4561567123331974e-05   8.886271242609153e-06   -9.436375420652284e-06
-5.4561567123331974e-05   8.886271242609153e-06   -9.436375420652284e-06
-5.6261174016181885e-05   1.0839052637474575e-05   2.3503324380316683e-05
-5.6261174016181885e-05   1.0839052637474575e-05   2.3503324380316683e-05
-5.6261174016181885e-05   1.0839052637474575e-05   2.3503324380316683e-05
-5.6261174016181885e-05   1.0839052637474575e-05   2.3503324380316683e-05
-3.943330876536892e-05   8.655775417778372e-06   -3.2331513725530024e-06
-3.943330876536892e-05   8.655775417778372e-06   -3.2331513725530024e-06
-3.943330876536892e-05   8.655775417778372e-06   -3.2331513725530024e-06
-3.943330876536892e-05   8.655775417778372e-06   -3.2331513725530024e-06
-4.54496511472516e-05   9.640968933891884e-06   6.202969820917441e-06
-4.54496511472516e-05   9.640968933891884e-06   6.202969820917441e-06
-4.54496511472516e-05   9.640968933891884e-06   6.202969820917441e-06
-4.54496511472516e-05   9.640968933891884e-06   6.202969820917441e-06
-3.9433308765369026e-05   1.0839052637475009e-05   2.481329071213486e-05
-3.9433308765369026e-05   1.0839052637475009e-05   2.481329071213486e-05
-3.9433308765369026e-05   1.0839052637475009e-05   2.481329071213486e-05
-3.9433308765369026e-05   1.0839052637475009e-05   2.481329071213486e-05
-5.6261174016181777e-05   8.655775417777938e-06   -4.54311770437118e-06
-5.6261174016181777e-05   8.655775417777938e-06   -4.54311770437118e-06
-5.6261174016181777e-05   8.655775417777938e-06   -4.54311770437118e-06
-5.6261174016181777e-05   8.655775417777938e-06   -4.54311770437118e-06
-5.7744529531798925e-05   1.0617668609817776e-05   2.798514981757947e-05
-5.7744529531798925e-05   1.0617668609817776e-05   2.798514981757947e-05
-5.7744529531798925e-05   1.0617668609817776e-05   2.798514981757947e-05
-5.7744529531798925e-05   1.0617668609817776e-05   2.798514981757947e-05
-4.03486932413286e-05   8.375336095499657e-06   3.374888420534187e-07
-4.03486932413286e-05   8.375336095499657e-06   3.374888420534187e-07
-4.03486932413286e-05   8.375336095499657e-06   3.374888420534187e-07
-4.03486932413286e-05   8.375336095499657e-06   3.374888420534187e-07
-4.7247900151817495e-05   9.646523776056255e-06   1.1073454417869606e-05
-4.7247900151817495e-05   9.646523776056255e-06   1.1073454417869606e-05
-4.7247900151817495e-05   9.646523776056255e-06   1.1073454417869606e-05
-4.7247900151817495e-05   9.646523776056255e-06   1.1073454417869606e-05
-4.034869324132871e-05   1.0617668609817776e-05   2.9330549326170318e-05
-4.034869324132871e-05   1.0617668609817776e-05   2.9330549326170318e-05
-4.034869324132871e-05   1.0617668609817776e-05   2.9330549326170318e-05
-4.034869324132871e-05   1.0617668609817776e-05   2.9330549326170318e-05
-5.7744529531798816e-05   8.375336095499224e-06   -1.0079106665372142e-06
-5.7744529531798816e-05   8.375336095499224e-06   -1.0079106665372142e-06
-5.7744529531798816e-05   8.375336095499224e-06   -1.0079106665372142e-06
-5.7744529531798816e-05   8.375336095499224e-06   -1.0079106665372142e-06
-5.946563609773468e-05   9.642316469987613e-06   3.577531795613954e-05
-5.946563609773468e-05   9.642316469987613e-06   3.577531795613954e-05
-5.946563609773468e-05   9.642316469987613e-06   3.577531795613954e-05
-5.946563609773468e-05   9.642316469987613e-06   3.577531795613954e-05
-4.116282007024519e-05   7.435266045941434e-06   6.594854831418282e-06
-4.116282007024519e-05   7.435266045941434e-06   6.594854831418282e-06
-4.116282007024519e-05   7.435266045941434e-06   6.594854831418282e-06
-4.116282007024519e-05   7.435266045941434e-06   6.594854831418282e-06
-4.7652335163153874e-05   9.237217769381568e-06   1.6329542285533358e-05
-4.7652335163153874e-05   9.237217769381568e-06   1.6329542285533358e-05
-4.7652335163153874e-05   9.237217769381568e-06   1.6329542285533358e-05
-4.7652335163153874e-05   9.237217769381568e-06   1.6329542285533358e-05
1.775689360011816e-05   -2.0371648110375194e-06   2.5283285867464745e-05
1.775689360011816e-05   -2.0371648110375194e-06   2.5283285867464745e-05
1.775689360011816e-05   -2.0371648110375194e-06   2.5283285867464745e-05
1.775689360011816e-05   -2.0371648110375194e-06   2.5283285867464745e-05
4.629001321988742e-06   5.5528470289771537e-08   4.659081372711911e-06
4.629001321988742e-06   5.5528470289771537e-08   4.659081372711911e-06
4.629001321988742e-06   5.5528470289771537e-08   4.659081372711911e-06
4.629001321988742e-06   5.5528470289771537e-08   4.659081372711911e-06
4.003703067836794e-06   -2.831957463621422e-06   2.3578038555173387e-05
4.003703067836794e-06   -2.831957463621422e-06   2.3578038555173387e-05
4.003703067836794e-06   -2.831957463621422e-06   2.3578038555173387e-05
4.003703067836794e-06   -2.831957463621422e-06   2.3578038555173387e-05
1.6211697924111825e-05   -6.563107802699288e-07   1.925992451371362e-06
1.6211697924111825e-05   -6.563107802699288e-07   1.925992451371362e-06
1.6211697924111825e-05   -6.563107802699288e-07   1.925992451371362e-06
1.6211697924111825e-05   -6.563107802699288e-07   1.925992451371362e-06
1.0020852299837859e-05   -1.4682504694047858e-06   1.2731232305309521e-05
1.0020852299837859e-05   -1.4682504694047858e-06   1.2731232305309521e-05
1.0020852299837859e-05   -1.4682504694047858e-06   1.2731232305309521e-05
1.0020852299837859e-05   -1.4682504694047858e-06   1.2731232305309521e-05
1.6211697924111852e-05   -2.831957463621422e-06   2.227265054516291e-05
1.6211697924111852e-05   -2.831957463621422e-06   2.227265054516291e-05
1.6211697924111852e-05   -2.831957463621422e-06   2.227265054516291e-05
1.6211697924111852e-05   -2.831957463621422e-06   2.227265054516291e-05
4.0037030678367835e-06   -6.563107802699288e-07   3.231380461382041e-06
4.0037030678367835e-06   -6.563107802699288e-07   3.231380461382041e-06
4.0037030678367835e-06   -6.563107802699288e-07   3.231380461382041e-06
4.0037030678367835e-06   -6.563107802699288e-07   3.231380461382041e-06
3.2752778359719533e-06   -3.1058780252638148e-06   2.213235247505111e-05
3.2752778359719533e-06   -3.1058780252638148e-06   2.213235247505111e-05
3.2752778359719533e-06   -3.1058780252638148e-06   2.213235247505111e-05
3.2752778359719533e-06   -3.1058780252638148e-06   2.213235247505111e-05
1.4903757386207519e-05   -9.636860907507108e-07   1.4662380639505947e-06
1.4903757386207519e-05   -9.636860907507108e-07   1.4662380639505947e-06
1.4903757386207519e-05   -9.636860907507108e-07   1.4662380639505947e-06
1.4903757386207519e-05   -9.636860907507108e-07   1.4662380639505947e-06
9.273001434249005e-06   -1.7789260090000794e-06   1.1339975268164371e-05
9.273001434249005e-06   -1.7789260090000794e-06   1.1339975268164371e-05
9.273001434249005e-06   -1.7789260090000794e-06   1.1339975268164371e-05
9.273001434249005e-06   -1.7789260090000794e-06   1.1339975268164371e-05
1.4903757386207546e-05   -3.1058780252642484e-06   2.0847037314343163e-05
1.4903757386207546e-05   -3.1058780252642484e-06   2.0847037314343163e-05
1.4903757386207546e-05   -3.1058780252642484e-06   2.0847037314343163e-05
1.4903757386207546e-05   -3.1058780252642484e-06   2.0847037314343163e-05
3.2752778359719466e-06   -9.636860907507108e-07   2.7515532246588474e-06
3.2752778359719466e-06   -9.636860907507108e-07   2.7515532246588474e-06
3.2752778359719466e-06   -9.636860907507108e-07   2.7515532246588474e-06
3.2752778359719466e-06   -9.636860907507108e-07   2.7515532246588474e-06
2.6443211743033362e-06   -3.4689885979725422e-06   2.046441015380652e-05
2.6443211743033362e-06   -3.4689885979725422e-06   2.046441015380652e-05
2.6443211743033362e-06   -3.4689885979725422e-06   2.046441015380652e-05
2.6443211743033362e-06   -3.4689885979725422e-06   2.046441015380652e-05
1.3372675731292258e-05   -1.476555431480361e-06   1.3883593255967913e-06
1.3372675731292258e-05   -1.476555431480361e-06   1.3883593255967913e-06
1.3372675731292258e-05   -1.476555431480361e-06   1.3883593255967913e-06
1.3372675731292258e-05   -1.476555431480361e-06   1.3883593255967913e-06
8.174188187815784e-06   -1.9400362441776607e-06   1.033059371900887e-05
8.174188187815784e-06   -1.9400362441776607e-06   1.033059371900887e-05
8.174188187815784e-06   -1.9400362441776607e-06   1.033059371900887e-05
8.174188187815784e-06   -1.9400362441776607e-06   1.033059371900887e-05
4.629001321988752e-06   1.054296168681492e-06   3.481405598962248e-05
4.629001321988752e-06   1.054296168681492e-06   3.481405598962248e-05
4.629001321988752e-06   1.054296168681492e-06   3.481405598962248e-05
4.629001321988752e-06   1.054296168681492e-06   3.481405598962248e-05
-7.333465991196414e-06   2.0009267557912977e-06   1.5444588819913275e-05
-7.333465991196414e-06   2.0009267557912977e-06   1.5444588819913275e-05
-7.333465991196414e-06   2.0009267557912977e-06   1.5444588819913275e-05
-7.333465991196414e-06   2.0009267557912977e-06   1.5444588819913275e-05
-7.882601573357633e-06   2.4912330192977325e-07   3.492502162726475e-05
-7.882601573357633e-06   2.4912330192977325e-07   3.492502162726475e-05
-7.882601573357633e-06   2.4912330192977325e-07   3.492502162726475e-05
-7.882601573357633e-06   2.4912330192977325e-07   3.492502162726475e-05
4.0037030678367835e-06   1.195933589081535e-06   1.4546427719650326e-05
4.0037030678367835e-06   1.195933589081535e-06   1.4546427719650326e-05
4.0037030678367835e-06   1.195933589081535e-06   1.4546427719650326e-05
4.0037030678367835e-06   1.195933589081535e-06   1.4546427719650326e-05
-1.735123335892412e-06   1.0450789061426614e-06   2.420165120229652e-05
-1.735123335892412e-06   1.0450789061426614e-06   2.420165120229652e-05
-1.735123335892412e-06   1.0450789061426614e-06   2.420165120229652e-05
-1.735123335892412e-06   1.0450789061426614e-06   2.420165120229652e-05
4.00370306783679e-06   2.4912330193020693e-07   3.4356935454973826e-05
4.00370306783679e-06   2.4912330193020693e-07   3.4356935454973826e-05
4.00370306783679e-06   2.4912330193020693e-07   3.4356935454973826e-05
4.00370306783679e-06   2.4912330193020693e-07   3.4356935454973826e-05
-7.882601573357606e-06   1.1959335890817518e-06   1.5114513891941036e-05
-7.882601573357606e-06   1.1959335890817518e-06   1.5114513891941036e-05
-7.882601573357606e-06   1.1959335890817518e-06   1.5114513891941036e-05
-7.882601573357606e-06   1.1959335890817518e-06   1.5114513891941036e-05
-8.447699558916406e-06   -4.101281936654856e-07   3.4703244173903396e-05
-8.447699558916406e-06   -4.101281936654856e-07   3.4703244173903396e-05
-8.447699558916406e-06   -4.101281936654856e-07   3.4703244173903396e-05
-8.447699558916406e-06   -4.101281936654856e-07   3.4703244173903396e-05
3.2752778359719466e-06   5.13254897518186e-07   1.461091866104586e-05
3.2752778359719466e-06   5.13254897518186e-07   1.461091866104586e-05
3.2752778359719466e-06   5.13254897518186e-07   1.461091866104586e-05
3.2752778359719466e-06   5.13254897518186e-07   1.461091866104586e-05
-2.321095208030147e-06   4.833574934914224e-07   2.3956145510132696e-05
-2.321095208030147e-06   4.833574934914224e-07   2.3956145510132696e-05
-2.321095208030147e-06   4.833574934914224e-07   2.3956145510132696e-05
-2.321095208030147e-06   4.833574934914224e-07   2.3956145510132696e-05
3.2752778359719533e-06   -4.101281936659193e-07   3.414921431919306e-05
3.2752778359719533e-06   -4.101281936659193e-07   3.414921431919306e-05
3.2752778359719533e-06   -4.101281936659193e-07   3.414921431919306e-05
3.2752778359719533e-06   -4.101281936659193e-07   3.414921431919306e-05
-8.447699558916433e-06   5.13254897518186e-07   1.5164948515756517e-05
-8.447699558916433e-06   5.13254897518186e-07   1.5164948515756517e-05
-8.447699558916433e-06   5.13254897518186e-07   1.5164948515756517e-05
-8.447699558916433e-06   5.13254897518186e-07   1.5164948515756517e-05
-9.004283348486747e-06   -1.060304235591357e-06   3.516239378696835e-05
-9.004283348486747e-06   -1.060304235591357e-06   3.516239378696835e-05
-9.004283348486747e-06   -1.060304235591357e-06   3.516239378696835e-05
-9.004283348486747e-06   -1.060304235591357e-06   3.516239378696835e-05
2.6443211743033227e-06   -1.8493814116790977e-07   1.5222833258997457e-05
2.6443211743033227e-06   -1.8493814116790977e-07   1.5222833258997457e-05
2.6443211743033227e-06   -1.8493814116790977e-07   1.5222833258997457e-05
2.6443211743033227e-06   -1.8493814116790977e-07   1.5222833258997457e-05
-2.817583208987367e-06   -2.1232067232840324e-08   2.4227783586787345e-05
-2.817583208987367e-06   -2.1232067232840324e-08   2.4227783586787345e-05
-2.817583208987367e-06   -2.1232067232840324e-08   2.4227783586787345e-05
-2.817583208987367e-06   -2.1232067232840324e-08   2.4227783586787345e-05
-7.333465991196414e-06   3.956077200069092e-06   3.861360778227335e-05
-7.333465991196414e-06   3.956077200069092e-06   3.861360778227335e-05
-7.333465991196414e-06   3.956077200069092e-06   3.861360778227335e-05
-7.333465991196414e-06   3.956077200069092e-06   3.861360778227335e-05
-1.9095005320104606e-05   3.7278572546223503e-06   1.8874110266824964e-05
-1.9095005320104606e-05   3.7278572546223503e-06   1.8874110266824964e-05
-1.9095005320104606e-05   3.7278572546223503e-06   1.8874110266824964e-05
-1.9095005320104606e-05   3.7278572546223503e-06   1.8874110266824964e-05
-1.962173824277615e-05   3.223968915454928e-06   3.827241129890791e-05
-1.962173824277615e-05   3.223968915454928e-06   3.827241129890791e-05
-1.962173824277615e-05   3.223968915454928e-06   3.827241129890791e-05
-1.962173824277615e-05   3.223968915454928e-06   3.827241129890791e-05
-7.882601573357606e-06   2.9852519710237436e-06   1.8850413683202437e-05
-7.882601573357606e-06   2.9852519710237436e-06   1.8850413683202437e-05
-7.882601573357606e-06   2.9852519710237436e-06   1.8850413683202437e-05
-7.882601573357606e-06   2.9852519710237436e-06   1.8850413683202437e-05
-1.3508211407819141e-05   3.3907184628282185e-06   2.798315017889019e-05
-1.3508211407819141e-05   3.3907184628282185e-06   2.798315017889019e-05
-1.3508211407819141e-05   3.3907184628282185e-06   2.798315017889019e-05
-1.3508211407819141e-05   3.3907184628282185e-06   2.798315017889019e-05
-7.882601573357606e-06   3.223968915454494e-06   3.841564146556646e-05
-7.882601573357606e-06   3.223968915454494e-06   3.841564146556646e-05
-7.882601573357606e-06   3.223968915454494e-06   3.841564146556646e-05
-7.882601573357606e-06   3.223968915454494e-06   3.841564146556646e-05
-1.962173824277615e-05   2.9852519710235267e-06   1.8707183516543944e-05
-1.962173824277615e-05   2.9852519710235267e-06   1.8707183516543944e-05
-1.962173824277615e-05   2.9852519710235267e-06   1.8707183516543944e-05
-1.962173824277615e-05   2.9852519710235267e-06   1.8707183516543944e-05
-2.0165802125338692e-05   2.5002443201542837e-06   3.852817252605564e-05
-2.0165802125338692e-05   2.5002443201542837e-06   3.852817252605564e-05
-2.0165802125338692e-05   2.5002443201542837e-06   3.852817252605564e-05
-2.0165802125338692e-05   2.5002443201542837e-06   3.852817252605564e-05
-8.447699558916406e-06   2.2464355503839725e-06   1.9150286843881226e-05
-8.447699558916406e-06   2.2464355503839725e-06   1.9150286843881226e-05
-8.447699558916406e-06   2.2464355503839725e-06   1.9150286843881226e-05
-8.447699558916406e-06   2.2464355503839725e-06   1.9150286843881226e-05
-1.3977320679124699e-05   2.825657028702631e-06   2.8018789157236888e-05
-1.3977320679124699e-05   2.825657028702631e-06   2.8018789157236888e-05
-1.3977320679124699e-05   2.825657028702631e-06   2.8018789157236888e-05
-1.3977320679124699e-05   2.825657028702631e-06   2.8018789157236888e-05
-8.447699558916433e-06   2.5002443201547174e-06   3.8680457787918226e-05
-8.447699558916433e-06   2.5002443201547174e-06   3.8680457787918226e-05
-8.447699558916433e-06   2.5002443201547174e-06   3.8680457787918226e-05
-8.447699558916433e-06   2.5002443201547174e-06   3.8680457787918226e-05
-2.0165802125338692e-05   2.2464355503837557e-06   1.89980015820188e-05
-2.0165802125338692e-05   2.2464355503837557e-06   1.89980015820188e-05
-2.0165802125338692e-05   2.2464355503837557e-06   1.89980015820188e-05
-2.0165802125338692e-05   2.2464355503837557e-06   1.89980015820188e-05
-2.070141014782242e-05   1.8034263955246654e-06   3.9152236696933084e-05
-2.070141014782242e-05   1.8034263955246654e-06   3.9152236696933084e-05
-2.070141014782242e-05   1.8034263955246654e-06   3.9152236696933084e-05
-2.070141014782242e-05   1.8034263955246654e-06   3.9152236696933084e-05
-9.004283348486747e-06   1.5388757613826135e-06   1.981575574519219e-05
-9.004283348486747e-06   1.5388757613826135e-06   1.981575574519219e-05
-9.004283348486747e-06   1.5388757613826135e-06   1.981575574519219e-05
-9.004283348486747e-06   1.5388757613826135e-06   1.981575574519219e-05
-1.4476227403168753e-05   2.271852642572519e-06   2.8495876374281756e-05
-1.4476227403168753e-05   2.271852642572519e-06   2.8495876374281756e-05
-1.4476227403168753e-05   2.271852642572519e-06   2.8495876374281756e-05
-1.4476227403168753e-05   2.271852642572519e-06   2.8495876374281756e-05
-1.9095005320104606e-05   6.778686692387233e-06   3.401089382471607e-05
-1.9095005320104606e-05   6.778686692387233e-06   3.401089382471607e-05
-1.9095005320104606e-05   6.778686692387233e-06   3.401089382471607e-05
-1.9095005320104606e-05   6.778686692387233e-06   3.401089382471607e-05
-3.064001892699492e-05   5.534203079285774e-06   1.4022514312037981e-05
-3.064001892699492e-05   5.534203079285774e-06   1.4022514312037981e-05
-3.064001892699492e-05   5.534203079285774e-06   1.4022514312037981e-05
-3.064001892699492e-05   5.534203079285774e-06   1.4022514312037981e-05
-3.1213968511407345e-05   6.0631646138574295e-06   3.338301017525311e-05
-3.1213968511407345e-05   6.0631646138574295e-06   3.338301017525311e-05
-3.1213968511407345e-05   6.0631646138574295e-06   3.338301017525311e-05
-3.1213968511407345e-05   6.0631646138574295e-06   3.338301017525311e-05
-1.9621738242776095e-05   4.7850752939414265e-06   1.482947998615136e-05
-1.9621738242776095e-05   4.7850752939414265e-06   1.482947998615136e-05
-1.9621738242776095e-05   4.7850752939414265e-06   1.482947998615136e-05
-1.9621738242776095e-05   4.7850752939414265e-06   1.482947998615136e-05
-2.508212586901351e-05   5.696686370954235e-06   2.338315938367404e-05
-2.508212586901351e-05   5.696686370954235e-06   2.338315938367404e-05
-2.508212586901351e-05   5.696686370954235e-06   2.338315938367404e-05
-2.508212586901351e-05   5.696686370954235e-06   2.338315938367404e-05
-1.9621738242776203e-05   6.0631646138574295e-06   3.414986376720308e-05
-1.9621738242776203e-05   6.0631646138574295e-06   3.414986376720308e-05
-1.9621738242776203e-05   6.0631646138574295e-06   3.414986376720308e-05
-1.9621738242776203e-05   6.0631646138574295e-06   3.414986376720308e-05
-3.121396851140729e-05   4.7850752939414265e-06   1.4062626394201498e-05
-3.121396851140729e-05   4.7850752939414265e-06   1.4062626394201498e-05
-3.121396851140729e-05   4.7850752939414265e-06   1.4062626394201498e-05
-3.121396851140729e-05   4.7850752939414265e-06   1.4062626394201498e-05
-3.189390163438316e-05   5.401454824287971e-06   3.448174674045468e-05
-3.189390163438316e-05   5.401454824287971e-06   3.448174674045468e-05
-3.189390163438316e-05   5.401454824287971e-06   3.448174674045468e-05
-3.189390163438316e-05   5.401454824287971e-06   3.448174674045468e-05
-2.0165802125338638e-05   4.104331656835892e-06   1.5713188125852018e-05
-2.0165802125338638e-05   4.104331656835892e-06   1.5713188125852018e-05
-2.0165802125338638e-05   4.104331656835892e-06   1.5713188125852018e-05
-2.0165802125338638e-05   4.104331656835892e-06   1.5713188125852018e-05
-2.5454620074383608e-05   5.166657018460495e-06   2.3890489490619035e-05
-2.5454620074383608e-05   5.166657018460495e-06   2.3890489490619035e-05
-2.5454620074383608e-05   5.166657018460495e-06   2.3890489490619035e-05
-2.5454620074383608e-05   5.166657018460495e-06   2.3890489490619035e-05
-2.0165802125338692e-05   5.401454824288405e-06   3.526002064092599e-05
-2.0165802125338692e-05   5.401454824288405e-06   3.526002064092599e-05
-2.0165802125338692e-05   5.401454824288405e-06   3.526002064092599e-05
-2.0165802125338692e-05   5.401454824288405e-06   3.526002064092599e-05
-3.189390163438311e-05   4.104331656835892e-06   1.4934914225380705e-05
-3.189390163438311e-05   4.104331656835892e-06   1.4934914225380705e-05
-3.189390163438311e-05   4.104331656835892e-06   1.4934914225380705e-05
-3.189390163438311e-05   4.104331656835892e-06   1.4934914225380705e-05
-3.2477640036619726e-05   4.662104810222462e-06   3.554425303420685e-05
-3.2477640036619726e-05   4.662104810222462e-06   3.554425303420685e-05
-3.2477640036619726e-05   4.662104810222462e-06   3.554425303420685e-05
-3.2477640036619726e-05   4.662104810222462e-06   3.554425303420685e-05
-2.0701410147822366e-05   3.377205741277034e-06   1.6688142660912543e-05
-2.0701410147822366e-05   3.377205741277034e-06   1.6688142660912543e-05
-2.0701410147822366e-05   3.377205741277034e-06   1.6688142660912543e-05
-2.0701410147822366e-05   3.377205741277034e-06   1.6688142660912543e-05
-2.609406133164717e-05   4.636251952401028e-06   2.4920466907279385e-05
-2.609406133164717e-05   4.636251952401028e-06   2.4920466907279385e-05
-2.609406133164717e-05   4.636251952401028e-06   2.4920466907279385e-05
-2.609406133164717e-05   4.636251952401028e-06   2.4920466907279385e-05
-3.064001892699497e-05   8.886271242609153e-06   1.588158101533722e-05
-3.064001892699497e-05   8.886271242609153e-06   1.588158101533722e-05
-3.064001892699497e-05   8.886271242609153e-06   1.588158101533722e-05
-3.064001892699497e-05   8.886271242609153e-06   1.588158101533722e-05
-4.10409105868763e-05   6.8031775558034975e-06   -2.7030946298815177e-06
-4.10409105868763e-05   6.8031775558034975e-06   -2.7030946298815177e-06
-4.10409105868763e-05   6.8031775558034975e-06   -2.7030946298815177e-06
-4.10409105868763e-05   6.8031775558034975e-06   -2.7030946298815177e-06
-4.251180179802973e-05   8.655775417777938e-06   1.9576156793588845e-05
-4.251180179802973e-05   8.655775417777938e-06   1.9576156793588845e-05
-4.251180179802973e-05   8.655775417777938e-06   1.9576156793588845e-05
-4.251180179802973e-05   8.655775417777938e-06   1.9576156793588845e-05
-3.121396851140724e-05   6.418581126664373e-06   2.088751223886182e-06
-3.121396851140724e-05   6.418581126664373e-06   2.088751223886182e-06
-3.121396851140724e-05   6.418581126664373e-06   2.088751223886182e-06
-3.121396851140724e-05   6.418581126664373e-06   2.088751223886182e-06
-3.502812356541348e-05   7.550428709019179e-06   7.766567764485335e-06
-3.502812356541348e-05   7.550428709019179e-06   7.766567764485335e-06
-3.502812356541348e-05   7.550428709019179e-06   7.766567764485335e-06
-3.502812356541348e-05   7.550428709019179e-06   7.766567764485335e-06
-3.121396851140724e-05   8.655775417777938e-06   2.091847336825679e-05
-3.121396851140724e-05   8.655775417777938e-06   2.091847336825679e-05
-3.121396851140724e-05   8.655775417777938e-06   2.091847336825679e-05
-3.121396851140724e-05   8.655775417777938e-06   2.091847336825679e-05
-4.251180179802984e-05   6.41858112666459e-06   7.46434649217967e-07
-4.251180179802984e-05   6.41858112666459e-06   7.46434649217967e-07
-4.251180179802984e-05   6.41858112666459e-06   7.46434649217967e-07
-4.251180179802984e-05   6.41858112666459e-06   7.46434649217967e-07
-4.3778696546897485e-05   8.375336095499657e-06   2.3163556739610016e-05
-4.3778696546897485e-05   8.375336095499657e-06   2.3163556739610016e-05
-4.3778696546897485e-05   8.375336095499657e-06   2.3163556739610016e-05
-4.3778696546897485e-05   8.375336095499657e-06   2.3163556739610016e-05
-3.1893901634383055e-05   6.097949590521496e-06   4.721997121739626e-06
-3.1893901634383055e-05   6.097949590521496e-06   4.721997121739626e-06
-3.1893901634383055e-05   6.097949590521496e-06   4.721997121739626e-06
-3.1893901634383055e-05   6.097949590521496e-06   4.721997121739626e-06
-3.643929905221472e-05   7.450254463495297e-06   1.1486276561008393e-05
-3.643929905221472e-05   7.450254463495297e-06   1.1486276561008393e-05
-3.643929905221472e-05   7.450254463495297e-06   1.1486276561008393e-05
-3.643929905221472e-05   7.450254463495297e-06   1.1486276561008393e-05
-3.189390163438311e-05   8.375336095499657e-06   2.452998864259674e-05
-3.189390163438311e-05   8.375336095499657e-06   2.452998864259674e-05
-3.189390163438311e-05   8.375336095499657e-06   2.452998864259674e-05
-3.189390163438311e-05   8.375336095499657e-06   2.452998864259674e-05
-4.3778696546897594e-05   6.097949590521713e-06   3.355565218752794e-06
-4.3778696546897594e-05   6.097949590521713e-06   3.355565218752794e-06
-4.3778696546897594e-05   6.097949590521713e-06   3.355565218752794e-06
-4.3778696546897594e-05   6.097949590521713e-06   3.355565218752794e-06
-4.5295497621751306e-05   7.435266045941434e-06   2.9513144708014126e-05
-4.5295497621751306e-05   7.435266045941434e-06   2.9513144708014126e-05
-4.5295497621751306e-05   7.435266045941434e-06   2.9513144708014126e-05
-4.5295497621751306e-05   7.435266045941434e-06   2.9513144708014126e-05
-3.2477640036619564e-05   5.227016284625784e-06   9.474998589584054e-06
-3.2477640036619564e-05   5.227016284625784e-06   9.474998589584054e-06
-3.2477640036619564e-05   5.227016284625784e-06   9.474998589584054e-06
-3.2477640036619564e-05   5.227016284625784e-06   9.474998589584054e-06
-3.6793359990199026e-05   7.054209908934029e-06   1.5571549004297593e-05
-3.6793359990199026e-05   7.054209908934029e-06   1.5571549004297593e-05
-3.6793359990199026e-05   7.054209908934029e-06   1.5571549004297593e-05
-3.6793359990199026e-05   7.054209908934029e-06   1.5571549004297593e-05
3.49218330762937e-06   5.5528470289554696e-08   1.8845280784265528e-05
3.49218330762937e-06   5.5528470289554696e-08   1.8845280784265528e-05
3.49218330762937e-06   5.5528470289554696e-08   1.8845280784265528e-05
3.49218330762937e-06   5.5528470289554696e-08   1.8845280784265528e-05
-4.000056304943156e-06   2.0630601046975425e-06   7.5627337439561305e-06
-4.000056304943156e-06   2.0630601046975425e-06   7.5627337439561305e-06
-4.000056304943156e-06   2.0630601046975425e-06   7.5627337439561305e-06
-4.000056304943156e-06   2.0630601046975425e-06   7.5627337439561305e-06
-4.441895537698313e-06   -6.563107802701456e-07   1.8596389636203574e-05
-4.441895537698313e-06   -6.563107802701456e-07   1.8596389636203574e-05
-4.441895537698313e-06   -6.563107802701456e-07   1.8596389636203574e-05
-4.441895537698313e-06   -6.563107802701456e-07   1.8596389636203574e-05
2.1466585422704143e-06   1.3990736789076114e-06   6.382235494082223e-06
2.1466585422704143e-06   1.3990736789076114e-06   6.382235494082223e-06
2.1466585422704143e-06   1.3990736789076114e-06   6.382235494082223e-06
2.1466585422704143e-06   1.3990736789076114e-06   6.382235494082223e-06
-8.743534382469231e-07   6.019143416592741e-07   1.1895551063960137e-05
-8.743534382469231e-07   6.019143416592741e-07   1.1895551063960137e-05
-8.743534382469231e-07   6.019143416592741e-07   1.1895551063960137e-05
-8.743534382469231e-07   6.019143416592741e-07   1.1895551063960137e-05
2.1466585422704143e-06   -6.563107802701456e-07   1.7363158960696748e-05
2.1466585422704143e-06   -6.563107802701456e-07   1.7363158960696748e-05
2.1466585422704143e-06   -6.563107802701456e-07   1.7363158960696748e-05
2.1466585422704143e-06   -6.563107802701456e-07   1.7363158960696748e-05
-4.441895537698313e-06   1.3990736789076114e-06   7.615466169589029e-06
-4.441895537698313e-06   1.3990736789076114e-06   7.615466169589029e-06
-4.441895537698313e-06   1.3990736789076114e-06   7.615466169589029e-06
-4.441895537698313e-06   1.3990736789076114e-06   7.615466169589029e-06
-4.9875377048798805e-06   -9.636860907507108e-07   1.81154523662216e-05
-4.9875377048798805e-06   -9.636860907507108e-07   1.81154523662216e-05
-4.9875377048798805e-06   -9.636860907507108e-07   1.81154523662216e-05
-4.9875377048798805e-06   -9.636860907507108e-07   1.81154523662216e-05
9.795323748266961e-07   1.0329105243271457e-06   6.9723775976639115e-06
9.795323748266961e-07   1.0329105243271457e-06   6.9723775976639115e-06
9.795323748266961e-07   1.0329105243271457e-06   6.9723775976639115e-06
9.795323748266961e-07   1.0329105243271457e-06   6.9723775976639115e-06
-1.6011683740778913e-06   3.189371601300091e-07   1.1701929531023091e-05
-1.6011683740778913e-06   3.189371601300091e-07   1.1701929531023091e-05
-1.6011683740778913e-06   3.189371601300091e-07   1.1701929531023091e-05
-1.6011683740778913e-06   3.189371601300091e-07   1.1701929531023091e-05
9.795323748267097e-07   -9.636860907507108e-07   1.6917494397174744e-05
9.795323748267097e-07   -9.636860907507108e-07   1.6917494397174744e-05
9.795323748267097e-07   -9.636860907507108e-07   1.6917494397174744e-05
9.795323748267097e-07   -9.636860907507108e-07   1.6917494397174744e-05
-4.98753770487987e-06   1.0329105243271457e-06   8.170335566710647e-06
-4.98753770487987e-06   1.0329105243271457e-06   8.170335566710647e-06
-4.98753770487987e-06   1.0329105243271457e-06   8.170335566710647e-06
-4.98753770487987e-06   1.0329105243271457e-06   8.170335566710647e-06
-5.443275193162754e-06   -1.4765554314805779e-06   1.795263269301333e-05
-5.443275193162754e-06   -1.4765554314805779e-06   1.795263269301333e-05
-5.443275193162754e-06   -1.4765554314805779e-06   1.795263269301333e-05
-5.443275193162754e-06   -1.4765554314805779e-06   1.795263269301333e-05
-4.843523207918486e-07   2.5565204567375155e-07   8.648436752769573e-06
-4.843523207918486e-07   2.5565204567375155e-07   8.648436752769573e-06
-4.843523207918486e-07   2.5565204567375155e-07   8.648436752769573e-06
-4.843523207918486e-07   2.5565204567375155e-07   8.648436752769573e-06
-2.3816600049843503e-06   5.857391823980117e-08   1.1928863102884002e-05
-2.3816600049843503e-06   5.857391823980117e-08   1.1928863102884002e-05
-2.3816600049843503e-06   5.857391823980117e-08   1.1928863102884002e-05
-2.3816600049843503e-06   5.857391823980117e-08   1.1928863102884002e-05
-4.000056304943156e-06   2.0009267557912977e-06   3.0267328859845497e-05
-4.000056304943156e-06   2.0009267557912977e-06   3.0267328859845497e-05
-4.000056304943156e-06   2.0009267557912977e-06   3.0267328859845497e-05
-4.000056304943156e-06   2.0009267557912977e-06   3.0267328859845497e-05
-1.0272468269490213e-05   2.395744706723893e-06   2.0050199689493212e-05
-1.0272468269490213e-05   2.395744706723893e-06   2.0050199689493212e-05
-1.0272468269490213e-05   2.395744706723893e-06   2.0050199689493212e-05
-1.0272468269490213e-05   2.395744706723893e-06   2.0050199689493212e-05
-1.0605324744565451e-05   1.1959335890817518e-06   3.01862073671937e-05
-1.0605324744565451e-05   1.1959335890817518e-06   3.01862073671937e-05
-1.0605324744565451e-05   1.1959335890817518e-06   3.01862073671937e-05
-1.0605324744565451e-05   1.1959335890817518e-06   3.01862073671937e-05
-4.441895537698313e-06   1.6538843769519935e-06   1.9639054883026407e-05
-4.441895537698313e-06   1.6538843769519935e-06   1.9639054883026407e-05
-4.441895537698313e-06   1.6538843769519935e-06   1.9639054883026407e-05
-4.441895537698313e-06   1.6538843769519935e-06   1.9639054883026407e-05
-7.37293239896691e-06   1.7259452458172212e-06   2.448087979715479e-05
-7.37293239896691e-06   1.7259452458172212e-06   2.448087979715479e-05
-7.37293239896691e-06   1.7259452458172212e-06   2.448087979715479e-05
-7.37293239896691e-06   1.7259452458172212e-06   2.448087979715479e-05
-4.441895537698299e-06   1.1959335890817518e-06   2.9911436894471154e-05
-4.441895537698299e-06   1.1959335890817518e-06   2.9911436894471154e-05
-4.441895537698299e-06   1.1959335890817518e-06   2.9911436894471154e-05
-4.441895537698299e-06   1.1959335890817518e-06   2.9911436894471154e-05
-1.0605324744565478e-05   1.6538843769519935e-06   1.9913825355748465e-05
-1.0605324744565478e-05   1.6538843769519935e-06   1.9913825355748465e-05
-1.0605324744565478e-05   1.6538843769519935e-06   1.9913825355748465e-05
-1.0605324744565478e-05   1.6538843769519935e-06   1.9913825355748465e-05
-1.0948595885930542e-05   5.132548975184028e-07   3.0247944170885095e-05
-1.0948595885930542e-05   5.132548975184028e-07   3.0247944170885095e-05
-1.0948595885930542e-05   5.132548975184028e-07   3.0247944170885095e-05
-1.0948595885930542e-05   5.132548975184028e-07   3.0247944170885095e-05
-4.98753770487987e-06   9.684655113118522e-07   2.0039720834191073e-05
-4.98753770487987e-06   9.684655113118522e-07   2.0039720834191073e-05
-4.98753770487987e-06   9.684655113118522e-07   2.0039720834191073e-05
-4.98753770487987e-06   9.684655113118522e-07   2.0039720834191073e-05
-7.712679051151758e-06   1.1834429162484693e-06   2.4452636635016137e-05
-7.712679051151758e-06   1.1834429162484693e-06   2.4452636635016137e-05
-7.712679051151758e-06   1.1834429162484693e-06   2.4452636635016137e-05
-7.712679051151758e-06   1.1834429162484693e-06   2.4452636635016137e-05
-4.98753770487987e-06   5.132548975184028e-07   2.9974817802608613e-05
-4.98753770487987e-06   5.132548975184028e-07   2.9974817802608613e-05
-4.98753770487987e-06   5.132548975184028e-07   2.9974817802608613e-05
-4.98753770487987e-06   5.132548975184028e-07   2.9974817802608613e-05
-1.0948595885930542e-05   9.684655113118522e-07   2.031284720246723e-05
-1.0948595885930542e-05   9.684655113118522e-07   2.031284720246723e-05
-1.0948595885930542e-05   9.684655113118522e-07   2.031284720246723e-05
-1.0948595885930542e-05   9.684655113118522e-07   2.031284720246723e-05
-1.1285190212365835e-05   -1.8493814116790977e-07   3.0837755647188624e-05
-1.1285190212365835e-05   -1.8493814116790977e-07   3.0837755647188624e-05
-1.1285190212365835e-05   -1.8493814116790977e-07   3.0837755647188624e-05
-1.1285190212365835e-05   -1.8493814116790977e-07   3.0837755647188624e-05
-5.443275193162747e-06   2.2524339328140568e-07   2.085512169451402e-05
-5.443275193162747e-06   2.2524339328140568e-07   2.085512169451402e-05
-5.443275193162747e-06   2.2524339328140568e-07   2.085512169451402e-05
-5.443275193162747e-06   2.2524339328140568e-07   2.085512169451402e-05
-8.052257975303686e-06   6.496455172163131e-07   2.4948785057054635e-05
-8.052257975303686e-06   6.496455172163131e-07   2.4948785057054635e-05
-8.052257975303686e-06   6.496455172163131e-07   2.4948785057054635e-05
-8.052257975303686e-06   6.496455172163131e-07   2.4948785057054635e-05
-1.0272468269490213e-05   3.7278572546223503e-06   3.407067304458472e-05
-1.0272468269490213e-05   3.7278572546223503e-06   3.407067304458472e-05
-1.0272468269490213e-05   3.7278572546223503e-06   3.407067304458472e-05
-1.0272468269490213e-05   3.7278572546223503e-06   3.407067304458472e-05
-1.652680823568492e-05   2.8689209500304836e-06   2.3131411318172033e-05
-1.652680823568492e-05   2.8689209500304836e-06   2.3131411318172033e-05
-1.652680823568492e-05   2.8689209500304836e-06   2.3131411318172033e-05
-1.652680823568492e-05   2.8689209500304836e-06   2.3131411318172033e-05
-1.6808283190697013e-05   2.9852519710235267e-06   3.343952893835743e-05
-1.6808283190697013e-05   2.9852519710235267e-06   3.343952893835743e-05
-1.6808283190697013e-05   2.9852519710235267e-06   3.343952893835743e-05
-1.6808283190697013e-05   2.9852519710235267e-06   3.343952893835743e-05
-1.0605324744565478e-05   2.1809549375275544e-06   2.3583843081569273e-05
-1.0605324744565478e-05   2.1809549375275544e-06   2.3583843081569273e-05
-1.0605324744565478e-05   2.1809549375275544e-06   2.3583843081569273e-05
-1.0605324744565478e-05   2.1809549375275544e-06   2.3583843081569273e-05
-1.3559783691181648e-05   2.8845121939892427e-06   2.808580697205267e-05
-1.3559783691181648e-05   2.8845121939892427e-06   2.808580697205267e-05
-1.3559783691181648e-05   2.8845121939892427e-06   2.808580697205267e-05
-1.3559783691181648e-05   2.8845121939892427e-06   2.808580697205267e-05
-1.0605324744565478e-05   2.9852519710235267e-06   3.3922107158455264e-05
-1.0605324744565478e-05   2.9852519710235267e-06   3.3922107158455264e-05
-1.0605324744565478e-05   2.9852519710235267e-06   3.3922107158455264e-05
-1.0605324744565478e-05   2.9852519710235267e-06   3.3922107158455264e-05
-1.6808283190697013e-05   2.1809549375275544e-06   2.3101264861471657e-05
-1.6808283190697013e-05   2.1809549375275544e-06   2.3101264861471657e-05
-1.6808283190697013e-05   2.1809549375275544e-06   2.3101264861471657e-05
-1.6808283190697013e-05   2.1809549375275544e-06   2.3101264861471657e-05
-1.7109994279511332e-05   2.2464355503837557e-06   3.3774436216412254e-05
-1.7109994279511332e-05   2.2464355503837557e-06   3.3774436216412254e-05
-1.7109994279511332e-05   2.2464355503837557e-06   3.3774436216412254e-05
-1.7109994279511332e-05   2.2464355503837557e-06   3.3774436216412254e-05
-1.0948595885930542e-05   1.4816917460549767e-06   2.3964285176375152e-05
-1.0948595885930542e-05   1.4816917460549767e-06   2.3964285176375152e-05
-1.0948595885930542e-05   1.4816917460549767e-06   2.3964285176375152e-05
-1.0948595885930542e-05   1.4816917460549767e-06   2.3964285176375152e-05
-1.380026129031684e-05   2.333345137552523e-06   2.8206068815453736e-05
-1.380026129031684e-05   2.333345137552523e-06   2.8206068815453736e-05
-1.380026129031684e-05   2.333345137552523e-06   2.8206068815453736e-05
-1.380026129031684e-05   2.333345137552523e-06   2.8206068815453736e-05
-1.0948595885930542e-05   2.2464355503837557e-06   3.423328249900964e-05
-1.0948595885930542e-05   2.2464355503837557e-06   3.423328249900964e-05
-1.0948595885930542e-05   2.2464355503837557e-06   3.423328249900964e-05
-1.0948595885930542e-05   2.2464355503837557e-06   3.423328249900964e-05
-1.7109994279511332e-05   1.4816917460549767e-06   2.3505438893777766e-05
-1.7109994279511332e-05   1.4816917460549767e-06   2.3505438893777766e-05
-1.7109994279511332e-05   1.4816917460549767e-06   2.3505438893777766e-05
-1.7109994279511332e-05   1.4816917460549767e-06   2.3505438893777766e-05
-1.740546998326098e-05   1.5388757613826135e-06   3.447326191674885e-05
-1.740546998326098e-05   1.5388757613826135e-06   3.447326191674885e-05
-1.740546998326098e-05   1.5388757613826135e-06   3.447326191674885e-05
-1.740546998326098e-05   1.5388757613826135e-06   3.447326191674885e-05
-1.1285190212365835e-05   8.18548161415e-07   2.4704992191904225e-05
-1.1285190212365835e-05   8.18548161415e-07   2.4704992191904225e-05
-1.1285190212365835e-05   8.18548161415e-07   2.4704992191904225e-05
-1.1285190212365835e-05   8.18548161415e-07   2.4704992191904225e-05
-1.4068217600851808e-05   1.7903736880438281e-06   2.876027585673691e-05
-1.4068217600851808e-05   1.7903736880438281e-06   2.876027585673691e-05
-1.4068217600851808e-05   1.7903736880438281e-06   2.876027585673691e-05
-1.4068217600851808e-05   1.7903736880438281e-06   2.876027585673691e-05
-1.652680823568492e-05   5.534203079285774e-06   2.945040547490353e-05
-1.652680823568492e-05   5.534203079285774e-06   2.945040547490353e-05
-1.652680823568492e-05   5.534203079285774e-06   2.945040547490353e-05
-1.652680823568492e-05   5.534203079285774e-06   2.945040547490353e-05
-2.267656803598805e-05   3.875875883262809e-06   1.8205809490117874e-05
-2.267656803598805e-05   3.875875883262809e-06   1.8205809490117874e-05
-2.267656803598805e-05   3.875875883262809e-06   1.8205809490117874e-05
-2.267656803598805e-05   3.875875883262809e-06   1.8205809490117874e-05
-2.2985765396057133e-05   4.7850752939414265e-06   2.8581991315757742e-05
-2.2985765396057133e-05   4.7850752939414265e-06   2.8581991315757742e-05
-2.2985765396057133e-05   4.7850752939414265e-06   2.8581991315757742e-05
-2.2985765396057133e-05   4.7850752939414265e-06   2.8581991315757742e-05
-1.6808283190697013e-05   3.1520184735958894e-06   1.926602173236481e-05
-1.6808283190697013e-05   3.1520184735958894e-06   1.926602173236481e-05
-1.6808283190697013e-05   3.1520184735958894e-06   1.926602173236481e-05
-1.6808283190697013e-05   3.1520184735958894e-06   1.926602173236481e-05
-1.970753409999903e-05   4.300536509903178e-06   2.3408995759417186e-05
-1.970753409999903e-05   4.300536509903178e-06   2.3408995759417186e-05
-1.970753409999903e-05   4.300536509903178e-06   2.3408995759417186e-05
-1.970753409999903e-05   4.300536509903178e-06   2.3408995759417186e-05
-1.6808283190697013e-05   4.7850752939414265e-06   2.9561825407965064e-05
-1.6808283190697013e-05   4.7850752939414265e-06   2.9561825407965064e-05
-1.6808283190697013e-05   4.7850752939414265e-06   2.9561825407965064e-05
-1.6808283190697013e-05   4.7850752939414265e-06   2.9561825407965064e-05
-2.2985765396057024e-05   3.1520184735956726e-06   1.8286187640157434e-05
-2.2985765396057024e-05   3.1520184735956726e-06   1.8286187640157434e-05
-2.2985765396057024e-05   3.1520184735956726e-06   1.8286187640157434e-05
-2.2985765396057024e-05   3.1520184735956726e-06   1.8286187640157434e-05
-2.3413536783726803e-05   4.104331656835892e-06   2.953201105993018e-05
-2.3413536783726803e-05   4.104331656835892e-06   2.953201105993018e-05
-2.3413536783726803e-05   4.104331656835892e-06   2.953201105993018e-05
-2.3413536783726803e-05   4.104331656835892e-06   2.953201105993018e-05
-1.7109994279511332e-05   2.5083121563097225e-06   1.998371858655322e-05
-1.7109994279511332e-05   2.5083121563097225e-06   1.998371858655322e-05
-1.7109994279511332e-05   2.5083121563097225e-06   1.998371858655322e-05
-1.7109994279511332e-05   2.5083121563097225e-06   1.998371858655322e-05
-1.987564474322255e-05   3.7663436187224423e-06   2.383831714862435e-05
-1.987564474322255e-05   3.7663436187224423e-06   2.383831714862435e-05
-1.987564474322255e-05   3.7663436187224423e-06   2.383831714862435e-05
-1.987564474322255e-05   3.7663436187224423e-06   2.383831714862435e-05
-1.7109994279511332e-05   4.104331656835892e-06   3.0489622760245362e-05
-1.7109994279511332e-05   4.104331656835892e-06   3.0489622760245362e-05
-1.7109994279511332e-05   4.104331656835892e-06   3.0489622760245362e-05
-1.7109994279511332e-05   4.104331656835892e-06   3.0489622760245362e-05
-2.3413536783726695e-05   2.5083121563097225e-06   1.9026106886237603e-05
-2.3413536783726695e-05   2.5083121563097225e-06   1.9026106886237603e-05
-2.3413536783726695e-05   2.5083121563097225e-06   1.9026106886237603e-05
-2.3413536783726695e-05   2.5083121563097225e-06   1.9026106886237603e-05
-2.3756579571091417e-05   3.377205741277034e-06   3.058976274820024e-05
-2.3756579571091417e-05   3.377205741277034e-06   3.058976274820024e-05
-2.3756579571091417e-05   3.377205741277034e-06   3.058976274820024e-05
-2.3756579571091417e-05   3.377205741277034e-06   3.058976274820024e-05
-1.740546998326098e-05   1.8528449666872174e-06   2.091919656657009e-05
-1.740546998326098e-05   1.8528449666872174e-06   2.091919656657009e-05
-1.740546998326098e-05   1.8528449666872174e-06   2.091919656657009e-05
-1.740546998326098e-05   1.8528449666872174e-06   2.091919656657009e-05
-2.022969236584578e-05   3.2586782460864794e-06   2.478273390323863e-05
-2.022969236584578e-05   3.2586782460864794e-06   2.478273390323863e-05
-2.022969236584578e-05   3.2586782460864794e-06   2.478273390323863e-05
-2.022969236584578e-05   3.2586782460864794e-06   2.478273390323863e-05
-2.267656803598805e-05   6.8031775558034975e-06   1.2979656427453503e-05
-2.267656803598805e-05   6.8031775558034975e-06   1.2979656427453503e-05
-2.267656803598805e-05   6.8031775558034975e-06   1.2979656427453503e-05
-2.267656803598805e-05   6.8031775558034975e-06   1.2979656427453503e-05
-2.7491785913479625e-05   4.57467469941312e-06   3.617191584466871e-06
-2.7491785913479625e-05   4.57467469941312e-06   3.617191584466871e-06
-2.7491785913479625e-05   4.57467469941312e-06   3.617191584466871e-06
-2.7491785913479625e-05   4.57467469941312e-06   3.617191584466871e-06
-2.8666677343151077e-05   6.418581126664373e-06   1.521272586790974e-05
-2.8666677343151077e-05   6.418581126664373e-06   1.521272586790974e-05
-2.8666677343151077e-05   6.418581126664373e-06   1.521272586790974e-05
-2.8666677343151077e-05   6.418581126664373e-06   1.521272586790974e-05
-2.298576539605708e-05   4.092930664110258e-06   7.13992956695214e-06
-2.298576539605708e-05   4.092930664110258e-06   7.13992956695214e-06
-2.298576539605708e-05   4.092930664110258e-06   7.13992956695214e-06
-2.298576539605708e-05   4.092930664110258e-06   7.13992956695214e-06
-2.457230670584133e-05   5.4181150312579375e-06   8.989054462970658e-06
-2.457230670584133e-05   5.4181150312579375e-06   8.989054462970658e-06
-2.457230670584133e-05   5.4181150312579375e-06   8.989054462970658e-06
-2.457230670584133e-05   5.4181150312579375e-06   8.989054462970658e-06
-2.298576539605708e-05   6.41858112666459e-06   1.6608116145441884e-05
-2.298576539605708e-05   6.41858112666459e-06   1.6608116145441884e-05
-2.298576539605708e-05   6.41858112666459e-06   1.6608116145441884e-05
-2.298576539605708e-05   6.41858112666459e-06   1.6608116145441884e-05
-2.8666677343151185e-05   4.092930664110258e-06   5.744539289419505e-06
-2.8666677343151185e-05   4.092930664110258e-06   5.744539289419505e-06
-2.8666677343151185e-05   4.092930664110258e-06   5.744539289419505e-06
-2.8666677343151185e-05   4.092930664110258e-06   5.744539289419505e-06
-2.9675731182223983e-05   6.097949590521496e-06   1.7917740205756387e-05
-2.9675731182223983e-05   6.097949590521496e-06   1.7917740205756387e-05
-2.9675731182223983e-05   6.097949590521496e-06   1.7917740205756387e-05
-2.9675731182223983e-05   6.097949590521496e-06   1.7917740205756387e-05
-2.341353678372675e-05   3.762360006300848e-06   8.882103292126684e-06
-2.341353678372675e-05   3.762360006300848e-06   8.882103292126684e-06
-2.341353678372675e-05   3.762360006300848e-06   8.882103292126684e-06
-2.341353678372675e-05   3.762360006300848e-06   8.882103292126684e-06
-2.556719562514867e-05   5.228639119989162e-06   1.159176722628434e-05
-2.556719562514867e-05   5.228639119989162e-06   1.159176722628434e-05
-2.556719562514867e-05   5.228639119989162e-06   1.159176722628434e-05
-2.556719562514867e-05   5.228639119989162e-06   1.159176722628434e-05
-2.341353678372675e-05   6.097949590521713e-06   1.931909395628856e-05
-2.341353678372675e-05   6.097949590521713e-06   1.931909395628856e-05
-2.341353678372675e-05   6.097949590521713e-06   1.931909395628856e-05
-2.341353678372675e-05   6.097949590521713e-06   1.931909395628856e-05
-2.967573118222409e-05   3.762360006300848e-06   7.480749541594456e-06
-2.967573118222409e-05   3.762360006300848e-06   7.480749541594456e-06
-2.967573118222409e-05   3.762360006300848e-06   7.480749541594456e-06
-2.967573118222409e-05   3.762360006300848e-06   7.480749541594456e-06
-3.096138951293875e-05   5.227016284625784e-06   2.281413436261144e-05
-3.096138951293875e-05   5.227016284625784e-06   2.281413436261144e-05
-3.096138951293875e-05   5.227016284625784e-06   2.281413436261144e-05
-3.096138951293875e-05   5.227016284625784e-06   2.281413436261144e-05
-2.375657957109131e-05   3.0046433585788953e-06   1.2139541548493752e-05
-2.375657957109131e-05   3.0046433585788953e-06   1.2139541548493752e-05
-2.375657957109131e-05   3.0046433585788953e-06   1.2139541548493752e-05
-2.375657957109131e-05   3.0046433585788953e-06   1.2139541548493752e-05
-2.5852654846773252e-05   4.867215771843514e-06   1.4515456893337528e-05
-2.5852654846773252e-05   4.867215771843514e-06   1.4515456893337528e-05
-2.5852654846773252e-05   4.867215771843514e-06   1.4515456893337528e-05
-2.5852654846773252e-05   4.867215771843514e-06   1.4515456893337528e-05
-1.1379272940084407e-05   2.0630601046975425e-06   1.3422973362059791e-05
-1.1379272940084407e-05   2.0630601046975425e-06   1.3422973362059791e-05
-1.1379272940084407e-05   2.0630601046975425e-06   1.3422973362059791e-05
-1.1379272940084407e-05   2.0630601046975425e-06   1.3422973362059791e-05
-1.2389815987670648e-05   3.88675351477416e-06   1.2832950995461906e-05
-1.2389815987670648e-05   3.88675351477416e-06   1.2832950995461906e-05
-1.2389815987670648e-05   3.88675351477416e-06   1.2832950995461906e-05
-1.2389815987670648e-05   3.88675351477416e-06   1.2832950995461906e-05
-1.2705721820589981e-05   1.3990736789076114e-06   1.4434136635369595e-05
-1.2705721820589981e-05   1.3990736789076114e-06   1.4434136635369595e-05
-1.2705721820589981e-05   1.3990736789076114e-06   1.4434136635369595e-05
-1.2705721820589981e-05   1.3990736789076114e-06   1.4434136635369595e-05
-1.2714119761153116e-05   3.0385693822346325e-06   1.3464435780978826e-05
-1.2714119761153116e-05   3.0385693822346325e-06   1.3464435780978826e-05
-1.2714119761153116e-05   3.0385693822346325e-06   1.3464435780978826e-05
-1.2714119761153116e-05   3.0385693822346325e-06   1.3464435780978826e-05
-1.1990151937247741e-05   2.428298944312404e-06   1.2623985003889777e-05
-1.1990151937247741e-05   2.428298944312404e-06   1.2623985003889777e-05
-1.1990151937247741e-05   2.428298944312404e-06   1.2623985003889777e-05
-1.1990151937247741e-05   2.428298944312404e-06   1.2623985003889777e-05
-1.271411976115313e-05   1.3990736789078282e-06   1.3450439213373518e-05
-1.271411976115313e-05   1.3990736789078282e-06   1.3450439213373518e-05
-1.271411976115313e-05   1.3990736789078282e-06   1.3450439213373518e-05
-1.271411976115313e-05   1.3990736789078282e-06   1.3450439213373518e-05
-1.2705721820589981e-05   3.0385693822346325e-06   1.4448133202974822e-05
-1.2705721820589981e-05   3.0385693822346325e-06   1.4448133202974822e-05
-1.2705721820589981e-05   3.0385693822346325e-06   1.4448133202974822e-05
-1.2705721820589981e-05   3.0385693822346325e-06   1.4448133202974822e-05
-1.3115841427634009e-05   1.0329105243271457e-06   1.489929646493666e-05
-1.3115841427634009e-05   1.0329105243271457e-06   1.489929646493666e-05
-1.3115841427634009e-05   1.0329105243271457e-06   1.489929646493666e-05
-1.3115841427634009e-05   1.0329105243271457e-06   1.489929646493666e-05
-1.4011749943181284e-05   2.4514433244773827e-06   1.554135764409185e-05
-1.4011749943181284e-05   2.4514433244773827e-06   1.554135764409185e-05
-1.4011749943181284e-05   2.4514433244773827e-06   1.554135764409185e-05
-1.4011749943181284e-05   2.4514433244773827e-06   1.554135764409185e-05
-1.278496738703568e-05   2.0622253463703022e-06   1.373025083738021e-05
-1.278496738703568e-05   2.0622253463703022e-06   1.373025083738021e-05
-1.278496738703568e-05   2.0622253463703022e-06   1.373025083738021e-05
-1.278496738703568e-05   2.0622253463703022e-06   1.373025083738021e-05
-1.4011749943181311e-05   1.0329105243271457e-06   1.4048176784846316e-05
-1.4011749943181311e-05   1.0329105243271457e-06   1.4048176784846316e-05
-1.4011749943181311e-05   1.0329105243271457e-06   1.4048176784846316e-05
-1.4011749943181311e-05   1.0329105243271457e-06   1.4048176784846316e-05
-1.3115841427634009e-05   2.4514433244773827e-06   1.639247732418219e-05
-1.3115841427634009e-05   2.4514433244773827e-06   1.639247732418219e-05
-1.3115841427634009e-05   2.4514433244773827e-06   1.639247732418219e-05
-1.3115841427634009e-05   2.4514433244773827e-06   1.639247732418219e-05
-1.3375874984401536e-05   2.556520456739684e-07   1.639035220569378e-05
-1.3375874984401536e-05   2.556520456739684e-07   1.639035220569378e-05
-1.3375874984401536e-05   2.556520456739684e-07   1.639035220569378e-05
-1.3375874984401536e-05   2.556520456739684e-07   1.639035220569378e-05
-1.539296945904812e-05   1.0069227436114566e-06   1.930141391134183e-05
-1.539296945904812e-05   1.0069227436114566e-06   1.930141391134183e-05
-1.539296945904812e-05   1.0069227436114566e-06   1.930141391134183e-05
-1.539296945904812e-05   1.0069227436114566e-06   1.930141391134183e-05
-1.3339527455939892e-05   1.6119691138956273e-06   1.5515982750657128e-05
-1.3339527455939892e-05   1.6119691138956273e-06   1.5515982750657128e-05
-1.3339527455939892e-05   1.6119691138956273e-06   1.5515982750657128e-05
-1.3339527455939892e-05   1.6119691138956273e-06   1.5515982750657128e-05
-1.2389815987670648e-05   2.3957447067241098e-06   2.6767764583083176e-05
-1.2389815987670648e-05   2.3957447067241098e-06   2.6767764583083176e-05
-1.2389815987670648e-05   2.3957447067241098e-06   2.6767764583083176e-05
-1.2389815987670648e-05   2.3957447067241098e-06   2.6767764583083176e-05
-1.2525473503266211e-05   1.0055431340735181e-06   2.570754778016685e-05
-1.2525473503266211e-05   1.0055431340735181e-06   2.570754778016685e-05
-1.2525473503266211e-05   1.0055431340735181e-06   2.570754778016685e-05
-1.2525473503266211e-05   1.0055431340735181e-06   2.570754778016685e-05
-1.2621653674382025e-05   1.6538843769519935e-06   2.575544110505908e-05
-1.2621653674382025e-05   1.6538843769519935e-06   2.575544110505908e-05
-1.2621653674382025e-05   1.6538843769519935e-06   2.575544110505908e-05
-1.2621653674382025e-05   1.6538843769519935e-06   2.575544110505908e-05
-1.2705721820589981e-05   4.834106373723199e-07   2.6597838925820037e-05
-1.2705721820589981e-05   4.834106373723199e-07   2.6597838925820037e-05
-1.2705721820589981e-05   4.834106373723199e-07   2.6597838925820037e-05
-1.2705721820589981e-05   4.834106373723199e-07   2.6597838925820037e-05
-1.2521485326398994e-05   1.224963019519625e-06   2.584584667288006e-05
-1.2521485326398994e-05   1.224963019519625e-06   2.584584667288006e-05
-1.2521485326398994e-05   1.224963019519625e-06   2.584584667288006e-05
-1.2521485326398994e-05   1.224963019519625e-06   2.584584667288006e-05
-1.2705721820589988e-05   1.6538843769517766e-06   2.64577253488067e-05
-1.2705721820589988e-05   1.6538843769517766e-06   2.64577253488067e-05
-1.2705721820589988e-05   1.6538843769517766e-06   2.64577253488067e-05
-1.2705721820589988e-05   1.6538843769517766e-06   2.64577253488067e-05
-1.2621653674382025e-05   4.834106373723199e-07   2.589555468207231e-05
-1.2621653674382025e-05   4.834106373723199e-07   2.589555468207231e-05
-1.2621653674382025e-05   4.834106373723199e-07   2.589555468207231e-05
-1.2621653674382025e-05   4.834106373723199e-07   2.589555468207231e-05
-1.2741111871597278e-05   9.684655113116353e-07   2.6113681638281e-05
-1.2741111871597278e-05   9.684655113116353e-07   2.6113681638281e-05
-1.2741111871597278e-05   9.684655113116353e-07   2.6113681638281e-05
-1.2741111871597278e-05   9.684655113116353e-07   2.6113681638281e-05
-1.3115841427634009e-05   -1.2320131224832342e-07   2.7393230992478305e-05
-1.3115841427634009e-05   -1.2320131224832342e-07   2.7393230992478305e-05
-1.3115841427634009e-05   -1.2320131224832342e-07   2.7393230992478305e-05
-1.3115841427634009e-05   -1.2320131224832342e-07   2.7393230992478305e-05
-1.2639664672522695e-05   7.918269254412482e-07   2.6050586124679373e-05
-1.2639664672522695e-05   7.918269254412482e-07   2.6050586124679373e-05
-1.2639664672522695e-05   7.918269254412482e-07   2.6050586124679373e-05
-1.2639664672522695e-05   7.918269254412482e-07   2.6050586124679373e-05
-1.3115841427634009e-05   9.684655113116353e-07   2.676868173241687e-05
-1.3115841427634009e-05   9.684655113116353e-07   2.676868173241687e-05
-1.3115841427634009e-05   9.684655113116353e-07   2.676868173241687e-05
-1.3115841427634009e-05   9.684655113116353e-07   2.676868173241687e-05
-1.274111187159725e-05   -1.2320131224832342e-07   2.6738230898342222e-05
-1.274111187159725e-05   -1.2320131224832342e-07   2.6738230898342222e-05
-1.274111187159725e-05   -1.2320131224832342e-07   2.6738230898342222e-05
-1.274111187159725e-05   -1.2320131224832342e-07   2.6738230898342222e-05
-1.2827179260057052e-05   2.2524339328140568e-07   2.686993337217274e-05
-1.2827179260057052e-05   2.2524339328140568e-07   2.686993337217274e-05
-1.2827179260057052e-05   2.2524339328140568e-07   2.686993337217274e-05
-1.2827179260057052e-05   2.2524339328140568e-07   2.686993337217274e-05
-1.3375874984401502e-05   -9.210554216731916e-07   2.8472205535052717e-05
-1.3375874984401502e-05   -9.210554216731916e-07   2.8472205535052717e-05
-1.3375874984401502e-05   -9.210554216731916e-07   2.8472205535052717e-05
-1.3375874984401502e-05   -9.210554216731916e-07   2.8472205535052717e-05
-1.2827832779602579e-05   2.8212647363933625e-07   2.6836892723199778e-05
-1.2827832779602579e-05   2.8212647363933625e-07   2.6836892723199778e-05
-1.2827832779602579e-05   2.8212647363933625e-07   2.6836892723199778e-05
-1.2827832779602579e-05   2.8212647363933625e-07   2.6836892723199778e-05
-1.2525473503266266e-05   2.8689209500302668e-06   2.9530217050926654e-05
-1.2525473503266266e-05   2.8689209500302668e-06   2.9530217050926654e-05
-1.2525473503266266e-05   2.8689209500302668e-06   2.9530217050926654e-05
-1.2525473503266266e-05   2.8689209500302668e-06   2.9530217050926654e-05
-1.3462025942188069e-05   2.790481633750371e-07   2.6415372647396973e-05
-1.3462025942188069e-05   2.790481633750371e-07   2.6415372647396973e-05
-1.3462025942188069e-05   2.790481633750371e-07   2.6415372647396973e-05
-1.3462025942188069e-05   2.790481633750371e-07   2.6415372647396973e-05
-1.3492813915609862e-05   2.1809549375275544e-06   2.801925397550296e-05
-1.3492813915609862e-05   2.1809549375275544e-06   2.801925397550296e-05
-1.3492813915609862e-05   2.1809549375275544e-06   2.801925397550296e-05
-1.3492813915609862e-05   2.1809549375275544e-06   2.801925397550296e-05
-1.2621653674382025e-05   -1.6271982143417803e-07   2.7973525095500323e-05
-1.2621653674382025e-05   -1.6271982143417803e-07   2.7973525095500323e-05
-1.2621653674382025e-05   -1.6271982143417803e-07   2.7973525095500323e-05
-1.2621653674382025e-05   -1.6271982143417803e-07   2.7973525095500323e-05
-1.3002860910494554e-05   1.2483498283050762e-06   2.7762228699177674e-05
-1.3002860910494554e-05   1.2483498283050762e-06   2.7762228699177674e-05
-1.3002860910494554e-05   1.2483498283050762e-06   2.7762228699177674e-05
-1.3002860910494554e-05   1.2483498283050762e-06   2.7762228699177674e-05
-1.2621653674382025e-05   2.1809549375275544e-06   2.942545883088e-05
-1.2621653674382025e-05   2.1809549375275544e-06   2.942545883088e-05
-1.2621653674382025e-05   2.1809549375275544e-06   2.942545883088e-05
-1.2621653674382025e-05   2.1809549375275544e-06   2.942545883088e-05
-1.3492813915609808e-05   -1.6271982143417803e-07   2.6567320240123365e-05
-1.3492813915609808e-05   -1.6271982143417803e-07   2.6567320240123365e-05
-1.3492813915609808e-05   -1.6271982143417803e-07   2.6567320240123365e-05
-1.3492813915609808e-05   -1.6271982143417803e-07   2.6567320240123365e-05
-1.3550542390364803e-05   1.4816917460549767e-06   2.846103803674023e-05
-1.3550542390364803e-05   1.4816917460549767e-06   2.846103803674023e-05
-1.3550542390364803e-05   1.4816917460549767e-06   2.846103803674023e-05
-1.3550542390364803e-05   1.4816917460549767e-06   2.846103803674023e-05
-1.274111187159725e-05   -6.917775463595845e-07   2.8416068747576283e-05
-1.274111187159725e-05   -6.917775463595845e-07   2.8416068747576283e-05
-1.274111187159725e-05   -6.917775463595845e-07   2.8416068747576283e-05
-1.274111187159725e-05   -6.917775463595845e-07   2.8416068747576283e-05
-1.3007919784376477e-05   8.104775466832555e-07   2.795939554638271e-05
-1.3007919784376477e-05   8.104775466832555e-07   2.795939554638271e-05
-1.3007919784376477e-05   8.104775466832555e-07   2.795939554638271e-05
-1.3007919784376477e-05   8.104775466832555e-07   2.795939554638271e-05
-1.274111187159725e-05   1.4816917460549767e-06   2.9765119612188708e-05
-1.274111187159725e-05   1.4816917460549767e-06   2.9765119612188708e-05
-1.274111187159725e-05   1.4816917460549767e-06   2.9765119612188708e-05
-1.274111187159725e-05   1.4816917460549767e-06   2.9765119612188708e-05
-1.3550542390364803e-05   -6.917775463595845e-07   2.711198717212759e-05
-1.3550542390364803e-05   -6.917775463595845e-07   2.711198717212759e-05
-1.3550542390364803e-05   -6.917775463595845e-07   2.711198717212759e-05
-1.3550542390364803e-05   -6.917775463595845e-07   2.711198717212759e-05
-1.3586601804020139e-05   8.18548161415e-07   2.9248475026739896e-05
-1.3586601804020139e-05   8.18548161415e-07   2.9248475026739896e-05
-1.3586601804020139e-05   8.18548161415e-07   2.9248475026739896e-05
-1.3586601804020139e-05   8.18548161415e-07   2.9248475026739896e-05
-1.2827179260057025e-05   -1.2234850421740263e-06   2.9207990708954713e-05
-1.2827179260057025e-05   -1.2234850421740263e-06   2.9207990708954713e-05
-1.2827179260057025e-05   -1.2234850421740263e-06   2.9207990708954713e-05
-1.2827179260057025e-05   -1.2234850421740263e-06   2.9207990708954713e-05
-1.3034482192721879e-05   3.60208785063433e-07   2.8603279300386296e-05
-1.3034482192721879e-05   3.60208785063433e-07   2.8603279300386296e-05
-1.3034482192721879e-05   3.60208785063433e-07   2.8603279300386296e-05
-1.3034482192721879e-05   3.60208785063433e-07   2.8603279300386296e-05
-1.3462025942188069e-05   3.875875883262809e-06   2.4045687868493168e-05
-1.3462025942188069e-05   3.875875883262809e-06   2.4045687868493168e-05
-1.3462025942188069e-05   3.875875883262809e-06   2.4045687868493168e-05
-1.3462025942188069e-05   3.875875883262809e-06   2.4045687868493168e-05
-1.4826986629256657e-05   1.2715215347532723e-06   2.020814078093993e-05
-1.4826986629256657e-05   1.2715215347532723e-06   2.020814078093993e-05
-1.4826986629256657e-05   1.2715215347532723e-06   2.020814078093993e-05
-1.4826986629256657e-05   1.2715215347532723e-06   2.020814078093993e-05
-1.4849055524219492e-05   3.1520184735956726e-06   2.2706649119652936e-05
-1.4849055524219492e-05   3.1520184735956726e-06   2.2706649119652936e-05
-1.4849055524219492e-05   3.1520184735956726e-06   2.2706649119652936e-05
-1.4849055524219492e-05   3.1520184735956726e-06   2.2706649119652936e-05
-1.3492813915609862e-05   6.897489290235131e-07   2.1923608165380117e-05
-1.3492813915609862e-05   6.897489290235131e-07   2.1923608165380117e-05
-1.3492813915609862e-05   6.897489290235131e-07   2.1923608165380117e-05
-1.3492813915609862e-05   6.897489290235131e-07   2.1923608165380117e-05
-1.4120649219860279e-05   2.3011606839969416e-06   2.200315328614677e-05
-1.4120649219860279e-05   2.3011606839969416e-06   2.200315328614677e-05
-1.4120649219860279e-05   2.3011606839969416e-06   2.200315328614677e-05
-1.4120649219860279e-05   2.3011606839969416e-06   2.200315328614677e-05
-1.3492813915609862e-05   3.1520184735958894e-06   2.4184010846396058e-05
-1.3492813915609862e-05   3.1520184735958894e-06   2.4184010846396058e-05
-1.3492813915609862e-05   3.1520184735958894e-06   2.4184010846396058e-05
-1.3492813915609862e-05   3.1520184735958894e-06   2.4184010846396058e-05
-1.4849055524219492e-05   6.897489290235131e-07   2.044624643863665e-05
-1.4849055524219492e-05   6.897489290235131e-07   2.044624643863665e-05
-1.4849055524219492e-05   6.897489290235131e-07   2.044624643863665e-05
-1.4849055524219492e-05   6.897489290235131e-07   2.044624643863665e-05
-1.500821863960355e-05   2.5083121563097225e-06   2.354937030036382e-05
-1.500821863960355e-05   2.5083121563097225e-06   2.354937030036382e-05
-1.500821863960355e-05   2.5083121563097225e-06   2.354937030036382e-05
-1.500821863960355e-05   2.5083121563097225e-06   2.354937030036382e-05
-1.3550542390364803e-05   1.9173310772293683e-07   2.25098573141179e-05
-1.3550542390364803e-05   1.9173310772293683e-07   2.25098573141179e-05
-1.3550542390364803e-05   1.9173310772293683e-07   2.25098573141179e-05
-1.3550542390364803e-05   1.9173310772293683e-07   2.25098573141179e-05
-1.4078281183044997e-05   1.8228673750321609e-06   2.2410741408199303e-05
-1.4078281183044997e-05   1.8228673750321609e-06   2.2410741408199303e-05
-1.4078281183044997e-05   1.8228673750321609e-06   2.2410741408199303e-05
-1.4078281183044997e-05   1.8228673750321609e-06   2.2410741408199303e-05
-1.3550542390364803e-05   2.5083121563097225e-06   2.493931772951552e-05
-1.3550542390364803e-05   2.5083121563097225e-06   2.493931772951552e-05
-1.3550542390364803e-05   2.5083121563097225e-06   2.493931772951552e-05
-1.3550542390364803e-05   2.5083121563097225e-06   2.493931772951552e-05
-1.500821863960355e-05   1.9173310772304525e-07   2.1119909884965792e-05
-1.500821863960355e-05   1.9173310772304525e-07   2.1119909884965792e-05
-1.500821863960355e-05   1.9173310772304525e-07   2.1119909884965792e-05
-1.500821863960355e-05   1.9173310772304525e-07   2.1119909884965792e-05
-1.5102481127653796e-05   1.8528449666872174e-06   2.4597046729879198e-05
-1.5102481127653796e-05   1.8528449666872174e-06   2.4597046729879198e-05
-1.5102481127653796e-05   1.8528449666872174e-06   2.4597046729879198e-05
-1.5102481127653796e-05   1.8528449666872174e-06   2.4597046729879198e-05
-1.3586601804020085e-05   -3.102037524919856e-07   2.3368410421996692e-05
-1.3586601804020085e-05   -3.102037524919856e-07   2.3368410421996692e-05
-1.3586601804020085e-05   -3.102037524919856e-07   2.3368410421996692e-05
-1.3586601804020085e-05   -3.102037524919856e-07   2.3368410421996692e-05
-1.4146700741361241e-05   1.3958776794445937e-06   2.3278259791735765e-05
-1.4146700741361241e-05   1.3958776794445937e-06   2.3278259791735765e-05
-1.4146700741361241e-05   1.3958776794445937e-06   2.3278259791735765e-05
-1.4146700741361241e-05   1.3958776794445937e-06   2.3278259791735765e-05
-1.4826986629256657e-05   4.57467469941312e-06   9.23155906757062e-06
-1.4826986629256657e-05   4.57467469941312e-06   9.23155906757062e-06
-1.4826986629256657e-05   4.57467469941312e-06   9.23155906757062e-06
-1.4826986629256657e-05   4.57467469941312e-06   9.23155906757062e-06
-1.461160652614505e-05   2.0919511344440634e-06   8.100891767108434e-06
-1.461160652614505e-05   2.0919511344440634e-06   8.100891767108434e-06
-1.461160652614505e-05   2.0919511344440634e-06   8.100891767108434e-06
-1.461160652614505e-05   2.0919511344440634e-06   8.100891767108434e-06
-1.53628083716887e-05   4.092930664110475e-06   1.0113056402329818e-05
-1.53628083716887e-05   4.092930664110475e-06   1.0113056402329818e-05
-1.53628083716887e-05   4.092930664110475e-06   1.0113056402329818e-05
-1.53628083716887e-05   4.092930664110475e-06   1.0113056402329818e-05
-1.4849055524219492e-05   1.6807062572481027e-06   1.0704136300665251e-05
-1.4849055524219492e-05   1.6807062572481027e-06   1.0704136300665251e-05
-1.4849055524219492e-05   1.6807062572481027e-06   1.0704136300665251e-05
-1.4849055524219492e-05   1.6807062572481027e-06   1.0704136300665251e-05
-1.4428428551545736e-05   3.217081158152972e-06   9.081266405665977e-06
-1.4428428551545736e-05   3.217081158152972e-06   9.081266405665977e-06
-1.4428428551545736e-05   3.217081158152972e-06   9.081266405665977e-06
-1.4428428551545736e-05   3.217081158152972e-06   9.081266405665977e-06
-1.4849055524219438e-05   4.092930664110475e-06   1.1560391046447154e-05
-1.4849055524219438e-05   4.092930664110475e-06   1.1560391046447154e-05
-1.4849055524219438e-05   4.092930664110475e-06   1.1560391046447154e-05
-1.4849055524219438e-05   4.092930664110475e-06   1.1560391046447154e-05
-1.53628083716887e-05   1.6807062572481027e-06   9.256801656547996e-06
-1.53628083716887e-05   1.6807062572481027e-06   9.256801656547996e-06
-1.53628083716887e-05   1.6807062572481027e-06   9.256801656547996e-06
-1.53628083716887e-05   1.6807062572481027e-06   9.256801656547996e-06
-1.6022672343223823e-05   3.762360006300848e-06   1.1994960935899192e-05
-1.6022672343223823e-05   3.762360006300848e-06   1.1994960935899192e-05
-1.6022672343223823e-05   3.762360006300848e-06   1.1994960935899192e-05
-1.6022672343223823e-05   3.762360006300848e-06   1.1994960935899192e-05
-1.500821863960355e-05   1.4116837223784005e-06   1.1714610533552117e-05
-1.500821863960355e-05   1.4116837223784005e-06   1.1714610533552117e-05
-1.500821863960355e-05   1.4116837223784005e-06   1.1714610533552117e-05
-1.500821863960355e-05   1.4116837223784005e-06   1.1714610533552117e-05
-1.4962952495431469e-05   2.9761440256098723e-06   1.070049077799366e-05
-1.4962952495431469e-05   2.9761440256098723e-06   1.070049077799366e-05
-1.4962952495431469e-05   2.9761440256098723e-06   1.070049077799366e-05
-1.4962952495431469e-05   2.9761440256098723e-06   1.070049077799366e-05
-1.500821863960355e-05   3.762360006301065e-06   1.3405366706252574e-05
-1.500821863960355e-05   3.762360006301065e-06   1.3405366706252574e-05
-1.500821863960355e-05   3.762360006301065e-06   1.3405366706252574e-05
-1.500821863960355e-05   3.762360006301065e-06   1.3405366706252574e-05
-1.6022672343223932e-05   1.4116837223784005e-06   1.0304204763198681e-05
-1.6022672343223932e-05   1.4116837223784005e-06   1.0304204763198681e-05
-1.6022672343223932e-05   1.4116837223784005e-06   1.0304204763198681e-05
-1.6022672343223932e-05   1.4116837223784005e-06   1.0304204763198681e-05
-1.7005739730648647e-05   3.0046433585788953e-06   1.545241502643683e-05
-1.7005739730648647e-05   3.0046433585788953e-06   1.545241502643683e-05
-1.7005739730648647e-05   3.0046433585788953e-06   1.545241502643683e-05
-1.7005739730648647e-05   3.0046433585788953e-06   1.545241502643683e-05
-1.5102481127653796e-05   8.719881083789176e-07   1.3559910504898267e-05
-1.5102481127653796e-05   8.719881083789176e-07   1.3559910504898267e-05
-1.5102481127653796e-05   8.719881083789176e-07   1.3559910504898267e-05
-1.5102481127653796e-05   8.719881083789176e-07   1.3559910504898267e-05
-1.514347865524165e-05   2.690762699579345e-06   1.2536974962822623e-05
-1.514347865524165e-05   2.690762699579345e-06   1.2536974962822623e-05
-1.514347865524165e-05   2.690762699579345e-06   1.2536974962822623e-05
-1.514347865524165e-05   2.690762699579345e-06   1.2536974962822623e-05
-2.9357719824199186e-05   3.88675351477416e-06   1.1207327449929276e-05
-2.9357719824199186e-05   3.88675351477416e-06   1.1207327449929276e-05
-2.9357719824199186e-05   3.88675351477416e-06   1.1207327449929276e-05
-2.9357719824199186e-05   3.88675351477416e-06   1.1207327449929276e-05
-1.979089174883016e-05   5.385480123544766e-06   2.8051276874140063e-05
-1.979089174883016e-05   5.385480123544766e-06   2.8051276874140063e-05
-1.979089174883016e-05   5.385480123544766e-06   2.8051276874140063e-05
-1.979089174883016e-05   5.385480123544766e-06   2.8051276874140063e-05
-1.97793812767928e-05   3.0385693822346325e-06   1.2758668959840242e-05
-1.97793812767928e-05   3.0385693822346325e-06   1.2758668959840242e-05
-1.97793812767928e-05   3.0385693822346325e-06   1.2758668959840242e-05
-1.97793812767928e-05   3.0385693822346325e-06   1.2758668959840242e-05
-3.232120569456517e-05   2.1967453409298078e-06   3.416680408091055e-05
-3.232120569456517e-05   2.1967453409298078e-06   3.416680408091055e-05
-3.232120569456517e-05   2.1967453409298078e-06   3.416680408091055e-05
-3.232120569456517e-05   2.1967453409298078e-06   3.416680408091055e-05
-2.400673461333188e-05   3.1948462146408774e-06   1.9710491754628242e-05
-2.400673461333188e-05   3.1948462146408774e-06   1.9710491754628242e-05
-2.400673461333188e-05   3.1948462146408774e-06   1.9710491754628242e-05
-2.400673461333188e-05   3.1948462146408774e-06   1.9710491754628242e-05
-3.232120569456524e-05   3.0385693822346325e-06   1.3263763384622901e-05
-3.232120569456524e-05   3.0385693822346325e-06   1.3263763384622901e-05
-3.232120569456524e-05   3.0385693822346325e-06   1.3263763384622901e-05
-3.232120569456524e-05   3.0385693822346325e-06   1.3263763384622901e-05
-1.977938127679276e-05   2.1967453409298078e-06   3.366170965612758e-05
-1.977938127679276e-05   2.1967453409298078e-06   3.366170965612758e-05
-1.977938127679276e-05   2.1967453409298078e-06   3.366170965612758e-05
-1.977938127679276e-05   2.1967453409298078e-06   3.366170965612758e-05
-2.0043990141712196e-05   2.451443324477491e-06   1.4284115839958977e-05
-2.0043990141712196e-05   2.451443324477491e-06   1.4284115839958977e-05
-2.0043990141712196e-05   2.451443324477491e-06   1.4284115839958977e-05
-2.0043990141712196e-05   2.451443324477491e-06   1.4284115839958977e-05
-3.243023722229853e-05   1.5816826992355332e-06   3.544971734941474e-05
-3.243023722229853e-05   1.5816826992355332e-06   3.544971734941474e-05
-3.243023722229853e-05   1.5816826992355332e-06   3.544971734941474e-05
-3.243023722229853e-05   1.5816826992355332e-06   3.544971734941474e-05
-2.5608829423288734e-05   2.0014986915525e-06   2.3828814755674755e-05
-2.5608829423288734e-05   2.0014986915525e-06   2.3828814755674755e-05
-2.5608829423288734e-05   2.0014986915525e-06   2.3828814755674755e-05
-2.5608829423288734e-05   2.0014986915525e-06   2.3828814755674755e-05
-3.2430237222298594e-05   2.4514433244773827e-06   1.4805972215104326e-05
-3.2430237222298594e-05   2.4514433244773827e-06   1.4805972215104326e-05
-3.2430237222298594e-05   2.4514433244773827e-06   1.4805972215104326e-05
-3.2430237222298594e-05   2.4514433244773827e-06   1.4805972215104326e-05
-2.0043990141712155e-05   1.5816826992355332e-06   3.492786097426961e-05
-2.0043990141712155e-05   1.5816826992355332e-06   3.492786097426961e-05
-2.0043990141712155e-05   1.5816826992355332e-06   3.492786097426961e-05
-2.0043990141712155e-05   1.5816826992355332e-06   3.492786097426961e-05
-1.9824894973651285e-05   1.0069227436114566e-06   1.6953278776527414e-05
-1.9824894973651285e-05   1.0069227436114566e-06   1.6953278776527414e-05
-1.9824894973651285e-05   1.0069227436114566e-06   1.6953278776527414e-05
-1.9824894973651285e-05   1.0069227436114566e-06   1.6953278776527414e-05
-3.277307446978366e-05   -1.030790156614247e-06   3.97562056768833e-05
-3.277307446978366e-05   -1.030790156614247e-06   3.97562056768833e-05
-3.277307446978366e-05   -1.030790156614247e-06   3.97562056768833e-05
-3.277307446978366e-05   -1.030790156614247e-06   3.97562056768833e-05
-2.521268811057377e-05   9.77277425782692e-07   2.5950721195428715e-05
-2.521268811057377e-05   9.77277425782692e-07   2.5950721195428715e-05
-2.521268811057377e-05   9.77277425782692e-07   2.5950721195428715e-05
-2.521268811057377e-05   9.77277425782692e-07   2.5950721195428715e-05
-1.9790891748830193e-05   1.0055431340734097e-06   2.581528114348696e-05
-1.9790891748830193e-05   1.0055431340734097e-06   2.581528114348696e-05
-1.9790891748830193e-05   1.0055431340734097e-06   2.581528114348696e-05
-1.9790891748830193e-05   1.0055431340734097e-06   2.581528114348696e-05
-1.212958441985682e-05   -6.032974915851986e-06   3.43610158618206e-05
-1.212958441985682e-05   -6.032974915851986e-06   3.43610158618206e-05
-1.212958441985682e-05   -6.032974915851986e-06   3.43610158618206e-05
-1.212958441985682e-05   -6.032974915851986e-06   3.43610158618206e-05
-1.2150897649121562e-05   4.834106373722115e-07   2.1656556465218845e-05
-1.2150897649121562e-05   4.834106373722115e-07   2.1656556465218845e-05
-1.2150897649121562e-05   4.834106373722115e-07   2.1656556465218845e-05
-1.2150897649121562e-05   4.834106373722115e-07   2.1656556465218845e-05
-1.977938127679276e-05   -4.9362863917389184e-06   3.762251406213749e-05
-1.977938127679276e-05   -4.9362863917389184e-06   3.762251406213749e-05
-1.977938127679276e-05   -4.9362863917389184e-06   3.762251406213749e-05
-1.977938127679276e-05   -4.9362863917389184e-06   3.762251406213749e-05
-1.587678236344674e-05   -2.9825501670815763e-06   2.9945940805099677e-05
-1.587678236344674e-05   -2.9825501670815763e-06   2.9945940805099677e-05
-1.587678236344674e-05   -2.9825501670815763e-06   2.9945940805099677e-05
-1.587678236344674e-05   -2.9825501670815763e-06   2.9945940805099677e-05
-1.9779381276792787e-05   4.834106373722115e-07   2.4908374682685078e-05
-1.9779381276792787e-05   4.834106373722115e-07   2.4908374682685078e-05
-1.9779381276792787e-05   4.834106373722115e-07   2.4908374682685078e-05
-1.9779381276792787e-05   4.834106373722115e-07   2.4908374682685078e-05
-1.2150897649121535e-05   -4.9362863917389184e-06   3.437069584467085e-05
-1.2150897649121535e-05   -4.9362863917389184e-06   3.437069584467085e-05
-1.2150897649121535e-05   -4.9362863917389184e-06   3.437069584467085e-05
-1.2150897649121535e-05   -4.9362863917389184e-06   3.437069584467085e-05
-1.219400702898434e-05   -1.2320131224843184e-07   2.232911526979899e-05
-1.219400702898434e-05   -1.2320131224843184e-07   2.232911526979899e-05
-1.219400702898434e-05   -1.2320131224843184e-07   2.232911526979899e-05
-1.219400702898434e-05   -1.2320131224843184e-07   2.232911526979899e-05
-2.0043990141712155e-05   -5.049458376341954e-06   3.836817469613489e-05
-2.0043990141712155e-05   -5.049458376341954e-06   3.836817469613489e-05
-2.0043990141712155e-05   -5.049458376341954e-06   3.836817469613489e-05
-2.0043990141712155e-05   -5.049458376341954e-06   3.836817469613489e-05
-1.5757611274403252e-05   -2.605619510636021e-06   2.9757906597863113e-05
-1.5757611274403252e-05   -2.605619510636021e-06   2.9757906597863113e-05
-1.5757611274403252e-05   -2.605619510636021e-06   2.9757906597863113e-05
-1.5757611274403252e-05   -2.605619510636021e-06   2.9757906597863113e-05
-2.0043990141712196e-05   -1.2320131224832342e-07   2.5284869508255365e-05
-2.0043990141712196e-05   -1.2320131224832342e-07   2.5284869508255365e-05
-2.0043990141712196e-05   -1.2320131224832342e-07   2.5284869508255365e-05
-2.0043990141712196e-05   -1.2320131224832342e-07   2.5284869508255365e-05
-1.2194007028984313e-05   -5.049458376341954e-06   3.541242045767876e-05
-1.2194007028984313e-05   -5.049458376341954e-06   3.541242045767876e-05
-1.2194007028984313e-05   -5.049458376341954e-06   3.541242045767876e-05
-1.2194007028984313e-05   -5.049458376341954e-06   3.541242045767876e-05
-1.2069437073302297e-05   -9.210554216731916e-07   2.316670075208681e-05
-1.2069437073302297e-05   -9.210554216731916e-07   2.316670075208681e-05
-1.2069437073302297e-05   -9.210554216731916e-07   2.316670075208681e-05
-1.2069437073302297e-05   -9.210554216731916e-07   2.316670075208681e-05
-1.9824894973651238e-05   -5.098734137321502e-06   3.859907114872385e-05
-1.9824894973651238e-05   -5.098734137321502e-06   3.859907114872385e-05
-1.9824894973651238e-05   -5.098734137321502e-06   3.859907114872385e-05
-1.9824894973651238e-05   -5.098734137321502e-06   3.859907114872385e-05
-1.5826052959110412e-05   -2.9279930204257156e-06   3.0631889787685154e-05
-1.5826052959110412e-05   -2.9279930204257156e-06   3.0631889787685154e-05
-1.5826052959110412e-05   -2.9279930204257156e-06   3.0631889787685154e-05
-1.5826052959110412e-05   -2.9279930204257156e-06   3.0631889787685154e-05
-1.212958441985682e-05   2.790481633750371e-07   2.3853918852755063e-05
-1.212958441985682e-05   2.790481633750371e-07   2.3853918852755063e-05
-1.212958441985682e-05   2.790481633750371e-07   2.3853918852755063e-05
-1.212958441985682e-05   2.790481633750371e-07   2.3853918852755063e-05
-8.910351113405163e-06   -4.712529634200624e-06   2.6224361018295735e-05
-8.910351113405163e-06   -4.712529634200624e-06   2.6224361018295735e-05
-8.910351113405163e-06   -4.712529634200624e-06   2.6224361018295735e-05
-8.910351113405163e-06   -4.712529634200624e-06   2.6224361018295735e-05
-8.827304498363849e-06   -1.627198214340696e-07   2.1055216513947146e-05
-8.827304498363849e-06   -1.627198214340696e-07   2.1055216513947146e-05
-8.827304498363849e-06   -1.627198214340696e-07   2.1055216513947146e-05
-8.827304498363849e-06   -1.627198214340696e-07   2.1055216513947146e-05
-1.2150897649121535e-05   -4.6282370959335e-06   2.927384879657628e-05
-1.2150897649121535e-05   -4.6282370959335e-06   2.927384879657628e-05
-1.2150897649121535e-05   -4.6282370959335e-06   2.927384879657628e-05
-1.2150897649121535e-05   -4.6282370959335e-06   2.927384879657628e-05
-1.0439465561319801e-05   -2.3823624941209478e-06   2.5073937222485924e-05
-1.0439465561319801e-05   -2.3823624941209478e-06   2.5073937222485924e-05
-1.0439465561319801e-05   -2.3823624941209478e-06   2.5073937222485924e-05
-1.0439465561319801e-05   -2.3823624941209478e-06   2.5073937222485924e-05
-1.2150897649121535e-05   -1.6271982143417803e-07   2.3734526878646587e-05
-1.2150897649121535e-05   -1.6271982143417803e-07   2.3734526878646587e-05
-1.2150897649121535e-05   -1.6271982143417803e-07   2.3734526878646587e-05
-1.2150897649121535e-05   -1.6271982143417803e-07   2.3734526878646587e-05
-8.827304498363849e-06   -4.6282370959335e-06   2.6594538431876602e-05
-8.827304498363849e-06   -4.6282370959335e-06   2.6594538431876602e-05
-8.827304498363849e-06   -4.6282370959335e-06   2.6594538431876602e-05
-8.827304498363849e-06   -4.6282370959335e-06   2.6594538431876602e-05
-8.754911351348585e-06   -6.917775463595845e-07   2.155986228954043e-05
-8.754911351348585e-06   -6.917775463595845e-07   2.155986228954043e-05
-8.754911351348585e-06   -6.917775463595845e-07   2.155986228954043e-05
-8.754911351348585e-06   -6.917775463595845e-07   2.155986228954043e-05
-1.2194007028984313e-05   -4.770262262180746e-06   2.973877924842595e-05
-1.2194007028984313e-05   -4.770262262180746e-06   2.973877924842595e-05
-1.2194007028984313e-05   -4.770262262180746e-06   2.973877924842595e-05
-1.2194007028984313e-05   -4.770262262180746e-06   2.973877924842595e-05
-1.0343861391008007e-05   -2.5423667004497808e-06   2.5318465848093198e-05
-1.0343861391008007e-05   -2.5423667004497808e-06   2.5318465848093198e-05
-1.0343861391008007e-05   -2.5423667004497808e-06   2.5318465848093198e-05
-1.0343861391008007e-05   -2.5423667004497808e-06   2.5318465848093198e-05
-1.2194007028984313e-05   -6.917775463595845e-07   2.400695311903327e-05
-1.2194007028984313e-05   -6.917775463595845e-07   2.400695311903327e-05
-1.2194007028984313e-05   -6.917775463595845e-07   2.400695311903327e-05
-1.2194007028984313e-05   -6.917775463595845e-07   2.400695311903327e-05
-8.754911351348585e-06   -4.770262262180746e-06   2.7291688418933248e-05
-8.754911351348585e-06   -4.770262262180746e-06   2.7291688418933248e-05
-8.754911351348585e-06   -4.770262262180746e-06   2.7291688418933248e-05
-8.754911351348585e-06   -4.770262262180746e-06   2.7291688418933248e-05
-8.578426741842084e-06   -1.2234850421740263e-06   2.2340787577784706e-05
-8.578426741842084e-06   -1.2234850421740263e-06   2.2340787577784706e-05
-8.578426741842084e-06   -1.2234850421740263e-06   2.2340787577784706e-05
-8.578426741842084e-06   -1.2234850421740263e-06   2.2340787577784706e-05
-1.206943707330227e-05   -4.972614437468738e-06   3.0408615767395025e-05
-1.206943707330227e-05   -4.972614437468738e-06   3.0408615767395025e-05
-1.206943707330227e-05   -4.972614437468738e-06   3.0408615767395025e-05
-1.206943707330227e-05   -4.972614437468738e-06   3.0408615767395025e-05
-1.023183825292419e-05   -2.774932113332304e-06   2.6027341672283114e-05
-1.023183825292419e-05   -2.774932113332304e-06   2.6027341672283114e-05
-1.023183825292419e-05   -2.774932113332304e-06   2.6027341672283114e-05
-1.023183825292419e-05   -2.774932113332304e-06   2.6027341672283114e-05
-8.910351113405163e-06   1.2715215347532723e-06   1.6214352916858244e-05
-8.910351113405163e-06   1.2715215347532723e-06   1.6214352916858244e-05
-8.910351113405163e-06   1.2715215347532723e-06   1.6214352916858244e-05
-8.910351113405163e-06   1.2715215347532723e-06   1.6214352916858244e-05
-7.413285163737518e-06   -1.9323654003083803e-06   1.6787130671934035e-05
-7.413285163737518e-06   -1.9323654003083803e-06   1.6787130671934035e-05
-7.413285163737518e-06   -1.9323654003083803e-06   1.6787130671934035e-05
-7.413285163737518e-06   -1.9323654003083803e-06   1.6787130671934035e-05
-7.250102128008727e-06   6.897489290235131e-07   1.4639688989001587e-05
-7.250102128008727e-06   6.897489290235131e-07   1.4639688989001587e-05
-7.250102128008727e-06   6.897489290235131e-07   1.4639688989001587e-05
-7.250102128008727e-06   6.897489290235131e-07   1.4639688989001587e-05
-8.827304498363849e-06   -2.2632768213136085e-06   1.904017505646239e-05
-8.827304498363849e-06   -2.2632768213136085e-06   1.904017505646239e-05
-8.827304498363849e-06   -2.2632768213136085e-06   1.904017505646239e-05
-8.827304498363849e-06   -2.2632768213136085e-06   1.904017505646239e-05
-8.040975568133937e-06   -4.4061540958374203e-07   1.6636029992374627e-05
-8.040975568133937e-06   -4.4061540958374203e-07   1.6636029992374627e-05
-8.040975568133937e-06   -4.4061540958374203e-07   1.6636029992374627e-05
-8.040975568133937e-06   -4.4061540958374203e-07   1.6636029992374627e-05
-8.827304498363849e-06   6.897489290235131e-07   1.6411504439203654e-05
-8.827304498363849e-06   6.897489290235131e-07   1.6411504439203654e-05
-8.827304498363849e-06   6.897489290235131e-07   1.6411504439203654e-05
-8.827304498363849e-06   6.897489290235131e-07   1.6411504439203654e-05
-7.250102128008727e-06   -2.2632768213135543e-06   1.7268359606260105e-05
-7.250102128008727e-06   -2.2632768213135543e-06   1.7268359606260105e-05
-7.250102128008727e-06   -2.2632768213135543e-06   1.7268359606260105e-05
-7.250102128008727e-06   -2.2632768213135543e-06   1.7268359606260105e-05
-7.1743109244742464e-06   1.9173310772304525e-07   1.533293718798765e-05
-7.1743109244742464e-06   1.9173310772304525e-07   1.533293718798765e-05
-7.1743109244742464e-06   1.9173310772304525e-07   1.533293718798765e-05
-7.1743109244742464e-06   1.9173310772304525e-07   1.533293718798765e-05
-8.754911351348585e-06   -2.516258964848793e-06   1.9592066476321218e-05
-8.754911351348585e-06   -2.516258964848793e-06   1.9592066476321218e-05
-8.754911351348585e-06   -2.516258964848793e-06   1.9592066476321218e-05
-8.754911351348585e-06   -2.516258964848793e-06   1.9592066476321218e-05
-7.879289937171897e-06   -7.956143972158512e-07   1.7100310712113193e-05
-7.879289937171897e-06   -7.956143972158512e-07   1.7100310712113193e-05
-7.879289937171897e-06   -7.956143972158512e-07   1.7100310712113193e-05
-7.879289937171897e-06   -7.956143972158512e-07   1.7100310712113193e-05
-8.754911351348585e-06   1.9173310772293683e-07   1.695773243153085e-05
-8.754911351348585e-06   1.9173310772293683e-07   1.695773243153085e-05
-8.754911351348585e-06   1.9173310772293683e-07   1.695773243153085e-05
-8.754911351348585e-06   1.9173310772293683e-07   1.695773243153085e-05
-7.1743109244742464e-06   -2.516258964848793e-06   1.796727123277818e-05
-7.1743109244742464e-06   -2.516258964848793e-06   1.796727123277818e-05
-7.1743109244742464e-06   -2.516258964848793e-06   1.796727123277818e-05
-7.1743109244742464e-06   -2.516258964848793e-06   1.796727123277818e-05
-7.051627121401843e-06   -3.102037524919856e-07   1.6203530723722355e-05
-7.051627121401843e-06   -3.102037524919856e-07   1.6203530723722355e-05
-7.051627121401843e-06   -3.102037524919856e-07   1.6203530723722355e-05
-7.051627121401843e-06   -3.102037524919856e-07   1.6203530723722355e-05
-8.578426741842084e-06   -2.848364567921435e-06   2.0271093247047002e-05
-8.578426741842084e-06   -2.848364567921435e-06   2.0271093247047002e-05
-8.578426741842084e-06   -2.848364567921435e-06   2.0271093247047002e-05
-8.578426741842084e-06   -2.848364567921435e-06   2.0271093247047002e-05
-7.752559755924639e-06   -1.106374191254194e-06   1.7849454044517626e-05
-7.752559755924639e-06   -1.106374191254194e-06   1.7849454044517626e-05
-7.752559755924639e-06   -1.106374191254194e-06   1.7849454044517626e-05
-7.752559755924639e-06   -1.106374191254194e-06   1.7849454044517626e-05
-7.413285163737518e-06   2.0919511344440634e-06   3.674405880971254e-06
-7.413285163737518e-06   2.0919511344440634e-06   3.674405880971254e-06
-7.413285163737518e-06   2.0919511344440634e-06   3.674405880971254e-06
-7.413285163737518e-06   2.0919511344440634e-06   3.674405880971254e-06
-4.263126435589005e-06   -2.1845108421931093e-07   7.538429096687403e-06
-4.263126435589005e-06   -2.1845108421931093e-07   7.538429096687403e-06
-4.263126435589005e-06   -2.1845108421931093e-07   7.538429096687403e-06
-4.263126435589005e-06   -2.1845108421931093e-07   7.538429096687403e-06
-4.502164188315266e-06   1.6807062572479943e-06   3.7069667975498082e-06
-4.502164188315266e-06   1.6807062572479943e-06   3.7069667975498082e-06
-4.502164188315266e-06   1.6807062572479943e-06   3.7069667975498082e-06
-4.502164188315266e-06   1.6807062572479943e-06   3.7069667975498082e-06
-7.250102128008727e-06   -3.036471652196346e-07   9.477475417185902e-06
-7.250102128008727e-06   -3.036471652196346e-07   9.477475417185902e-06
-7.250102128008727e-06   -3.036471652196346e-07   9.477475417185902e-06
-7.250102128008727e-06   -3.036471652196346e-07   9.477475417185902e-06
-5.655822202389857e-06   1.074844810670906e-06   5.993247022286884e-06
-5.655822202389857e-06   1.074844810670906e-06   5.993247022286884e-06
-5.655822202389857e-06   1.074844810670906e-06   5.993247022286884e-06
-5.655822202389857e-06   1.074844810670906e-06   5.993247022286884e-06
-7.250102128008727e-06   1.6807062572479943e-06   4.8975788510298435e-06
-7.250102128008727e-06   1.6807062572479943e-06   4.8975788510298435e-06
-7.250102128008727e-06   1.6807062572479943e-06   4.8975788510298435e-06
-7.250102128008727e-06   1.6807062572479943e-06   4.8975788510298435e-06
-4.502164188315374e-06   -3.036471652196346e-07   8.286863363705325e-06
-4.502164188315374e-06   -3.036471652196346e-07   8.286863363705325e-06
-4.502164188315374e-06   -3.036471652196346e-07   8.286863363705325e-06
-4.502164188315374e-06   -3.036471652196346e-07   8.286863363705325e-06
-4.697851943368078e-06   1.4116837223784005e-06   4.829054514020065e-06
-4.697851943368078e-06   1.4116837223784005e-06   4.829054514020065e-06
-4.697851943368078e-06   1.4116837223784005e-06   4.829054514020065e-06
-4.697851943368078e-06   1.4116837223784005e-06   4.829054514020065e-06
-7.174310924474301e-06   -4.192884818779636e-07   1.005506947175086e-05
-7.174310924474301e-06   -4.192884818779636e-07   1.005506947175086e-05
-7.174310924474301e-06   -4.192884818779636e-07   1.005506947175086e-05
-7.174310924474301e-06   -4.192884818779636e-07   1.005506947175086e-05
-5.751416025473748e-06   8.708663472644187e-07   6.909485075931284e-06
-5.751416025473748e-06   8.708663472644187e-07   6.909485075931284e-06
-5.751416025473748e-06   8.708663472644187e-07   6.909485075931284e-06
-5.751416025473748e-06   8.708663472644187e-07   6.909485075931284e-06
-7.174310924474301e-06   1.4116837223784005e-06   5.92763783657422e-06
-7.174310924474301e-06   1.4116837223784005e-06   5.92763783657422e-06
-7.174310924474301e-06   1.4116837223784005e-06   5.92763783657422e-06
-7.174310924474301e-06   1.4116837223784005e-06   5.92763783657422e-06
-4.697851943368078e-06   -4.192884818779636e-07   8.95648614919703e-06
-4.697851943368078e-06   -4.192884818779636e-07   8.95648614919703e-06
-4.697851943368078e-06   -4.192884818779636e-07   8.95648614919703e-06
-4.697851943368078e-06   -4.192884818779636e-07   8.95648614919703e-06
-5.1861689957229205e-06   8.719881083789176e-07   6.83452395405619e-06
-5.1861689957229205e-06   8.719881083789176e-07   6.83452395405619e-06
-5.1861689957229205e-06   8.719881083789176e-07   6.83452395405619e-06
-5.1861689957229205e-06   8.719881083789176e-07   6.83452395405619e-06
-7.051627121401843e-06   -5.585720317467357e-07   1.0801956914262625e-05
-7.051627121401843e-06   -5.585720317467357e-07   1.0801956914262625e-05
-7.051627121401843e-06   -5.585720317467357e-07   1.0801956914262625e-05
-7.051627121401843e-06   -5.585720317467357e-07   1.0801956914262625e-05
-5.76114187990156e-06   7.334130127320277e-07   7.875957151741127e-06
-5.76114187990156e-06   7.334130127320277e-07   7.875957151741127e-06
-5.76114187990156e-06   7.334130127320277e-07   7.875957151741127e-06
-5.76114187990156e-06   7.334130127320277e-07   7.875957151741127e-06
-6.860549968424756e-05   5.38548012354482e-06   2.919739531570664e-05
-6.860549968424756e-05   5.38548012354482e-06   2.919739531570664e-05
-6.860549968424756e-05   5.38548012354482e-06   2.919739531570664e-05
-6.860549968424756e-05   5.38548012354482e-06   2.919739531570664e-05
-1.6151684149304498e-05   -3.3276557978467885e-05   9.342319834607085e-05
-1.6151684149304498e-05   -3.3276557978467885e-05   9.342319834607085e-05
-1.6151684149304498e-05   -3.3276557978467885e-05   9.342319834607085e-05
-1.6151684149304498e-05   -3.3276557978467885e-05   9.342319834607085e-05
-1.8942036214432883e-05   2.1967453409297536e-06   1.6047697979561102e-05
-1.8942036214432883e-05   2.1967453409297536e-06   1.6047697979561102e-05
-1.8942036214432883e-05   2.1967453409297536e-06   1.6047697979561102e-05
-1.8942036214432883e-05   2.1967453409297536e-06   1.6047697979561102e-05
-6.257003711331278e-05   -2.5826765224342276e-05   0.00010557513915019067
-6.257003711331278e-05   -2.5826765224342276e-05   0.00010557513915019067
-6.257003711331278e-05   -2.5826765224342276e-05   0.00010557513915019067
-6.257003711331278e-05   -2.5826765224342276e-05   0.00010557513915019067
-4.172445384097433e-05   -1.2859507571122522e-05   6.305214577102808e-05
-4.172445384097433e-05   -1.2859507571122522e-05   6.305214577102808e-05
-4.172445384097433e-05   -1.2859507571122522e-05   6.305214577102808e-05
-4.172445384097433e-05   -1.2859507571122522e-05   6.305214577102808e-05
-6.257003711331267e-05   2.1967453409297536e-06   3.286180431872428e-05
-6.257003711331267e-05   2.1967453409297536e-06   3.286180431872428e-05
-6.257003711331267e-05   2.1967453409297536e-06   3.286180431872428e-05
-6.257003711331267e-05   2.1967453409297536e-06   3.286180431872428e-05
-1.8942036214432924e-05   -2.5826765224342276e-05   8.876103281102743e-05
-1.8942036214432924e-05   -2.5826765224342276e-05   8.876103281102743e-05
-1.8942036214432924e-05   -2.5826765224342276e-05   8.876103281102743e-05
-1.8942036214432924e-05   -2.5826765224342276e-05   8.876103281102743e-05
-1.9362397205161485e-05   1.5816826992355332e-06   1.7633097662304566e-05
-1.9362397205161485e-05   1.5816826992355332e-06   1.7633097662304566e-05
-1.9362397205161485e-05   1.5816826992355332e-06   1.7633097662304566e-05
-1.9362397205161485e-05   1.5816826992355332e-06   1.7633097662304566e-05
-5.903480867812498e-05   -2.2232051502013788e-05   9.804202397132653e-05
-5.903480867812498e-05   -2.2232051502013788e-05   9.804202397132653e-05
-5.903480867812498e-05   -2.2232051502013788e-05   9.804202397132653e-05
-5.903480867812498e-05   -2.2232051502013788e-05   9.804202397132653e-05
-4.0470237332980116e-05   -1.217909659986978e-05   6.106929878813206e-05
-4.0470237332980116e-05   -1.217909659986978e-05   6.106929878813206e-05
-4.0470237332980116e-05   -1.217909659986978e-05   6.106929878813206e-05
-4.0470237332980116e-05   -1.217909659986978e-05   6.106929878813206e-05
-5.9034808678124875e-05   1.5816826992355332e-06   3.192133818305412e-05
-5.9034808678124875e-05   1.5816826992355332e-06   3.192133818305412e-05
-5.9034808678124875e-05   1.5816826992355332e-06   3.192133818305412e-05
-5.9034808678124875e-05   1.5816826992355332e-06   3.192133818305412e-05
-1.936239720516151e-05   -2.2232051502013788e-05   8.375378345057692e-05
-1.936239720516151e-05   -2.2232051502013788e-05   8.375378345057692e-05
-1.936239720516151e-05   -2.2232051502013788e-05   8.375378345057692e-05
-1.936239720516151e-05   -2.2232051502013788e-05   8.375378345057692e-05
-2.119311759727091e-05   -1.030790156614247e-06   2.2088186469328635e-05
-2.119311759727091e-05   -1.030790156614247e-06   2.2088186469328635e-05
-2.119311759727091e-05   -1.030790156614247e-06   2.2088186469328635e-05
-2.119311759727091e-05   -1.030790156614247e-06   2.2088186469328635e-05
-5.450587763911655e-05   -1.7461496437404685e-05   8.74678769742122e-05
-5.450587763911655e-05   -1.7461496437404685e-05   8.74678769742122e-05
-5.450587763911655e-05   -1.7461496437404685e-05   8.74678769742122e-05
-5.450587763911655e-05   -1.7461496437404685e-05   8.74678769742122e-05
-3.8918118942523686e-05   -1.1240636254499994e-05   5.775576303681468e-05
-3.8918118942523686e-05   -1.1240636254499994e-05   5.775576303681468e-05
-3.8918118942523686e-05   -1.1240636254499994e-05   5.775576303681468e-05
-3.8918118942523686e-05   -1.1240636254499994e-05   5.775576303681468e-05
-1.615168414930447e-05   -6.032974915851986e-06   1.653302227213482e-05
-1.615168414930447e-05   -6.032974915851986e-06   1.653302227213482e-05
-1.615168414930447e-05   -6.032974915851986e-06   1.653302227213482e-05
-1.615168414930447e-05   -6.032974915851986e-06   1.653302227213482e-05
-5.633104574546131e-06   -1.024723559555647e-05   3.153543182224268e-05
-5.633104574546131e-06   -1.024723559555647e-05   3.153543182224268e-05
-5.633104574546131e-06   -1.024723559555647e-05   3.153543182224268e-05
-5.633104574546131e-06   -1.024723559555647e-05   3.153543182224268e-05
-6.2833985222563674e-06   -4.936286391738864e-06   1.480147231254275e-05
-6.2833985222563674e-06   -4.936286391738864e-06   1.480147231254275e-05
-6.2833985222563674e-06   -4.936286391738864e-06   1.480147231254275e-05
-6.2833985222563674e-06   -4.936286391738864e-06   1.480147231254275e-05
-1.8942036214432924e-05   -1.3614669846786117e-05   4.1106231872531845e-05
-1.8942036214432924e-05   -1.3614669846786117e-05   4.1106231872531845e-05
-1.8942036214432924e-05   -1.3614669846786117e-05   4.1106231872531845e-05
-1.8942036214432924e-05   -1.3614669846786117e-05   4.1106231872531845e-05
-1.1139840850902323e-05   -7.1434236336725574e-06   2.421982520544598e-05
-1.1139840850902323e-05   -7.1434236336725574e-06   2.421982520544598e-05
-1.1139840850902323e-05   -7.1434236336725574e-06   2.421982520544598e-05
-1.1139840850902323e-05   -7.1434236336725574e-06   2.421982520544598e-05
-1.894203621443287e-05   -4.936286391738864e-06   2.0008502385570877e-05
-1.894203621443287e-05   -4.936286391738864e-06   2.0008502385570877e-05
-1.894203621443287e-05   -4.936286391738864e-06   2.0008502385570877e-05
-1.894203621443287e-05   -4.936286391738864e-06   2.0008502385570877e-05
-6.2833985222563674e-06   -1.3614669846786117e-05   3.5899201799503516e-05
-6.2833985222563674e-06   -1.3614669846786117e-05   3.5899201799503516e-05
-6.2833985222563674e-06   -1.3614669846786117e-05   3.5899201799503516e-05
-6.2833985222563674e-06   -1.3614669846786117e-05   3.5899201799503516e-05
-6.839819951100446e-06   -5.049458376341954e-06   1.664163572087646e-05
-6.839819951100446e-06   -5.049458376341954e-06   1.664163572087646e-05
-6.839819951100446e-06   -5.049458376341954e-06   1.664163572087646e-05
-6.839819951100446e-06   -5.049458376341954e-06   1.664163572087646e-05
-1.936239720516151e-05   -1.2435751148497642e-05   4.194437347427156e-05
-1.936239720516151e-05   -1.2435751148497642e-05   4.194437347427156e-05
-1.936239720516151e-05   -1.2435751148497642e-05   4.194437347427156e-05
-1.936239720516151e-05   -1.2435751148497642e-05   4.194437347427156e-05
-1.2551095461753e-05   -8.742574107434693e-06   2.8376297677286467e-05
-1.2551095461753e-05   -8.742574107434693e-06   2.8376297677286467e-05
-1.2551095461753e-05   -8.742574107434693e-06   2.8376297677286467e-05
-1.2551095461753e-05   -8.742574107434693e-06   2.8376297677286467e-05
-1.9362397205161485e-05   -5.049458376341954e-06   2.1073411384169873e-05
-1.9362397205161485e-05   -5.049458376341954e-06   2.1073411384169873e-05
-1.9362397205161485e-05   -5.049458376341954e-06   2.1073411384169873e-05
-1.9362397205161485e-05   -5.049458376341954e-06   2.1073411384169873e-05
-6.839819951100446e-06   -1.2435751148497642e-05   3.751259781097813e-05
-6.839819951100446e-06   -1.2435751148497642e-05   3.751259781097813e-05
-6.839819951100446e-06   -1.2435751148497642e-05   3.751259781097813e-05
-6.839819951100446e-06   -1.2435751148497642e-05   3.751259781097813e-05
-7.743369323393479e-06   -5.098734137321502e-06   1.819660955620423e-05
-7.743369323393479e-06   -5.098734137321502e-06   1.819660955620423e-05
-7.743369323393479e-06   -5.098734137321502e-06   1.819660955620423e-05
-7.743369323393479e-06   -5.098734137321502e-06   1.819660955620423e-05
-2.1193117597270882e-05   -1.169385101248892e-05   4.4569926804433464e-05
-2.1193117597270882e-05   -1.169385101248892e-05   4.4569926804433464e-05
-2.1193117597270882e-05   -1.169385101248892e-05   4.4569926804433464e-05
-2.1193117597270882e-05   -1.169385101248892e-05   4.4569926804433464e-05
-1.3369485222070098e-05   -7.980870119601467e-06   2.9302750976699722e-05
-1.3369485222070098e-05   -7.980870119601467e-06   2.9302750976699722e-05
-1.3369485222070098e-05   -7.980870119601467e-06   2.9302750976699722e-05
-1.3369485222070098e-05   -7.980870119601467e-06   2.9302750976699722e-05
-5.633104574546131e-06   -4.712529634200624e-06   8.862757699332636e-06
-5.633104574546131e-06   -4.712529634200624e-06   8.862757699332636e-06
-5.633104574546131e-06   -4.712529634200624e-06   8.862757699332636e-06
-5.633104574546131e-06   -4.712529634200624e-06   8.862757699332636e-06
-3.138639826420872e-06   -2.824193918060285e-06   1.4153200375892404e-05
-3.138639826420872e-06   -2.824193918060285e-06   1.4153200375892404e-05
-3.138639826420872e-06   -2.824193918060285e-06   1.4153200375892404e-05
-3.138639826420872e-06   -2.824193918060285e-06   1.4153200375892404e-05
-3.0120467450695573e-06   -4.628237095933554e-06   1.0255890344898098e-05
-3.0120467450695573e-06   -4.628237095933554e-06   1.0255890344898098e-05
-3.0120467450695573e-06   -4.628237095933554e-06   1.0255890344898098e-05
-3.0120467450695573e-06   -4.628237095933554e-06   1.0255890344898098e-05
-6.2833985222563674e-06   -3.7094619618504137e-06   1.5156878226425992e-05
-6.2833985222563674e-06   -3.7094619618504137e-06   1.5156878226425992e-05
-6.2833985222563674e-06   -3.7094619618504137e-06   1.5156878226425992e-05
-6.2833985222563674e-06   -3.7094619618504137e-06   1.5156878226425992e-05
-4.231416839864323e-06   -3.7626584380503754e-06   1.1768826641492426e-05
-4.231416839864323e-06   -3.7626584380503754e-06   1.1768826641492426e-05
-4.231416839864323e-06   -3.7626584380503754e-06   1.1768826641492426e-05
-4.231416839864323e-06   -3.7626584380503754e-06   1.1768826641492426e-05
-6.28339852225634e-06   -4.628237095933554e-06   9.70462526444821e-06
-6.28339852225634e-06   -4.628237095933554e-06   9.70462526444821e-06
-6.28339852225634e-06   -4.628237095933554e-06   9.70462526444821e-06
-6.28339852225634e-06   -4.628237095933554e-06   9.70462526444821e-06
-3.0120467450695573e-06   -3.709461961850407e-06   1.5708143306875826e-05
-3.0120467450695573e-06   -3.709461961850407e-06   1.5708143306875826e-05
-3.0120467450695573e-06   -3.709461961850407e-06   1.5708143306875826e-05
-3.0120467450695573e-06   -3.709461961850407e-06   1.5708143306875826e-05
-3.0126524772125496e-06   -4.7702622621808004e-06   1.096261558283199e-05
-3.0126524772125496e-06   -4.7702622621808004e-06   1.096261558283199e-05
-3.0126524772125496e-06   -4.7702622621808004e-06   1.096261558283199e-05
-3.0126524772125496e-06   -4.7702622621808004e-06   1.096261558283199e-05
-6.839819951100446e-06   -4.779227143500341e-06   1.7346606968103226e-05
-6.839819951100446e-06   -4.779227143500341e-06   1.7346606968103226e-05
-6.839819951100446e-06   -4.779227143500341e-06   1.7346606968103226e-05
-6.839819951100446e-06   -4.779227143500341e-06   1.7346606968103226e-05
-4.481231127068358e-06   -4.1142421155876375e-06   1.3016634577968947e-05
-4.481231127068358e-06   -4.1142421155876375e-06   1.3016634577968947e-05
-4.481231127068358e-06   -4.1142421155876375e-06   1.3016634577968947e-05
-4.481231127068358e-06   -4.1142421155876375e-06   1.3016634577968947e-05
-6.8398199511004185e-06   -4.770262262180746e-06   1.0967994511623625e-05
-6.8398199511004185e-06   -4.770262262180746e-06   1.0967994511623625e-05
-6.8398199511004185e-06   -4.770262262180746e-06   1.0967994511623625e-05
-6.8398199511004185e-06   -4.770262262180746e-06   1.0967994511623625e-05
-3.0126524772125496e-06   -4.779227143500341e-06   1.734122803931159e-05
-3.0126524772125496e-06   -4.779227143500341e-06   1.734122803931159e-05
-3.0126524772125496e-06   -4.779227143500341e-06   1.734122803931159e-05
-3.0126524772125496e-06   -4.779227143500341e-06   1.734122803931159e-05
-3.0503804350741153e-06   -4.972614437468738e-06   1.2018386429235649e-05
-3.0503804350741153e-06   -4.972614437468738e-06   1.2018386429235649e-05
-3.0503804350741153e-06   -4.972614437468738e-06   1.2018386429235649e-05
-3.0503804350741153e-06   -4.972614437468738e-06   1.2018386429235649e-05
-7.743369323393506e-06   -5.796572729183107e-06   2.0334409551463054e-05
-7.743369323393506e-06   -5.796572729183107e-06   2.0334409551463054e-05
-7.743369323393506e-06   -5.796572729183107e-06   2.0334409551463054e-05
-7.743369323393506e-06   -5.796572729183107e-06   2.0334409551463054e-05
-4.76476423368603e-06   -4.497044972373842e-06   1.4590351081198382e-05
-4.76476423368603e-06   -4.497044972373842e-06   1.4590351081198382e-05
-4.76476423368603e-06   -4.497044972373842e-06   1.4590351081198382e-05
-4.76476423368603e-06   -4.497044972373842e-06   1.4590351081198382e-05
-3.138639826420872e-06   -1.9323654003083803e-06   2.4808609436921146e-06
-3.138639826420872e-06   -1.9323654003083803e-06   2.4808609436921146e-06
-3.138639826420872e-06   -1.9323654003083803e-06   2.4808609436921146e-06
-3.138639826420872e-06   -1.9323654003083803e-06   2.4808609436921146e-06
-2.3221545413459974e-06   5.301604186095315e-07   5.319185243501034e-06
-2.3221545413459974e-06   5.301604186095315e-07   5.319185243501034e-06
-2.3221545413459974e-06   5.301604186095315e-07   5.319185243501034e-06
-2.3221545413459974e-06   5.301604186095315e-07   5.319185243501034e-06
-1.875490893360227e-06   -2.2632768213136085e-06   4.189243628944313e-06
-1.875490893360227e-06   -2.2632768213136085e-06   4.189243628944313e-06
-1.875490893360227e-06   -2.2632768213136085e-06   4.189243628944313e-06
-1.875490893360227e-06   -2.2632768213136085e-06   4.189243628944313e-06
-3.0120467450695573e-06   2.162509444539638e-07   4.595786722332604e-06
-3.0120467450695573e-06   2.162509444539638e-07   4.595786722332604e-06
-3.0120467450695573e-06   2.162509444539638e-07   4.595786722332604e-06
-3.0120467450695573e-06   2.162509444539638e-07   4.595786722332604e-06
-2.4277460969738575e-06   -8.94500158980674e-07   4.288402970900216e-06
-2.4277460969738575e-06   -8.94500158980674e-07   4.288402970900216e-06
-2.4277460969738575e-06   -8.94500158980674e-07   4.288402970900216e-06
-2.4277460969738575e-06   -8.94500158980674e-07   4.288402970900216e-06
-3.0120467450695573e-06   -2.2632768213136085e-06   2.70152696948381e-06
-3.0120467450695573e-06   -2.2632768213136085e-06   2.70152696948381e-06
-3.0120467450695573e-06   -2.2632768213136085e-06   2.70152696948381e-06
-3.0120467450695573e-06   -2.2632768213136085e-06   2.70152696948381e-06
-1.875490893360227e-06   2.162509444539638e-07   6.083503381793106e-06
-1.875490893360227e-06   2.162509444539638e-07   6.083503381793106e-06
-1.875490893360227e-06   2.162509444539638e-07   6.083503381793106e-06
-1.875490893360227e-06   2.162509444539638e-07   6.083503381793106e-06
-1.6289246021281424e-06   -2.516258964848793e-06   4.601706026524156e-06
-1.6289246021281424e-06   -2.516258964848793e-06   4.601706026524156e-06
-1.6289246021281424e-06   -2.516258964848793e-06   4.601706026524156e-06
-1.6289246021281424e-06   -2.516258964848793e-06   4.601706026524156e-06
-3.0126524772125496e-06   -2.850716543416481e-07   5.569206765360449e-06
-3.0126524772125496e-06   -2.850716543416481e-07   5.569206765360449e-06
-3.0126524772125496e-06   -2.850716543416481e-07   5.569206765360449e-06
-3.0126524772125496e-06   -2.850716543416481e-07   5.569206765360449e-06
-2.1972688710920635e-06   -1.1485542413996249e-06   4.728323640727837e-06
-2.1972688710920635e-06   -1.1485542413996249e-06   4.728323640727837e-06
-2.1972688710920635e-06   -1.1485542413996249e-06   4.728323640727837e-06
-2.1972688710920635e-06   -1.1485542413996249e-06   4.728323640727837e-06
-3.0126524772125496e-06   -2.516258964848793e-06   3.2629936402198785e-06
-3.0126524772125496e-06   -2.516258964848793e-06   3.2629936402198785e-06
-3.0126524772125496e-06   -2.516258964848793e-06   3.2629936402198785e-06
-3.0126524772125496e-06   -2.516258964848793e-06   3.2629936402198785e-06
-1.6289246021280882e-06   -2.850716543416481e-07   6.907919151664726e-06
-1.6289246021280882e-06   -2.850716543416481e-07   6.907919151664726e-06
-1.6289246021280882e-06   -2.850716543416481e-07   6.907919151664726e-06
-1.6289246021280882e-06   -2.850716543416481e-07   6.907919151664726e-06
-1.250509276877834e-06   -2.8483645679214893e-06   5.047749146297399e-06
-1.250509276877834e-06   -2.8483645679214893e-06   5.047749146297399e-06
-1.250509276877834e-06   -2.8483645679214893e-06   5.047749146297399e-06
-1.250509276877834e-06   -2.8483645679214893e-06   5.047749146297399e-06
-3.0503804350741153e-06   -1.319351900866552e-06   7.130126809724825e-06
-3.0503804350741153e-06   -1.319351900866552e-06   7.130126809724825e-06
-3.0503804350741153e-06   -1.319351900866552e-06   7.130126809724825e-06
-3.0503804350741153e-06   -1.319351900866552e-06   7.130126809724825e-06
-2.0077717998116112e-06   -1.5389296147469813e-06   5.524192379282396e-06
-2.0077717998116112e-06   -1.5389296147469813e-06   5.524192379282396e-06
-2.0077717998116112e-06   -1.5389296147469813e-06   5.524192379282396e-06
-2.0077717998116112e-06   -1.5389296147469813e-06   5.524192379282396e-06
-2.3221545413459974e-06   -2.1845108421931093e-07   -3.9040838090057374e-06
-2.3221545413459974e-06   -2.1845108421931093e-07   -3.9040838090057374e-06
-2.3221545413459974e-06   -2.1845108421931093e-07   -3.9040838090057374e-06
-2.3221545413459974e-06   -2.1845108421931093e-07   -3.9040838090057374e-06
-4.228593426978348e-07   3.361578209384991e-07   -4.0582646816406803e-07
-4.228593426978348e-07   3.361578209384991e-07   -4.0582646816406803e-07
-4.228593426978348e-07   3.361578209384991e-07   -4.0582646816406803e-07
-4.228593426978348e-07   3.361578209384991e-07   -4.0582646816406803e-07
1.6088206273917258e-08   -3.036471652196346e-07   -3.069647319226725e-06
1.6088206273917258e-08   -3.036471652196346e-07   -3.069647319226725e-06
1.6088206273917258e-08   -3.036471652196346e-07   -3.069647319226725e-06
1.6088206273917258e-08   -3.036471652196346e-07   -3.069647319226725e-06
-1.875490893360227e-06   5.830082362855187e-07   -4.490087274065693e-07
-1.875490893360227e-06   5.830082362855187e-07   -4.490087274065693e-07
-1.875490893360227e-06   5.830082362855187e-07   -4.490087274065693e-07
-1.875490893360227e-06   5.830082362855187e-07   -4.490087274065693e-07
-1.0522410881269768e-06   1.543366184044142e-07   -1.5638887654001953e-06
-1.0522410881269768e-06   1.543366184044142e-07   -1.5638887654001953e-06
-1.0522410881269768e-06   1.543366184044142e-07   -1.5638887654001953e-06
-1.0522410881269768e-06   1.543366184044142e-07   -1.5638887654001953e-06
-1.875490893360227e-06   -3.036471652195804e-07   -3.601640560130107e-06
-1.875490893360227e-06   -3.036471652195804e-07   -3.601640560130107e-06
-1.875490893360227e-06   -3.036471652195804e-07   -3.601640560130107e-06
-1.875490893360227e-06   -3.036471652195804e-07   -3.601640560130107e-06
1.6088206273917258e-08   5.830082362855187e-07   8.298451349654165e-08
1.6088206273917258e-08   5.830082362855187e-07   8.298451349654165e-08
1.6088206273917258e-08   5.830082362855187e-07   8.298451349654165e-08
1.6088206273917258e-08   5.830082362855187e-07   8.298451349654165e-08
2.4755166017000497e-07   -4.192884818779636e-07   -2.75714880455997e-06
2.4755166017000497e-07   -4.192884818779636e-07   -2.75714880455997e-06
2.4755166017000497e-07   -4.192884818779636e-07   -2.75714880455997e-06
2.4755166017000497e-07   -4.192884818779636e-07   -2.75714880455997e-06
-1.6289246021280882e-06   5.029564013603801e-07   -1.830352973396037e-07
-1.6289246021280882e-06   5.029564013603801e-07   -1.830352973396037e-07
-1.6289246021280882e-06   5.029564013603801e-07   -1.830352973396037e-07
-1.6289246021280882e-06   5.029564013603801e-07   -1.830352973396037e-07
-7.271480856739943e-07   1.0110438686811835e-07   -1.4448849494006193e-06
-7.271480856739943e-07   1.0110438686811835e-07   -1.4448849494006193e-06
-7.271480856739943e-07   1.0110438686811835e-07   -1.4448849494006193e-06
-7.271480856739943e-07   1.0110438686811835e-07   -1.4448849494006193e-06
-1.6289246021280882e-06   -4.192884818779636e-07   -3.310495734503002e-06
-1.6289246021280882e-06   -4.192884818779636e-07   -3.310495734503002e-06
-1.6289246021280882e-06   -4.192884818779636e-07   -3.310495734503002e-06
-1.6289246021280882e-06   -4.192884818779636e-07   -3.310495734503002e-06
2.4755166017000497e-07   5.029564013603801e-07   3.703116326034825e-07
2.4755166017000497e-07   5.029564013603801e-07   3.703116326034825e-07
2.4755166017000497e-07   5.029564013603801e-07   3.703116326034825e-07
2.4755166017000497e-07   5.029564013603801e-07   3.703116326034825e-07
5.365898728009778e-07   -5.585720317467357e-07   -2.3002299727810545e-06
5.365898728009778e-07   -5.585720317467357e-07   -2.3002299727810545e-06
5.365898728009778e-07   -5.585720317467357e-07   -2.3002299727810545e-06
5.365898728009778e-07   -5.585720317467357e-07   -2.3002299727810545e-06
-1.250509276877834e-06   4.385291756662022e-07   8.000788556872989e-08
-1.250509276877834e-06   4.385291756662022e-07   8.000788556872989e-08
-1.250509276877834e-06   4.385291756662022e-07   8.000788556872989e-08
-1.250509276877834e-06   4.385291756662022e-07   8.000788556872989e-08
-4.3256971218007256e-07   3.740884327871688e-08   -1.0425525228287941e-06
-4.3256971218007256e-07   3.740884327871688e-08   -1.0425525228287941e-06
-4.3256971218007256e-07   3.740884327871688e-08   -1.0425525228287941e-06
-4.3256971218007256e-07   3.740884327871688e-08   -1.0425525228287941e-06
              </DataArray>   
             <DataArray type="Float64" NumberOfComponents="3" Name="Stress" format="ascii">   
-3.557910193523097   -0.8894775483807742   -0.8894775483807742
-3.557910193523097   -0.8894775483807742   -0.8894775483807742
-3.557910193523097   -0.8894775483807742   -0.8894775483807742
-3.557910193523097   -0.8894775483807742   -0.8894775483807742
-2.0589855200235645   -0.065117189382824   -0.04123599112376952
-2.0589855200235645   -0.065117189382824   -0.04123599112376952
-2.0589855200235645   -0.065117189382824   -0.04123599112376952
-2.0589855200235645   -0.065117189382824   -0.04123599112376952
-2.219468033456946   -0.5548670083642365   -0.5548670083642365
-2.219468033456946   -0.5548670083642365   -0.5548670083642365
-2.219468033456946   -0.5548670083642365   -0.5548670083642365
-2.219468033456946   -0.5548670083642365   -0.5548670083642365
-3.4291288897804453   -0.28151370334366815   -0.10763057411821009
-3.4291288897804453   -0.28151370334366815   -0.10763057411821009
-3.4291288897804453   -0.28151370334366815   -0.10763057411821009
-3.4291288897804453   -0.28151370334366815   -0.10763057411821009
-2.6894781597157866   -0.44086966581329995   -0.0074201220605580875
-2.6894781597157866   -0.44086966581329995   -0.0074201220605580875
-2.6894781597157866   -0.44086966581329995   -0.0074201220605580875
-2.6894781597157866   -0.44086966581329995   -0.0074201220605580875
-3.7236667047645278   -0.9309166761911319   -0.9309166761911319
-3.7236667047645278   -0.9309166761911319   -0.9309166761911319
-3.7236667047645278   -0.9309166761911319   -0.9309166761911319
-3.7236667047645278   -0.9309166761911319   -0.9309166761911319
-1.994771004402781   0.024695178553314587   -0.01094405001096238
-1.994771004402781   0.024695178553314587   -0.01094405001096238
-1.994771004402781   0.024695178553314587   -0.01094405001096238
-1.994771004402781   0.024695178553314587   -0.01094405001096238
-2.225854384806176   -0.556463596201544   -0.556463596201544
-2.225854384806176   -0.556463596201544   -0.556463596201544
-2.225854384806176   -0.556463596201544   -0.556463596201544
-2.225854384806176   -0.556463596201544   -0.556463596201544
-3.5445180534263847   -0.284253857752504   -0.15773247055211315
-3.5445180534263847   -0.284253857752504   -0.15773247055211315
-3.5445180534263847   -0.284253857752504   -0.15773247055211315
-3.5445180534263847   -0.284253857752504   -0.15773247055211315
-2.789925869550981   -0.4151314589017254   -0.1480754373191231
-2.789925869550981   -0.4151314589017254   -0.1480754373191231
-2.789925869550981   -0.4151314589017254   -0.1480754373191231
-2.789925869550981   -0.4151314589017254   -0.1480754373191231
-3.8401342086282977   -0.9600335521570744   -0.9600335521570744
-3.8401342086282977   -0.9600335521570744   -0.9600335521570744
-3.8401342086282977   -0.9600335521570744   -0.9600335521570744
-3.8401342086282977   -0.9600335521570744   -0.9600335521570744
-1.989091713046541   0.06046261476075042   0.010423551634315131
-1.989091713046541   0.06046261476075042   0.010423551634315131
-1.989091713046541   0.06046261476075042   0.010423551634315131
-1.989091713046541   0.06046261476075042   0.010423551634315131
-2.2248276572766597   -0.5562069143191649   -0.5562069143191649
-2.2248276572766597   -0.5562069143191649   -0.5562069143191649
-2.2248276572766597   -0.5562069143191649   -0.5562069143191649
-2.2248276572766597   -0.5562069143191649   -0.5562069143191649
-3.7506160482808215   -0.24941401184297274   -0.09456580270067838
-3.7506160482808215   -0.24941401184297274   -0.09456580270067838
-3.7506160482808215   -0.24941401184297274   -0.09456580270067838
-3.7506160482808215   -0.24941401184297274   -0.09456580270067838
-2.864503489416211   -0.4087102575725067   -0.2676429912224209
-2.864503489416211   -0.4087102575725067   -0.2676429912224209
-2.864503489416211   -0.4087102575725067   -0.2676429912224209
-2.864503489416211   -0.4087102575725067   -0.2676429912224209
-2.264127648802499   -0.5660319122006248   -0.5660319122006248
-2.264127648802499   -0.5660319122006248   -0.5660319122006248
-2.264127648802499   -0.5660319122006248   -0.5660319122006248
-2.264127648802499   -0.5660319122006248   -0.5660319122006248
-0.944489073193044   -0.06276838907296614   -0.020406294432417843
-0.944489073193044   -0.06276838907296614   -0.020406294432417843
-0.944489073193044   -0.06276838907296614   -0.020406294432417843
-0.944489073193044   -0.06276838907296614   -0.020406294432417843
-0.9916760384323199   -0.24791900960807997   -0.24791900960807997
-0.9916760384323199   -0.24791900960807997   -0.24791900960807997
-0.9916760384323199   -0.24791900960807997   -0.24791900960807997
-0.9916760384323199   -0.24791900960807997   -0.24791900960807997
-2.0614401400675084   -0.2424092271044096   -0.077185322676875
-2.0614401400675084   -0.2424092271044096   -0.077185322676875
-2.0614401400675084   -0.2424092271044096   -0.077185322676875
-2.0614401400675084   -0.2424092271044096   -0.077185322676875
-1.5203276196139492   -0.2879809312001593   0.011901129408748046
-1.5203276196139492   -0.2879809312001593   0.011901129408748046
-1.5203276196139492   -0.2879809312001593   0.011901129408748046
-1.5203276196139492   -0.2879809312001593   0.011901129408748046
-2.219468033456944   -0.554867008364236   -0.554867008364236
-2.219468033456944   -0.554867008364236   -0.554867008364236
-2.219468033456944   -0.554867008364236   -0.554867008364236
-2.219468033456944   -0.554867008364236   -0.554867008364236
-0.8912116797220981   0.006975236972530788   -0.0004914626375817077
-0.8912116797220981   0.006975236972530788   -0.0004914626375817077
-0.8912116797220981   0.006975236972530788   -0.0004914626375817077
-0.8912116797220981   0.006975236972530788   -0.0004914626375817077
-0.9696710496640253   -0.24241776241600632   -0.24241776241600632
-0.9696710496640253   -0.24241776241600632   -0.24241776241600632
-0.9696710496640253   -0.24241776241600632   -0.24241776241600632
-0.9696710496640253   -0.24241776241600632   -0.24241776241600632
-2.056379097487131   -0.19778837622447304   -0.06776237958338988
-2.056379097487131   -0.19778837622447304   -0.06776237958338988
-2.056379097487131   -0.19778837622447304   -0.06776237958338988
-2.056379097487131   -0.19778837622447304   -0.06776237958338988
-1.4992867236443554   -0.242468178016427   -0.07840250318317488
-1.4992867236443554   -0.242468178016427   -0.07840250318317488
-1.4992867236443554   -0.242468178016427   -0.07840250318317488
-1.4992867236443554   -0.242468178016427   -0.07840250318317488
-2.225854384806176   -0.556463596201544   -0.556463596201544
-2.225854384806176   -0.556463596201544   -0.556463596201544
-2.225854384806176   -0.556463596201544   -0.556463596201544
-2.225854384806176   -0.556463596201544   -0.556463596201544
-0.8559488209195705   0.060504398986475444   0.02327121990379233
-0.8559488209195705   0.060504398986475444   0.02327121990379233
-0.8559488209195705   0.060504398986475444   0.02327121990379233
-0.8559488209195705   0.060504398986475444   0.02327121990379233
-0.9496547731700816   -0.2374136932925204   -0.2374136932925204
-0.9496547731700816   -0.2374136932925204   -0.2374136932925204
-0.9496547731700816   -0.2374136932925204   -0.2374136932925204
-0.9496547731700816   -0.2374136932925204   -0.2374136932925204
-2.0414082987126467   -0.15265395613936267   -0.04266307967892863
-2.0414082987126467   -0.15265395613936267   -0.04266307967892863
-2.0414082987126467   -0.15265395613936267   -0.04266307967892863
-2.0414082987126467   -0.15265395613936267   -0.04266307967892863
-1.5068395660665115   -0.2146060694894999   -0.17469615539647967
-1.5068395660665115   -0.2146060694894999   -0.17469615539647967
-1.5068395660665115   -0.2146060694894999   -0.17469615539647967
-1.5068395660665115   -0.2146060694894999   -0.17469615539647967
-1.030949040546632   -0.257737260136658   -0.257737260136658
-1.030949040546632   -0.257737260136658   -0.257737260136658
-1.030949040546632   -0.257737260136658   -0.257737260136658
-1.030949040546632   -0.257737260136658   -0.257737260136658
0.12266950126499489   0.008080103716109165   0.000999872799462901
0.12266950126499489   0.008080103716109165   0.000999872799462901
0.12266950126499489   0.008080103716109165   0.000999872799462901
0.12266950126499489   0.008080103716109165   0.000999872799462901
0.1592906669398584   0.0398226667349646   0.0398226667349646
0.1592906669398584   0.0398226667349646   0.0398226667349646
0.1592906669398584   0.0398226667349646   0.0398226667349646
0.1592906669398584   0.0398226667349646   0.0398226667349646
-0.9322630632792497   -0.16113810734645273   -0.03763503610435592
-0.9322630632792497   -0.16113810734645273   -0.03763503610435592
-0.9322630632792497   -0.16113810734645273   -0.03763503610435592
-0.9322630632792497   -0.16113810734645273   -0.03763503610435592
-0.3989277411897702   -0.10120603368727087   0.06779866835365557
-0.3989277411897702   -0.10120603368727087   0.06779866835365557
-0.3989277411897702   -0.10120603368727087   0.06779866835365557
-0.3989277411897702   -0.10120603368727087   0.06779866835365557
-0.9916760384323217   -0.24791900960808042   -0.24791900960808042
-0.9916760384323217   -0.24791900960808042   -0.24791900960808042
-0.9916760384323217   -0.24791900960808042   -0.24791900960808042
-0.9916760384323217   -0.24791900960808042   -0.24791900960808042
0.16211201942084125   0.07001194632450423   0.02374014955033801
0.16211201942084125   0.07001194632450423   0.02374014955033801
0.16211201942084125   0.07001194632450423   0.02374014955033801
0.16211201942084125   0.07001194632450423   0.02374014955033801
0.17901255608879701   0.044753139022199254   0.044753139022199254
0.17901255608879701   0.044753139022199254   0.044753139022199254
0.17901255608879701   0.044753139022199254   0.044753139022199254
0.17901255608879701   0.044753139022199254   0.044753139022199254
-0.8994563919771575   -0.1085223199288184   -0.02523991646886345
-0.8994563919771575   -0.1085223199288184   -0.02523991646886345
-0.8994563919771575   -0.1085223199288184   -0.02523991646886345
-0.8994563919771575   -0.1085223199288184   -0.02523991646886345
-0.3828371000533323   -0.06257145625197912   -0.023121208741756313
-0.3828371000533323   -0.06257145625197912   -0.023121208741756313
-0.3828371000533323   -0.06257145625197912   -0.023121208741756313
-0.3828371000533323   -0.06257145625197912   -0.023121208741756313
-0.9696710496640267   -0.24241776241600668   -0.24241776241600668
-0.9696710496640267   -0.24241776241600668   -0.24241776241600668
-0.9696710496640267   -0.24241776241600668   -0.24241776241600668
-0.9696710496640267   -0.24241776241600668   -0.24241776241600668
0.19377433497677887   0.12319570271050266   0.04011946977380364
0.19377433497677887   0.12319570271050266   0.04011946977380364
0.19377433497677887   0.12319570271050266   0.04011946977380364
0.19377433497677887   0.12319570271050266   0.04011946977380364
0.20559063009232725   0.05139765752308181   0.05139765752308181
0.20559063009232725   0.05139765752308181   0.05139765752308181
0.20559063009232725   0.05139765752308181   0.05139765752308181
0.20559063009232725   0.05139765752308181   0.05139765752308181
-0.8637505237865322   -0.04576344933366808   0.00045730966637128057
-0.8637505237865322   -0.04576344933366808   0.00045730966637128057
-0.8637505237865322   -0.04576344933366808   0.00045730966637128057
-0.8637505237865322   -0.04576344933366808   0.00045730966637128057
-0.3715474229428551   -0.025326672308914472   -0.11322949836904042
-0.3715474229428551   -0.025326672308914472   -0.11322949836904042
-0.3715474229428551   -0.025326672308914472   -0.11322949836904042
-0.3715474229428551   -0.025326672308914472   -0.11322949836904042
0.13428167329097856   0.03357041832274464   0.03357041832274464
0.13428167329097856   0.03357041832274464   0.03357041832274464
0.13428167329097856   0.03357041832274464   0.03357041832274464
0.13428167329097856   0.03357041832274464   0.03357041832274464
1.2907386253584328   0.11841118535447355   0.03971946400530035
1.2907386253584328   0.11841118535447355   0.03971946400530035
1.2907386253584328   0.11841118535447355   0.03971946400530035
1.2907386253584328   0.11841118535447355   0.03971946400530035
1.401320575510458   0.3503301438776145   0.3503301438776145
1.401320575510458   0.3503301438776145   0.3503301438776145
1.401320575510458   0.3503301438776145   0.3503301438776145
1.401320575510458   0.3503301438776145   0.3503301438776145
0.12137017133131948   -0.09090094220189386   -0.01905620237087278
0.12137017133131948   -0.09090094220189386   -0.01905620237087278
0.12137017133131948   -0.09090094220189386   -0.01905620237087278
0.12137017133131948   -0.09090094220189386   -0.01905620237087278
0.7360992405108844   0.0916357292364718   0.13375541351471734
0.7360992405108844   0.0916357292364718   0.13375541351471734
0.7360992405108844   0.0916357292364718   0.13375541351471734
0.7360992405108844   0.0916357292364718   0.13375541351471734
0.159290666939859   0.03982266673496475   0.03982266673496475
0.159290666939859   0.03982266673496475   0.03982266673496475
0.159290666939859   0.03982266673496475   0.03982266673496475
0.159290666939859   0.03982266673496475   0.03982266673496475
1.3058797994362712   0.16208625447511021   0.06137015290919584
1.3058797994362712   0.16208625447511021   0.06137015290919584
1.3058797994362712   0.16208625447511021   0.06137015290919584
1.3058797994362712   0.16208625447511021   0.06137015290919584
1.3951629486059796   0.3487907371514949   0.3487907371514949
1.3951629486059796   0.3487907371514949   0.3487907371514949
1.3951629486059796   0.3487907371514949   0.3487907371514949
1.3951629486059796   0.3487907371514949   0.3487907371514949
0.15323402838506225   -0.039457102127131674   7.074165285483186e-05
0.15323402838506225   -0.039457102127131674   7.074165285483186e-05
0.15323402838506225   -0.039457102127131674   7.074165285483186e-05
0.15323402838506225   -0.039457102127131674   7.074165285483186e-05
0.7305080121900392   0.12020492400580551   0.03481450196625388
0.7305080121900392   0.12020492400580551   0.03481450196625388
0.7305080121900392   0.12020492400580551   0.03481450196625388
0.7305080121900392   0.12020492400580551   0.03481450196625388
0.17901255608879735   0.04475313902219934   0.04475313902219934
0.17901255608879735   0.04475313902219934   0.04475313902219934
0.17901255608879735   0.04475313902219934   0.04475313902219934
0.17901255608879735   0.04475313902219934   0.04475313902219934
1.312416044634165   0.20761211973408666   0.07623483470984166
1.312416044634165   0.20761211973408666   0.07623483470984166
1.312416044634165   0.20761211973408666   0.07623483470984166
1.312416044634165   0.20761211973408666   0.07623483470984166
1.4220331864115567   0.3555082966028892   0.3555082966028892
1.4220331864115567   0.3555082966028892   0.3555082966028892
1.4220331864115567   0.3555082966028892   0.3555082966028892
1.4220331864115567   0.3555082966028892   0.3555082966028892
0.19504644808677885   0.028616377637264063   0.02145802738115592
0.19504644808677885   0.028616377637264063   0.02145802738115592
0.19504644808677885   0.028616377637264063   0.02145802738115592
0.19504644808677885   0.028616377637264063   0.02145802738115592
0.7416914323028594   0.16303093081948533   -0.05692668993098518
0.7416914323028594   0.16303093081948533   -0.05692668993098518
0.7416914323028594   0.16303093081948533   -0.05692668993098518
0.7416914323028594   0.16303093081948533   -0.05692668993098518
1.3990138838738695   0.3497534709684674   0.3497534709684674
1.3990138838738695   0.3497534709684674   0.3497534709684674
1.3990138838738695   0.3497534709684674   0.3497534709684674
1.3990138838738695   0.3497534709684674   0.3497534709684674
2.9011114734094323   0.22109095813484933   0.07564147460037829
2.9011114734094323   0.22109095813484933   0.07564147460037829
2.9011114734094323   0.22109095813484933   0.07564147460037829
2.9011114734094323   0.22109095813484933   0.07564147460037829
2.9651825983533975   0.7412956495883494   0.7412956495883494
2.9651825983533975   0.7412956495883494   0.7412956495883494
2.9651825983533975   0.7412956495883494   0.7412956495883494
2.9651825983533975   0.7412956495883494   0.7412956495883494
1.2455894853073586   -0.07083546848704018   -0.007159694773217484
1.2455894853073586   -0.07083546848704018   -0.007159694773217484
1.2455894853073586   -0.07083546848704018   -0.007159694773217484
1.2455894853073586   -0.07083546848704018   -0.007159694773217484
2.069177167339419   0.292807070998822   0.23363668068692095
2.069177167339419   0.292807070998822   0.23363668068692095
2.069177167339419   0.292807070998822   0.23363668068692095
2.069177167339419   0.292807070998822   0.23363668068692095
1.401320575510457   0.35033014387761424   0.35033014387761424
1.401320575510457   0.35033014387761424   0.35033014387761424
1.401320575510457   0.35033014387761424   0.35033014387761424
1.401320575510457   0.35033014387761424   0.35033014387761424
2.747801678436335   0.25848020750972944   0.13720649208165792
2.747801678436335   0.25848020750972944   0.13720649208165792
2.747801678436335   0.25848020750972944   0.13720649208165792
2.747801678436335   0.25848020750972944   0.13720649208165792
2.876419223868686   0.7191048059671715   0.7191048059671715
2.876419223868686   0.7191048059671715   0.7191048059671715
2.876419223868686   0.7191048059671715   0.7191048059671715
2.876419223868686   0.7191048059671715   0.7191048059671715
1.2497989339871438   -0.03914610642960625   0.009907507638427626
1.2497989339871438   -0.03914610642960625   0.009907507638427626
1.2497989339871438   -0.03914610642960625   0.009907507638427626
1.2497989339871438   -0.03914610642960625   0.009907507638427626
2.0076334361696575   0.30121317123096153   0.11203946101425966
2.0076334361696575   0.30121317123096153   0.11203946101425966
2.0076334361696575   0.30121317123096153   0.11203946101425966
2.0076334361696575   0.30121317123096153   0.11203946101425966
1.3951629486059796   0.3487907371514949   0.3487907371514949
1.3951629486059796   0.3487907371514949   0.3487907371514949
1.3951629486059796   0.3487907371514949   0.3487907371514949
1.3951629486059796   0.3487907371514949   0.3487907371514949
2.6591728574429854   0.25928561057920774   0.09269216922665569
2.6591728574429854   0.25928561057920774   0.09269216922665569
2.6591728574429854   0.25928561057920774   0.09269216922665569
2.6591728574429854   0.25928561057920774   0.09269216922665569
2.7443845437436196   0.6860961359359049   0.6860961359359049
2.7443845437436196   0.6860961359359049   0.6860961359359049
2.7443845437436196   0.6860961359359049   0.6860961359359049
2.7443845437436196   0.6860961359359049   0.6860961359359049
1.2958909470216586   0.040748337513151656   0.03955705874315307
1.2958909470216586   0.040748337513151656   0.03955705874315307
1.2958909470216586   0.040748337513151656   0.03955705874315307
1.2958909470216586   0.040748337513151656   0.03955705874315307
1.9222316030843367   0.326539942280375   -0.02936378464527334
1.9222316030843367   0.326539942280375   -0.02936378464527334
1.9222316030843367   0.326539942280375   -0.02936378464527334
1.9222316030843367   0.326539942280375   -0.02936378464527334
-2.8133533081638387   -0.2014355127201635   0.031540180329810985
-2.8133533081638387   -0.2014355127201635   0.031540180329810985
-2.8133533081638387   -0.2014355127201635   0.031540180329810985
-2.8133533081638387   -0.2014355127201635   0.031540180329810985
-1.7906130129674127   -0.041184147448703426   -0.011534219958595826
-1.7906130129674127   -0.041184147448703426   -0.011534219958595826
-1.7906130129674127   -0.041184147448703426   -0.011534219958595826
-1.7906130129674127   -0.041184147448703426   -0.011534219958595826
-1.802854732821531   0.07278121219832981   0.037569846632867554
-1.802854732821531   0.07278121219832981   0.037569846632867554
-1.802854732821531   0.07278121219832981   0.037569846632867554
-1.802854732821531   0.07278121219832981   0.037569846632867554
-2.8552951320257502   -0.1947020464469411   -0.03375203788713277
-2.8552951320257502   -0.1947020464469411   -0.03375203788713277
-2.8552951320257502   -0.1947020464469411   -0.03375203788713277
-2.8552951320257502   -0.1947020464469411   -0.03375203788713277
-2.2243974714873813   -0.0759253082920314   -0.008750368281719934
-2.2243974714873813   -0.0759253082920314   -0.008750368281719934
-2.2243974714873813   -0.0759253082920314   -0.008750368281719934
-2.2243974714873813   -0.0759253082920314   -0.008750368281719934
-2.834599210976671   -0.13839712381417268   0.013422644725495037
-2.834599210976671   -0.13839712381417268   0.013422644725495037
-2.834599210976671   -0.13839712381417268   0.013422644725495037
-2.834599210976671   -0.13839712381417268   0.013422644725495037
-1.826552938482451   0.013474004953727345   -0.021613974427097504
-1.826552938482451   0.013474004953727345   -0.021613974427097504
-1.826552938482451   0.013474004953727345   -0.021613974427097504
-1.826552938482451   0.013474004953727345   -0.021613974427097504
-1.805086174418705   0.10373936272342921   0.04280175281987486
-1.805086174418705   0.10373936272342921   0.04280175281987486
-1.805086174418705   0.10373936272342921   0.04280175281987486
-1.805086174418705   0.10373936272342921   0.04280175281987486
-2.8727195480131074   -0.17152903095364075   -0.0445645918580263
-2.8727195480131074   -0.17152903095364075   -0.0445645918580263
-2.8727195480131074   -0.17152903095364075   -0.0445645918580263
-2.8727195480131074   -0.17152903095364075   -0.0445645918580263
-2.2869663019382864   -0.05086178009881569   -0.02165554103455941
-2.2869663019382864   -0.05086178009881569   -0.02165554103455941
-2.2869663019382864   -0.05086178009881569   -0.02165554103455941
-2.2869663019382864   -0.05086178009881569   -0.02165554103455941
-2.8212130103988335   -0.08313211832053014   0.12457118358020658
-2.8212130103988335   -0.08313211832053014   0.12457118358020658
-2.8212130103988335   -0.08313211832053014   0.12457118358020658
-2.8212130103988335   -0.08313211832053014   0.12457118358020658
-1.8351197779917248   0.03681538413157147   -0.04044228645335507
-1.8351197779917248   0.03681538413157147   -0.04044228645335507
-1.8351197779917248   0.03681538413157147   -0.04044228645335507
-1.8351197779917248   0.03681538413157147   -0.04044228645335507
-1.7723455414274418   0.18071802361357858   0.07782386772870026
-1.7723455414274418   0.18071802361357858   0.07782386772870026
-1.7723455414274418   0.18071802361357858   0.07782386772870026
-1.7723455414274418   0.18071802361357858   0.07782386772870026
-2.793501310199556   -0.13847438773399343   -0.07293563231792677
-2.793501310199556   -0.13847438773399343   -0.07293563231792677
-2.793501310199556   -0.13847438773399343   -0.07293563231792677
-2.793501310199556   -0.13847438773399343   -0.07293563231792677
-2.1996334571013354   0.020438771812646528   0.04872241958937418
-2.1996334571013354   0.020438771812646528   0.04872241958937418
-2.1996334571013354   0.020438771812646528   0.04872241958937418
-2.1996334571013354   0.020438771812646528   0.04872241958937418
-1.835133922981716   -0.24323390303331713   -0.032089014445498776
-1.835133922981716   -0.24323390303331713   -0.032089014445498776
-1.835133922981716   -0.24323390303331713   -0.032089014445498776
-1.835133922981716   -0.24323390303331713   -0.032089014445498776
-0.8452675121519759   -0.01870747319585435   0.008991639358985726
-0.8452675121519759   -0.01870747319585435   0.008991639358985726
-0.8452675121519759   -0.01870747319585435   0.008991639358985726
-0.8452675121519759   -0.01870747319585435   0.008991639358985726
-0.857728299174434   0.01632303463204115   0.012764145112305975
-0.857728299174434   0.01632303463204115   0.012764145112305975
-0.857728299174434   0.01632303463204115   0.012764145112305975
-0.857728299174434   0.01632303463204115   0.012764145112305975
-1.8715555906704542   -0.178056103669962   -0.05509712674345585
-1.8715555906704542   -0.178056103669962   -0.05509712674345585
-1.8715555906704542   -0.178056103669962   -0.05509712674345585
-1.8715555906704542   -0.178056103669962   -0.05509712674345585
-1.352377651940156   -0.10976382630126452   -0.030966867106068552
-1.352377651940156   -0.10976382630126452   -0.030966867106068552
-1.352377651940156   -0.10976382630126452   -0.030966867106068552
-1.352377651940156   -0.10976382630126452   -0.030966867106068552
-1.8698091104854675   -0.19460843545860396   -0.029812394029884337
-1.8698091104854675   -0.19460843545860396   -0.029812394029884337
-1.8698091104854675   -0.19460843545860396   -0.029812394029884337
-1.8698091104854675   -0.19460843545860396   -0.029812394029884337
-0.8561377848388906   0.03621236094121118   0.0008273904808465127
-0.8561377848388906   0.03621236094121118   0.0008273904808465127
-0.8561377848388906   0.03621236094121118   0.0008273904808465127
-0.8561377848388906   0.03621236094121118   0.0008273904808465127
-0.8545736723455455   0.0595972948012148   0.017360550403466013
-0.8545736723455455   0.0595972948012148   0.017360550403466013
-0.8545736723455455   0.0595972948012148   0.017360550403466013
-0.8545736723455455   0.0595972948012148   0.017360550403466013
-1.8724163618563723   -0.13052363462700423   -0.05958618701802881
-1.8724163618563723   -0.13052363462700423   -0.05958618701802881
-1.8724163618563723   -0.13052363462700423   -0.05958618701802881
-1.8724163618563723   -0.13052363462700423   -0.05958618701802881
-1.3498335554320247   -0.061103445901399045   -0.014719381587518898
-1.3498335554320247   -0.061103445901399045   -0.014719381587518898
-1.3498335554320247   -0.061103445901399045   -0.014719381587518898
-1.3498335554320247   -0.061103445901399045   -0.014719381587518898
-1.8651078610078775   -0.1472459304103806   -0.006321386992178768
-1.8651078610078775   -0.1472459304103806   -0.006321386992178768
-1.8651078610078775   -0.1472459304103806   -0.006321386992178768
-1.8651078610078775   -0.1472459304103806   -0.006321386992178768
-0.8556868093916977   0.08251495438693504   -0.01112279441300712
-0.8556868093916977   0.08251495438693504   -0.01112279441300712
-0.8556868093916977   0.08251495438693504   -0.01112279441300712
-0.8556868093916977   0.08251495438693504   -0.01112279441300712
-0.8403361094014734   0.10307466056320977   0.034907814522758596
-0.8403361094014734   0.10307466056320977   0.034907814522758596
-0.8403361094014734   0.10307466056320977   0.034907814522758596
-0.8403361094014734   0.10307466056320977   0.034907814522758596
-1.8524534513195543   -0.07560463347753245   -0.06639302464074137
-1.8524534513195543   -0.07560463347753245   -0.06639302464074137
-1.8524534513195543   -0.07560463347753245   -0.06639302464074137
-1.8524534513195543   -0.07560463347753245   -0.06639302464074137
-1.3442791528201525   -0.015057156137498556   0.006752411731855479
-1.3442791528201525   -0.015057156137498556   0.006752411731855479
-1.3442791528201525   -0.015057156137498556   0.006752411731855479
-1.3442791528201525   -0.015057156137498556   0.006752411731855479
-0.8913627651706673   -0.2024706199308185   -0.03772147899951317
-0.8913627651706673   -0.2024706199308185   -0.03772147899951317
-0.8913627651706673   -0.2024706199308185   -0.03772147899951317
-0.8913627651706673   -0.2024706199308185   -0.03772147899951317
0.09278054624185224   0.021093925044060147   0.03472513348752759
0.09278054624185224   0.021093925044060147   0.03472513348752759
0.09278054624185224   0.021093925044060147   0.03472513348752759
0.09278054624185224   0.021093925044060147   0.03472513348752759
0.0884984235818386   0.05109492140683126   0.002768620800975865
0.0884984235818386   0.05109492140683126   0.002768620800975865
0.0884984235818386   0.05109492140683126   0.002768620800975865
0.0884984235818386   0.05109492140683126   0.002768620800975865
-0.8951940850770134   -0.1341579743180878   -0.02408377545046847
-0.8951940850770134   -0.1341579743180878   -0.02408377545046847
-0.8951940850770134   -0.1341579743180878   -0.02408377545046847
-0.8951940850770134   -0.1341579743180878   -0.02408377545046847
-0.4051993653217777   -0.06710492667069981   -0.012801305280161573
-0.4051993653217777   -0.06710492667069981   -0.012801305280161573
-0.4051993653217777   -0.06710492667069981   -0.012801305280161573
-0.4051993653217777   -0.06710492667069981   -0.012801305280161573
-0.9013848894585024   -0.1543955164138603   -0.034800255262141006
-0.9013848894585024   -0.1543955164138603   -0.034800255262141006
-0.9013848894585024   -0.1543955164138603   -0.034800255262141006
-0.9013848894585024   -0.1543955164138603   -0.034800255262141006
0.09813430887458909   0.0747775444138664   0.027265424257692447
0.09813430887458909   0.0747775444138664   0.027265424257692447
0.09813430887458909   0.0747775444138664   0.027265424257692447
0.09813430887458909   0.0747775444138664   0.027265424257692447
0.09542893535517499   0.09873224742279291   0.01614759295686249
0.09542893535517499   0.09873224742279291   0.01614759295686249
0.09542893535517499   0.09873224742279291   0.01614759295686249
0.09542893535517499   0.09873224742279291   0.01614759295686249
-0.8923580277581638   -0.08192066797263999   -0.03004326388577877
-0.8923580277581638   -0.08192066797263999   -0.03004326388577877
-0.8923580277581638   -0.08192066797263999   -0.03004326388577877
-0.8923580277581638   -0.08192066797263999   -0.03004326388577877
-0.39891219522218385   -0.016475285059491054   0.00478320270226866
-0.39891219522218385   -0.016475285059491054   0.00478320270226866
-0.39891219522218385   -0.016475285059491054   0.00478320270226866
-0.39891219522218385   -0.016475285059491054   0.00478320270226866
-0.8947455331930898   -0.10609371390403538   -0.01780774512901409
-0.8947455331930898   -0.10609371390403538   -0.01780774512901409
-0.8947455331930898   -0.10609371390403538   -0.01780774512901409
-0.8947455331930898   -0.10609371390403538   -0.01780774512901409
0.10152280007769786   0.126611652641785   0.018737511350484716
0.10152280007769786   0.126611652641785   0.018737511350484716
0.10152280007769786   0.126611652641785   0.018737511350484716
0.10152280007769786   0.126611652641785   0.018737511350484716
0.0975949105677967   0.1517323588269837   0.026590916115303228
0.0975949105677967   0.1517323588269837   0.026590916115303228
0.0975949105677967   0.1517323588269837   0.026590916115303228
0.0975949105677967   0.1517323588269837   0.026590916115303228
-0.8807164822994836   -0.026073057943445693   -0.03784633146064087
-0.8807164822994836   -0.026073057943445693   -0.03784633146064087
-0.8807164822994836   -0.026073057943445693   -0.03784633146064087
-0.8807164822994836   -0.026073057943445693   -0.03784633146064087
-0.388963547944311   0.03647187042692722   0.024033809972801273
-0.388963547944311   0.03647187042692722   0.024033809972801273
-0.388963547944311   0.03647187042692722   0.024033809972801273
-0.388963547944311   0.03647187042692722   0.024033809972801273
0.04267679372975209   -0.14840417881508772   -0.04629552521382523
0.04267679372975209   -0.14840417881508772   -0.04629552521382523
0.04267679372975209   -0.14840417881508772   -0.04629552521382523
0.04267679372975209   -0.14840417881508772   -0.04629552521382523
1.0621976944139133   0.07334588561066814   0.06371178880032463
1.0621976944139133   0.07334588561066814   0.06371178880032463
1.0621976944139133   0.07334588561066814   0.06371178880032463
1.0621976944139133   0.07334588561066814   0.06371178880032463
1.0608850176130895   0.09877767563094005   -0.010177959488475274
1.0608850176130895   0.09877767563094005   -0.010177959488475274
1.0608850176130895   0.09877767563094005   -0.010177959488475274
1.0608850176130895   0.09877767563094005   -0.010177959488475274
0.06115707456938773   -0.08918738083222578   0.006344177977777893
0.06115707456938773   -0.08918738083222578   0.006344177977777893
0.06115707456938773   -0.08918738083222578   0.006344177977777893
0.06115707456938773   -0.08918738083222578   0.006344177977777893
0.5498719044911221   -0.012695465383076275   0.0011806450660157841
0.5498719044911221   -0.012695465383076275   0.0011806450660157841
0.5498719044911221   -0.012695465383076275   0.0011806450660157841
0.5498719044911221   -0.012695465383076275   0.0011806450660157841
0.049126244713442985   -0.10844829789844032   -0.034549054235730556
0.049126244713442985   -0.10844829789844032   -0.034549054235730556
0.049126244713442985   -0.10844829789844032   -0.034549054235730556
0.049126244713442985   -0.10844829789844032   -0.034549054235730556
1.0791046266240987   0.12422737185221908   0.05547038934529136
1.0791046266240987   0.12422737185221908   0.05547038934529136
1.0791046266240987   0.12422737185221908   0.05547038934529136
1.0791046266240987   0.12422737185221908   0.05547038934529136
1.0692385600727632   0.1458901944876379   0.010802693038999722
1.0692385600727632   0.1458901944876379   0.010802693038999722
1.0692385600727632   0.1458901944876379   0.010802693038999722
1.0692385600727632   0.1458901944876379   0.010802693038999722
0.06332154240291966   -0.042503738718505775   -0.0031533856631154843
0.06332154240291966   -0.042503738718505775   -0.0031533856631154843
0.06332154240291966   -0.042503738718505775   -0.0031533856631154843
0.06332154240291966   -0.042503738718505775   -0.0031533856631154843
0.5571933658008799   0.03233971914300507   0.02279177671229976
0.5571933658008799   0.03233971914300507   0.02279177671229976
0.5571933658008799   0.03233971914300507   0.02279177671229976
0.5571933658008799   0.03233971914300507   0.02279177671229976
0.0545609097829467   -0.06424827639535215   -0.025212011086133947
0.0545609097829467   -0.06424827639535215   -0.025212011086133947
0.0545609097829467   -0.06424827639535215   -0.025212011086133947
0.0545609097829467   -0.06424827639535215   -0.025212011086133947
1.0824771635251758   0.17211270299692513   0.050773201791775274
1.0824771635251758   0.17211270299692513   0.050773201791775274
1.0824771635251758   0.17211270299692513   0.050773201791775274
1.0824771635251758   0.17211270299692513   0.050773201791775274
1.0520581839585905   0.2002659240218515   0.022694023432279442
1.0520581839585905   0.2002659240218515   0.022694023432279442
1.0520581839585905   0.2002659240218515   0.022694023432279442
1.0520581839585905   0.2002659240218515   0.022694023432279442
0.06273859809491789   0.015319476793600942   -0.011277764215708093
0.06273859809491789   0.015319476793600942   -0.011277764215708093
0.06273859809491789   0.015319476793600942   -0.011277764215708093
0.06273859809491789   0.015319476793600942   -0.011277764215708093
0.5654152162775308   0.08382688165675554   0.042793926808771005
0.5654152162775308   0.08382688165675554   0.042793926808771005
0.5654152162775308   0.08382688165675554   0.042793926808771005
0.5654152162775308   0.08382688165675554   0.042793926808771005
0.978548474589574   -0.19565635124278175   -0.08553207346792252
0.978548474589574   -0.19565635124278175   -0.08553207346792252
0.978548474589574   -0.19565635124278175   -0.08553207346792252
0.978548474589574   -0.19565635124278175   -0.08553207346792252
2.0147037329386523   0.13307191909938607   0.06201598349066717
2.0147037329386523   0.13307191909938607   0.06201598349066717
2.0147037329386523   0.13307191909938607   0.06201598349066717
2.0147037329386523   0.13307191909938607   0.06201598349066717
2.037470024529162   0.0632412259910774   -0.12865676160443146
2.037470024529162   0.0632412259910774   -0.12865676160443146
2.037470024529162   0.0632412259910774   -0.12865676160443146
2.037470024529162   0.0632412259910774   -0.12865676160443146
1.0425350769003259   -0.040216729664029796   0.037066742242667566
1.0425350769003259   -0.040216729664029796   0.037066742242667566
1.0425350769003259   -0.040216729664029796   0.037066742242667566
1.0425350769003259   -0.040216729664029796   0.037066742242667566
1.4428416516319655   -0.02514649373839832   -0.036051799017492114
1.4428416516319655   -0.02514649373839832   -0.036051799017492114
1.4428416516319655   -0.02514649373839832   -0.036051799017492114
1.4428416516319655   -0.02514649373839832   -0.036051799017492114
1.0060877258531764   -0.12865102496221004   -0.05673571769488661
1.0060877258531764   -0.12865102496221004   -0.05673571769488661
1.0060877258531764   -0.12865102496221004   -0.05673571769488661
1.0060877258531764   -0.12865102496221004   -0.05673571769488661
2.092406716017282   0.1701648617302336   0.03910306009702863
2.092406716017282   0.1701648617302336   0.03910306009702863
2.092406716017282   0.1701648617302336   0.03910306009702863
2.092406716017282   0.1701648617302336   0.03910306009702863
2.059872533523231   0.11507503778056613   -0.02906037084679569
2.059872533523231   0.11507503778056613   -0.02906037084679569
2.059872533523231   0.11507503778056613   -0.02906037084679569
2.059872533523231   0.11507503778056613   -0.02906037084679569
1.0383271457531307   -0.01694466906014882   0.019080484988623803
1.0383271457531307   -0.01694466906014882   0.019080484988623803
1.0383271457531307   -0.01694466906014882   0.019080484988623803
1.0383271457531307   -0.01694466906014882   0.019080484988623803
1.5183168636312903   0.037922674154574953   0.024937889754725107
1.5183168636312903   0.037922674154574953   0.024937889754725107
1.5183168636312903   0.037922674154574953   0.024937889754725107
1.5183168636312903   0.037922674154574953   0.024937889754725107
1.0090949270420022   -0.09839455405979304   -0.04563072356736683
1.0090949270420022   -0.09839455405979304   -0.04563072356736683
1.0090949270420022   -0.09839455405979304   -0.04563072356736683
1.0090949270420022   -0.09839455405979304   -0.04563072356736683
2.086651188941728   0.19407135948758436   0.025836584538692253
2.086651188941728   0.19407135948758436   0.025836584538692253
2.086651188941728   0.19407135948758436   0.025836584538692253
2.086651188941728   0.19407135948758436   0.025836584538692253
2.056377766635206   0.17603072445529336   -0.04451782615968425
2.056377766635206   0.17603072445529336   -0.04451782615968425
2.056377766635206   0.17603072445529336   -0.04451782615968425
2.056377766635206   0.17603072445529336   -0.04451782615968425
1.0169255825155583   0.03671382937375702   0.010583110865218154
1.0169255825155583   0.03671382937375702   0.010583110865218154
1.0169255825155583   0.03671382937375702   0.010583110865218154
1.0169255825155583   0.03671382937375702   0.010583110865218154
1.4794592777375122   0.06644092196197766   0.01845360821072428
1.4794592777375122   0.06644092196197766   0.01845360821072428
1.4794592777375122   0.06644092196197766   0.01845360821072428
1.4794592777375122   0.06644092196197766   0.01845360821072428
-2.2122657860198873   -0.1004677186945748   0.1137006968645139
-2.2122657860198873   -0.1004677186945748   0.1137006968645139
-2.2122657860198873   -0.1004677186945748   0.1137006968645139
-2.2122657860198873   -0.1004677186945748   0.1137006968645139
-1.46891748813966   -0.05568824092876551   -0.0295854333814351
-1.46891748813966   -0.05568824092876551   -0.0295854333814351
-1.46891748813966   -0.05568824092876551   -0.0295854333814351
-1.46891748813966   -0.05568824092876551   -0.0295854333814351
-1.4160509687728797   0.118979372349031   0.09541089283985726
-1.4160509687728797   0.118979372349031   0.09541089283985726
-1.4160509687728797   0.118979372349031   0.09541089283985726
-1.4160509687728797   0.118979372349031   0.09541089283985726
-2.2224888907491915   -0.1586281945848081   -0.046369365499928594
-2.2224888907491915   -0.1586281945848081   -0.046369365499928594
-2.2224888907491915   -0.1586281945848081   -0.046369365499928594
-2.2224888907491915   -0.1586281945848081   -0.046369365499928594
-1.7556068433639953   -0.02714765786044901   -0.003155506047269996
-1.7556068433639953   -0.02714765786044901   -0.003155506047269996
-1.7556068433639953   -0.02714765786044901   -0.003155506047269996
-1.7556068433639953   -0.02714765786044901   -0.003155506047269996
-2.1607125009605603   -0.023548529070661073   0.12743291792907774
-2.1607125009605603   -0.023548529070661073   0.12743291792907774
-2.1607125009605603   -0.023548529070661073   0.12743291792907774
-2.1607125009605603   -0.023548529070661073   0.12743291792907774
-1.4680957312225285   -0.006368665826133921   -0.03946488123322067
-1.4680957312225285   -0.006368665826133921   -0.03946488123322067
-1.4680957312225285   -0.006368665826133921   -0.03946488123322067
-1.4680957312225285   -0.006368665826133921   -0.03946488123322067
-1.4102990131612212   0.1475587461641913   0.08845375887924051
-1.4102990131612212   0.1475587461641913   0.08845375887924051
-1.4102990131612212   0.1475587461641913   0.08845375887924051
-1.4102990131612212   0.1475587461641913   0.08845375887924051
-2.1881296577048692   -0.1327248071286788   -0.06350050845547256
-2.1881296577048692   -0.1327248071286788   -0.06350050845547256
-2.1881296577048692   -0.1327248071286788   -0.06350050845547256
-2.1881296577048692   -0.1327248071286788   -0.06350050845547256
-1.7593952067622152   0.006431404042209543   0.020319562863785112
-1.7593952067622152   0.006431404042209543   0.020319562863785112
-1.7593952067622152   0.006431404042209543   0.020319562863785112
-1.7593952067622152   0.006431404042209543   0.020319562863785112
-2.1305975205729957   0.0034128057675260892   0.08802256430768884
-2.1305975205729957   0.0034128057675260892   0.08802256430768884
-2.1305975205729957   0.0034128057675260892   0.08802256430768884
-2.1305975205729957   0.0034128057675260892   0.08802256430768884
-1.464623482638807   0.014628800922276072   -0.0502386432667602
-1.464623482638807   0.014628800922276072   -0.0502386432667602
-1.464623482638807   0.014628800922276072   -0.0502386432667602
-1.464623482638807   0.014628800922276072   -0.0502386432667602
-1.4116847721668906   0.16651288949290044   0.07018421578387718
-1.4116847721668906   0.16651288949290044   0.07018421578387718
-1.4116847721668906   0.16651288949290044   0.07018421578387718
-1.4116847721668906   0.16651288949290044   0.07018421578387718
-2.143513312406058   -0.10521706209959092   -0.08098809041675742
-2.143513312406058   -0.10521706209959092   -0.08098809041675742
-2.143513312406058   -0.10521706209959092   -0.08098809041675742
-2.143513312406058   -0.10521706209959092   -0.08098809041675742
-1.7088724443764853   0.03649360745868857   0.04221035780194948
-1.7088724443764853   0.03649360745868857   0.04221035780194948
-1.7088724443764853   0.03649360745868857   0.04221035780194948
-1.7088724443764853   0.03649360745868857   0.04221035780194948
-1.4733550276730858   -0.13967964880611614   0.03221827682878664
-1.4733550276730858   -0.13967964880611614   0.03221827682878664
-1.4733550276730858   -0.13967964880611614   0.03221827682878664
-1.4733550276730858   -0.13967964880611614   0.03221827682878664
-0.7437904682474187   -0.026827238982212488   0.0014385140292864917
-0.7437904682474187   -0.026827238982212488   0.0014385140292864917
-0.7437904682474187   -0.026827238982212488   0.0014385140292864917
-0.7437904682474187   -0.026827238982212488   0.0014385140292864917
-0.722734049434916   0.07309957836890671   0.05185974221534953
-0.722734049434916   0.07309957836890671   0.05185974221534953
-0.722734049434916   0.07309957836890671   0.05185974221534953
-0.722734049434916   0.07309957836890671   0.05185974221534953
-1.496793426910441   -0.13774921045756627   -0.05157281504135147
-1.496793426910441   -0.13774921045756627   -0.05157281504135147
-1.496793426910441   -0.13774921045756627   -0.05157281504135147
-1.496793426910441   -0.13774921045756627   -0.05157281504135147
-1.105219324581431   -0.05423430966374602   -0.022356304807432753
-1.105219324581431   -0.05423430966374602   -0.022356304807432753
-1.105219324581431   -0.05423430966374602   -0.022356304807432753
-1.105219324581431   -0.05423430966374602   -0.022356304807432753
-1.4687332875419878   -0.08023040285575816   0.031209074199097242
-1.4687332875419878   -0.08023040285575816   0.031209074199097242
-1.4687332875419878   -0.08023040285575816   0.031209074199097242
-1.4687332875419878   -0.08023040285575816   0.031209074199097242
-0.7451048001668594   0.02127015940360779   -0.008164592479062704
-0.7451048001668594   0.02127015940360779   -0.008164592479062704
-0.7451048001668594   0.02127015940360779   -0.008164592479062704
-0.7451048001668594   0.02127015940360779   -0.008164592479062704
-0.7204584242438999   0.12075973789730886   0.04487273799106417
-0.7204584242438999   0.12075973789730886   0.04487273799106417
-0.7204584242438999   0.12075973789730886   0.04487273799106417
-0.7204584242438999   0.12075973789730886   0.04487273799106417
-1.4883312595591194   -0.09325872767562222   -0.060889999270436534
-1.4883312595591194   -0.09325872767562222   -0.060889999270436534
-1.4883312595591194   -0.09325872767562222   -0.060889999270436534
-1.4883312595591194   -0.09325872767562222   -0.060889999270436534
-1.093168713161699   -0.006004728031974556   -5.936665141567654e-05
-1.093168713161699   -0.006004728031974556   -5.936665141567654e-05
-1.093168713161699   -0.006004728031974556   -5.936665141567654e-05
-1.093168713161699   -0.006004728031974556   -5.936665141567654e-05
-1.4596973858925222   -0.031882061461035685   0.02090270284796364
-1.4596973858925222   -0.031882061461035685   0.02090270284796364
-1.4596973858925222   -0.031882061461035685   0.02090270284796364
-1.4596973858925222   -0.031882061461035685   0.02090270284796364
-0.7444593537794431   0.06401601581377761   -0.018388187603113865
-0.7444593537794431   0.06401601581377761   -0.018388187603113865
-0.7444593537794431   0.06401601581377761   -0.018388187603113865
-0.7444593537794431   0.06401601581377761   -0.018388187603113865
-0.720257937252111   0.17083861676209275   0.03362771248994134
-0.720257937252111   0.17083861676209275   0.03362771248994134
-0.720257937252111   0.17083861676209275   0.03362771248994134
-0.720257937252111   0.17083861676209275   0.03362771248994134
-1.4811810230157534   -0.04525686453411683   -0.06552728443342809
-1.4811810230157534   -0.04525686453411683   -0.06552728443342809
-1.4811810230157534   -0.04525686453411683   -0.06552728443342809
-1.4811810230157534   -0.04525686453411683   -0.06552728443342809
-1.0938959888122268   0.03821628570693393   0.01697868040216055
-1.0938959888122268   0.03821628570693393   0.01697868040216055
-1.0938959888122268   0.03821628570693393   0.01697868040216055
-1.0938959888122268   0.03821628570693393   0.01697868040216055
-0.7715198520834978   -0.15959859178765107   -0.004437052345678372
-0.7715198520834978   -0.15959859178765107   -0.004437052345678372
-0.7715198520834978   -0.15959859178765107   -0.004437052345678372
-0.7715198520834978   -0.15959859178765107   -0.004437052345678372
-0.025398335207361823   0.007980906386936734   0.03294974969838659
-0.025398335207361823   0.007980906386936734   0.03294974969838659
-0.025398335207361823   0.007980906386936734   0.03294974969838659
-0.025398335207361823   0.007980906386936734   0.03294974969838659
-0.028232856652146428   0.04719975003850422   0.01574361790761706
-0.028232856652146428   0.04719975003850422   0.01574361790761706
-0.028232856652146428   0.04719975003850422   0.01574361790761706
-0.028232856652146428   0.04719975003850422   0.01574361790761706
-0.7720513440189927   -0.10231578250628923   -0.01931136982984366
-0.7720513440189927   -0.10231578250628923   -0.01931136982984366
-0.7720513440189927   -0.10231578250628923   -0.01931136982984366
-0.7720513440189927   -0.10231578250628923   -0.01931136982984366
-0.40052364730933615   -0.05000903027219966   -0.012505479340366582
-0.40052364730933615   -0.05000903027219966   -0.012505479340366582
-0.40052364730933615   -0.05000903027219966   -0.012505479340366582
-0.40052364730933615   -0.05000903027219966   -0.012505479340366582
-0.7712204392109101   -0.10670084642826237   -0.010771781867452118
-0.7712204392109101   -0.10670084642826237   -0.010771781867452118
-0.7712204392109101   -0.10670084642826237   -0.010771781867452118
-0.7712204392109101   -0.10670084642826237   -0.010771781867452118
-0.02482192531352951   0.05582665010717777   0.024171374532028108
-0.02482192531352951   0.05582665010717777   0.024171374532028108
-0.02482192531352951   0.05582665010717777   0.024171374532028108
-0.02482192531352951   0.05582665010717777   0.024171374532028108
-0.024727247423372446   0.09912673093181026   0.0075629503016889175
-0.024727247423372446   0.09912673093181026   0.0075629503016889175
-0.024727247423372446   0.09912673093181026   0.0075629503016889175
-0.024727247423372446   0.09912673093181026   0.0075629503016889175
-0.770122986766204   -0.05439006253624582   -0.02830027418690237
-0.770122986766204   -0.05439006253624582   -0.02830027418690237
-0.770122986766204   -0.05439006253624582   -0.02830027418690237
-0.770122986766204   -0.05439006253624582   -0.02830027418690237
-0.39664593627861705   -0.001990861820479844   0.0055090016201826825
-0.39664593627861705   -0.001990861820479844   0.0055090016201826825
-0.39664593627861705   -0.001990861820479844   0.0055090016201826825
-0.39664593627861705   -0.001990861820479844   0.0055090016201826825
-0.7689634752061684   -0.05550971705806712   -0.021383061864902075
-0.7689634752061684   -0.05550971705806712   -0.021383061864902075
-0.7689634752061684   -0.05550971705806712   -0.021383061864902075
-0.7689634752061684   -0.05550971705806712   -0.021383061864902075
-0.02238399613752533   0.10374914829951447   0.014656789363220271
-0.02238399613752533   0.10374914829951447   0.014656789363220271
-0.02238399613752533   0.10374914829951447   0.014656789363220271
-0.02238399613752533   0.10374914829951447   0.014656789363220271
-0.023992369529341435   0.15260777112797394   -0.0011662988736849782
-0.023992369529341435   0.15260777112797394   -0.0011662988736849782
-0.023992369529341435   0.15260777112797394   -0.0011662988736849782
-0.023992369529341435   0.15260777112797394   -0.0011662988736849782
-0.7697566881907544   -0.005647139827538207   -0.03738028561363932
-0.7697566881907544   -0.005647139827538207   -0.03738028561363932
-0.7697566881907544   -0.005647139827538207   -0.03738028561363932
-0.7697566881907544   -0.005647139827538207   -0.03738028561363932
-0.39363742142440405   0.04607277381452632   0.022028404840616148
-0.39363742142440405   0.04607277381452632   0.022028404840616148
-0.39363742142440405   0.04607277381452632   0.022028404840616148
-0.39363742142440405   0.04607277381452632   0.022028404840616148
-0.07617323263876126   -0.17471618647855536   -0.0382276445931182
-0.07617323263876126   -0.17471618647855536   -0.0382276445931182
-0.07617323263876126   -0.17471618647855536   -0.0382276445931182
-0.07617323263876126   -0.17471618647855536   -0.0382276445931182
0.6903227953651118   0.04873384837470157   0.06263785002109261
0.6903227953651118   0.04873384837470157   0.06263785002109261
0.6903227953651118   0.04873384837470157   0.06263785002109261
0.6903227953651118   0.04873384837470157   0.06263785002109261
0.6677488480202161   0.02592990285653607   -0.024661177029241227
0.6677488480202161   0.02592990285653607   -0.024661177029241227
0.6677488480202161   0.02592990285653607   -0.024661177029241227
0.6677488480202161   0.02592990285653607   -0.024661177029241227
-0.05093386986531404   -0.0640067996742707   0.013445101554553897
-0.05093386986531404   -0.0640067996742707   0.013445101554553897
-0.05093386986531404   -0.0640067996742707   0.013445101554553897
-0.05093386986531404   -0.0640067996742707   0.013445101554553897
0.3033862210480541   -0.04039219023209801   -0.007047951696148608
0.3033862210480541   -0.04039219023209801   -0.007047951696148608
0.3033862210480541   -0.04039219023209801   -0.007047951696148608
0.3033862210480541   -0.04039219023209801   -0.007047951696148608
-0.07591408297420553   -0.1274691672244457   -0.04799359643972851
-0.07591408297420553   -0.1274691672244457   -0.04799359643972851
-0.07591408297420553   -0.1274691672244457   -0.04799359643972851
-0.07591408297420553   -0.1274691672244457   -0.04799359643972851
0.6975532569511991   0.0942164662288019   0.05607430425340383
0.6975532569511991   0.0942164662288019   0.05607430425340383
0.6975532569511991   0.0942164662288019   0.05607430425340383
0.6975532569511991   0.0942164662288019   0.05607430425340383
0.6785104507940534   0.07423535005636803   -0.03464685017988792
0.6785104507940534   0.07423535005636803   -0.03464685017988792
0.6785104507940534   0.07423535005636803   -0.03464685017988792
0.6785104507940534   0.07423535005636803   -0.03464685017988792
-0.049507918288386826   -0.021068765839327357   0.0038550927477548555
-0.049507918288386826   -0.021068765839327357   0.0038550927477548555
-0.049507918288386826   -0.021068765839327357   0.0038550927477548555
-0.049507918288386826   -0.021068765839327357   0.0038550927477548555
0.30602134798104236   0.003039496046353547   0.010848963425902435
0.30602134798104236   0.003039496046353547   0.010848963425902435
0.30602134798104236   0.003039496046353547   0.010848963425902435
0.30602134798104236   0.003039496046353547   0.010848963425902435
-0.07380207887226835   -0.08086223420259568   -0.05782224180838467
-0.07380207887226835   -0.08086223420259568   -0.05782224180838467
-0.07380207887226835   -0.08086223420259568   -0.05782224180838467
-0.07380207887226835   -0.08086223420259568   -0.05782224180838467
0.7080616046644287   0.139285811706132   0.048058457522220654
0.7080616046644287   0.139285811706132   0.048058457522220654
0.7080616046644287   0.139285811706132   0.048058457522220654
0.7080616046644287   0.139285811706132   0.048058457522220654
0.6851316628481975   0.13482286958208062   -0.036153865026589294
0.6851316628481975   0.13482286958208062   -0.036153865026589294
0.6851316628481975   0.13482286958208062   -0.036153865026589294
0.6851316628481975   0.13482286958208062   -0.036153865026589294
-0.04959828112416539   0.029123176311816264   -0.005711262031646616
-0.04959828112416539   0.029123176311816264   -0.005711262031646616
-0.04959828112416539   0.029123176311816264   -0.005711262031646616
-0.04959828112416539   0.029123176311816264   -0.005711262031646616
0.31656107457010424   0.05148533514803052   0.03210866447973562
0.31656107457010424   0.05148533514803052   0.03210866447973562
0.31656107457010424   0.05148533514803052   0.03210866447973562
0.31656107457010424   0.05148533514803052   0.03210866447973562
0.6184791309313165   -0.17345460229570692   -0.07439202147746975
0.6184791309313165   -0.17345460229570692   -0.07439202147746975
0.6184791309313165   -0.17345460229570692   -0.07439202147746975
0.6184791309313165   -0.17345460229570692   -0.07439202147746975
1.3593987946101498   0.10099349300599517   0.06959994670399791
1.3593987946101498   0.10099349300599517   0.06959994670399791
1.3593987946101498   0.10099349300599517   0.06959994670399791
1.3593987946101498   0.10099349300599517   0.06959994670399791
1.3487909130882332   -0.006182399723790782   -0.0990174442440524
1.3487909130882332   -0.006182399723790782   -0.0990174442440524
1.3487909130882332   -0.006182399723790782   -0.0990174442440524
1.3487909130882332   -0.006182399723790782   -0.0990174442440524
0.673921255341221   -0.014566674924211733   0.046697437356531826
0.673921255341221   -0.014566674924211733   0.046697437356531826
0.673921255341221   -0.014566674924211733   0.046697437356531826
0.673921255341221   -0.014566674924211733   0.046697437356531826
0.951602117632945   -0.03378410942530199   -0.03118213023196223
0.951602117632945   -0.03378410942530199   -0.03118213023196223
0.951602117632945   -0.03378410942530199   -0.03118213023196223
0.951602117632945   -0.03378410942530199   -0.03118213023196223
0.6190686965490068   -0.15062480040714718   -0.09150723112160028
0.6190686965490068   -0.15062480040714718   -0.09150723112160028
0.6190686965490068   -0.15062480040714718   -0.09150723112160028
0.6190686965490068   -0.15062480040714718   -0.09150723112160028
1.4075856346995317   0.13381788857822816   0.054955875510420804
1.4075856346995317   0.13381788857822816   0.054955875510420804
1.4075856346995317   0.13381788857822816   0.054955875510420804
1.4075856346995317   0.13381788857822816   0.054955875510420804
1.3817665117489615   0.021370329709119146   -0.13278388716085943
1.3817665117489615   0.021370329709119146   -0.13278388716085943
1.3817665117489615   0.021370329709119146   -0.13278388716085943
1.3817665117489615   0.021370329709119146   -0.13278388716085943
0.6788383784589005   0.006450085742949325   0.03477805245777359
0.6788383784589005   0.006450085742949325   0.03477805245777359
0.6788383784589005   0.006450085742949325   0.03477805245777359
0.6788383784589005   0.006450085742949325   0.03477805245777359
0.994581967551646   -0.004007084072586341   -0.009534862103325131
0.994581967551646   -0.004007084072586341   -0.009534862103325131
0.994581967551646   -0.004007084072586341   -0.009534862103325131
0.994581967551646   -0.004007084072586341   -0.009534862103325131
0.6260555657094121   -0.1231268893133034   -0.09955903623342278
0.6260555657094121   -0.1231268893133034   -0.09955903623342278
0.6260555657094121   -0.1231268893133034   -0.09955903623342278
0.6260555657094121   -0.1231268893133034   -0.09955903623342278
1.4432555290168834   0.15965350928380595   0.036378019604073775
1.4432555290168834   0.15965350928380595   0.036378019604073775
1.4432555290168834   0.15965350928380595   0.036378019604073775
1.4432555290168834   0.15965350928380595   0.036378019604073775
1.4341324180384944   0.09306488124729806   -0.12486846529001283
1.4341324180384944   0.09306488124729806   -0.12486846529001283
1.4341324180384944   0.09306488124729806   -0.12486846529001283
1.4341324180384944   0.09306488124729806   -0.12486846529001283
0.6810580811507659   0.05291708799173316   0.025384008076608344
0.6810580811507659   0.05291708799173316   0.025384008076608344
0.6810580811507659   0.05291708799173316   0.025384008076608344
0.6810580811507659   0.05291708799173316   0.025384008076608344
1.0018475190090856   0.0300580631173461   0.014402445759330612
1.0018475190090856   0.0300580631173461   0.014402445759330612
1.0018475190090856   0.0300580631173461   0.014402445759330612
1.0018475190090856   0.0300580631173461   0.014402445759330612
-1.5821227805221372   -0.05179824337133869   0.10306984678817616
-1.5821227805221372   -0.05179824337133869   0.10306984678817616
-1.5821227805221372   -0.05179824337133869   0.10306984678817616
-1.5821227805221372   -0.05179824337133869   0.10306984678817616
-1.1065305364277012   -0.07380435580870556   -0.03895439561449984
-1.1065305364277012   -0.07380435580870556   -0.03895439561449984
-1.1065305364277012   -0.07380435580870556   -0.03895439561449984
-1.1065305364277012   -0.07380435580870556   -0.03895439561449984
-1.0415761028898243   0.10440868172698758   0.08790222819968269
-1.0415761028898243   0.10440868172698758   0.08790222819968269
-1.0415761028898243   0.10440868172698758   0.08790222819968269
-1.0415761028898243   0.10440868172698758   0.08790222819968269
-1.5822509050313325   -0.13021441885294552   -0.05697550535233592
-1.5822509050313325   -0.13021441885294552   -0.05697550535233592
-1.5822509050313325   -0.13021441885294552   -0.05697550535233592
-1.5822509050313325   -0.13021441885294552   -0.05697550535233592
-1.2736865304598342   -0.020324377553534417   -0.002719086656394365
-1.2736865304598342   -0.020324377553534417   -0.002719086656394365
-1.2736865304598342   -0.020324377553534417   -0.002719086656394365
-1.2736865304598342   -0.020324377553534417   -0.002719086656394365
-1.523177177662459   0.010119803050284523   0.09805890958880209
-1.523177177662459   0.010119803050284523   0.09805890958880209
-1.523177177662459   0.010119803050284523   0.09805890958880209
-1.523177177662459   0.010119803050284523   0.09805890958880209
-1.0958457173065765   -0.03112142722411975   -0.04791573493296317
-1.0958457173065765   -0.03112142722411975   -0.04791573493296317
-1.0958457173065765   -0.03112142722411975   -0.04791573493296317
-1.0958457173065765   -0.03112142722411975   -0.04791573493296317
-1.031770841724804   0.12610606637993638   0.07429504310753832
-1.031770841724804   0.12610606637993638   0.07429504310753832
-1.031770841724804   0.12610606637993638   0.07429504310753832
-1.031770841724804   0.12610606637993638   0.07429504310753832
-1.544860809093047   -0.10603111753408834   -0.07204033484943473
-1.544860809093047   -0.10603111753408834   -0.07204033484943473
-1.544860809093047   -0.10603111753408834   -0.07204033484943473
-1.544860809093047   -0.10603111753408834   -0.07204033484943473
-1.2648255971386353   0.008299628938514686   0.01342530462007685
-1.2648255971386353   0.008299628938514686   0.01342530462007685
-1.2648255971386353   0.008299628938514686   0.01342530462007685
-1.2648255971386353   0.008299628938514686   0.01342530462007685
-1.4862852399660023   0.03608788063377444   0.07871851261792684
-1.4862852399660023   0.03608788063377444   0.07871851261792684
-1.4862852399660023   0.03608788063377444   0.07871851261792684
-1.4862852399660023   0.03608788063377444   0.07871851261792684
-1.0860013636135215   -0.011667884549602305   -0.05908361540649956
-1.0860013636135215   -0.011667884549602305   -0.05908361540649956
-1.0860013636135215   -0.011667884549602305   -0.05908361540649956
-1.0860013636135215   -0.011667884549602305   -0.05908361540649956
-1.026339665948888   0.14720183047140445   0.06393272598104927
-1.026339665948888   0.14720183047140445   0.06393272598104927
-1.026339665948888   0.14720183047140445   0.06393272598104927
-1.026339665948888   0.14720183047140445   0.06393272598104927
-1.494765101843498   -0.07407343845087311   -0.08626122880414905
-1.494765101843498   -0.07407343845087311   -0.08626122880414905
-1.494765101843498   -0.07407343845087311   -0.08626122880414905
-1.494765101843498   -0.07407343845087311   -0.08626122880414905
-1.2173932521540445   0.035104369143428044   0.036093806686973984
-1.2173932521540445   0.035104369143428044   0.036093806686973984
-1.2173932521540445   0.035104369143428044   0.036093806686973984
-1.2173932521540445   0.035104369143428044   0.036093806686973984
-1.0941489667440463   -0.08946401840698665   0.03861311540204343
-1.0941489667440463   -0.08946401840698665   0.03861311540204343
-1.0941489667440463   -0.08946401840698665   0.03861311540204343
-1.0941489667440463   -0.08946401840698665   0.03861311540204343
-0.6340677211957415   -0.04782669000904483   -0.006285489021863072
-0.6340677211957415   -0.04782669000904483   -0.006285489021863072
-0.6340677211957415   -0.04782669000904483   -0.006285489021863072
-0.6340677211957415   -0.04782669000904483   -0.006285489021863072
-0.6018599417006509   0.061031315645498484   0.047396330264182246
-0.6018599417006509   0.061031315645498484   0.047396330264182246
-0.6018599417006509   0.061031315645498484   0.047396330264182246
-0.6018599417006509   0.061031315645498484   0.047396330264182246
-1.110584605841101   -0.10643938874522962   -0.04629221608448461
-1.110584605841101   -0.10643938874522962   -0.04629221608448461
-1.110584605841101   -0.10643938874522962   -0.04629221608448461
-1.110584605841101   -0.10643938874522962   -0.04629221608448461
-0.8566933309231226   -0.04180106121123901   -0.01745330507300613
-0.8566933309231226   -0.04180106121123901   -0.01745330507300613
-0.8566933309231226   -0.04180106121123901   -0.01745330507300613
-0.8566933309231226   -0.04180106121123901   -0.01745330507300613
-1.081333639830924   -0.03803170415763245   0.0315549293788005
-1.081333639830924   -0.03803170415763245   0.0315549293788005
-1.081333639830924   -0.03803170415763245   0.0315549293788005
-1.081333639830924   -0.03803170415763245   0.0315549293788005
-0.6273595386291748   -0.003624999860446041   -0.015445338872493011
-0.6273595386291748   -0.003624999860446041   -0.015445338872493011
-0.6273595386291748   -0.003624999860446041   -0.015445338872493011
-0.6273595386291748   -0.003624999860446041   -0.015445338872493011
-0.5942033722736759   0.1055178977909628   0.03886524077704501
-0.5942033722736759   0.1055178977909628   0.03886524077704501
-0.5942033722736759   0.1055178977909628   0.03886524077704501
-0.5942033722736759   0.1055178977909628   0.03886524077704501
-1.0956477952589425   -0.0644431609205047   -0.054540497262713344
-1.0956477952589425   -0.0644431609205047   -0.054540497262713344
-1.0956477952589425   -0.0644431609205047   -0.054540497262713344
-1.0956477952589425   -0.0644431609205047   -0.054540497262713344
-0.840245650817727   0.0019412102925629934   0.0013371495958077462
-0.840245650817727   0.0019412102925629934   0.0013371495958077462
-0.840245650817727   0.0019412102925629934   0.0013371495958077462
-0.840245650817727   0.0019412102925629934   0.0013371495958077462
-1.064182899256211   0.009514257170945298   0.028826564659492793
-1.064182899256211   0.009514257170945298   0.028826564659492793
-1.064182899256211   0.009514257170945298   0.028826564659492793
-1.064182899256211   0.009514257170945298   0.028826564659492793
-0.6210096620087865   0.0362190859671334   -0.025867396074678722
-0.6210096620087865   0.0362190859671334   -0.025867396074678722
-0.6210096620087865   0.0362190859671334   -0.025867396074678722
-0.6210096620087865   0.0362190859671334   -0.025867396074678722
-0.586806190310953   0.15290771591572372   0.030920785110974125
-0.586806190310953   0.15290771591572372   0.030920785110974125
-0.586806190310953   0.15290771591572372   0.030920785110974125
-0.586806190310953   0.15290771591572372   0.030920785110974125
-1.0844628082402172   -0.019199022985231178   -0.06028213201896526
-1.0844628082402172   -0.019199022985231178   -0.06028213201896526
-1.0844628082402172   -0.019199022985231178   -0.06028213201896526
-1.0844628082402172   -0.019199022985231178   -0.06028213201896526
-0.8338800678298791   0.043084716117645624   0.019224458640111297
-0.8338800678298791   0.043084716117645624   0.019224458640111297
-0.8338800678298791   0.043084716117645624   0.019224458640111297
-0.8338800678298791   0.043084716117645624   0.019224458640111297
-0.6474856840539721   -0.12272242665539476   0.0015204333333393438
-0.6474856840539721   -0.12272242665539476   0.0015204333333393438
-0.6474856840539721   -0.12272242665539476   0.0015204333333393438
-0.6474856840539721   -0.12272242665539476   0.0015204333333393438
-0.1665181860924645   -0.01423355636044846   0.026407867166990354
-0.1665181860924645   -0.01423355636044846   0.026407867166990354
-0.1665181860924645   -0.01423355636044846   0.026407867166990354
-0.1665181860924645   -0.01423355636044846   0.026407867166990354
-0.16241332127674374   0.025275219009951957   0.009005615009113253
-0.16241332127674374   0.025275219009951957   0.009005615009113253
-0.16241332127674374   0.025275219009951957   0.009005615009113253
-0.16241332127674374   0.025275219009951957   0.009005615009113253
-0.6403816819831786   -0.0718317602711799   -0.012349295231777496
-0.6403816819831786   -0.0718317602711799   -0.012349295231777496
-0.6403816819831786   -0.0718317602711799   -0.012349295231777496
-0.6403816819831786   -0.0718317602711799   -0.012349295231777496
-0.4048869760045493   -0.04392052394754186   -0.012399645406280538
-0.4048869760045493   -0.04392052394754186   -0.012399645406280538
-0.4048869760045493   -0.04392052394754186   -0.012399645406280538
-0.4048869760045493   -0.04392052394754186   -0.012399645406280538
-0.6393396632203575   -0.07308780393196901   -0.005883157756877699
-0.6393396632203575   -0.07308780393196901   -0.005883157756877699
-0.6393396632203575   -0.07308780393196901   -0.005883157756877699
-0.6393396632203575   -0.07308780393196901   -0.005883157756877699
-0.15969459393130886   0.030292008778997834   0.017582461967241607
-0.15969459393130886   0.030292008778997834   0.017582461967241607
-0.15969459393130886   0.030292008778997834   0.017582461967241607
-0.15969459393130886   0.030292008778997834   0.017582461967241607
-0.15316876173176094   0.07513351328480473   0.0023633798839072136
-0.15316876173176094   0.07513351328480473   0.0023633798839072136
-0.15316876173176094   0.07513351328480473   0.0023633798839072136
-0.15316876173176094   0.07513351328480473   0.0023633798839072136
-0.6327179393325447   -0.02699806473771618   -0.021191631988620244
-0.6327179393325447   -0.02699806473771618   -0.021191631988620244
-0.6327179393325447   -0.02699806473771618   -0.021191631988620244
-0.6327179393325447   -0.02699806473771618   -0.021191631988620244
-0.39501358804962977   0.000891087448692679   0.005306697458813084
-0.39501358804962977   0.000891087448692679   0.005306697458813084
-0.39501358804962977   0.000891087448692679   0.005306697458813084
-0.39501358804962977   0.000891087448692679   0.005306697458813084
-0.6303680361957543   -0.023389211494376762   -0.013050969548006996
-0.6303680361957543   -0.023389211494376762   -0.013050969548006996
-0.6303680361957543   -0.023389211494376762   -0.013050969548006996
-0.6303680361957543   -0.023389211494376762   -0.013050969548006996
-0.15204644371173134   0.07499688119828547   0.00811160207057457
-0.15204644371173134   0.07499688119828547   0.00811160207057457
-0.15204644371173134   0.07499688119828547   0.00811160207057457
-0.15204644371173134   0.07499688119828547   0.00811160207057457
-0.1448780000055378   0.12571488199809996   -0.0054488646706651305
-0.1448780000055378   0.12571488199809996   -0.0054488646706651305
-0.1448780000055378   0.12571488199809996   -0.0054488646706651305
-0.1448780000055378   0.12571488199809996   -0.0054488646706651305
-0.625987661184543   0.018356633135005615   -0.030435486476255547
-0.625987661184543   0.018356633135005615   -0.030435486476255547
-0.625987661184543   0.018356633135005615   -0.030435486476255547
-0.625987661184543   0.018356633135005615   -0.030435486476255547
-0.38599859707924394   0.04591738820815988   0.022364953887060335
-0.38599859707924394   0.04591738820815988   0.022364953887060335
-0.38599859707924394   0.04591738820815988   0.022364953887060335
-0.38599859707924394   0.04591738820815988   0.022364953887060335
-0.20589923284865524   -0.14998692655596085   -0.03474399641845237
-0.20589923284865524   -0.14998692655596085   -0.03474399641845237
-0.20589923284865524   -0.14998692655596085   -0.03474399641845237
-0.20589923284865524   -0.14998692655596085   -0.03474399641845237
0.29493002538363616   0.02344479573572396   0.05727130820814619
0.29493002538363616   0.02344479573572396   0.05727130820814619
0.29493002538363616   0.02344479573572396   0.05727130820814619
0.29493002538363616   0.02344479573572396   0.05727130820814619
0.27447118035082535   -0.00799026924301521   -0.031877296505308045
0.27447118035082535   -0.00799026924301521   -0.031877296505308045
0.27447118035082535   -0.00799026924301521   -0.031877296505308045
0.27447118035082535   -0.00799026924301521   -0.031877296505308045
-0.17200228717871255   -0.03485146142717564   0.02118746593639531
-0.17200228717871255   -0.03485146142717564   0.02118746593639531
-0.17200228717871255   -0.03485146142717564   0.02118746593639531
-0.17200228717871255   -0.03485146142717564   0.02118746593639531
0.04600764254259348   -0.04117221727810521   -0.008822616682784959
0.04600764254259348   -0.04117221727810521   -0.008822616682784959
0.04600764254259348   -0.04117221727810521   -0.008822616682784959
0.04600764254259348   -0.04117221727810521   -0.008822616682784959
-0.19878238021140202   -0.10481534515437027   -0.04274911549985601
-0.19878238021140202   -0.10481534515437027   -0.04274911549985601
-0.19878238021140202   -0.10481534515437027   -0.04274911549985601
-0.19878238021140202   -0.10481534515437027   -0.04274911549985601
0.30572728952788825   0.06644963062855247   0.049963349508435125
0.30572728952788825   0.06644963062855247   0.049963349508435125
0.30572728952788825   0.06644963062855247   0.049963349508435125
0.30572728952788825   0.06644963062855247   0.049963349508435125
0.29166302512610986   0.03917187210681887   -0.036112660936010635
0.29166302512610986   0.03917187210681887   -0.036112660936010635
0.29166302512610986   0.03917187210681887   -0.036112660936010635
0.29166302512610986   0.03917187210681887   -0.036112660936010635
-0.16533032585006602   0.005243465624578782   0.011445606952606366
-0.16533032585006602   0.005243465624578782   0.011445606952606366
-0.16533032585006602   0.005243465624578782   0.011445606952606366
-0.16533032585006602   0.005243465624578782   0.011445606952606366
0.05514692715936254   -0.000549663715808959   0.009186580012899384
0.05514692715936254   -0.000549663715808959   0.009186580012899384
0.05514692715936254   -0.000549663715808959   0.009186580012899384
0.05514692715936254   -0.000549663715808959   0.009186580012899384
-0.1911741675728864   -0.060565884544301105   -0.05196425149261429
-0.1911741675728864   -0.060565884544301105   -0.05196425149261429
-0.1911741675728864   -0.060565884544301105   -0.05196425149261429
-0.1911741675728864   -0.060565884544301105   -0.05196425149261429
0.32138834991314646   0.10886270533991455   0.04282312976607278
0.32138834991314646   0.10886270533991455   0.04282312976607278
0.32138834991314646   0.10886270533991455   0.04282312976607278
0.32138834991314646   0.10886270533991455   0.04282312976607278
0.3055035168545178   0.09294137899758817   -0.04172204658147027
0.3055035168545178   0.09294137899758817   -0.04172204658147027
0.3055035168545178   0.09294137899758817   -0.04172204658147027
0.3055035168545178   0.09294137899758817   -0.04172204658147027
-0.1581988067826115   0.05148352518777081   0.0021784582542956066
-0.1581988067826115   0.05148352518777081   0.0021784582542956066
-0.1581988067826115   0.05148352518777081   0.0021784582542956066
-0.1581988067826115   0.05148352518777081   0.0021784582542956066
0.0692829176250637   0.04366189718307824   0.027842759801405232
0.0692829176250637   0.04366189718307824   0.027842759801405232
0.0692829176250637   0.04366189718307824   0.027842759801405232
0.0692829176250637   0.04366189718307824   0.027842759801405232
0.23476874566548409   -0.1515588042109294   -0.06853149043595913
0.23476874566548409   -0.1515588042109294   -0.06853149043595913
0.23476874566548409   -0.1515588042109294   -0.06853149043595913
0.23476874566548409   -0.1515588042109294   -0.06853149043595913
0.7053801767379072   0.06949106728263871   0.0741126087259098
0.7053801767379072   0.06949106728263871   0.0741126087259098
0.7053801767379072   0.06949106728263871   0.0741126087259098
0.7053801767379072   0.06949106728263871   0.0741126087259098
0.6983864596097178   -0.03705558887632943   -0.09021233667255343
0.6983864596097178   -0.03705558887632943   -0.09021233667255343
0.6983864596097178   -0.03705558887632943   -0.09021233667255343
0.6983864596097178   -0.03705558887632943   -0.09021233667255343
0.296003249717684   0.012496489298466064   0.05529629178750417
0.296003249717684   0.012496489298466064   0.05529629178750417
0.296003249717684   0.012496489298466064   0.05529629178750417
0.296003249717684   0.012496489298466064   0.05529629178750417
0.458430616773115   -0.03128853867898287   -0.024164304756057742
0.458430616773115   -0.03128853867898287   -0.024164304756057742
0.458430616773115   -0.03128853867898287   -0.024164304756057742
0.458430616773115   -0.03128853867898287   -0.024164304756057742
0.24133575559877768   -0.1262768335380989   -0.07926785597046063
0.24133575559877768   -0.1262768335380989   -0.07926785597046063
0.24133575559877768   -0.1262768335380989   -0.07926785597046063
0.24133575559877768   -0.1262768335380989   -0.07926785597046063
0.7576175962746842   0.10628137650630216   0.06260638126965389
0.7576175962746842   0.10628137650630216   0.06260638126965389
0.7576175962746842   0.10628137650630216   0.06260638126965389
0.7576175962746842   0.10628137650630216   0.06260638126965389
0.7363862446327198   -0.010630695372457255   -0.10817371929307865
0.7363862446327198   -0.010630695372457255   -0.10817371929307865
0.7363862446327198   -0.010630695372457255   -0.10817371929307865
0.7363862446327198   -0.010630695372457255   -0.10817371929307865
0.3060428762216528   0.03185160493920145   0.04310686170931783
0.3060428762216528   0.03185160493920145   0.04310686170931783
0.3060428762216528   0.03185160493920145   0.04310686170931783
0.3060428762216528   0.03185160493920145   0.04310686170931783
0.49685617939893467   -0.004653691618055258   -0.002937666235799677
0.49685617939893467   -0.004653691618055258   -0.002937666235799677
0.49685617939893467   -0.004653691618055258   -0.002937666235799677
0.49685617939893467   -0.004653691618055258   -0.002937666235799677
0.25181125149319883   -0.1042924012837459   -0.09190725571000088
0.25181125149319883   -0.1042924012837459   -0.09190725571000088
0.25181125149319883   -0.1042924012837459   -0.09190725571000088
0.25181125149319883   -0.1042924012837459   -0.09190725571000088
0.7953715169998337   0.13026695848915126   0.04585498868088614
0.7953715169998337   0.13026695848915126   0.04585498868088614
0.7953715169998337   0.13026695848915126   0.04585498868088614
0.7953715169998337   0.13026695848915126   0.04585498868088614
0.7947126257207313   0.047415565320854905   -0.11577814984774837
0.7947126257207313   0.047415565320854905   -0.11577814984774837
0.7947126257207313   0.047415565320854905   -0.11577814984774837
0.7947126257207313   0.047415565320854905   -0.11577814984774837
0.31631857474980113   0.07104832352259302   0.034246298369939414
0.31631857474980113   0.07104832352259302   0.034246298369939414
0.31631857474980113   0.07104832352259302   0.034246298369939414
0.31631857474980113   0.07104832352259302   0.034246298369939414
0.5159565667581407   0.024719109548815878   0.015313537219006704
0.5159565667581407   0.024719109548815878   0.015313537219006704
0.5159565667581407   0.024719109548815878   0.015313537219006704
0.5159565667581407   0.024719109548815878   0.015313537219006704
-0.9491963121713403   -0.016053096287996838   0.09246767773265224
-0.9491963121713403   -0.016053096287996838   0.09246767773265224
-0.9491963121713403   -0.016053096287996838   0.09246767773265224
-0.9491963121713403   -0.016053096287996838   0.09246767773265224
-0.7397831633555614   -0.0937963668316667   -0.04579457064264367
-0.7397831633555614   -0.0937963668316667   -0.04579457064264367
-0.7397831633555614   -0.0937963668316667   -0.04579457064264367
-0.7397831633555614   -0.0937963668316667   -0.04579457064264367
-0.6696590766725065   0.07951583478014246   0.0790839344543087
-0.6696590766725065   0.07951583478014246   0.0790839344543087
-0.6696590766725065   0.07951583478014246   0.0790839344543087
-0.6696590766725065   0.07951583478014246   0.0790839344543087
-0.945157023307059   -0.10293475109209996   -0.06231277116667472
-0.945157023307059   -0.10293475109209996   -0.06231277116667472
-0.945157023307059   -0.10293475109209996   -0.06231277116667472
-0.945157023307059   -0.10293475109209996   -0.06231277116667472
-0.7943090324023943   -0.02189315437498749   -0.011596437931906428
-0.7943090324023943   -0.02189315437498749   -0.011596437931906428
-0.7943090324023943   -0.02189315437498749   -0.011596437931906428
-0.7943090324023943   -0.02189315437498749   -0.011596437931906428
-0.8868503227004008   0.037931662365504326   0.08835431840901226
-0.8868503227004008   0.037931662365504326   0.08835431840901226
-0.8868503227004008   0.037931662365504326   0.08835431840901226
-0.8868503227004008   0.037931662365504326   0.08835431840901226
-0.7239203336629509   -0.05730513506124221   -0.055401380656524724
-0.7239203336629509   -0.05730513506124221   -0.055401380656524724
-0.7239203336629509   -0.05730513506124221   -0.055401380656524724
-0.7239203336629509   -0.05730513506124221   -0.055401380656524724
-0.6530125489704206   0.10012670655847498   0.06690052549078618
-0.6530125489704206   0.10012670655847498   0.06690052549078618
-0.6530125489704206   0.10012670655847498   0.06690052549078618
-0.6530125489704206   0.10012670655847498   0.06690052549078618
-0.9018086776470042   -0.0795803277376301   -0.07787133638579508
-0.9018086776470042   -0.0795803277376301   -0.07787133638579508
-0.9018086776470042   -0.0795803277376301   -0.07787133638579508
-0.9018086776470042   -0.0795803277376301   -0.07787133638579508
-0.7716495279189365   0.005092636806934059   0.005614419710352869
-0.7716495279189365   0.005092636806934059   0.005614419710352869
-0.7716495279189365   0.005092636806934059   0.005614419710352869
-0.7716495279189365   0.005092636806934059   0.005614419710352869
-0.8434493857722624   0.06294016095833728   0.07140463429193938
-0.8434493857722624   0.06294016095833728   0.07140463429193938
-0.8434493857722624   0.06294016095833728   0.07140463429193938
-0.8434493857722624   0.06294016095833728   0.07140463429193938
-0.707540451702014   -0.038562392994343844   -0.06704988861435408
-0.707540451702014   -0.038562392994343844   -0.06704988861435408
-0.707540451702014   -0.038562392994343844   -0.06704988861435408
-0.707540451702014   -0.038562392994343844   -0.06704988861435408
-0.6395189228041096   0.1257680552613552   0.057700060717573526
-0.6395189228041096   0.1257680552613552   0.057700060717573526
-0.6395189228041096   0.1257680552613552   0.057700060717573526
-0.6395189228041096   0.1257680552613552   0.057700060717573526
-0.8435666310501517   -0.042196418146015116   -0.09012483957522406
-0.8435666310501517   -0.042196418146015116   -0.09012483957522406
-0.8435666310501517   -0.042196418146015116   -0.09012483957522406
-0.8435666310501517   -0.042196418146015116   -0.09012483957522406
-0.7258904860550672   0.03168496013703971   0.026981193206815607
-0.7258904860550672   0.03168496013703971   0.026981193206815607
-0.7258904860550672   0.03168496013703971   0.026981193206815607
-0.7258904860550672   0.03168496013703971   0.026981193206815607
-0.7139176023820943   -0.053826829136114855   0.04356369652913966
-0.7139176023820943   -0.053826829136114855   0.04356369652913966
-0.7139176023820943   -0.053826829136114855   0.04356369652913966
-0.7139176023820943   -0.053826829136114855   0.04356369652913966
-0.5235836505079292   -0.07112270649194014   -0.013561893397374764
-0.5235836505079292   -0.07112270649194014   -0.013561893397374764
-0.5235836505079292   -0.07112270649194014   -0.013561893397374764
-0.5235836505079292   -0.07112270649194014   -0.013561893397374764
-0.48445868320794816   0.036129760743534044   0.04042760872621137
-0.48445868320794816   0.036129760743534044   0.04042760872621137
-0.48445868320794816   0.036129760743534044   0.04042760872621137
-0.48445868320794816   0.036129760743534044   0.04042760872621137
-0.7244124701196951   -0.07600503281029225   -0.0391621651911955
-0.7244124701196951   -0.07600503281029225   -0.0391621651911955
-0.7244124701196951   -0.07600503281029225   -0.0391621651911955
-0.7244124701196951   -0.07600503281029225   -0.0391621651911955
-0.6098905531854146   -0.03796715297342445   -0.016394417877584833
-0.6098905531854146   -0.03796715297342445   -0.016394417877584833
-0.6098905531854146   -0.03796715297342445   -0.016394417877584833
-0.6098905531854146   -0.03796715297342445   -0.016394417877584833
-0.6953062367957004   -0.006710398329630732   0.03707436694810906
-0.6953062367957004   -0.006710398329630732   0.03707436694810906
-0.6953062367957004   -0.006710398329630732   0.03707436694810906
-0.6953062367957004   -0.006710398329630732   0.03707436694810906
-0.5103019090346824   -0.029901866239862494   -0.02275689342405933
-0.5103019090346824   -0.029901866239862494   -0.02275689342405933
-0.5103019090346824   -0.029901866239862494   -0.02275689342405933
-0.5103019090346824   -0.029901866239862494   -0.02275689342405933
-0.47010062632927324   0.07804235523946589   0.032339914607470474
-0.47010062632927324   0.07804235523946589   0.032339914607470474
-0.47010062632927324   0.07804235523946589   0.032339914607470474
-0.47010062632927324   0.07804235523946589   0.032339914607470474
-0.7029324085771266   -0.035691081130955586   -0.04688098485330175
-0.7029324085771266   -0.035691081130955586   -0.04688098485330175
-0.7029324085771266   -0.035691081130955586   -0.04688098485330175
-0.7029324085771266   -0.035691081130955586   -0.04688098485330175
-0.5891457281780754   0.0024629355466049274   0.0017139783229543903
-0.5891457281780754   0.0024629355466049274   0.0017139783229543903
-0.5891457281780754   0.0024629355466049274   0.0017139783229543903
-0.5891457281780754   0.0024629355466049274   0.0017139783229543903
-0.6721186804753169   0.03789173032809926   0.03360484419668089
-0.6721186804753169   0.03789173032809926   0.03360484419668089
-0.6721186804753169   0.03789173032809926   0.03360484419668089
-0.6721186804753169   0.03789173032809926   0.03360484419668089
-0.49714726814107774   0.008226630070414454   -0.03307756928250043
-0.49714726814107774   0.008226630070414454   -0.03307756928250043
-0.49714726814107774   0.008226630070414454   -0.03307756928250043
-0.49714726814107774   0.008226630070414454   -0.03307756928250043
-0.4557889613616796   0.12351953975680478   0.02463683481267695
-0.4557889613616796   0.12351953975680478   0.02463683481267695
-0.4557889613616796   0.12351953975680478   0.02463683481267695
-0.4557889613616796   0.12351953975680478   0.02463683481267695
-0.6851881785268841   0.008323993954606552   -0.05320215658953879
-0.6851881785268841   0.008323993954606552   -0.05320215658953879
-0.6851881785268841   0.008323993954606552   -0.05320215658953879
-0.6851881785268841   0.008323993954606552   -0.05320215658953879
-0.5741384114441954   0.042077485730624614   0.019419107028539342
-0.5741384114441954   0.042077485730624614   0.019419107028539342
-0.5741384114441954   0.042077485730624614   0.019419107028539342
-0.5741384114441954   0.042077485730624614   0.019419107028539342
-0.5229736170768099   -0.08927758544788453   0.007643152714155332
-0.5229736170768099   -0.08927758544788453   0.007643152714155332
-0.5229736170768099   -0.08927758544788453   0.007643152714155332
-0.5229736170768099   -0.08927758544788453   0.007643152714155332
-0.31034341522101816   -0.03744543853198838   0.01922967683535047
-0.31034341522101816   -0.03744543853198838   0.01922967683535047
-0.31034341522101816   -0.03744543853198838   0.01922967683535047
-0.31034341522101816   -0.03744543853198838   0.01922967683535047
-0.2996420327566332   -0.0007166766231938466   0.0024864737816075316
-0.2996420327566332   -0.0007166766231938466   0.0024864737816075316
-0.2996420327566332   -0.0007166766231938466   0.0024864737816075316
-0.2996420327566332   -0.0007166766231938466   0.0024864737816075316
-0.50882786865972   -0.040751968383139894   -0.0045365894059736095
-0.50882786865972   -0.040751968383139894   -0.0045365894059736095
-0.50882786865972   -0.040751968383139894   -0.0045365894059736095
-0.50882786865972   -0.040751968383139894   -0.0045365894059736095
-0.41109847233000885   -0.04008312939102027   -0.011934012635046759
-0.41109847233000885   -0.04008312939102027   -0.011934012635046759
-0.41109847233000885   -0.04008312939102027   -0.011934012635046759
-0.41109847233000885   -0.04008312939102027   -0.011934012635046759
-0.508226284558428   -0.04282245766367207   0.0005418203810111655
-0.508226284558428   -0.04282245766367207   0.0005418203810111655
-0.508226284558428   -0.04282245766367207   0.0005418203810111655
-0.508226284558428   -0.04282245766367207   0.0005418203810111655
-0.29699906780374846   0.0045983617115135   0.010386260211321816
-0.29699906780374846   0.0045983617115135   0.010386260211321816
-0.29699906780374846   0.0045983617115135   0.010386260211321816
-0.29699906780374846   0.0045983617115135   0.010386260211321816
-0.2840510039507011   0.046150212893634704   -0.0041171792137094584
-0.2840510039507011   0.046150212893634704   -0.0041171792137094584
-0.2840510039507011   0.046150212893634704   -0.0041171792137094584
-0.2840510039507011   0.046150212893634704   -0.0041171792137094584
-0.4944441986710186   0.0018911552013020326   -0.013226747063093652
-0.4944441986710186   0.0018911552013020326   -0.013226747063093652
-0.4944441986710186   0.0018911552013020326   -0.013226747063093652
-0.4944441986710186   0.0018911552013020326   -0.013226747063093652
-0.39465546227766796   0.0020605912650397337   0.005623521804146991
-0.39465546227766796   0.0020605912650397337   0.005623521804146991
-0.39465546227766796   0.0020605912650397337   0.005623521804146991
-0.39465546227766796   0.0020605912650397337   0.005623521804146991
-0.49273159792623955   0.003902510261412518   -0.006675098399312726
-0.49273159792623955   0.003902510261412518   -0.006675098399312726
-0.49273159792623955   0.003902510261412518   -0.006675098399312726
-0.49273159792623955   0.003902510261412518   -0.006675098399312726
-0.28282965337368215   0.04707280915532626   0.0010669774096910417
-0.28282965337368215   0.04707280915532626   0.0010669774096910417
-0.28282965337368215   0.04707280915532626   0.0010669774096910417
-0.28282965337368215   0.04707280915532626   0.0010669774096910417
-0.26932553294617273   0.09344524757785062   -0.011654542500400687
-0.26932553294617273   0.09344524757785062   -0.011654542500400687
-0.26932553294617273   0.09344524757785062   -0.011654542500400687
-0.26932553294617273   0.09344524757785062   -0.011654542500400687
-0.48094963404336655   0.044863649698408434   -0.022510638537359393
-0.48094963404336655   0.044863649698408434   -0.022510638537359393
-0.48094963404336655   0.044863649698408434   -0.022510638537359393
-0.48094963404336655   0.044863649698408434   -0.022510638537359393
-0.37909937727524484   0.04435543052556469   0.02247481903596693
-0.37909937727524484   0.04435543052556469   0.02247481903596693
-0.37909937727524484   0.04435543052556469   0.02247481903596693
-0.37909937727524484   0.04435543052556469   0.02247481903596693
-0.33645508523661627   -0.12003442532073541   -0.028739686453898156
-0.33645508523661627   -0.12003442532073541   -0.028739686453898156
-0.33645508523661627   -0.12003442532073541   -0.028739686453898156
-0.33645508523661627   -0.12003442532073541   -0.028739686453898156
-0.1029880279020228   -0.001685833072937893   0.05042718262059899
-0.1029880279020228   -0.001685833072937893   0.05042718262059899
-0.1029880279020228   -0.001685833072937893   0.05042718262059899
-0.1029880279020228   -0.001685833072937893   0.05042718262059899
-0.1172253161367762   -0.035524275265295474   -0.036953574296140185
-0.1172253161367762   -0.035524275265295474   -0.036953574296140185
-0.1172253161367762   -0.035524275265295474   -0.036953574296140185
-0.1172253161367762   -0.035524275265295474   -0.036953574296140185
-0.29514503324311464   -0.004586371842770436   0.028841166568774765
-0.29514503324311464   -0.004586371842770436   0.028841166568774765
-0.29514503324311464   -0.004586371842770436   0.028841166568774765
-0.29514503324311464   -0.004586371842770436   0.028841166568774765
-0.2129274044107772   -0.03869072593267839   -0.008611028743855845
-0.2129274044107772   -0.03869072593267839   -0.008611028743855845
-0.2129274044107772   -0.03869072593267839   -0.008611028743855845
-0.2129274044107772   -0.03869072593267839   -0.008611028743855845
-0.3225581908150744   -0.07646861164040553   -0.036342381493392174
-0.3225581908150744   -0.07646861164040553   -0.036342381493392174
-0.3225581908150744   -0.07646861164040553   -0.036342381493392174
-0.3225581908150744   -0.07646861164040553   -0.036342381493392174
-0.08617600597327035   0.039994117123890255   0.042774584132203294
-0.08617600597327035   0.039994117123890255   0.042774584132203294
-0.08617600597327035   0.039994117123890255   0.042774584132203294
-0.08617600597327035   0.039994117123890255   0.042774584132203294
-0.09444766085320527   0.008811004057011297   -0.041599365882091816
-0.09444766085320527   0.008811004057011297   -0.041599365882091816
-0.09444766085320527   0.008811004057011297   -0.041599365882091816
-0.09444766085320527   0.008811004057011297   -0.041599365882091816
-0.2818701582940385   0.03370407682689598   0.019233185136339537
-0.2818701582940385   0.03370407682689598   0.019233185136339537
-0.2818701582940385   0.03370407682689598   0.019233185136339537
-0.2818701582940385   0.03370407682689598   0.019233185136339537
-0.19544531664228948   0.0005528526303346607   0.009279179187223291
-0.19544531664228948   0.0005528526303346607   0.009279179187223291
-0.19544531664228948   0.0005528526303346607   0.009279179187223291
-0.19544531664228948   0.0005528526303346607   0.009279179187223291
-0.3084134774359461   -0.03468179402698293   -0.04509753971932208
-0.3084134774359461   -0.03468179402698293   -0.04509753971932208
-0.3084134774359461   -0.03468179402698293   -0.04509753971932208
-0.3084134774359461   -0.03468179402698293   -0.04509753971932208
-0.06451972237427464   0.08058149424791314   0.036269836321661475
-0.06451972237427464   0.08058149424791314   0.036269836321661475
-0.06451972237427464   0.08058149424791314   0.036269836321661475
-0.06451972237427464   0.08058149424791314   0.036269836321661475
-0.07517873217139873   0.05833258637019195   -0.04659631044478076
-0.07517873217139873   0.05833258637019195   -0.04659631044478076
-0.07517873217139873   0.05833258637019195   -0.04659631044478076
-0.07517873217139873   0.05833258637019195   -0.04659631044478076
-0.268280514918656   0.07704462662116876   0.009971168593864765
-0.268280514918656   0.07704462662116876   0.009971168593864765
-0.268280514918656   0.07704462662116876   0.009971168593864765
-0.268280514918656   0.07704462662116876   0.009971168593864765
-0.17733853664121743   0.04147837487107613   0.02717795444222685
-0.17733853664121743   0.04147837487107613   0.02717795444222685
-0.17733853664121743   0.04147837487107613   0.02717795444222685
-0.17733853664121743   0.04147837487107613   0.02717795444222685
-0.15104342696446235   -0.12910275362993195   -0.062432892134604706
-0.15104342696446235   -0.12910275362993195   -0.062432892134604706
-0.15104342696446235   -0.12910275362993195   -0.062432892134604706
-0.15104342696446235   -0.12910275362993195   -0.062432892134604706
0.05398829617400538   0.03834289918075994   0.07683557713035827
0.05398829617400538   0.03834289918075994   0.07683557713035827
0.05398829617400538   0.03834289918075994   0.07683557713035827
0.05398829617400538   0.03834289918075994   0.07683557713035827
0.05442773668826983   -0.0634094689719028   -0.08265798653492598
0.05442773668826983   -0.0634094689719028   -0.08265798653492598
0.05442773668826983   -0.0634094689719028   -0.08265798653492598
0.05442773668826983   -0.0634094689719028   -0.08265798653492598
-0.08219204032052063   0.039804152306961105   0.06288437721287923
-0.08219204032052063   0.039804152306961105   0.06288437721287923
-0.08219204032052063   0.039804152306961105   0.06288437721287923
-0.08219204032052063   0.039804152306961105   0.06288437721287923
-0.0329791865744289   -0.02734955663751388   -0.014654290888721978
-0.0329791865744289   -0.02734955663751388   -0.014654290888721978
-0.0329791865744289   -0.02734955663751388   -0.014654290888721978
-0.0329791865744289   -0.02734955663751388   -0.014654290888721978
-0.13698734400649257   -0.09951540465488985   -0.0717725842551295
-0.13698734400649257   -0.09951540465488985   -0.0717725842551295
-0.13698734400649257   -0.09951540465488985   -0.0717725842551295
-0.13698734400649257   -0.09951540465488985   -0.0717725842551295
0.11311131677317124   0.07979836438887762   0.06755208052880067
0.11311131677317124   0.07979836438887762   0.06755208052880067
0.11311131677317124   0.07979836438887762   0.06755208052880067
0.11311131677317124   0.07979836438887762   0.06755208052880067
0.09800386838857165   -0.03801260092817099   -0.09817515979446323
0.09800386838857165   -0.03801260092817099   -0.09817515979446323
0.09800386838857165   -0.03801260092817099   -0.09817515979446323
0.09800386838857165   -0.03801260092817099   -0.09817515979446323
-0.06615846635358193   0.05823195170139373   0.050425658971642445
-0.06615846635358193   0.05823195170139373   0.050425658971642445
-0.06615846635358193   0.05823195170139373   0.050425658971642445
-0.06615846635358193   0.05823195170139373   0.050425658971642445
0.0028875761960461604   -0.001227800935137703   0.004742310323921329
0.0028875761960461604   -0.001227800935137703   0.004742310323921329
0.0028875761960461604   -0.001227800935137703   0.004742310323921329
0.0028875761960461604   -0.001227800935137703   0.004742310323921329
-0.12021260496785799   -0.07861956676686091   -0.08299351563148319
-0.12021260496785799   -0.07861956676686091   -0.08299351563148319
-0.12021260496785799   -0.07861956676686091   -0.08299351563148319
-0.12021260496785799   -0.07861956676686091   -0.08299351563148319
0.1559484301065157   0.10272934064375228   0.05080570722333754
0.1559484301065157   0.10272934064375228   0.05080570722333754
0.1559484301065157   0.10272934064375228   0.05080570722333754
0.1559484301065157   0.10272934064375228   0.05080570722333754
0.1590358856856962   0.01171814602065608   -0.10512190007564039
0.1590358856856962   0.01171814602065608   -0.10512190007564039
0.1590358856856962   0.01171814602065608   -0.10512190007564039
0.1590358856856962   0.01171814602065608   -0.10512190007564039
-0.05117680113089401   0.09076984117265209   0.04097608995528462
-0.05117680113089401   0.09076984117265209   0.04097608995528462
-0.05117680113089401   0.09076984117265209   0.04097608995528462
-0.05117680113089401   0.09076984117265209   0.04097608995528462
0.03514438475964943   0.02623338982219943   0.023688671774712938
0.03514438475964943   0.02623338982219943   0.023688671774712938
0.03514438475964943   0.02623338982219943   0.023688671774712938
0.03514438475964943   0.02623338982219943   0.023688671774712938
-0.31543980629678053   0.01778619083268585   0.08777486062033815
-0.31543980629678053   0.01778619083268585   0.08777486062033815
-0.31543980629678053   0.01778619083268585   0.08777486062033815
-0.31543980629678053   0.01778619083268585   0.08777486062033815
-0.3738038377402493   -0.11448721554912322   -0.05178619001525551
-0.3738038377402493   -0.11448721554912322   -0.05178619001525551
-0.3738038377402493   -0.11448721554912322   -0.05178619001525551
-0.3738038377402493   -0.11448721554912322   -0.05178619001525551
-0.2984342507907761   0.05324922363731344   0.07188432996410943
-0.2984342507907761   0.05324922363731344   0.07188432996410943
-0.2984342507907761   0.05324922363731344   0.07188432996410943
-0.2984342507907761   0.05324922363731344   0.07188432996410943
-0.3062816096085866   -0.07544897975226947   -0.0667080074849552
-0.3062816096085866   -0.07544897975226947   -0.0667080074849552
-0.3062816096085866   -0.07544897975226947   -0.0667080074849552
-0.3062816096085866   -0.07544897975226947   -0.0667080074849552
-0.31527370923119713   -0.024257286321548194   -0.023954481673253675
-0.31527370923119713   -0.024257286321548194   -0.023954481673253675
-0.31527370923119713   -0.024257286321548194   -0.023954481673253675
-0.31527370923119713   -0.024257286321548194   -0.023954481673253675
-0.24845421559744277   0.06522030103904883   0.081759681779453
-0.24845421559744277   0.06522030103904883   0.081759681779453
-0.24845421559744277   0.06522030103904883   0.081759681779453
-0.24845421559744277   0.06522030103904883   0.081759681779453
-0.35264592726953276   -0.08380433962162026   -0.06212048917073225
-0.35264592726953276   -0.08380433962162026   -0.06212048917073225
-0.35264592726953276   -0.08380433962162026   -0.06212048917073225
-0.35264592726953276   -0.08380433962162026   -0.06212048917073225
-0.27512409992276005   0.07343191010951054   0.06050527512566401
-0.27512409992276005   0.07343191010951054   0.06050527512566401
-0.27512409992276005   0.07343191010951054   0.06050527512566401
-0.27512409992276005   0.07343191010951054   0.06050527512566401
-0.25644033908186264   -0.052639923190919924   -0.08311626917777729
-0.25644033908186264   -0.052639923190919924   -0.08311626917777729
-0.25644033908186264   -0.052639923190919924   -0.08311626917777729
-0.25644033908186264   -0.052639923190919924   -0.08311626917777729
-0.2785022575324301   0.0015373211947952835   -0.004932978271925119
-0.2785022575324301   0.0015373211947952835   -0.004932978271925119
-0.2785022575324301   0.0015373211947952835   -0.004932978271925119
-0.2785022575324301   0.0015373211947952835   -0.004932978271925119
-0.19827026586098717   0.08976704720322365   0.06532712653245659
-0.19827026586098717   0.08976704720322365   0.06532712653245659
-0.19827026586098717   0.08976704720322365   0.06532712653245659
-0.19827026586098717   0.08976704720322365   0.06532712653245659
-0.3298817950015686   -0.06556268214256605   -0.074288608016302
-0.3298817950015686   -0.06556268214256605   -0.074288608016302
-0.3298817950015686   -0.06556268214256605   -0.074288608016302
-0.3298817950015686   -0.06556268214256605   -0.074288608016302
-0.25378990134223733   0.10423587054365892   0.052259874165201024
-0.25378990134223733   0.10423587054365892   0.052259874165201024
-0.25378990134223733   0.10423587054365892   0.052259874165201024
-0.25378990134223733   0.10423587054365892   0.052259874165201024
-0.18991567184498911   -0.009280878126972328   -0.09363873996723102
-0.18991567184498911   -0.009280878126972328   -0.09363873996723102
-0.18991567184498911   -0.009280878126972328   -0.09363873996723102
-0.18991567184498911   -0.009280878126972328   -0.09363873996723102
-0.2342695007757163   0.028472608549432246   0.015442911206065571
-0.2342695007757163   0.028472608549432246   0.015442911206065571
-0.2342695007757163   0.028472608549432246   0.015442911206065571
-0.2342695007757163   0.028472608549432246   0.015442911206065571
-0.334713580229322   -0.020667281132239673   0.04984516312248963
-0.334713580229322   -0.020667281132239673   0.04984516312248963
-0.334713580229322   -0.020667281132239673   0.04984516312248963
-0.334713580229322   -0.020667281132239673   0.04984516312248963
-0.4146972741877521   -0.09338076611776516   -0.020234615705276487
-0.4146972741877521   -0.09338076611776516   -0.020234615705276487
-0.4146972741877521   -0.09338076611776516   -0.020234615705276487
-0.4146972741877521   -0.09338076611776516   -0.020234615705276487
-0.3695929220037563   0.009461946428643644   0.03335318288757584
-0.3695929220037563   0.009461946428643644   0.03335318288757584
-0.3695929220037563   0.009461946428643644   0.03335318288757584
-0.3695929220037563   0.009461946428643644   0.03335318288757584
-0.33844165984255264   -0.044239316942966324   -0.03066417471448557
-0.33844165984255264   -0.044239316942966324   -0.03066417471448557
-0.33844165984255264   -0.044239316942966324   -0.03066417471448557
-0.33844165984255264   -0.044239316942966324   -0.03066417471448557
-0.36460797983090165   -0.03436182164466728   -0.016888523821503618
-0.36460797983090165   -0.03436182164466728   -0.016888523821503618
-0.36460797983090165   -0.03436182164466728   -0.016888523821503618
-0.36460797983090165   -0.03436182164466728   -0.016888523821503618
-0.3100806218622342   0.02339509127355463   0.04350660697057801
-0.3100806218622342   0.02339509127355463   0.04350660697057801
-0.3100806218622342   0.02339509127355463   0.04350660697057801
-0.3100806218622342   0.02339509127355463   0.04350660697057801
-0.39512296358457516   -0.0553414653883694   -0.02949361319950912
-0.39512296358457516   -0.0553414653883694   -0.02949361319950912
-0.39512296358457516   -0.0553414653883694   -0.02949361319950912
-0.39512296358457516   -0.0553414653883694   -0.02949361319950912
-0.3487738639657369   0.04960691930158663   0.025450472698019602
-0.3487738639657369   0.04960691930158663   0.025450472698019602
-0.3487738639657369   0.04960691930158663   0.025450472698019602
-0.3487738639657369   0.04960691930158663   0.025450472698019602
-0.31062893636447925   -0.005525644923353894   -0.03806135205006751
-0.31062893636447925   -0.005525644923353894   -0.03806135205006751
-0.31062893636447925   -0.005525644923353894   -0.03806135205006751
-0.31062893636447925   -0.005525644923353894   -0.03806135205006751
-0.3397517511418427   0.003117748143965069   0.0006744293931239681
-0.3397517511418427   0.003117748143965069   0.0006744293931239681
-0.3397517511418427   0.003117748143965069   0.0006744293931239681
-0.3397517511418427   0.003117748143965069   0.0006744293931239681
-0.28088996388864806   0.0659293148821228   0.03917855052361165
-0.28088996388864806   0.0659293148821228   0.03917855052361165
-0.28088996388864806   0.0659293148821228   0.03917855052361165
-0.28088996388864806   0.0659293148821228   0.03917855052361165
-0.3754955762095952   -0.01883078027191784   -0.03972038894777128
-0.3754955762095952   -0.01883078027191784   -0.03972038894777128
-0.3754955762095952   -0.01883078027191784   -0.03972038894777128
-0.3754955762095952   -0.01883078027191784   -0.03972038894777128
-0.3278552417934882   0.0940188693893546   0.017939283850805517
-0.3278552417934882   0.0940188693893546   0.017939283850805517
-0.3278552417934882   0.0940188693893546   0.017939283850805517
-0.3278552417934882   0.0940188693893546   0.017939283850805517
-0.2866127331560622   0.03741987071535254   -0.045038285075616996
-0.2866127331560622   0.03741987071535254   -0.045038285075616996
-0.2866127331560622   0.03741987071535254   -0.045038285075616996
-0.2866127331560622   0.03741987071535254   -0.045038285075616996
-0.3162539062771223   0.04179963268466775   0.018541443691757836
-0.3162539062771223   0.04179963268466775   0.018541443691757836
-0.3162539062771223   0.04179963268466775   0.018541443691757836
-0.3162539062771223   0.04179963268466775   0.018541443691757836
-0.400483362262454   -0.05652377312221904   0.013977950925663757
-0.400483362262454   -0.05652377312221904   0.013977950925663757
-0.400483362262454   -0.05652377312221904   0.013977950925663757
-0.400483362262454   -0.05652377312221904   0.013977950925663757
-0.455502670753303   -0.05886085929598086   0.012250346280352431
-0.455502670753303   -0.05886085929598086   0.012250346280352431
-0.455502670753303   -0.05886085929598086   0.012250346280352431
-0.455502670753303   -0.05886085929598086   0.012250346280352431
-0.43880085261639046   -0.02670186654244222   -0.00431309624581476
-0.43880085261639046   -0.02670186654244222   -0.00431309624581476
-0.43880085261639046   -0.02670186654244222   -0.00431309624581476
-0.43880085261639046   -0.02670186654244222   -0.00431309624581476
-0.378965888462479   -0.00803126470060727   0.003981561723209709
-0.378965888462479   -0.00803126470060727   0.003981561723209709
-0.378965888462479   -0.00803126470060727   0.003981561723209709
-0.378965888462479   -0.00803126470060727   0.003981561723209709
-0.41906556223220576   -0.035401359065884486   -0.011197137725433473
-0.41906556223220576   -0.035401359065884486   -0.011197137725433473
-0.41906556223220576   -0.035401359065884486   -0.011197137725433473
-0.41906556223220576   -0.035401359065884486   -0.011197137725433473
-0.37928305739087653   -0.012552331476716406   0.006916783857331077
-0.37928305739087653   -0.012552331476716406   0.006916783857331077
-0.37928305739087653   -0.012552331476716406   0.006916783857331077
-0.37928305739087653   -0.012552331476716406   0.006916783857331077
-0.43581571437665967   -0.01951283045501008   0.003423558865407045
-0.43581571437665967   -0.01951283045501008   0.003423558865407045
-0.43581571437665967   -0.01951283045501008   0.003423558865407045
-0.43581571437665967   -0.01951283045501008   0.003423558865407045
-0.4169365935583359   0.017847752270914036   -0.01095136682771633
-0.4169365935583359   0.017847752270914036   -0.01095136682771633
-0.4169365935583359   0.017847752270914036   -0.01095136682771633
-0.4169365935583359   0.017847752270914036   -0.01095136682771633
-0.35821719995433365   0.03240406621033799   -0.004563354153719348
-0.35821719995433365   0.03240406621033799   -0.004563354153719348
-0.35821719995433365   0.03240406621033799   -0.004563354153719348
-0.35821719995433365   0.03240406621033799   -0.004563354153719348
-0.3962280559618162   0.004429191344763689   0.006138818371181187
-0.3962280559618162   0.004429191344763689   0.006138818371181187
-0.3962280559618162   0.004429191344763689   0.006138818371181187
-0.3962280559618162   0.004429191344763689   0.006138818371181187
-0.3575026296619085   0.031839609266242436   -0.00042604574750175483
-0.3575026296619085   0.031839609266242436   -0.00042604574750175483
-0.3575026296619085   0.031839609266242436   -0.00042604574750175483
-0.3575026296619085   0.031839609266242436   -0.00042604574750175483
-0.4153247191804909   0.020738653885278433   -0.00578289655285992
-0.4153247191804909   0.020738653885278433   -0.00578289655285992
-0.4153247191804909   0.020738653885278433   -0.00578289655285992
-0.4153247191804909   0.020738653885278433   -0.00578289655285992
-0.39600163707751435   0.06266560475689233   -0.0184488602107614
-0.39600163707751435   0.06266560475689233   -0.0184488602107614
-0.39600163707751435   0.06266560475689233   -0.0184488602107614
-0.39600163707751435   0.06266560475689233   -0.0184488602107614
-0.3384340763884866   0.07300492766194887   -0.013940947396776975
-0.3384340763884866   0.07300492766194887   -0.013940947396776975
-0.3384340763884866   0.07300492766194887   -0.013940947396776975
-0.3384340763884866   0.07300492766194887   -0.013940947396776975
-0.37444248697578514   0.044331841856878815   0.022664062677292762
-0.37444248697578514   0.044331841856878815   0.022664062677292762
-0.37444248697578514   0.044331841856878815   0.022664062677292762
-0.37444248697578514   0.044331841856878815   0.022664062677292762
-0.46864124695316856   -0.0894688268418992   -0.022834567173061773
-0.46864124695316856   -0.0894688268418992   -0.022834567173061773
-0.46864124695316856   -0.0894688268418992   -0.022834567173061773
-0.46864124695316856   -0.0894688268418992   -0.022834567173061773
-0.4997308835867026   -0.02505600247369355   0.04330566051805948
-0.4997308835867026   -0.02505600247369355   0.04330566051805948
-0.4997308835867026   -0.02505600247369355   0.04330566051805948
-0.4997308835867026   -0.02505600247369355   0.04330566051805948
-0.5077162290870123   -0.06135948179756999   -0.042453187361325334
-0.5077162290870123   -0.06135948179756999   -0.042453187361325334
-0.5077162290870123   -0.06135948179756999   -0.042453187361325334
-0.5077162290870123   -0.06135948179756999   -0.042453187361325334
-0.4199284172764641   0.02684153756371529   0.036505676347659416
-0.4199284172764641   0.02684153756371529   0.036505676347659416
-0.4199284172764641   0.02684153756371529   0.036505676347659416
-0.4199284172764641   0.02684153756371529   0.036505676347659416
-0.47204329922167265   -0.03484315959167969   -0.007033135625480219
-0.47204329922167265   -0.03484315959167969   -0.007033135625480219
-0.47204329922167265   -0.03484315959167969   -0.007033135625480219
-0.47204329922167265   -0.03484315959167969   -0.007033135625480219
-0.44801406592030063   -0.046953847961265664   -0.03012718134654599
-0.44801406592030063   -0.046953847961265664   -0.03012718134654599
-0.44801406592030063   -0.046953847961265664   -0.03012718134654599
-0.44801406592030063   -0.046953847961265664   -0.03012718134654599
-0.47683285507510165   0.015233629095489566   0.03537057180516835
-0.47683285507510165   0.015233629095489566   0.03537057180516835
-0.47683285507510165   0.015233629095489566   0.03537057180516835
-0.47683285507510165   0.015233629095489566   0.03537057180516835
-0.4790908035270525   -0.019112634382959355   -0.047629725679923074
-0.4790908035270525   -0.019112634382959355   -0.047629725679923074
-0.4790908035270525   -0.019112634382959355   -0.047629725679923074
-0.4790908035270525   -0.019112634382959355   -0.047629725679923074
-0.400232102609829   0.06331332739662733   0.027105512789100658
-0.400232102609829   0.06331332739662733   0.027105512789100658
-0.400232102609829   0.06331332739662733   0.027105512789100658
-0.400232102609829   0.06331332739662733   0.027105512789100658
-0.4461151138210898   0.0035067446192977476   0.010858387959361074
-0.4461151138210898   0.0035067446192977476   0.010858387959361074
-0.4461151138210898   0.0035067446192977476   0.010858387959361074
-0.4461151138210898   0.0035067446192977476   0.010858387959361074
-0.4274482402433603   -0.006992121822185527   -0.03866972615974618
-0.4274482402433603   -0.006992121822185527   -0.03866972615974618
-0.4274482402433603   -0.006992121822185527   -0.03866972615974618
-0.4274482402433603   -0.006992121822185527   -0.03866972615974618
-0.44904717215096956   0.05402030857840501   0.02945548823912958
-0.44904717215096956   0.05402030857840501   0.02945548823912958
-0.44904717215096956   0.05402030857840501   0.02945548823912958
-0.44904717215096956   0.05402030857840501   0.02945548823912958
-0.45403710340703707   0.027446966101900915   -0.052260545514093454
-0.45403710340703707   0.027446966101900915   -0.052260545514093454
-0.45403710340703707   0.027446966101900915   -0.052260545514093454
-0.45403710340703707   0.027446966101900915   -0.052260545514093454
-0.38048124792700927   0.10398385281489561   0.017834837483760607
-0.38048124792700927   0.10398385281489561   0.017834837483760607
-0.38048124792700927   0.10398385281489561   0.017834837483760607
-0.38048124792700927   0.10398385281489561   0.017834837483760607
-0.4240669337912008   0.0415830575746812   0.027972775293007762
-0.4240669337912008   0.0415830575746812   0.027972775293007762
-0.4240669337912008   0.0415830575746812   0.027972775293007762
-0.4240669337912008   0.0415830575746812   0.027972775293007762
-0.5361064392907824   -0.10647398952789826   -0.05715413094814499
-0.5361064392907824   -0.10647398952789826   -0.05715413094814499
-0.5361064392907824   -0.10647398952789826   -0.05715413094814499
-0.5361064392907824   -0.10647398952789826   -0.05715413094814499
-0.5920711867889291   0.008412104963176806   0.0778324440973
-0.5920711867889291   0.008412104963176806   0.0778324440973
-0.5920711867889291   0.008412104963176806   0.0778324440973
-0.5920711867889291   0.008412104963176806   0.0778324440973
-0.5839765559560194   -0.08834877175945231   -0.07609572748368912
-0.5839765559560194   -0.08834877175945231   -0.07609572748368912
-0.5839765559560194   -0.08834877175945231   -0.07609572748368912
-0.5839765559560194   -0.08834877175945231   -0.07609572748368912
-0.45957947560717094   0.06710329635966986   0.06976780188063848
-0.45957947560717094   0.06710329635966986   0.06976780188063848
-0.45957947560717094   0.06710329635966986   0.06976780188063848
-0.45957947560717094   0.06710329635966986   0.06976780188063848
-0.5211948176604615   -0.022806181461772435   -0.003547506518982474
-0.5211948176604615   -0.022806181461772435   -0.003547506518982474
-0.5211948176604615   -0.022806181461772435   -0.003547506518982474
-0.5211948176604615   -0.022806181461772435   -0.003547506518982474
-0.5144828150528764   -0.07229999823310948   -0.06534560075511787
-0.5144828150528764   -0.07229999823310948   -0.06534560075511787
-0.5144828150528764   -0.07229999823310948   -0.06534560075511787
-0.5144828150528764   -0.07229999823310948   -0.06534560075511787
-0.5261153452356546   0.05401239410798499   0.07084916025069778
-0.5261153452356546   0.05401239410798499   0.07084916025069778
-0.5261153452356546   0.05401239410798499   0.07084916025069778
-0.5261153452356546   0.05401239410798499   0.07084916025069778
-0.534596150953093   -0.0636776397830026   -0.09068461385082821
-0.534596150953093   -0.0636776397830026   -0.09068461385082821
-0.534596150953093   -0.0636776397830026   -0.09068461385082821
-0.534596150953093   -0.0636776397830026   -0.09068461385082821
-0.4374260846040015   0.08448002872673532   0.05710120582563755
-0.4374260846040015   0.08448002872673532   0.05710120582563755
-0.4374260846040015   0.08448002872673532   0.05710120582563755
-0.4374260846040015   0.08448002872673532   0.05710120582563755
-0.487710292999963   0.0029682894719944737   0.013628460894254166
-0.487710292999963   0.0029682894719944737   0.013628460894254166
-0.487710292999963   0.0029682894719944737   0.013628460894254166
-0.487710292999963   0.0029682894719944737   0.013628460894254166
-0.49125925859255193   -0.051991888015671076   -0.07559274737471158
-0.49125925859255193   -0.051991888015671076   -0.07559274737471158
-0.49125925859255193   -0.051991888015671076   -0.07559274737471158
-0.49125925859255193   -0.051991888015671076   -0.07559274737471158
-0.477663825106725   0.07589342881722005   0.05440594678078464
-0.477663825106725   0.07589342881722005   0.05440594678078464
-0.477663825106725   0.07589342881722005   0.05440594678078464
-0.477663825106725   0.07589342881722005   0.05440594678078464
-0.4698264748015088   -0.020973270760351548   -0.09908979603908813
-0.4698264748015088   -0.020973270760351548   -0.09908979603908813
-0.4698264748015088   -0.020973270760351548   -0.09908979603908813
-0.4698264748015088   -0.020973270760351548   -0.09908979603908813
-0.4175792046607995   0.1104424119145904   0.04703350240440066
-0.4175792046607995   0.1104424119145904   0.04703350240440066
-0.4175792046607995   0.1104424119145904   0.04703350240440066
-0.4175792046607995   0.1104424119145904   0.04703350240440066
-0.44202879892715197   0.02873802778016927   0.033497180714519806
-0.44202879892715197   0.02873802778016927   0.033497180714519806
-0.44202879892715197   0.02873802778016927   0.033497180714519806
-0.44202879892715197   0.02873802778016927   0.033497180714519806
0.3242555172475929   0.05247889189462838   0.08498499221566028
0.3242555172475929   0.05247889189462838   0.08498499221566028
0.3242555172475929   0.05247889189462838   0.08498499221566028
0.3242555172475929   0.05247889189462838   0.08498499221566028
-0.008210152366068318   -0.1366352537608267   -0.056175624544856334
-0.008210152366068318   -0.1366352537608267   -0.056175624544856334
-0.008210152366068318   -0.1366352537608267   -0.056175624544856334
-0.008210152366068318   -0.1366352537608267   -0.056175624544856334
0.07226889444058164   0.02673737756323153   0.06567327504338162
0.07226889444058164   0.02673737756323153   0.06567327504338162
0.07226889444058164   0.02673737756323153   0.06567327504338162
0.07226889444058164   0.02673737756323153   0.06567327504338162
0.3384620855289087   -0.048054023866019584   -0.07028448906139749
0.3384620855289087   -0.048054023866019584   -0.07028448906139749
0.3384620855289087   -0.048054023866019584   -0.07028448906139749
0.3384620855289087   -0.048054023866019584   -0.07028448906139749
0.16543009495702615   -0.026618113421732287   -0.0404468164652262
0.16543009495702615   -0.026618113421732287   -0.0404468164652262
0.16543009495702615   -0.026618113421732287   -0.0404468164652262
0.16543009495702615   -0.026618113421732287   -0.0404468164652262
0.3962132998335535   0.09372926279359123   0.07668829580220818
0.3962132998335535   0.09372926279359123   0.07668829580220818
0.3962132998335535   0.09372926279359123   0.07668829580220818
0.3962132998335535   0.09372926279359123   0.07668829580220818
0.01806004388561381   -0.11150354534669332   -0.06713005482153267
0.01806004388561381   -0.11150354534669332   -0.06713005482153267
0.01806004388561381   -0.11150354534669332   -0.06713005482153267
0.01806004388561381   -0.11150354534669332   -0.06713005482153267
0.10168572784157266   0.046572797900505385   0.05482126935591397
0.10168572784157266   0.046572797900505385   0.05482126935591397
0.10168572784157266   0.046572797900505385   0.05482126935591397
0.10168572784157266   0.046572797900505385   0.05482126935591397
0.39468010361814154   -0.025643933300835614   -0.0879567607648353
0.39468010361814154   -0.025643933300835614   -0.0879567607648353
0.39468010361814154   -0.025643933300835614   -0.0879567607648353
0.39468010361814154   -0.025643933300835614   -0.0879567607648353
0.21614944514197718   -0.0018758218919000778   -0.0189782333728594
0.21614944514197718   -0.0018758218919000778   -0.0189782333728594
0.21614944514197718   -0.0018758218919000778   -0.0189782333728594
0.21614944514197718   -0.0018758218919000778   -0.0189782333728594
0.4530758161703532   0.11796844619513012   0.06040942250025715
0.4530758161703532   0.11796844619513012   0.06040942250025715
0.4530758161703532   0.11796844619513012   0.06040942250025715
0.4530758161703532   0.11796844619513012   0.06040942250025715
0.04675953090691515   -0.09357006597791645   -0.07966685143895175
0.04675953090691515   -0.09357006597791645   -0.07966685143895175
0.04675953090691515   -0.09357006597791645   -0.07966685143895175
0.04675953090691515   -0.09357006597791645   -0.07966685143895175
0.1302392611443997   0.08296612957565258   0.047441365556535386
0.1302392611443997   0.08296612957565258   0.047441365556535386
0.1302392611443997   0.08296612957565258   0.047441365556535386
0.1302392611443997   0.08296612957565258   0.047441365556535386
0.46929455180420154   0.024522239194660782   -0.09701132021401378
0.46929455180420154   0.024522239194660782   -0.09701132021401378
0.46929455180420154   0.024522239194660782   -0.09701132021401378
0.46929455180420154   0.024522239194660782   -0.09701132021401378
0.25878228418218163   0.025835494380727606   0.0013357258013105971
0.25878228418218163   0.025835494380727606   0.0013357258013105971
0.25878228418218163   0.025835494380727606   0.0013357258013105971
0.25878228418218163   0.025835494380727606   0.0013357258013105971
0.04469047935659071   0.014068469828062471   0.05762381047954963
0.04469047935659071   0.014068469828062471   0.05762381047954963
0.04469047935659071   0.014068469828062471   0.05762381047954963
0.04469047935659071   0.014068469828062471   0.05762381047954963
-0.3091163672599276   -0.11597719489166232   -0.025765054438557478
-0.3091163672599276   -0.11597719489166232   -0.025765054438557478
-0.3091163672599276   -0.11597719489166232   -0.025765054438557478
-0.3091163672599276   -0.11597719489166232   -0.025765054438557478
-0.25828938628578374   -0.016803546113522277   0.02636240587596575
-0.25828938628578374   -0.016803546113522277   0.02636240587596575
-0.25828938628578374   -0.016803546113522277   0.02636240587596575
-0.25828938628578374   -0.016803546113522277   0.02636240587596575
0.04699535868956639   -0.013457962139082518   -0.020499064009380553
0.04699535868956639   -0.013457962139082518   -0.020499064009380553
0.04699535868956639   -0.013457962139082518   -0.020499064009380553
0.04699535868956639   -0.013457962139082518   -0.020499064009380553
-0.12147123256996335   -0.030072147427432628   -0.01945952271154775
-0.12147123256996335   -0.030072147427432628   -0.01945952271154775
-0.12147123256996335   -0.030072147427432628   -0.01945952271154775
-0.12147123256996335   -0.030072147427432628   -0.01945952271154775
0.07497179718138214   0.05480103555570074   0.051124130754914926
0.07497179718138214   0.05480103555570074   0.051124130754914926
0.07497179718138214   0.05480103555570074   0.051124130754914926
0.07497179718138214   0.05480103555570074   0.051124130754914926
-0.2836902006067681   -0.08248691963748438   -0.034958292204993954
-0.2836902006067681   -0.08248691963748438   -0.034958292204993954
-0.2836902006067681   -0.08248691963748438   -0.034958292204993954
-0.2836902006067681   -0.08248691963748438   -0.034958292204993954
-0.23146067998988154   0.021647608417708176   0.01863665828064511
-0.23146067998988154   0.021647608417708176   0.01863665828064511
-0.23146067998988154   0.021647608417708176   0.01863665828064511
-0.23146067998988154   0.021647608417708176   0.01863665828064511
0.08047155272664519   0.023058529721474756   -0.027735338039692786
0.08047155272664519   0.023058529721474756   -0.027735338039692786
0.08047155272664519   0.023058529721474756   -0.027735338039692786
0.08047155272664519   0.023058529721474756   -0.027735338039692786
-0.09303790624133418   0.003868264938506047   -0.002348651465131163
-0.09303790624133418   0.003868264938506047   -0.002348651465131163
-0.09303790624133418   0.003868264938506047   -0.002348651465131163
-0.09303790624133418   0.003868264938506047   -0.002348651465131163
0.10962232159256544   0.095293570233621   0.045783465777762225
0.10962232159256544   0.095293570233621   0.045783465777762225
0.10962232159256544   0.095293570233621   0.045783465777762225
0.10962232159256544   0.095293570233621   0.045783465777762225
-0.2581340957221175   -0.048110078960753797   -0.044972733002072815
-0.2581340957221175   -0.048110078960753797   -0.044972733002072815
-0.2581340957221175   -0.048110078960753797   -0.044972733002072815
-0.2581340957221175   -0.048110078960753797   -0.044972733002072815
-0.20447496036415258   0.06510943785833129   0.011271777847367069
-0.20447496036415258   0.06510943785833129   0.011271777847367069
-0.20447496036415258   0.06510943785833129   0.011271777847367069
-0.20447496036415258   0.06510943785833129   0.011271777847367069
0.10996141494735026   0.06444227131851848   -0.03542400717157774
0.10996141494735026   0.06444227131851848   -0.03542400717157774
0.10996141494735026   0.06444227131851848   -0.03542400717157774
0.10996141494735026   0.06444227131851848   -0.03542400717157774
-0.06161638173353638   0.04131850347361358   0.015884936784081594
-0.06161638173353638   0.04131850347361358   0.015884936784081594
-0.06161638173353638   0.04131850347361358   0.015884936784081594
-0.06161638173353638   0.04131850347361358   0.015884936784081594
-0.2810836310058598   -0.02228569517877664   0.02070712711889966
-0.2810836310058598   -0.02228569517877664   0.02070712711889966
-0.2810836310058598   -0.02228569517877664   0.02070712711889966
-0.2810836310058598   -0.02228569517877664   0.02070712711889966
-0.6045884498265974   -0.08228811834060826   0.00537286018587671
-0.6045884498265974   -0.08228811834060826   0.00537286018587671
-0.6045884498265974   -0.08228811834060826   0.00537286018587671
-0.6045884498265974   -0.08228811834060826   0.00537286018587671
-0.5810756178000478   -0.05152910121533653   -0.011397891512867686
-0.5810756178000478   -0.05152910121533653   -0.011397891512867686
-0.5810756178000478   -0.05152910121533653   -0.011397891512867686
-0.5810756178000478   -0.05152910121533653   -0.011397891512867686
-0.25333493770646315   0.021453693507151785   0.012877409151898223
-0.25333493770646315   0.021453693507151785   0.012877409151898223
-0.25333493770646315   0.021453693507151785   0.012877409151898223
-0.25333493770646315   0.021453693507151785   0.012877409151898223
-0.4306498463511582   -0.03090183841909874   -0.011314027389193695
-0.4306498463511582   -0.03090183841909874   -0.011314027389193695
-0.4306498463511582   -0.03090183841909874   -0.011314027389193695
-0.4306498463511582   -0.03090183841909874   -0.011314027389193695
-0.2536777110307682   0.018961254707164917   0.013655981330359904
-0.2536777110307682   0.018961254707164917   0.013655981330359904
-0.2536777110307682   0.018961254707164917   0.013655981330359904
-0.2536777110307682   0.018961254707164917   0.013655981330359904
-0.578526390600733   -0.04683020854034072   -0.0033506481912945196
-0.578526390600733   -0.04683020854034072   -0.0033506481912945196
-0.578526390600733   -0.04683020854034072   -0.0033506481912945196
-0.578526390600733   -0.04683020854034072   -0.0033506481912945196
-0.5528700671988659   -0.009198734926490634   -0.017924492593330302
-0.5528700671988659   -0.009198734926490634   -0.017924492593330302
-0.5528700671988659   -0.009198734926490634   -0.017924492593330302
-0.5528700671988659   -0.009198734926490634   -0.017924492593330302
-0.22677090198781646   0.05900850438532124   0.004724652323357503
-0.22677090198781646   0.05900850438532124   0.004724652323357503
-0.22677090198781646   0.05900850438532124   0.004724652323357503
-0.22677090198781646   0.05900850438532124   0.004724652323357503
-0.4015321672159423   0.006287003433808884   0.005918893783446941
-0.4015321672159423   0.006287003433808884   0.005918893783446941
-0.4015321672159423   0.006287003433808884   0.005918893783446941
-0.4015321672159423   0.006287003433808884   0.005918893783446941
-0.22610140942714713   0.06096334920743688   0.006117270304588522
-0.22610140942714713   0.06096334920743688   0.006117270304588522
-0.22610140942714713   0.06096334920743688   0.006117270304588522
-0.22610140942714713   0.06096334920743688   0.006117270304588522
-0.5517783850848832   -0.009392405073944829   -0.012272411875967462
-0.5517783850848832   -0.009392405073944829   -0.012272411875967462
-0.5517783850848832   -0.009392405073944829   -0.012272411875967462
-0.5517783850848832   -0.009392405073944829   -0.012272411875967462
-0.5258041986248432   0.033243529219037386   -0.02537781737497781
-0.5258041986248432   0.033243529219037386   -0.02537781737497781
-0.5258041986248432   0.033243529219037386   -0.02537781737497781
-0.5258041986248432   0.033243529219037386   -0.02537781737497781
-0.20134815336114967   0.0966739828820345   -0.004658732161321576
-0.20134815336114967   0.0966739828820345   -0.004658732161321576
-0.20134815336114967   0.0966739828820345   -0.004658732161321576
-0.20134815336114967   0.0966739828820345   -0.004658732161321576
-0.3739280590682803   0.04337161918157748   0.022026752976898628
-0.3739280590682803   0.04337161918157748   0.022026752976898628
-0.3739280590682803   0.04337161918157748   0.022026752976898628
-0.3739280590682803   0.04337161918157748   0.022026752976898628
-0.6042970828756569   -0.05810171592925078   -0.017356707470772337
-0.6042970828756569   -0.05810171592925078   -0.017356707470772337
-0.6042970828756569   -0.05810171592925078   -0.017356707470772337
-0.6042970828756569   -0.05810171592925078   -0.017356707470772337
-0.8968346783179281   -0.05063108347596003   0.03595742672110752
-0.8968346783179281   -0.05063108347596003   0.03595742672110752
-0.8968346783179281   -0.05063108347596003   0.03595742672110752
-0.8968346783179281   -0.05063108347596003   0.03595742672110752
-0.8969879221269355   -0.0855191750155839   -0.048238381698365196
-0.8969879221269355   -0.0855191750155839   -0.048238381698365196
-0.8969879221269355   -0.0855191750155839   -0.048238381698365196
-0.8969879221269355   -0.0855191750155839   -0.048238381698365196
-0.5487562672956713   0.0547273661945749   0.04394239359909782
-0.5487562672956713   0.0547273661945749   0.04394239359909782
-0.5487562672956713   0.0547273661945749   0.04394239359909782
-0.5487562672956713   0.0547273661945749   0.04394239359909782
-0.732606072114386   -0.03128120978978249   -0.0047511155772402
-0.732606072114386   -0.03128120978978249   -0.0047511155772402
-0.732606072114386   -0.03128120978978249   -0.0047511155772402
-0.732606072114386   -0.03128120978978249   -0.0047511155772402
-0.5766515342878918   -0.016637946784655855   -0.024168628382768564
-0.5766515342878918   -0.016637946784655855   -0.024168628382768564
-0.5766515342878918   -0.016637946784655855   -0.024168628382768564
-0.5766515342878918   -0.016637946784655855   -0.024168628382768564
-0.8672724251782393   -0.012333632079875353   0.02715356010941461
-0.8672724251782393   -0.012333632079875353   0.02715356010941461
-0.8672724251782393   -0.012333632079875353   0.02715356010941461
-0.8672724251782393   -0.012333632079875353   0.02715356010941461
-0.8616803628080147   -0.04513183157597122   -0.05367202187570641
-0.8616803628080147   -0.04513183157597122   -0.05367202187570641
-0.8616803628080147   -0.04513183157597122   -0.05367202187570641
-0.8616803628080147   -0.04513183157597122   -0.05367202187570641
-0.52266929493422   0.08891151762777631   0.03496911617563225
-0.52266929493422   0.08891151762777631   0.03496911617563225
-0.52266929493422   0.08891151762777631   0.03496911617563225
-0.52266929493422   0.08891151762777631   0.03496911617563225
-0.6977179188894451   0.0062021249701775735   0.012999595941401348
-0.6977179188894451   0.0062021249701775735   0.012999595941401348
-0.6977179188894451   0.0062021249701775735   0.012999595941401348
-0.6977179188894451   0.0062021249701775735   0.012999595941401348
-0.5496413124757362   0.021512076737326018   -0.032491530641498706
-0.5496413124757362   0.021512076737326018   -0.032491530641498706
-0.5496413124757362   0.021512076737326018   -0.032491530641498706
-0.5496413124757362   0.021512076737326018   -0.032491530641498706
-0.8326604484834041   0.02431550609757336   0.021980212073801686
-0.8326604484834041   0.02431550609757336   0.021980212073801686
-0.8326604484834041   0.02431550609757336   0.021980212073801686
-0.8326604484834041   0.02431550609757336   0.021980212073801686
-0.8300895136017385   -0.0010585168438930204   -0.05776874513548383
-0.8300895136017385   -0.0010585168438930204   -0.05776874513548383
-0.8300895136017385   -0.0010585168438930204   -0.05776874513548383
-0.8300895136017385   -0.0010585168438930204   -0.05776874513548383
-0.4968525458509254   0.12669394894002933   0.025930026773618928
-0.4968525458509254   0.12669394894002933   0.025930026773618928
-0.4968525458509254   0.12669394894002933   0.025930026773618928
-0.4968525458509254   0.12669394894002933   0.025930026773618928
-0.6715489381205139   0.04118503617439258   0.028916188545600352
-0.6715489381205139   0.04118503617439258   0.028916188545600352
-0.6715489381205139   0.04118503617439258   0.028916188545600352
-0.6715489381205139   0.04118503617439258   0.028916188545600352
-0.9211324712878285   -0.08349930423077329   -0.05266331737358168
-0.9211324712878285   -0.08349930423077329   -0.05266331737358168
-0.9211324712878285   -0.08349930423077329   -0.05266331737358168
-0.9211324712878285   -0.08349930423077329   -0.05266331737358168
-1.2298216265944713   -0.021461850515002684   0.07775860783475153
-1.2298216265944713   -0.021461850515002684   0.07775860783475153
-1.2298216265944713   -0.021461850515002684   0.07775860783475153
-1.2298216265944713   -0.021461850515002684   0.07775860783475153
-1.212489327718314   -0.11147807859888431   -0.0702292208009892
-1.212489327718314   -0.11147807859888431   -0.0702292208009892
-1.212489327718314   -0.11147807859888431   -0.0702292208009892
-1.212489327718314   -0.11147807859888431   -0.0702292208009892
-0.8364170872640514   0.09244121331116435   0.07665540428930695
-0.8364170872640514   0.09244121331116435   0.07665540428930695
-0.8364170872640514   0.09244121331116435   0.07665540428930695
-0.8364170872640514   0.09244121331116435   0.07665540428930695
-1.0047168103309103   -0.017806148085284954   0.008277554124887065
-1.0047168103309103   -0.017806148085284954   0.008277554124887065
-1.0047168103309103   -0.017806148085284954   0.008277554124887065
-1.0047168103309103   -0.017806148085284954   0.008277554124887065
-0.8911637763973663   -0.04507874148976398   -0.059558086576335295
-0.8911637763973663   -0.04507874148976398   -0.059558086576335295
-0.8911637763973663   -0.04507874148976398   -0.059558086576335295
-0.8911637763973663   -0.04507874148976398   -0.059558086576335295
-1.1560933576408317   0.027691157146209136   0.07258139384131096
-1.1560933576408317   0.027691157146209136   0.07258139384131096
-1.1560933576408317   0.027691157146209136   0.07258139384131096
-1.1560933576408317   0.027691157146209136   0.07258139384131096
-1.1566952842567704   -0.08750824337913586   -0.08357095505094958
-1.1566952842567704   -0.08750824337913586   -0.08357095505094958
-1.1566952842567704   -0.08750824337913586   -0.08357095505094958
-1.1566952842567704   -0.08750824337913586   -0.08357095505094958
-0.8076425123117842   0.10819927494232287   0.0631861240871445
-0.8076425123117842   0.10819927494232287   0.0631861240871445
-0.8076425123117842   0.10819927494232287   0.0631861240871445
-0.8076425123117842   0.10819927494232287   0.0631861240871445
-0.9729805466646454   0.00733784100060219   0.022622310374813215
-0.9729805466646454   0.00733784100060219   0.022622310374813215
-0.9729805466646454   0.00733784100060219   0.022622310374813215
-0.9729805466646454   0.00733784100060219   0.022622310374813215
-0.8607423619540739   -0.025355198120667832   -0.06875865106130585
-0.8607423619540739   -0.025355198120667832   -0.06875865106130585
-0.8607423619540739   -0.025355198120667832   -0.06875865106130585
-0.8607423619540739   -0.025355198120667832   -0.06875865106130585
-1.1015756117960407   0.048066052502294565   0.056453111371259634
-1.1015756117960407   0.048066052502294565   0.056453111371259634
-1.1015756117960407   0.048066052502294565   0.056453111371259634
-1.1015756117960407   0.048066052502294565   0.056453111371259634
-1.088004055104361   -0.05168480797025574   -0.09317774657623776
-1.088004055104361   -0.05168480797025574   -0.09317774657623776
-1.088004055104361   -0.05168480797025574   -0.09317774657623776
-1.088004055104361   -0.05168480797025574   -0.09317774657623776
-0.7823420940960636   0.12727421151436497   0.052635624034628875
-0.7823420940960636   0.12727421151436497   0.052635624034628875
-0.7823420940960636   0.12727421151436497   0.052635624034628875
-0.7823420940960636   0.12727421151436497   0.052635624034628875
-0.9138092861374417   0.03090893207871389   0.042806461769067355
-0.9138092861374417   0.03090893207871389   0.042806461769067355
-0.9138092861374417   0.03090893207871389   0.042806461769067355
-0.9138092861374417   0.03090893207871389   0.042806461769067355
0.977946996741511   0.08882912558388086   0.08498912307110226
0.977946996741511   0.08882912558388086   0.08498912307110226
0.977946996741511   0.08882912558388086   0.08498912307110226
0.977946996741511   0.08882912558388086   0.08498912307110226
0.35835788073931085   -0.16288095314035303   -0.05595072160778068
0.35835788073931085   -0.16288095314035303   -0.05595072160778068
0.35835788073931085   -0.16288095314035303   -0.05595072160778068
0.35835788073931085   -0.16288095314035303   -0.05595072160778068
0.44276536954014706   -0.0009032949310101273   0.06116587160235006
0.44276536954014706   -0.0009032949310101273   0.06116587160235006
0.44276536954014706   -0.0009032949310101273   0.06116587160235006
0.44276536954014706   -0.0009032949310101273   0.06116587160235006
0.9958412510010409   -0.022830074275077467   -0.07142026936379114
0.9958412510010409   -0.022830074275077467   -0.07142026936379114
0.9958412510010409   -0.022830074275077467   -0.07142026936379114
0.9958412510010409   -0.022830074275077467   -0.07142026936379114
0.6510543983058442   -0.02954691238432451   -0.06293247527586648
0.6510543983058442   -0.02954691238432451   -0.06293247527586648
0.6510543983058442   -0.02954691238432451   -0.06293247527586648
0.6510543983058442   -0.02954691238432451   -0.06293247527586648
1.0542532613687385   0.12393587562846695   0.07387383257114385
1.0542532613687385   0.12393587562846695   0.07387383257114385
1.0542532613687385   0.12393587562846695   0.07387383257114385
1.0542532613687385   0.12393587562846695   0.07387383257114385
0.3884813597997387   -0.14354124420726613   -0.06761622782343212
0.3884813597997387   -0.14354124420726613   -0.06761622782343212
0.3884813597997387   -0.14354124420726613   -0.06761622782343212
0.3884813597997387   -0.14354124420726613   -0.06761622782343212
0.47613363535393477   0.018328333028720674   0.050451039147214306
0.47613363535393477   0.018328333028720674   0.050451039147214306
0.47613363535393477   0.018328333028720674   0.050451039147214306
0.47613363535393477   0.018328333028720674   0.050451039147214306
1.0565891698773764   -0.0009669061179772148   -0.09000195125195282
1.0565891698773764   -0.0009669061179772148   -0.09000195125195282
1.0565891698773764   -0.0009669061179772148   -0.09000195125195282
1.0565891698773764   -0.0009669061179772148   -0.09000195125195282
0.7144575130546011   -0.00592236060340133   -0.03809654084081182
0.7144575130546011   -0.00592236060340133   -0.03809654084081182
0.7144575130546011   -0.00592236060340133   -0.03809654084081182
0.7144575130546011   -0.00592236060340133   -0.03809654084081182
1.1156579125333794   0.14751495984765073   0.056859896062419785
1.1156579125333794   0.14751495984765073   0.056859896062419785
1.1156579125333794   0.14751495984765073   0.056859896062419785
1.1156579125333794   0.14751495984765073   0.056859896062419785
0.4214629218160531   -0.1257555038187883   -0.07881869169468503
0.4214629218160531   -0.1257555038187883   -0.07881869169468503
0.4214629218160531   -0.1257555038187883   -0.07881869169468503
0.4214629218160531   -0.1257555038187883   -0.07881869169468503
0.5094541638419141   0.06070171178513768   0.043726430700658125
0.5094541638419141   0.06070171178513768   0.043726430700658125
0.5094541638419141   0.06070171178513768   0.043726430700658125
0.5094541638419141   0.06070171178513768   0.043726430700658125
1.1363447261547186   0.05605639216279945   -0.09709806876342264
1.1363447261547186   0.05605639216279945   -0.09709806876342264
1.1363447261547186   0.05605639216279945   -0.09709806876342264
1.1363447261547186   0.05605639216279945   -0.09709806876342264
0.7536658259531208   0.02280199751679709   -0.016593554224455603
0.7536658259531208   0.02280199751679709   -0.016593554224455603
0.7536658259531208   0.02280199751679709   -0.016593554224455603
0.7536658259531208   0.02280199751679709   -0.016593554224455603
0.42563594691230766   0.049698341711555294   0.06786031440529527
0.42563594691230766   0.049698341711555294   0.06786031440529527
0.42563594691230766   0.049698341711555294   0.06786031440529527
0.42563594691230766   0.049698341711555294   0.06786031440529527
-0.20703433881405092   -0.1519636394694094   -0.029298080555945752
-0.20703433881405092   -0.1519636394694094   -0.029298080555945752
-0.20703433881405092   -0.1519636394694094   -0.029298080555945752
-0.20703433881405092   -0.1519636394694094   -0.029298080555945752
-0.14894078236617042   -0.044429455463175505   0.02057961042589132
-0.14894078236617042   -0.044429455463175505   0.02057961042589132
-0.14894078236617042   -0.044429455463175505   0.02057961042589132
-0.14894078236617042   -0.044429455463175505   0.02057961042589132
0.4291150348883621   0.0010283363019291218   -0.009017432889513996
0.4291150348883621   0.0010283363019291218   -0.009017432889513996
0.4291150348883621   0.0010283363019291218   -0.009017432889513996
0.4291150348883621   0.0010283363019291218   -0.009017432889513996
0.11909660414216086   -0.03218986220150219   -0.026839013888978587
0.11909660414216086   -0.03218986220150219   -0.026839013888978587
0.11909660414216086   -0.03218986220150219   -0.026839013888978587
0.11909660414216086   -0.03218986220150219   -0.026839013888978587
0.4599035670053   0.08534517093780099   0.06060839305930341
0.4599035670053   0.08534517093780099   0.06060839305930341
0.4599035670053   0.08534517093780099   0.06060839305930341
0.4599035670053   0.08534517093780099   0.06060839305930341
-0.17724803447931106   -0.12626501009525018   -0.03912109550773724
-0.17724803447931106   -0.12626501009525018   -0.03912109550773724
-0.17724803447931106   -0.12626501009525018   -0.03912109550773724
-0.17724803447931106   -0.12626501009525018   -0.03912109550773724
-0.11785011056738327   -0.008455534774287923   0.013016002775522301
-0.11785011056738327   -0.008455534774287923   0.013016002775522301
-0.11785011056738327   -0.008455534774287923   0.013016002775522301
-0.11785011056738327   -0.008455534774287923   0.013016002775522301
0.4656807908146033   0.03331936854857019   -0.016804219069292706
0.4656807908146033   0.03331936854857019   -0.016804219069292706
0.4656807908146033   0.03331936854857019   -0.016804219069292706
0.4656807908146033   0.03331936854857019   -0.016804219069292706
0.14914408653088937   -0.0037561803474942222   -0.010676477033596303
0.14914408653088937   -0.0037561803474942222   -0.010676477033596303
0.14914408653088937   -0.0037561803474942222   -0.010676477033596303
0.14914408653088937   -0.0037561803474942222   -0.010676477033596303
0.49769932945398204   0.12281060100843937   0.05379724166773202
0.49769932945398204   0.12281060100843937   0.05379724166773202
0.49769932945398204   0.12281060100843937   0.05379724166773202
0.49769932945398204   0.12281060100843937   0.05379724166773202
-0.14738090521791944   -0.09545902324530425   -0.047634482006142224
-0.14738090521791944   -0.09545902324530425   -0.047634482006142224
-0.14738090521791944   -0.09545902324530425   -0.047634482006142224
-0.14738090521791944   -0.09545902324530425   -0.047634482006142224
-0.08715431028487776   0.03320101633530585   0.0054854431445870745
-0.08715431028487776   0.03320101633530585   0.0054854431445870745
-0.08715431028487776   0.03320101633530585   0.0054854431445870745
-0.08715431028487776   0.03320101633530585   0.0054854431445870745
0.49812203088728796   0.07175270569112377   -0.023985227978455648
0.49812203088728796   0.07175270569112377   -0.023985227978455648
0.49812203088728796   0.07175270569112377   -0.023985227978455648
0.49812203088728796   0.07175270569112377   -0.023985227978455648
0.18622297201925034   0.03109742402869936   0.00818796011922554
0.18622297201925034   0.03109742402869936   0.00818796011922554
0.18622297201925034   0.03109742402869936   0.00818796011922554
0.18622297201925034   0.03109742402869936   0.00818796011922554
-0.16286647823795428   0.010747683759131977   0.028829899095996044
-0.16286647823795428   0.010747683759131977   0.028829899095996044
-0.16286647823795428   0.010747683759131977   0.028829899095996044
-0.16286647823795428   0.010747683759131977   0.028829899095996044
-0.7611950516632604   -0.134139465752441   -0.0038464002623928295
-0.7611950516632604   -0.134139465752441   -0.0038464002623928295
-0.7611950516632604   -0.134139465752441   -0.0038464002623928295
-0.7611950516632604   -0.134139465752441   -0.0038464002623928295
-0.7243112046096656   -0.07889568242124102   -0.017893203586863443
-0.7243112046096656   -0.07889568242124102   -0.017893203586863443
-0.7243112046096656   -0.07889568242124102   -0.017893203586863443
-0.7243112046096656   -0.07889568242124102   -0.017893203586863443
-0.13637230074824255   0.019804590084381124   0.01918797296797403
-0.13637230074824255   0.019804590084381124   0.01918797296797403
-0.13637230074824255   0.019804590084381124   0.01918797296797403
-0.13637230074824255   0.019804590084381124   0.01918797296797403
-0.4469732866613986   -0.04126066851292604   -0.016750234388820257
-0.4469732866613986   -0.04126066851292604   -0.016750234388820257
-0.4469732866613986   -0.04126066851292604   -0.016750234388820257
-0.4469732866613986   -0.04126066851292604   -0.016750234388820257
-0.13023914510359247   0.0478575320437228   0.021800809231882604
-0.13023914510359247   0.0478575320437228   0.021800809231882604
-0.13023914510359247   0.0478575320437228   0.021800809231882604
-0.13023914510359247   0.0478575320437228   0.021800809231882604
-0.7287919298781194   -0.10529619400438646   -0.013896318345987035
-0.7287919298781194   -0.10529619400438646   -0.013896318345987035
-0.7287919298781194   -0.10529619400438646   -0.013896318345987035
-0.7287919298781194   -0.10529619400438646   -0.013896318345987035
-0.690047921574104   -0.03942667972101626   -0.024174248622103822
-0.690047921574104   -0.03942667972101626   -0.024174248622103822
-0.690047921574104   -0.03942667972101626   -0.024174248622103822
-0.690047921574104   -0.03942667972101626   -0.024174248622103822
-0.1061090034776251   0.052421908948649225   0.010844094501379825
-0.1061090034776251   0.052421908948649225   0.010844094501379825
-0.1061090034776251   0.052421908948649225   0.010844094501379825
-0.1061090034776251   0.052421908948649225   0.010844094501379825
-0.4124177103566472   -0.00823518003129458   -0.0002596467543904274
-0.4124177103566472   -0.00823518003129458   -0.0002596467543904274
-0.4124177103566472   -0.00823518003129458   -0.0002596467543904274
-0.4124177103566472   -0.00823518003129458   -0.0002596467543904274
-0.0987097112271692   0.08644025417770074   0.013822210524607761
-0.0987097112271692   0.08644025417770074   0.013822210524607761
-0.0987097112271692   0.08644025417770074   0.013822210524607761
-0.0987097112271692   0.08644025417770074   0.013822210524607761
-0.6959113474595315   -0.0719091585850394   -0.02100889918521831
-0.6959113474595315   -0.0719091585850394   -0.02100889918521831
-0.6959113474595315   -0.0719091585850394   -0.02100889918521831
-0.6959113474595315   -0.0719091585850394   -0.02100889918521831
-0.6581560242066457   -9.347561656936065e-05   -0.03168815380884488
-0.6581560242066457   -9.347561656936065e-05   -0.03168815380884488
-0.6581560242066457   -9.347561656936065e-05   -0.03168815380884488
-0.6581560242066457   -9.347561656936065e-05   -0.03168815380884488
-0.07721608539255158   0.08573941444460968   0.0026381694969141384
-0.07721608539255158   0.08573941444460968   0.0026381694969141384
-0.07721608539255158   0.08573941444460968   0.0026381694969141384
-0.07721608539255158   0.08573941444460968   0.0026381694969141384
-0.3806705017241969   0.024664968054985185   0.015434384046406624
-0.3806705017241969   0.024664968054985185   0.015434384046406624
-0.3806705017241969   0.024664968054985185   0.015434384046406624
-0.3806705017241969   0.024664968054985185   0.015434384046406624
-0.7416941592162385   -0.029075621463155996   -0.011405782316561808
-0.7416941592162385   -0.029075621463155996   -0.011405782316561808
-0.7416941592162385   -0.029075621463155996   -0.011405782316561808
-0.7416941592162385   -0.029075621463155996   -0.011405782316561808
-1.3025559725252227   -0.108610115923382   0.025243153648821293
-1.3025559725252227   -0.108610115923382   0.025243153648821293
-1.3025559725252227   -0.108610115923382   0.025243153648821293
-1.3025559725252227   -0.108610115923382   0.025243153648821293
-1.2845316755385485   -0.11198681810352605   -0.05385311964852979
-1.2845316755385485   -0.11198681810352605   -0.05385311964852979
-1.2845316755385485   -0.11198681810352605   -0.05385311964852979
-1.2845316755385485   -0.11198681810352605   -0.05385311964852979
-0.685216221157345   0.050423976886853385   0.048262054366649876
-0.685216221157345   0.050423976886853385   0.048262054366649876
-0.685216221157345   0.050423976886853385   0.048262054366649876
-0.685216221157345   0.050423976886853385   0.048262054366649876
-0.996556333281104   -0.043521400389057836   -0.005833730243879037
-0.996556333281104   -0.043521400389057836   -0.005833730243879037
-0.996556333281104   -0.043521400389057836   -0.005833730243879037
-0.996556333281104   -0.043521400389057836   -0.005833730243879037
-0.7062230269614923   0.010979946656787129   -0.017327944424020053
-0.7062230269614923   0.010979946656787129   -0.017327944424020053
-0.7062230269614923   0.010979946656787129   -0.017327944424020053
-0.7062230269614923   0.010979946656787129   -0.017327944424020053
-1.26345393446289   -0.07247185260194838   0.012020620228185841
-1.26345393446289   -0.07247185260194838   0.012020620228185841
-1.26345393446289   -0.07247185260194838   0.012020620228185841
-1.26345393446289   -0.07247185260194838   0.012020620228185841
-1.2397777440108708   -0.07341682382386212   -0.05956414200590904
-1.2397777440108708   -0.07341682382386212   -0.05956414200590904
-1.2397777440108708   -0.07341682382386212   -0.05956414200590904
-1.2397777440108708   -0.07341682382386212   -0.05956414200590904
-0.653307855232508   0.0815330566507111   0.038566346714154764
-0.653307855232508   0.0815330566507111   0.038566346714154764
-0.653307855232508   0.0815330566507111   0.038566346714154764
-0.653307855232508   0.0815330566507111   0.038566346714154764
-0.9510481688334106   -0.007013775488047033   0.010697111114582741
-0.9510481688334106   -0.007013775488047033   0.010697111114582741
-0.9510481688334106   -0.007013775488047033   0.010697111114582741
-0.9510481688334106   -0.007013775488047033   0.010697111114582741
-0.6730271233573979   0.046788951046747906   -0.025285888306331855
-0.6730271233573979   0.046788951046747906   -0.025285888306331855
-0.6730271233573979   0.046788951046747906   -0.025285888306331855
-0.6730271233573979   0.046788951046747906   -0.025285888306331855
-1.2190295998643488   -0.037643842198266775   0.008403597101106164
-1.2190295998643488   -0.037643842198266775   0.008403597101106164
-1.2190295998643488   -0.037643842198266775   0.008403597101106164
-1.2190295998643488   -0.037643842198266775   0.008403597101106164
-1.1997577268297852   -0.0315974599723586   -0.0626218368094609
-1.1997577268297852   -0.0315974599723586   -0.0626218368094609
-1.1997577268297852   -0.0315974599723586   -0.0626218368094609
-1.1997577268297852   -0.0315974599723586   -0.0626218368094609
-0.6224033872318435   0.11575585905939631   0.0312256963892064
-0.6224033872318435   0.11575585905939631   0.0312256963892064
-0.6224033872318435   0.11575585905939631   0.0312256963892064
-0.6224033872318435   0.11575585905939631   0.0312256963892064
-0.9202072373462059   0.024209479093241185   0.024961925167219207
-0.9202072373462059   0.024209479093241185   0.024961925167219207
-0.9202072373462059   0.024209479093241185   0.024961925167219207
-0.9202072373462059   0.024209479093241185   0.024961925167219207
-1.3080913855456668   -0.06239694112294654   -0.04864708625383368
-1.3080913855456668   -0.06239694112294654   -0.04864708625383368
-1.3080913855456668   -0.06239694112294654   -0.04864708625383368
-1.3080913855456668   -0.06239694112294654   -0.04864708625383368
-1.8640397914210023   -0.06717290207892915   0.08432044777901992
-1.8640397914210023   -0.06717290207892915   0.08432044777901992
-1.8640397914210023   -0.06717290207892915   0.08432044777901992
-1.8640397914210023   -0.06717290207892915   0.08432044777901992
-1.8279811721008472   -0.13408215702787582   -0.06439736256909828
-1.8279811721008472   -0.13408215702787582   -0.06439736256909828
-1.8279811721008472   -0.13408215702787582   -0.06439736256909828
-1.8279811721008472   -0.13408215702787582   -0.06439736256909828
-1.2133528213321771   0.10437377183973778   0.0856805614400536
-1.2133528213321771   0.10437377183973778   0.0856805614400536
-1.2133528213321771   0.10437377183973778   0.0856805614400536
-1.2133528213321771   0.10437377183973778   0.0856805614400536
-1.4844817232867629   -0.01835578354173957   0.01712877332505075
-1.4844817232867629   -0.01835578354173957   0.01712877332505075
-1.4844817232867629   -0.01835578354173957   0.01712877332505075
-1.4844817232867629   -0.01835578354173957   0.01712877332505075
-1.2661073418014976   -0.019642976889622833   -0.05407529217718274
-1.2661073418014976   -0.019642976889622833   -0.05407529217718274
-1.2661073418014976   -0.019642976889622833   -0.05407529217718274
-1.2661073418014976   -0.019642976889622833   -0.05407529217718274
-1.774368484073972   -0.00920724074095182   0.07879116127833907
-1.774368484073972   -0.00920724074095182   0.07879116127833907
-1.774368484073972   -0.00920724074095182   0.07879116127833907
-1.774368484073972   -0.00920724074095182   0.07879116127833907
-1.7603169792370945   -0.11013870379335078   -0.07582930266585203
-1.7603169792370945   -0.11013870379335078   -0.07582930266585203
-1.7603169792370945   -0.11013870379335078   -0.07582930266585203
-1.7603169792370945   -0.11013870379335078   -0.07582930266585203
-1.1757769718014845   0.11914375994692   0.06787913527024056
-1.1757769718014845   0.11914375994692   0.06787913527024056
-1.1757769718014845   0.11914375994692   0.06787913527024056
-1.1757769718014845   0.11914375994692   0.06787913527024056
-1.4494463473878358   0.007773713238441393   0.03090644946446075
-1.4494463473878358   0.007773713238441393   0.03090644946446075
-1.4494463473878358   0.007773713238441393   0.03090644946446075
-1.4494463473878358   0.007773713238441393   0.03090644946446075
-1.225551791733738   -0.00032503887360858796   -0.061526165570497615
-1.225551791733738   -0.00032503887360858796   -0.061526165570497615
-1.225551791733738   -0.00032503887360858796   -0.061526165570497615
-1.225551791733738   -0.00032503887360858796   -0.061526165570497615
-1.709689357164981   0.0101828971670226   0.056987206734311346
-1.709689357164981   0.0101828971670226   0.056987206734311346
-1.709689357164981   0.0101828971670226   0.056987206734311346
-1.709689357164981   0.0101828971670226   0.056987206734311346
-1.6863970746103796   -0.08134248722276005   -0.08639288913661902
-1.6863970746103796   -0.08134248722276005   -0.08639288913661902
-1.6863970746103796   -0.08134248722276005   -0.08639288913661902
-1.6863970746103796   -0.08134248722276005   -0.08639288913661902
-1.1427359057640967   0.13308225348817343   0.05780755505844465
-1.1427359057640967   0.13308225348817343   0.05780755505844465
-1.1427359057640967   0.13308225348817343   0.05780755505844465
-1.1427359057640967   0.13308225348817343   0.05780755505844465
-1.374925459503651   0.029511424823653223   0.05169321321008019
-1.374925459503651   0.029511424823653223   0.05169321321008019
-1.374925459503651   0.029511424823653223   0.05169321321008019
-1.374925459503651   0.029511424823653223   0.05169321321008019
1.6434378218776717   0.12276894931478921   0.08721884952950831
1.6434378218776717   0.12276894931478921   0.08721884952950831
1.6434378218776717   0.12276894931478921   0.08721884952950831
1.6434378218776717   0.12276894931478921   0.08721884952950831
0.7251978431758613   -0.1938399361030659   -0.04001367244935111
0.7251978431758613   -0.1938399361030659   -0.04001367244935111
0.7251978431758613   -0.1938399361030659   -0.04001367244935111
0.7251978431758613   -0.1938399361030659   -0.04001367244935111
0.8088531546635669   -0.03395701552998524   0.059933120699144096
0.8088531546635669   -0.03395701552998524   0.059933120699144096
0.8088531546635669   -0.03395701552998524   0.059933120699144096
0.8088531546635669   -0.03395701552998524   0.059933120699144096
1.6617033424104408   -0.003344715636190085   -0.062763014818905
1.6617033424104408   -0.003344715636190085   -0.062763014818905
1.6617033424104408   -0.003344715636190085   -0.062763014818905
1.6617033424104408   -0.003344715636190085   -0.062763014818905
1.1389236846322532   -0.03464958462937545   -0.0891900222007509
1.1389236846322532   -0.03464958462937545   -0.0891900222007509
1.1389236846322532   -0.03464958462937545   -0.0891900222007509
1.1389236846322532   -0.03464958462937545   -0.0891900222007509
1.719683022055414   0.15081705613542207   0.07297361163433375
1.719683022055414   0.15081705613542207   0.07297361163433375
1.719683022055414   0.15081705613542207   0.07297361163433375
1.719683022055414   0.15081705613542207   0.07297361163433375
0.7564385943792529   -0.18255366794094025   -0.0535430283114679
0.7564385943792529   -0.18255366794094025   -0.0535430283114679
0.7564385943792529   -0.18255366794094025   -0.0535430283114679
0.7564385943792529   -0.18255366794094025   -0.0535430283114679
0.8416194954070095   -0.01626720951435131   0.048466206236605025
0.8416194954070095   -0.01626720951435131   0.048466206236605025
0.8416194954070095   -0.01626720951435131   0.048466206236605025
0.8416194954070095   -0.01626720951435131   0.048466206236605025
1.7188854554215491   0.016166180163798005   -0.07845355632881618
1.7188854554215491   0.016166180163798005   -0.07845355632881618
1.7188854554215491   0.016166180163798005   -0.07845355632881618
1.7188854554215491   0.016166180163798005   -0.07845355632881618
1.2106786069006314   -0.01378624896581837   -0.060649155765181706
1.2106786069006314   -0.01378624896581837   -0.060649155765181706
1.2106786069006314   -0.01378624896581837   -0.060649155765181706
1.2106786069006314   -0.01378624896581837   -0.060649155765181706
1.7765303000967254   0.1718408996820362   0.05409594752882679
1.7765303000967254   0.1718408996820362   0.05409594752882679
1.7765303000967254   0.1718408996820362   0.05409594752882679
1.7765303000967254   0.1718408996820362   0.05409594752882679
0.788848384593745   -0.16706819517068805   -0.06458836217338093
0.788848384593745   -0.16706819517068805   -0.06458836217338093
0.788848384593745   -0.16706819517068805   -0.06458836217338093
0.788848384593745   -0.16706819517068805   -0.06458836217338093
0.8712951767657595   0.030964445884877963   0.042491749235990306
0.8712951767657595   0.030964445884877963   0.042491749235990306
0.8712951767657595   0.030964445884877963   0.042491749235990306
0.8712951767657595   0.030964445884877963   0.042491749235990306
1.789211514537048   0.07324334180087291   -0.0821684417179327
1.789211514537048   0.07324334180087291   -0.0821684417179327
1.789211514537048   0.07324334180087291   -0.0821684417179327
1.789211514537048   0.07324334180087291   -0.0821684417179327
1.2376134720660534   0.014282309031763737   -0.040875750181134485
1.2376134720660534   0.014282309031763737   -0.040875750181134485
1.2376134720660534   0.014282309031763737   -0.040875750181134485
1.2376134720660534   0.014282309031763737   -0.040875750181134485
0.8022586102284452   0.07170384316031496   0.07974638355017981
0.8022586102284452   0.07170384316031496   0.07974638355017981
0.8022586102284452   0.07170384316031496   0.07974638355017981
0.8022586102284452   0.07170384316031496   0.07974638355017981
-0.09866921452058039   -0.2389552485889603   -0.022768157936162957
-0.09866921452058039   -0.2389552485889603   -0.022768157936162957
-0.09866921452058039   -0.2389552485889603   -0.022768157936162957
-0.09866921452058039   -0.2389552485889603   -0.022768157936162957
-0.02656590650241067   -0.08423614441486438   0.020341104917291304
-0.02656590650241067   -0.08423614441486438   0.020341104917291304
-0.02656590650241067   -0.08423614441486438   0.020341104917291304
-0.02656590650241067   -0.08423614441486438   0.020341104917291304
0.7955337279757323   -0.04453543333437557   0.003914405064361137
0.7955337279757323   -0.04453543333437557   0.003914405064361137
0.7955337279757323   -0.04453543333437557   0.003914405064361137
0.7955337279757323   -0.04453543333437557   0.003914405064361137
0.3581665283259708   -0.06674154439291084   -0.04256472799490388
0.3581665283259708   -0.06674154439291084   -0.04256472799490388
0.3581665283259708   -0.06674154439291084   -0.04256472799490388
0.3581665283259708   -0.06674154439291084   -0.04256472799490388
0.8375100831886594   0.09863581841567959   0.07062492937894116
0.8375100831886594   0.09863581841567959   0.07062492937894116
0.8375100831886594   0.09863581841567959   0.07062492937894116
0.8375100831886594   0.09863581841567959   0.07062492937894116
-0.06561505895889844   -0.22448019340848027   -0.03466060837153164
-0.06561505895889844   -0.22448019340848027   -0.03466060837153164
-0.06561505895889844   -0.22448019340848027   -0.03466060837153164
-0.06561505895889844   -0.22448019340848027   -0.03466060837153164
0.006849693897581241   -0.052599704774622315   0.012431511231766786
0.006849693897581241   -0.052599704774622315   0.012431511231766786
0.006849693897581241   -0.052599704774622315   0.012431511231766786
0.006849693897581241   -0.052599704774622315   0.012431511231766786
0.8297412752415234   -0.020683621295292207   -0.006508482809884919
0.8297412752415234   -0.020683621295292207   -0.006508482809884919
0.8297412752415234   -0.020683621295292207   -0.006508482809884919
0.8297412752415234   -0.020683621295292207   -0.006508482809884919
0.38721280386843077   -0.04732222361397981   -0.02760264376903536
0.38721280386843077   -0.04732222361397981   -0.02760264376903536
0.38721280386843077   -0.04732222361397981   -0.02760264376903536
0.38721280386843077   -0.04732222361397981   -0.02760264376903536
0.8739729619876715   0.13094326043513949   0.06302306919042422
0.8739729619876715   0.13094326043513949   0.06302306919042422
0.8739729619876715   0.13094326043513949   0.06302306919042422
0.8739729619876715   0.13094326043513949   0.06302306919042422
-0.03564569132354884   -0.20249028498001612   -0.05015483466849365
-0.03564569132354884   -0.20249028498001612   -0.05015483466849365
-0.03564569132354884   -0.20249028498001612   -0.05015483466849365
-0.03564569132354884   -0.20249028498001612   -0.05015483466849365
0.03307668572129304   -0.015572447479408178   0.00443435133487949
0.03307668572129304   -0.015572447479408178   0.00443435133487949
0.03307668572129304   -0.015572447479408178   0.00443435133487949
0.03307668572129304   -0.015572447479408178   0.00443435133487949
0.8553630295441734   0.009722710968403131   -0.015927251955477006
0.8553630295441734   0.009722710968403131   -0.015927251955477006
0.8553630295441734   0.009722710968403131   -0.015927251955477006
0.8553630295441734   0.009722710968403131   -0.015927251955477006
0.42273462286666563   -0.018285036418755635   -0.011565499785324798
0.42273462286666563   -0.018285036418755635   -0.011565499785324798
0.42273462286666563   -0.018285036418755635   -0.011565499785324798
0.42273462286666563   -0.018285036418755635   -0.011565499785324798
-0.0344243869802218   0.019903411226639092   0.03959731995003054
-0.0344243869802218   0.019903411226639092   0.03959731995003054
-0.0344243869802218   0.019903411226639092   0.03959731995003054
-0.0344243869802218   0.019903411226639092   0.03959731995003054
-0.9162003219490117   -0.300015591046873   -0.018344170311723973
-0.9162003219490117   -0.300015591046873   -0.018344170311723973
-0.9162003219490117   -0.300015591046873   -0.018344170311723973
-0.9162003219490117   -0.300015591046873   -0.018344170311723973
-0.8431967889833175   -0.12925174278270796   -0.01926920313245767
-0.8431967889833175   -0.12925174278270796   -0.01926920313245767
-0.8431967889833175   -0.12925174278270796   -0.01926920313245767
-0.8431967889833175   -0.12925174278270796   -0.01926920313245767
-0.030955514087074212   -0.10367392440768425   0.0178308469867935
-0.030955514087074212   -0.10367392440768425   0.0178308469867935
-0.030955514087074212   -0.10367392440768425   0.0178308469867935
-0.030955514087074212   -0.10367392440768425   0.0178308469867935
-0.4582804386450965   -0.1213864235279358   -0.03803913630021491
-0.4582804386450965   -0.1213864235279358   -0.03803913630021491
-0.4582804386450965   -0.1213864235279358   -0.03803913630021491
-0.4582804386450965   -0.1213864235279358   -0.03803913630021491
0.002687604065566073   0.05021123260168537   0.032161280740625284
0.002687604065566073   0.05021123260168537   0.032161280740625284
0.002687604065566073   0.05021123260168537   0.032161280740625284
0.002687604065566073   0.05021123260168537   0.032161280740625284
-0.8747280935829717   -0.2810250862390914   -0.02515238267434458
-0.8747280935829717   -0.2810250862390914   -0.02515238267434458
-0.8747280935829717   -0.2810250862390914   -0.02515238267434458
-0.8747280935829717   -0.2810250862390914   -0.02515238267434458
-0.8017553653316175   -0.09412722463498656   -0.02625521156280669
-0.8017553653316175   -0.09412722463498656   -0.02625521156280669
-0.8017553653316175   -0.09412722463498656   -0.02625521156280669
-0.8017553653316175   -0.09412722463498656   -0.02625521156280669
0.00018057069480452003   -0.08075697149803934   0.007243161941296369
0.00018057069480452003   -0.08075697149803934   0.007243161941296369
0.00018057069480452003   -0.08075697149803934   0.007243161941296369
0.00018057069480452003   -0.08075697149803934   0.007243161941296369
-0.4180510149060177   -0.09614273690241569   -0.021143249831919925
-0.4180510149060177   -0.09614273690241569   -0.021143249831919925
-0.4180510149060177   -0.09614273690241569   -0.021143249831919925
-0.4180510149060177   -0.09614273690241569   -0.021143249831919925
0.03665047912639258   0.08381011090784687   0.025025621693350406
0.03665047912639258   0.08381011090784687   0.025025621693350406
0.03665047912639258   0.08381011090784687   0.025025621693350406
0.03665047912639258   0.08381011090784687   0.025025621693350406
-0.8382504563886993   -0.25871948966637687   -0.04413840181682585
-0.8382504563886993   -0.25871948966637687   -0.04413840181682585
-0.8382504563886993   -0.25871948966637687   -0.04413840181682585
-0.8382504563886993   -0.25871948966637687   -0.04413840181682585
-0.7724729787708949   -0.06065362174638162   -0.03407011807976024
-0.7724729787708949   -0.06065362174638162   -0.03407011807976024
-0.7724729787708949   -0.06065362174638162   -0.03407011807976024
-0.7724729787708949   -0.06065362174638162   -0.03407011807976024
0.020632639576965723   -0.06246434614481478   -0.010893980721350479
0.020632639576965723   -0.06246434614481478   -0.010893980721350479
0.020632639576965723   -0.06246434614481478   -0.010893980721350479
0.020632639576965723   -0.06246434614481478   -0.010893980721350479
-0.3885409650792441   -0.07260920264911247   -0.01057986174178735
-0.3885409650792441   -0.07260920264911247   -0.01057986174178735
-0.3885409650792441   -0.07260920264911247   -0.01057986174178735
-0.3885409650792441   -0.07260920264911247   -0.01057986174178735
-0.8577890354545885   -0.024971687513596394   -0.0013316413728849397
-0.8577890354545885   -0.024971687513596394   -0.0013316413728849397
-0.8577890354545885   -0.024971687513596394   -0.0013316413728849397
-0.8577890354545885   -0.024971687513596394   -0.0013316413728849397
-1.7373895896610385   -0.32255271431134924   -0.014784383374515875
-1.7373895896610385   -0.32255271431134924   -0.014784383374515875
-1.7373895896610385   -0.32255271431134924   -0.014784383374515875
-1.7373895896610385   -0.32255271431134924   -0.014784383374515875
-1.6589240493012336   -0.16544967429124513   -0.05739837337995424
-1.6589240493012336   -0.16544967429124513   -0.05739837337995424
-1.6589240493012336   -0.16544967429124513   -0.05739837337995424
-1.6589240493012336   -0.16544967429124513   -0.05739837337995424
-0.8274559821720641   -0.10768727309328091   0.0378703612343832
-0.8274559821720641   -0.10768727309328091   0.0378703612343832
-0.8274559821720641   -0.10768727309328091   0.0378703612343832
-0.8274559821720641   -0.10768727309328091   0.0378703612343832
-1.2592451087503438   -0.145861802459657   -0.026820200604654232
-1.2592451087503438   -0.145861802459657   -0.026820200604654232
-1.2592451087503438   -0.145861802459657   -0.026820200604654232
-1.2592451087503438   -0.145861802459657   -0.026820200604654232
-0.8120095229237854   0.014079985447278676   -0.006664601064783365
-0.8120095229237854   0.014079985447278676   -0.006664601064783365
-0.8120095229237854   0.014079985447278676   -0.006664601064783365
-0.8120095229237854   0.014079985447278676   -0.006664601064783365
-1.6750588049723396   -0.2879052292546297   -0.015616596772085212
-1.6750588049723396   -0.2879052292546297   -0.015616596772085212
-1.6750588049723396   -0.2879052292546297   -0.015616596772085212
-1.6750588049723396   -0.2879052292546297   -0.015616596772085212
-1.5997031870013456   -0.12875651145594846   -0.06648616205030533
-1.5997031870013456   -0.12875651145594846   -0.06648616205030533
-1.5997031870013456   -0.12875651145594846   -0.06648616205030533
-1.5997031870013456   -0.12875651145594846   -0.06648616205030533
-0.7871970626697979   -0.08012480303733192   0.032533880148642835
-0.7871970626697979   -0.08012480303733192   0.032533880148642835
-0.7871970626697979   -0.08012480303733192   0.032533880148642835
-0.7871970626697979   -0.08012480303733192   0.032533880148642835
-1.1984150733747636   -0.11065904163719666   -0.00885257492613195
-1.1984150733747636   -0.11065904163719666   -0.00885257492613195
-1.1984150733747636   -0.11065904163719666   -0.00885257492613195
-1.1984150733747636   -0.11065904163719666   -0.00885257492613195
-0.7704663755528206   0.0480004881525466   -0.01193797545635511
-0.7704663755528206   0.0480004881525466   -0.01193797545635511
-0.7704663755528206   0.0480004881525466   -0.01193797545635511
-0.7704663755528206   0.0480004881525466   -0.01193797545635511
-1.619303837701267   -0.2597517662287594   -0.03349416077708689
-1.619303837701267   -0.2597517662287594   -0.03349416077708689
-1.619303837701267   -0.2597517662287594   -0.03349416077708689
-1.619303837701267   -0.2597517662287594   -0.03349416077708689
-1.5516246232120159   -0.09005297420857727   -0.06859723397048934
-1.5516246232120159   -0.09005297420857727   -0.06859723397048934
-1.5516246232120159   -0.09005297420857727   -0.06859723397048934
-1.5516246232120159   -0.09005297420857727   -0.06859723397048934
-0.7640641730713329   -0.06260205342354161   0.009922342095213726
-0.7640641730713329   -0.06260205342354161   0.009922342095213726
-0.7640641730713329   -0.06260205342354161   0.009922342095213726
-0.7640641730713329   -0.06260205342354161   0.009922342095213726
-1.1647755615808086   -0.08919240997407915   -0.0029972806840221633
-1.1647755615808086   -0.08919240997407915   -0.0029972806840221633
-1.1647755615808086   -0.08919240997407915   -0.0029972806840221633
-1.1647755615808086   -0.08919240997407915   -0.0029972806840221633
-1.6898448173631802   -0.05760053671873616   -0.0420126994778372
-1.6898448173631802   -0.05760053671873616   -0.0420126994778372
-1.6898448173631802   -0.05760053671873616   -0.0420126994778372
-1.6898448173631802   -0.05760053671873616   -0.0420126994778372
-2.5480109130707125   -0.21781137358396124   0.09664169814264045
-2.5480109130707125   -0.21781137358396124   0.09664169814264045
-2.5480109130707125   -0.21781137358396124   0.09664169814264045
-2.5480109130707125   -0.21781137358396124   0.09664169814264045
-2.460194144537672   -0.1733601808073721   -0.05614787859000103
-2.460194144537672   -0.1733601808073721   -0.05614787859000103
-2.460194144537672   -0.1733601808073721   -0.05614787859000103
-2.460194144537672   -0.1733601808073721   -0.05614787859000103
-1.5875222589805145   0.04538439859043776   0.08877650534194476
-1.5875222589805145   0.04538439859043776   0.08877650534194476
-1.5875222589805145   0.04538439859043776   0.08877650534194476
-1.5875222589805145   0.04538439859043776   0.08877650534194476
-1.9787527489021715   -0.06843420683163919   0.009306354120161509
-1.9787527489021715   -0.06843420683163919   0.009306354120161509
-1.9787527489021715   -0.06843420683163919   0.009306354120161509
-1.9787527489021715   -0.06843420683163919   0.009306354120161509
-1.6245288215579614   -0.004309935236996673   -0.046561973717834326
-1.6245288215579614   -0.004309935236996673   -0.046561973717834326
-1.6245288215579614   -0.004309935236996673   -0.046561973717834326
-1.6245288215579614   -0.004309935236996673   -0.046561973717834326
-2.417217898593716   -0.1176961636134288   0.1030693339358133
-2.417217898593716   -0.1176961636134288   0.1030693339358133
-2.417217898593716   -0.1176961636134288   0.1030693339358133
-2.417217898593716   -0.1176961636134288   0.1030693339358133
-2.3660097755866007   -0.14585183087433604   -0.06686601505086198
-2.3660097755866007   -0.14585183087433604   -0.06686601505086198
-2.3660097755866007   -0.14585183087433604   -0.06686601505086198
-2.3660097755866007   -0.14585183087433604   -0.06686601505086198
-1.5289407040440166   0.07281806001323812   0.08575168126715293
-1.5289407040440166   0.07281806001323812   0.08575168126715293
-1.5289407040440166   0.07281806001323812   0.08575168126715293
-1.5289407040440166   0.07281806001323812   0.08575168126715293
-1.9230075197720384   -0.02760733561240744   0.039366204249748016
-1.9230075197720384   -0.02760733561240744   0.039366204249748016
-1.9230075197720384   -0.02760733561240744   0.039366204249748016
-1.9230075197720384   -0.02760733561240744   0.039366204249748016
-1.5672658323426671   0.01721581728504465   -0.05027171749789211
-1.5672658323426671   0.01721581728504465   -0.05027171749789211
-1.5672658323426671   0.01721581728504465   -0.05027171749789211
-1.5672658323426671   0.01721581728504465   -0.05027171749789211
-2.3264870576766077   -0.08905199853479434   0.07394774215958166
-2.3264870576766077   -0.08905199853479434   0.07394774215958166
-2.3264870576766077   -0.08905199853479434   0.07394774215958166
-2.3264870576766077   -0.08905199853479434   0.07394774215958166
-2.268619652669074   -0.11981572215051388   -0.08079857623001457
-2.268619652669074   -0.11981572215051388   -0.08079857623001457
-2.268619652669074   -0.11981572215051388   -0.08079857623001457
-2.268619652669074   -0.11981572215051388   -0.08079857623001457
-1.485474576576798   0.10573165025289101   0.06636837474413698
-1.485474576576798   0.10573165025289101   0.06636837474413698
-1.485474576576798   0.10573165025289101   0.06636837474413698
-1.485474576576798   0.10573165025289101   0.06636837474413698
-1.8183745720820998   0.007312210514035966   0.06943236431345234
-1.8183745720820998   0.007312210514035966   0.06943236431345234
-1.8183745720820998   0.007312210514035966   0.06943236431345234
-1.8183745720820998   0.007312210514035966   0.06943236431345234
2.245467085801368   0.13452956490542614   0.08156458996760285
2.245467085801368   0.13452956490542614   0.08156458996760285
2.245467085801368   0.13452956490542614   0.08156458996760285
2.245467085801368   0.13452956490542614   0.08156458996760285
1.0707508006810271   -0.2007258645714441   0.01841568415537781
1.0707508006810271   -0.2007258645714441   0.01841568415537781
1.0707508006810271   -0.2007258645714441   0.01841568415537781
1.0707508006810271   -0.2007258645714441   0.01841568415537781
1.1299864227127545   -0.0845761359127401   0.06279680349609268
1.1299864227127545   -0.0845761359127401   0.06279680349609268
1.1299864227127545   -0.0845761359127401   0.06279680349609268
1.1299864227127545   -0.0845761359127401   0.06279680349609268
2.2573929647281887   0.018847496540008973   -0.01801006722837739
2.2573929647281887   0.018847496540008973   -0.01801006722837739
2.2573929647281887   0.018847496540008973   -0.01801006722837739
2.2573929647281887   0.018847496540008973   -0.01801006722837739
1.5788917512552632   -0.04321362654224904   -0.10502837376043023
1.5788917512552632   -0.04321362654224904   -0.10502837376043023
1.5788917512552632   -0.04321362654224904   -0.10502837376043023
1.5788917512552632   -0.04321362654224904   -0.10502837376043023
2.3000847919064045   0.14978624188942774   0.06451032331328166
2.3000847919064045   0.14978624188942774   0.06451032331328166
2.3000847919064045   0.14978624188942774   0.06451032331328166
2.3000847919064045   0.14978624188942774   0.06451032331328166
1.0975494406773079   -0.20526003611938998   0.02129579352550917
1.0975494406773079   -0.20526003611938998   0.02129579352550917
1.0975494406773079   -0.20526003611938998   0.02129579352550917
1.0975494406773079   -0.20526003611938998   0.02129579352550917
1.1524612460929564   -0.07186823261695563   0.047798589096069766
1.1524612460929564   -0.07186823261695563   0.047798589096069766
1.1524612460929564   -0.07186823261695563   0.047798589096069766
1.1524612460929564   -0.07186823261695563   0.047798589096069766
2.297058491975702   0.033180971787149405   -0.005366883730314687
2.297058491975702   0.033180971787149405   -0.005366883730314687
2.297058491975702   0.033180971787149405   -0.005366883730314687
2.297058491975702   0.033180971787149405   -0.005366883730314687
1.6441324273586033   -0.03419748659466228   -0.07171828929326085
1.6441324273586033   -0.03419748659466228   -0.07171828929326085
1.6441324273586033   -0.03419748659466228   -0.07171828929326085
1.6441324273586033   -0.03419748659466228   -0.07171828929326085
2.333167523560295   0.16365429521104838   0.04470495076875103
2.333167523560295   0.16365429521104838   0.04470495076875103
2.333167523560295   0.16365429521104838   0.04470495076875103
2.333167523560295   0.16365429521104838   0.04470495076875103
1.1234860811925151   -0.19520768935670285   0.026262221333610974
1.1234860811925151   -0.19520768935670285   0.026262221333610974
1.1234860811925151   -0.19520768935670285   0.026262221333610974
1.1234860811925151   -0.19520768935670285   0.026262221333610974
1.1855207347160204   -0.022322058794495836   0.04369533512631257
1.1855207347160204   -0.022322058794495836   0.04369533512631257
1.1855207347160204   -0.022322058794495836   0.04369533512631257
1.1855207347160204   -0.022322058794495836   0.04369533512631257
2.3382866147757992   0.06596309818760371   -0.0007255208863140572
2.3382866147757992   0.06596309818760371   -0.0007255208863140572
2.3382866147757992   0.06596309818760371   -0.0007255208863140572
2.3382866147757992   0.06596309818760371   -0.0007255208863140572
1.6523345141760086   -0.015837186748031404   -0.05356485192898042
1.6523345141760086   -0.015837186748031404   -0.05356485192898042
1.6523345141760086   -0.015837186748031404   -0.05356485192898042
1.6523345141760086   -0.015837186748031404   -0.05356485192898042
1.1299717553042923   0.028404579586092438   0.08539001311416675
1.1299717553042923   0.028404579586092438   0.08539001311416675
1.1299717553042923   0.028404579586092438   0.08539001311416675
1.1299717553042923   0.028404579586092438   0.08539001311416675
0.06019975059663474   -0.40023481467497635   0.041238334660469264
0.06019975059663474   -0.40023481467497635   0.041238334660469264
0.06019975059663474   -0.40023481467497635   0.041238334660469264
0.06019975059663474   -0.40023481467497635   0.041238334660469264
0.13745406388317138   -0.1692549350763248   0.0383965604471145
0.13745406388317138   -0.1692549350763248   0.0383965604471145
0.13745406388317138   -0.1692549350763248   0.0383965604471145
0.13745406388317138   -0.1692549350763248   0.0383965604471145
1.1009414497112688   -0.19300265358316832   0.025998456159081307
1.1009414497112688   -0.19300265358316832   0.025998456159081307
1.1009414497112688   -0.19300265358316832   0.025998456159081307
1.1009414497112688   -0.19300265358316832   0.025998456159081307
0.5874000397426858   -0.17964154817821956   -0.06726010502369792
0.5874000397426858   -0.17964154817821956   -0.06726010502369792
0.5874000397426858   -0.17964154817821956   -0.06726010502369792
0.5874000397426858   -0.17964154817821956   -0.06726010502369792
1.1568400231230056   0.041200565507618   0.07128810412699432
1.1568400231230056   0.041200565507618   0.07128810412699432
1.1568400231230056   0.041200565507618   0.07128810412699432
1.1568400231230056   0.041200565507618   0.07128810412699432
0.0963115617790678   -0.3887020828594754   0.05213119770974714
0.0963115617790678   -0.3887020828594754   0.05213119770974714
0.0963115617790678   -0.3887020828594754   0.05213119770974714
0.0963115617790678   -0.3887020828594754   0.05213119770974714
0.16853560184006214   -0.14605202804126685   0.02785515686170316
0.16853560184006214   -0.14605202804126685   0.02785515686170316
0.16853560184006214   -0.14605202804126685   0.02785515686170316
0.16853560184006214   -0.14605202804126685   0.02785515686170316
1.1275360384782132   -0.18086733492014223   0.03217165332553981
1.1275360384782132   -0.18086733492014223   0.03217165332553981
1.1275360384782132   -0.18086733492014223   0.03217165332553981
1.1275360384782132   -0.18086733492014223   0.03217165332553981
0.613879591808355   -0.1707726171610156   -0.033629480053377736
0.613879591808355   -0.1707726171610156   -0.033629480053377736
0.613879591808355   -0.1707726171610156   -0.033629480053377736
0.613879591808355   -0.1707726171610156   -0.033629480053377736
1.1818961442635927   0.06305834878130856   0.06004649855098798
1.1818961442635927   0.06305834878130856   0.06004649855098798
1.1818961442635927   0.06305834878130856   0.06004649855098798
1.1818961442635927   0.06305834878130856   0.06004649855098798
0.12837370603342088   -0.37577950176396885   0.056773151551198914
0.12837370603342088   -0.37577950176396885   0.056773151551198914
0.12837370603342088   -0.37577950176396885   0.056773151551198914
0.12837370603342088   -0.37577950176396885   0.056773151551198914
0.2162274441605955   -0.1112243602420178   0.01847297737593487
0.2162274441605955   -0.1112243602420178   0.01847297737593487
0.2162274441605955   -0.1112243602420178   0.01847297737593487
0.2162274441605955   -0.1112243602420178   0.01847297737593487
1.1566543699645964   -0.16241330365388557   0.03945475622858993
1.1566543699645964   -0.16241330365388557   0.03945475622858993
1.1566543699645964   -0.16241330365388557   0.03945475622858993
1.1566543699645964   -0.16241330365388557   0.03945475622858993
0.6602343365425435   -0.1492656675584072   0.005499636775705599
0.6602343365425435   -0.1492656675584072   0.005499636775705599
0.6602343365425435   -0.1492656675584072   0.005499636775705599
0.6602343365425435   -0.1492656675584072   0.005499636775705599
0.12767950791365665   -0.07657527474822837   0.05497758131883084
0.12767950791365665   -0.07657527474822837   0.05497758131883084
0.12767950791365665   -0.07657527474822837   0.05497758131883084
0.12767950791365665   -0.07657527474822837   0.05497758131883084
-0.9587855474484409   -0.6877806961216447   0.059639658334328105
-0.9587855474484409   -0.6877806961216447   0.059639658334328105
-0.9587855474484409   -0.6877806961216447   0.059639658334328105
-0.9587855474484409   -0.6877806961216447   0.059639658334328105
-0.8365966717495945   -0.2675545726563048   0.004068763406272324
-0.8365966717495945   -0.2675545726563048   0.004068763406272324
-0.8365966717495945   -0.2675545726563048   0.004068763406272324
-0.8365966717495945   -0.2675545726563048   0.004068763406272324
0.0679226946972145   -0.5011209224788126   0.022605701919817964
0.0679226946972145   -0.5011209224788126   0.022605701919817964
0.0679226946972145   -0.5011209224788126   0.022605701919817964
0.0679226946972145   -0.5011209224788126   0.022605701919817964
-0.4125329784912792   -0.3860117387385315   -0.08071353277087759
-0.4125329784912792   -0.3860117387385315   -0.08071353277087759
-0.4125329784912792   -0.3860117387385315   -0.08071353277087759
-0.4125329784912792   -0.3860117387385315   -0.08071353277087759
0.16022566843065464   -0.060336606399890184   0.04333625450809622
0.16022566843065464   -0.060336606399890184   0.04333625450809622
0.16022566843065464   -0.060336606399890184   0.04333625450809622
0.16022566843065464   -0.060336606399890184   0.04333625450809622
-0.9075611485485588   -0.6870003918007506   0.06869219855590136
-0.9075611485485588   -0.6870003918007506   0.06869219855590136
-0.9075611485485588   -0.6870003918007506   0.06869219855590136
-0.9075611485485588   -0.6870003918007506   0.06869219855590136
-0.7894684357407827   -0.2401192624427563   8.071365336018155e-05
-0.7894684357407827   -0.2401192624427563   8.071365336018155e-05
-0.7894684357407827   -0.2401192624427563   8.071365336018155e-05
-0.7894684357407827   -0.2401192624427563   8.071365336018155e-05
0.10068374362291438   -0.49016851076309564   0.032712348497793184
0.10068374362291438   -0.49016851076309564   0.032712348497793184
0.10068374362291438   -0.49016851076309564   0.032712348497793184
0.10068374362291438   -0.49016851076309564   0.032712348497793184
-0.36481461038028007   -0.37290120603111004   -0.030138458125135853
-0.36481461038028007   -0.37290120603111004   -0.030138458125135853
-0.36481461038028007   -0.37290120603111004   -0.030138458125135853
-0.36481461038028007   -0.37290120603111004   -0.030138458125135853
0.18998070746412438   -0.03869987095358117   0.027728527894328742
0.18998070746412438   -0.03869987095358117   0.027728527894328742
0.18998070746412438   -0.03869987095358117   0.027728527894328742
0.18998070746412438   -0.03869987095358117   0.027728527894328742
-0.8594901778834791   -0.6723126805537549   0.08216542105089031
-0.8594901778834791   -0.6723126805537549   0.08216542105089031
-0.8594901778834791   -0.6723126805537549   0.08216542105089031
-0.8594901778834791   -0.6723126805537549   0.08216542105089031
-0.711702500873331   -0.2085099590069787   -0.008786904581873284
-0.711702500873331   -0.2085099590069787   -0.008786904581873284
-0.711702500873331   -0.2085099590069787   -0.008786904581873284
-0.711702500873331   -0.2085099590069787   -0.008786904581873284
0.15182836730251023   -0.4594722927619332   0.04472552560542391
0.15182836730251023   -0.4594722927619332   0.04472552560542391
0.15182836730251023   -0.4594722927619332   0.04472552560542391
0.15182836730251023   -0.4594722927619332   0.04472552560542391
-0.30287162790460703   -0.34344517483912085   0.022836743665725745
-0.30287162790460703   -0.34344517483912085   0.022836743665725745
-0.30287162790460703   -0.34344517483912085   0.022836743665725745
-0.30287162790460703   -0.34344517483912085   0.022836743665725745
-0.8555134074946367   -0.13798055733902156   0.02620021932072053
-0.8555134074946367   -0.13798055733902156   0.02620021932072053
-0.8555134074946367   -0.13798055733902156   0.02620021932072053
-0.8555134074946367   -0.13798055733902156   0.02620021932072053
-2.1345759067317225   -1.0710391416097407   -0.05073246221954553
-2.1345759067317225   -1.0710391416097407   -0.05073246221954553
-2.1345759067317225   -1.0710391416097407   -0.05073246221954553
-2.1345759067317225   -1.0710391416097407   -0.05073246221954553
-1.9328740264538564   -0.3481448955944564   -0.05899970698970164
-1.9328740264538564   -0.3481448955944564   -0.05899970698970164
-1.9328740264538564   -0.3481448955944564   -0.05899970698970164
-1.9328740264538564   -0.3481448955944564   -0.05899970698970164
-0.9595232634402228   -0.895972518386228   0.01785375068305428
-0.9595232634402228   -0.895972518386228   0.01785375068305428
-0.9595232634402228   -0.895972518386228   0.01785375068305428
-0.9595232634402228   -0.895972518386228   0.01785375068305428
-1.4689499255855243   -0.6334815118546767   -0.08475538562590235
-1.4689499255855243   -0.6334815118546767   -0.08475538562590235
-1.4689499255855243   -0.6334815118546767   -0.08475538562590235
-1.4689499255855243   -0.6334815118546767   -0.08475538562590235
-0.7998249820038966   -0.10471718117569394   0.02508982065415069
-0.7998249820038966   -0.10471718117569394   0.02508982065415069
-0.7998249820038966   -0.10471718117569394   0.02508982065415069
-0.7998249820038966   -0.10471718117569394   0.02508982065415069
-2.087784279219258   -1.1346122041340532   -0.04708366227709726
-2.087784279219258   -1.1346122041340532   -0.04708366227709726
-2.087784279219258   -1.1346122041340532   -0.04708366227709726
-2.087784279219258   -1.1346122041340532   -0.04708366227709726
-1.870167692392624   -0.31524705280486365   -0.06010673896618962
-1.870167692392624   -0.31524705280486365   -0.06010673896618962
-1.870167692392624   -0.31524705280486365   -0.06010673896618962
-1.870167692392624   -0.31524705280486365   -0.06010673896618962
-0.9138544733013114   -0.8890019571312766   0.02703322053924412
-0.9138544733013114   -0.8890019571312766   0.02703322053924412
-0.9138544733013114   -0.8890019571312766   0.02703322053924412
-0.9138544733013114   -0.8890019571312766   0.02703322053924412
-1.4031967386375206   -0.6164351111850312   -0.059577016494709034
-1.4031967386375206   -0.6164351111850312   -0.059577016494709034
-1.4031967386375206   -0.6164351111850312   -0.059577016494709034
-1.4031967386375206   -0.6164351111850312   -0.059577016494709034
-0.7554943008529257   -0.07860383464475557   0.008435960294652378
-0.7554943008529257   -0.07860383464475557   0.008435960294652378
-0.7554943008529257   -0.07860383464475557   0.008435960294652378
-0.7554943008529257   -0.07860383464475557   0.008435960294652378
-2.0284774068314317   -1.1255947172818042   -0.04130764668327369
-2.0284774068314317   -1.1255947172818042   -0.04130764668327369
-2.0284774068314317   -1.1255947172818042   -0.04130764668327369
-2.0284774068314317   -1.1255947172818042   -0.04130764668327369
-1.772376895159968   -0.2798757813176319   -0.06813357528660235
-1.772376895159968   -0.2798757813176319   -0.06813357528660235
-1.772376895159968   -0.2798757813176319   -0.06813357528660235
-1.772376895159968   -0.2798757813176319   -0.06813357528660235
-0.8150550730060641   -0.7996455853246899   0.06558586107218556
-0.8150550730060641   -0.7996455853246899   0.06558586107218556
-0.8150550730060641   -0.7996455853246899   0.06558586107218556
-0.8150550730060641   -0.7996455853246899   0.06558586107218556
-1.3298045273659722   -0.558901354339259   -0.03330099845399909
-1.3298045273659722   -0.558901354339259   -0.03330099845399909
-1.3298045273659722   -0.558901354339259   -0.03330099845399909
-1.3298045273659722   -0.558901354339259   -0.03330099845399909
-1.936449943622735   -0.11754656414980302   -0.013595224134545947
-1.936449943622735   -0.11754656414980302   -0.013595224134545947
-1.936449943622735   -0.11754656414980302   -0.013595224134545947
-1.936449943622735   -0.11754656414980302   -0.013595224134545947
-3.418579509960442   -0.6767439169183938   0.034859925368473044
-3.418579509960442   -0.6767439169183938   0.034859925368473044
-3.418579509960442   -0.6767439169183938   0.034859925368473044
-3.418579509960442   -0.6767439169183938   0.034859925368473044
-3.2838045561915123   -0.32606074278447505   -0.07216690432162143
-3.2838045561915123   -0.32606074278447505   -0.07216690432162143
-3.2838045561915123   -0.32606074278447505   -0.07216690432162143
-3.2838045561915123   -0.32606074278447505   -0.07216690432162143
-1.893163854527598   -0.35029293291341046   0.14169918996054554
-1.893163854527598   -0.35029293291341046   0.14169918996054554
-1.893163854527598   -0.35029293291341046   0.14169918996054554
-1.893163854527598   -0.35029293291341046   0.14169918996054554
-2.5263116559967136   -0.3926313482431405   0.03633194752572466
-2.5263116559967136   -0.3926313482431405   0.03633194752572466
-2.5263116559967136   -0.3926313482431405   0.03633194752572466
-2.5263116559967136   -0.3926313482431405   0.03633194752572466
-1.8565751845435092   -0.026092971830850492   0.0004425787984367324
-1.8565751845435092   -0.026092971830850492   0.0004425787984367324
-1.8565751845435092   -0.026092971830850492   0.0004425787984367324
-1.8565751845435092   -0.026092971830850492   0.0004425787984367324
-3.3332610049687648   -0.6631284826601915   0.017618591667806993
-3.3332610049687648   -0.6631284826601915   0.017618591667806993
-3.3332610049687648   -0.6631284826601915   0.017618591667806993
-3.3332610049687648   -0.6631284826601915   0.017618591667806993
-3.2094669570110184   -0.29875601649851313   -0.09159244832466251
-3.2094669570110184   -0.29875601649851313   -0.09159244832466251
-3.2094669570110184   -0.29875601649851313   -0.09159244832466251
-3.2094669570110184   -0.29875601649851313   -0.09159244832466251
-1.8286089171555833   -0.332694805456903   0.1651348898710685
-1.8286089171555833   -0.332694805456903   0.1651348898710685
-1.8286089171555833   -0.332694805456903   0.1651348898710685
-1.8286089171555833   -0.332694805456903   0.1651348898710685
-2.4869908866160637   -0.32331697686897887   0.034896973848978385
-2.4869908866160637   -0.32331697686897887   0.034896973848978385
-2.4869908866160637   -0.32331697686897887   0.034896973848978385
-2.4869908866160637   -0.32331697686897887   0.034896973848978385
-1.799059697660038   -0.0019323654875151725   -0.01788145262059221
-1.799059697660038   -0.0019323654875151725   -0.01788145262059221
-1.799059697660038   -0.0019323654875151725   -0.01788145262059221
-1.799059697660038   -0.0019323654875151725   -0.01788145262059221
-3.2437689787180104   -0.6342712586793615   0.07241268532120315
-3.2437689787180104   -0.6342712586793615   0.07241268532120315
-3.2437689787180104   -0.6342712586793615   0.07241268532120315
-3.2437689787180104   -0.6342712586793615   0.07241268532120315
-3.0551089893533017   -0.24193974598437185   -0.10235419366567355
-3.0551089893533017   -0.24193974598437185   -0.10235419366567355
-3.0551089893533017   -0.24193974598437185   -0.10235419366567355
-3.0551089893533017   -0.24193974598437185   -0.10235419366567355
-1.7282203658936437   -0.3092411793610414   0.1820144690884366
-1.7282203658936437   -0.3092411793610414   0.1820144690884366
-1.7282203658936437   -0.3092411793610414   0.1820144690884366
-1.7282203658936437   -0.3092411793610414   0.1820144690884366
-2.337863822383406   -0.24713878838156636   0.07140298041238669
-2.337863822383406   -0.24713878838156636   0.07140298041238669
-2.337863822383406   -0.24713878838156636   0.07140298041238669
-2.337863822383406   -0.24713878838156636   0.07140298041238669
2.459442427957742   0.08026603049451   0.034683532208433454
2.459442427957742   0.08026603049451   0.034683532208433454
2.459442427957742   0.08026603049451   0.034683532208433454
2.459442427957742   0.08026603049451   0.034683532208433454
1.2562909119801573   -0.06596271250041844   0.025658509466633922
1.2562909119801573   -0.06596271250041844   0.025658509466633922
1.2562909119801573   -0.06596271250041844   0.025658509466633922
1.2562909119801573   -0.06596271250041844   0.025658509466633922
1.2070453252994033   -0.17755840156396285   0.05030808168054923
1.2070453252994033   -0.17755840156396285   0.05030808168054923
1.2070453252994033   -0.17755840156396285   0.05030808168054923
1.2070453252994033   -0.17755840156396285   0.05030808168054923
2.441568451886015   0.13758893473359435   0.018618952569536273
2.441568451886015   0.13758893473359435   0.018618952569536273
2.441568451886015   0.13758893473359435   0.018618952569536273
2.441568451886015   0.13758893473359435   0.018618952569536273
1.742960839490599   -0.02483865037045893   -0.06433188141337987
1.742960839490599   -0.02483865037045893   -0.06433188141337987
1.742960839490599   -0.02483865037045893   -0.06433188141337987
1.742960839490599   -0.02483865037045893   -0.06433188141337987
2.4280176772940885   0.06188771280630301   0.026566301537193304
2.4280176772940885   0.06188771280630301   0.026566301537193304
2.4280176772940885   0.06188771280630301   0.026566301537193304
2.4280176772940885   0.06188771280630301   0.026566301537193304
1.2165574934173007   -0.10589578611070094   0.02620630681677455
1.2165574934173007   -0.10589578611070094   0.02620630681677455
1.2165574934173007   -0.10589578611070094   0.02620630681677455
1.2165574934173007   -0.10589578611070094   0.02620630681677455
1.1756688422344042   -0.1816971304196729   0.04163225497687187
1.1756688422344042   -0.1816971304196729   0.04163225497687187
1.1756688422344042   -0.1816971304196729   0.04163225497687187
1.1756688422344042   -0.1816971304196729   0.04163225497687187
2.4128729944654244   0.13158645937471142   0.03213365473982721
2.4128729944654244   0.13158645937471142   0.03213365473982721
2.4128729944654244   0.13158645937471142   0.03213365473982721
2.4128729944654244   0.13158645937471142   0.03213365473982721
1.7376362194939199   -0.03427089057441643   -0.07455274510676024
1.7376362194939199   -0.03427089057441643   -0.07455274510676024
1.7376362194939199   -0.03427089057441643   -0.07455274510676024
1.7376362194939199   -0.03427089057441643   -0.07455274510676024
2.392717520341429   0.05497891908771224   0.00796382440683363
2.392717520341429   0.05497891908771224   0.00796382440683363
2.392717520341429   0.05497891908771224   0.00796382440683363
2.392717520341429   0.05497891908771224   0.00796382440683363
1.1885824145190194   -0.11233149197206671   0.036834477952341654
1.1885824145190194   -0.11233149197206671   0.036834477952341654
1.1885824145190194   -0.11233149197206671   0.036834477952341654
1.1885824145190194   -0.11233149197206671   0.036834477952341654
1.1425502775302718   -0.1658497347809776   0.035946651516306605
1.1425502775302718   -0.1658497347809776   0.035946651516306605
1.1425502775302718   -0.1658497347809776   0.035946651516306605
1.1425502775302718   -0.1658497347809776   0.035946651516306605
2.368634864189154   0.1329540754005349   0.04614141809102479
2.368634864189154   0.1329540754005349   0.04614141809102479
2.368634864189154   0.1329540754005349   0.04614141809102479
2.368634864189154   0.1329540754005349   0.04614141809102479
1.6722252311876422   -0.0345802041145469   -0.10073222878692567
1.6722252311876422   -0.0345802041145469   -0.10073222878692567
1.6722252311876422   -0.0345802041145469   -0.10073222878692567
1.6722252311876422   -0.0345802041145469   -0.10073222878692567
1.2448042432096447   -0.15925757705144805   0.06152003016510049
1.2448042432096447   -0.15925757705144805   0.06152003016510049
1.2448042432096447   -0.15925757705144805   0.06152003016510049
1.2448042432096447   -0.15925757705144805   0.06152003016510049
0.24299235667835925   -0.14826076052133919   0.013324360094108761
0.24299235667835925   -0.14826076052133919   0.013324360094108761
0.24299235667835925   -0.14826076052133919   0.013324360094108761
0.24299235667835925   -0.14826076052133919   0.013324360094108761
0.15808357837275624   -0.37354323588807226   0.06615341597307438
0.15808357837275624   -0.37354323588807226   0.06615341597307438
0.15808357837275624   -0.37354323588807226   0.06615341597307438
0.15808357837275624   -0.37354323588807226   0.06615341597307438
1.25164910370487   0.04820490152688362   0.047563670617036896
1.25164910370487   0.04820490152688362   0.047563670617036896
1.25164910370487   0.04820490152688362   0.047563670617036896
1.25164910370487   0.04820490152688362   0.047563670617036896
0.7132543457014398   -0.1588456497982102   -0.0027143714775648697
0.7132543457014398   -0.1588456497982102   -0.0027143714775648697
0.7132543457014398   -0.1588456497982102   -0.0027143714775648697
0.7132543457014398   -0.1588456497982102   -0.0027143714775648697
1.209563565266952   -0.16617478809415076   0.051515668048485924
1.209563565266952   -0.16617478809415076   0.051515668048485924
1.209563565266952   -0.16617478809415076   0.051515668048485924
1.209563565266952   -0.16617478809415076   0.051515668048485924
0.18954290592725762   -0.1697897571504537   0.019696575007962843
0.18954290592725762   -0.1697897571504537   0.019696575007962843
0.18954290592725762   -0.1697897571504537   0.019696575007962843
0.18954290592725762   -0.1697897571504537   0.019696575007962843
0.12007246631383048   -0.3769475218545914   0.05923429081767648
0.12007246631383048   -0.3769475218545914   0.05923429081767648
0.12007246631383048   -0.3769475218545914   0.05923429081767648
0.12007246631383048   -0.3769475218545914   0.05923429081767648
1.2227112214111202   0.038775675669250165   0.056371344771528664
1.2227112214111202   0.038775675669250165   0.056371344771528664
1.2227112214111202   0.038775675669250165   0.056371344771528664
1.2227112214111202   0.038775675669250165   0.056371344771528664
0.6616487659818029   -0.16932221647752543   -0.034257980347503686
0.6616487659818029   -0.16932221647752543   -0.034257980347503686
0.6616487659818029   -0.16932221647752543   -0.034257980347503686
0.6616487659818029   -0.16932221647752543   -0.034257980347503686
1.178479149715953   -0.1685964257872523   0.04258308775218789
1.178479149715953   -0.1685964257872523   0.04258308775218789
1.178479149715953   -0.1685964257872523   0.04258308775218789
1.178479149715953   -0.1685964257872523   0.04258308775218789
0.15275882268338314   -0.18112113572369443   0.026839686534542766
0.15275882268338314   -0.18112113572369443   0.026839686534542766
0.15275882268338314   -0.18112113572369443   0.026839686534542766
0.15275882268338314   -0.18112113572369443   0.026839686534542766
0.07753330532091907   -0.37685028487087574   0.046390914787316384
0.07753330532091907   -0.37685028487087574   0.046390914787316384
0.07753330532091907   -0.37685028487087574   0.046390914787316384
0.07753330532091907   -0.37685028487087574   0.046390914787316384
1.1898698041583715   0.0392802463343388   0.06741430354149242
1.1898698041583715   0.0392802463343388   0.06741430354149242
1.1898698041583715   0.0392802463343388   0.06741430354149242
1.1898698041583715   0.0392802463343388   0.06741430354149242
0.6300908172005981   -0.1680925549462448   -0.06110592538360375
0.6300908172005981   -0.1680925549462448   -0.06110592538360375
0.6300908172005981   -0.1680925549462448   -0.06110592538360375
0.6300908172005981   -0.1680925549462448   -0.06110592538360375
0.18922566006459354   -0.4590503024875961   0.05528041899153707
0.18922566006459354   -0.4590503024875961   0.05528041899153707
0.18922566006459354   -0.4590503024875961   0.05528041899153707
0.18922566006459354   -0.4590503024875961   0.05528041899153707
-0.7310497919272372   -0.23023815532107506   0.0009518370197531267
-0.7310497919272372   -0.23023815532107506   0.0009518370197531267
-0.7310497919272372   -0.23023815532107506   0.0009518370197531267
-0.7310497919272372   -0.23023815532107506   0.0009518370197531267
-0.8846640351521323   -0.6809951966969394   0.07582106067853084
-0.8846640351521323   -0.6809951966969394   0.07582106067853084
-0.8846640351521323   -0.6809951966969394   0.07582106067853084
-0.8846640351521323   -0.6809951966969394   0.07582106067853084
0.21768996978325228   -0.03939491473489399   0.030037051872376402
0.21768996978325228   -0.03939491473489399   0.030037051872376402
0.21768996978325228   -0.03939491473489399   0.030037051872376402
0.21768996978325228   -0.03939491473489399   0.030037051872376402
-0.29813189582290167   -0.3474612997963401   0.013036366885523315
-0.29813189582290167   -0.3474612997963401   0.013036366885523315
-0.29813189582290167   -0.3474612997963401   0.013036366885523315
-0.29813189582290167   -0.3474612997963401   0.013036366885523315
0.13045246376295375   -0.48520432303535865   0.03965893007134845
0.13045246376295375   -0.48520432303535865   0.03965893007134845
0.13045246376295375   -0.48520432303535865   0.03965893007134845
0.13045246376295375   -0.48520432303535865   0.03965893007134845
-0.8122848025589471   -0.25004406182358935   0.006766088771098994
-0.8122848025589471   -0.25004406182358935   0.006766088771098994
-0.8122848025589471   -0.25004406182358935   0.006766088771098994
-0.8122848025589471   -0.25004406182358935   0.006766088771098994
-0.9376323518493626   -0.6920402003186787   0.06166999619215496
-0.9376323518493626   -0.6920402003186787   0.06166999619215496
-0.9376323518493626   -0.6920402003186787   0.06166999619215496
-0.9376323518493626   -0.6920402003186787   0.06166999619215496
0.18207980746692198   -0.049865360014536446   0.04218883474307916
0.18207980746692198   -0.049865360014536446   0.04218883474307916
0.18207980746692198   -0.049865360014536446   0.04218883474307916
0.18207980746692198   -0.049865360014536446   0.04218883474307916
-0.3643086170748612   -0.36864791745252246   -0.031181193064911822
-0.3643086170748612   -0.36864791745252246   -0.031181193064911822
-0.3643086170748612   -0.36864791745252246   -0.031181193064911822
-0.3643086170748612   -0.36864791745252246   -0.031181193064911822
0.08996306433192344   -0.49375597042511876   0.02549572947866867
0.08996306433192344   -0.49375597042511876   0.02549572947866867
0.08996306433192344   -0.49375597042511876   0.02549572947866867
0.08996306433192344   -0.49375597042511876   0.02549572947866867
-0.863170664855219   -0.26580464604895215   0.007742876893141459
-0.863170664855219   -0.26580464604895215   0.007742876893141459
-0.863170664855219   -0.26580464604895215   0.007742876893141459
-0.863170664855219   -0.26580464604895215   0.007742876893141459
-0.9950089430723276   -0.6873750199304284   0.05204920013778597
-0.9950089430723276   -0.6873750199304284   0.05204920013778597
-0.9950089430723276   -0.6873750199304284   0.05204920013778597
-0.9950089430723276   -0.6873750199304284   0.05204920013778597
0.1424523042280403   -0.05572248794680844   0.04985811239885139
0.1424523042280403   -0.05572248794680844   0.04985811239885139
0.1424523042280403   -0.05572248794680844   0.04985811239885139
0.1424523042280403   -0.05572248794680844   0.04985811239885139
-0.4179799380247552   -0.3767257113312402   -0.07531011708417397
-0.4179799380247552   -0.3767257113312402   -0.07531011708417397
-0.4179799380247552   -0.3767257113312402   -0.07531011708417397
-0.4179799380247552   -0.3767257113312402   -0.07531011708417397
-0.8293874093997332   -0.7867081923601605   0.06573378669636648
-0.8293874093997332   -0.7867081923601605   0.06573378669636648
-0.8293874093997332   -0.7867081923601605   0.06573378669636648
-0.8293874093997332   -0.7867081923601605   0.06573378669636648
-1.8391111581853994   -0.2867033884461312   -0.042690798058758084
-1.8391111581853994   -0.2867033884461312   -0.042690798058758084
-1.8391111581853994   -0.2867033884461312   -0.042690798058758084
-1.8391111581853994   -0.2867033884461312   -0.042690798058758084
-2.1075073624712677   -1.1410023680605592   -0.05931139865761814
-2.1075073624712677   -1.1410023680605592   -0.05931139865761814
-2.1075073624712677   -1.1410023680605592   -0.05931139865761814
-2.1075073624712677   -1.1410023680605592   -0.05931139865761814
-0.7714127816710986   -0.06487061562370304   0.025952747010455274
-0.7714127816710986   -0.06487061562370304   0.025952747010455274
-0.7714127816710986   -0.06487061562370304   0.025952747010455274
-0.7714127816710986   -0.06487061562370304   0.025952747010455274
-1.373602634410115   -0.5478002030263783   -0.04741013475426331
-1.373602634410115   -0.5478002030263783   -0.04741013475426331
-1.373602634410115   -0.5478002030263783   -0.04741013475426331
-1.373602634410115   -0.5478002030263783   -0.04741013475426331
-0.9373752613896746   -0.8907164346282959   0.021986167422167635
-0.9373752613896746   -0.8907164346282959   0.021986167422167635
-0.9373752613896746   -0.8907164346282959   0.021986167422167635
-0.9373752613896746   -0.8907164346282959   0.021986167422167635
-1.9372570687618176   -0.31086873506510515   -0.03819356310583627
-1.9372570687618176   -0.31086873506510515   -0.03819356310583627
-1.9372570687618176   -0.31086873506510515   -0.03819356310583627
-1.9372570687618176   -0.31086873506510515   -0.03819356310583627
-2.1704858747742506   -1.1594533225478858   -0.06859220507086239
-2.1704858747742506   -1.1594533225478858   -0.06859220507086239
-2.1704858747742506   -1.1594533225478858   -0.06859220507086239
-2.1704858747742506   -1.1594533225478858   -0.06859220507086239
-0.820206213382423   -0.08202510896912733   0.03878559717729621
-0.820206213382423   -0.08202510896912733   0.03878559717729621
-0.820206213382423   -0.08202510896912733   0.03878559717729621
-0.820206213382423   -0.08202510896912733   0.03878559717729621
-1.4505374380908622   -0.6068302267061175   -0.06688503504278737
-1.4505374380908622   -0.6068302267061175   -0.06688503504278737
-1.4505374380908622   -0.6068302267061175   -0.06688503504278737
-1.4505374380908622   -0.6068302267061175   -0.06688503504278737
-0.9914847105379875   -0.9082175401669926   0.008585542597339568
-0.9914847105379875   -0.9082175401669926   0.008585542597339568
-0.9914847105379875   -0.9082175401669926   0.008585542597339568
-0.9914847105379875   -0.9082175401669926   0.008585542597339568
-1.9994139775386868   -0.3334674912700234   -0.03921855017092035
-1.9994139775386868   -0.3334674912700234   -0.03921855017092035
-1.9994139775386868   -0.3334674912700234   -0.03921855017092035
-1.9994139775386868   -0.3334674912700234   -0.03921855017092035
-2.224231651803615   -1.1100687330655283   -0.07735329883445508
-2.224231651803615   -1.1100687330655283   -0.07735329883445508
-2.224231651803615   -1.1100687330655283   -0.07735329883445508
-2.224231651803615   -1.1100687330655283   -0.07735329883445508
-0.882013980891393   -0.10623845981972305   0.03588745093175322
-0.882013980891393   -0.10623845981972305   0.03588745093175322
-0.882013980891393   -0.10623845981972305   0.03588745093175322
-0.882013980891393   -0.10623845981972305   0.03588745093175322
-1.5213368467468973   -0.6269995523123855   -0.0854506617512546
-1.5213368467468973   -0.6269995523123855   -0.0854506617512546
-1.5213368467468973   -0.6269995523123855   -0.0854506617512546
-1.5213368467468973   -0.6269995523123855   -0.0854506617512546
-1.8062607600246983   -0.32856715928768576   0.16342496358626968
-1.8062607600246983   -0.32856715928768576   0.16342496358626968
-1.8062607600246983   -0.32856715928768576   0.16342496358626968
-1.8062607600246983   -0.32856715928768576   0.16342496358626968
-3.183159271187888   -0.23848138704304644   -0.056804676848853375
-3.183159271187888   -0.23848138704304644   -0.056804676848853375
-3.183159271187888   -0.23848138704304644   -0.056804676848853375
-3.183159271187888   -0.23848138704304644   -0.056804676848853375
-3.3784807939223183   -0.6667192379088628   0.04488460437800401
-3.3784807939223183   -0.6667192379088628   0.04488460437800401
-3.3784807939223183   -0.6667192379088628   0.04488460437800401
-3.3784807939223183   -0.6667192379088628   0.04488460437800401
-1.8589333269762522   0.026559137403825428   0.015997273353061114
-1.8589333269762522   0.026559137403825428   0.015997273353061114
-1.8589333269762522   0.026559137403825428   0.015997273353061114
-1.8589333269762522   0.026559137403825428   0.015997273353061114
-2.4349457030224912   -0.2342229592753682   0.04899924971176883
-2.4349457030224912   -0.2342229592753682   0.04899924971176883
-2.4349457030224912   -0.2342229592753682   0.04899924971176883
-2.4349457030224912   -0.2342229592753682   0.04899924971176883
-1.9089952228102625   -0.35279138187057313   0.14503831345739704
-1.9089952228102625   -0.35279138187057313   0.14503831345739704
-1.9089952228102625   -0.35279138187057313   0.14503831345739704
-1.9089952228102625   -0.35279138187057313   0.14503831345739704
-3.319823979829603   -0.2787738003757569   -0.04977676269149933
-3.319823979829603   -0.2787738003757569   -0.04977676269149933
-3.319823979829603   -0.2787738003757569   -0.04977676269149933
-3.319823979829603   -0.2787738003757569   -0.04977676269149933
-3.46153119687346   -0.6951960306363654   -0.014448956308366845
-3.46153119687346   -0.6951960306363654   -0.014448956308366845
-3.46153119687346   -0.6951960306363654   -0.014448956308366845
-3.46153119687346   -0.6951960306363654   -0.014448956308366845
-1.9175274693956241   0.00735032957828799   0.029396169696081054
-1.9175274693956241   0.00735032957828799   0.029396169696081054
-1.9175274693956241   0.00735032957828799   0.029396169696081054
-1.9175274693956241   0.00735032957828799   0.029396169696081054
-2.5810151900842193   -0.3093043315602918   0.020239930708113252
-2.5810151900842193   -0.3093043315602918   0.020239930708113252
-2.5810151900842193   -0.3093043315602918   0.020239930708113252
-2.5810151900842193   -0.3093043315602918   0.020239930708113252
-1.9750000830173944   -0.37093610864197923   0.1203195398074981
-1.9750000830173944   -0.37093610864197923   0.1203195398074981
-1.9750000830173944   -0.37093610864197923   0.1203195398074981
-1.9750000830173944   -0.37093610864197923   0.1203195398074981
-3.3868499700690253   -0.2997009792334288   -0.036537873689101774
-3.3868499700690253   -0.2997009792334288   -0.036537873689101774
-3.3868499700690253   -0.2997009792334288   -0.036537873689101774
-3.3868499700690253   -0.2997009792334288   -0.036537873689101774
-3.5339572252497122   -0.7068183203122869   -0.00013437631172230624
-3.5339572252497122   -0.7068183203122869   -0.00013437631172230624
-3.5339572252497122   -0.7068183203122869   -0.00013437631172230624
-3.5339572252497122   -0.7068183203122869   -0.00013437631172230624
-1.9997735413994684   -0.07711209599182178   0.011980616112563625
-1.9997735413994684   -0.07711209599182178   0.011980616112563625
-1.9997735413994684   -0.07711209599182178   0.011980616112563625
-1.9997735413994684   -0.07711209599182178   0.011980616112563625
-2.612722800199791   -0.37382296462682585   0.03197018580049937
-2.612722800199791   -0.37382296462682585   0.03197018580049937
-2.612722800199791   -0.37382296462682585   0.03197018580049937
-2.612722800199791   -0.37382296462682585   0.03197018580049937
2.15256814852085   0.09877213948369798   -0.04694446715347678
2.15256814852085   0.09877213948369798   -0.04694446715347678
2.15256814852085   0.09877213948369798   -0.04694446715347678
2.15256814852085   0.09877213948369798   -0.04694446715347678
1.0839281495984823   -0.02154970903245275   0.023178796860611056
1.0839281495984823   -0.02154970903245275   0.023178796860611056
1.0839281495984823   -0.02154970903245275   0.023178796860611056
1.0839281495984823   -0.02154970903245275   0.023178796860611056
1.014718185979809   -0.15978917459190048   -0.041421328151731385
1.014718185979809   -0.15978917459190048   -0.041421328151731385
1.014718185979809   -0.15978917459190048   -0.041421328151731385
1.014718185979809   -0.15978917459190048   -0.041421328151731385
2.12757375586153   0.15551925980667192   0.027118968631448692
2.12757375586153   0.15551925980667192   0.027118968631448692
2.12757375586153   0.15551925980667192   0.027118968631448692
2.12757375586153   0.15551925980667192   0.027118968631448692
1.5111017004777534   0.003701331135138597   -0.05837824191080865
1.5111017004777534   0.003701331135138597   -0.05837824191080865
1.5111017004777534   0.003701331135138597   -0.05837824191080865
1.5111017004777534   0.003701331135138597   -0.05837824191080865
2.0924937940305264   0.05458158042101097   -0.04734316113789172
2.0924937940305264   0.05458158042101097   -0.04734316113789172
2.0924937940305264   0.05458158042101097   -0.04734316113789172
2.0924937940305264   0.05458158042101097   -0.04734316113789172
1.0478428482245508   -0.06080679479250049   0.02521960327256617
1.0478428482245508   -0.06080679479250049   0.02521960327256617
1.0478428482245508   -0.06080679479250049   0.02521960327256617
1.0478428482245508   -0.06080679479250049   0.02521960327256617
0.977463499537079   -0.16875920573578024   -0.03418517588428566
0.977463499537079   -0.16875920573578024   -0.03418517588428566
0.977463499537079   -0.16875920573578024   -0.03418517588428566
0.977463499537079   -0.16875920573578024   -0.03418517588428566
2.075800383114066   0.14282559383042434   0.03958867845090425
2.075800383114066   0.14282559383042434   0.03958867845090425
2.075800383114066   0.14282559383042434   0.03958867845090425
2.075800383114066   0.14282559383042434   0.03958867845090425
1.4906432300211285   -0.015203461959734613   -0.06977043387637677
1.4906432300211285   -0.015203461959734613   -0.06977043387637677
1.4906432300211285   -0.015203461959734613   -0.06977043387637677
1.4906432300211285   -0.015203461959734613   -0.06977043387637677
2.040466353982764   0.04318935471264784   -0.03744522808782996
2.040466353982764   0.04318935471264784   -0.03744522808782996
2.040466353982764   0.04318935471264784   -0.03744522808782996
2.040466353982764   0.04318935471264784   -0.03744522808782996
1.0100930879396757   -0.0718274073467094   0.032030967739625965
1.0100930879396757   -0.0718274073467094   0.032030967739625965
1.0100930879396757   -0.0718274073467094   0.032030967739625965
1.0100930879396757   -0.0718274073467094   0.032030967739625965
0.9413652103326593   -0.16641319988236736   -0.02342530446699126
0.9413652103326593   -0.16641319988236736   -0.02342530446699126
0.9413652103326593   -0.16641319988236736   -0.02342530446699126
0.9413652103326593   -0.16641319988236736   -0.02342530446699126
2.011680069202572   0.1341046127420825   0.05145920239495916
2.011680069202572   0.1341046127420825   0.05145920239495916
2.011680069202572   0.1341046127420825   0.05145920239495916
2.011680069202572   0.1341046127420825   0.05145920239495916
1.4167151556639652   -0.02655133622387912   -0.09169361691230915
1.4167151556639652   -0.02655133622387912   -0.09169361691230915
1.4167151556639652   -0.02655133622387912   -0.09169361691230915
1.4167151556639652   -0.02655133622387912   -0.09169361691230915
1.0895772482850747   0.02030521836118191   0.009569362899937456
1.0895772482850747   0.02030521836118191   0.009569362899937456
1.0895772482850747   0.02030521836118191   0.009569362899937456
1.0895772482850747   0.02030521836118191   0.009569362899937456
0.10569915481141985   -0.06511829339543088   -0.002380022244352813
0.10569915481141985   -0.06511829339543088   -0.002380022244352813
0.10569915481141985   -0.06511829339543088   -0.002380022244352813
0.10569915481141985   -0.06511829339543088   -0.002380022244352813
0.04048442688523803   -0.21150602365886662   -0.03982627849202097
0.04048442688523803   -0.21150602365886662   -0.03982627849202097
0.04048442688523803   -0.21150602365886662   -0.03982627849202097
0.04048442688523803   -0.21150602365886662   -0.03982627849202097
1.0909211641151717   0.1257642053022759   0.05404018263089466
1.0909211641151717   0.1257642053022759   0.05404018263089466
1.0909211641151717   0.1257642053022759   0.05404018263089466
1.0909211641151717   0.1257642053022759   0.05404018263089466
0.5709942832563651   -0.029851607501560934   -0.02270420927052258
0.5709942832563651   -0.029851607501560934   -0.02270420927052258
0.5709942832563651   -0.029851607501560934   -0.02270420927052258
0.5709942832563651   -0.029851607501560934   -0.02270420927052258
1.058965960592247   0.003467677370541822   0.016560692948012323
1.058965960592247   0.003467677370541822   0.016560692948012323
1.058965960592247   0.003467677370541822   0.016560692948012323
1.058965960592247   0.003467677370541822   0.016560692948012323
0.07364535525857979   -0.08800377087671435   0.0024761105925355364
0.07364535525857979   -0.08800377087671435   0.0024761105925355364
0.07364535525857979   -0.08800377087671435   0.0024761105925355364
0.07364535525857979   -0.08800377087671435   0.0024761105925355364
0.004563859066790182   -0.2216628357715933   -0.027673850088358567
0.004563859066790182   -0.2216628357715933   -0.027673850088358567
0.004563859066790182   -0.2216628357715933   -0.027673850088358567
0.004563859066790182   -0.2216628357715933   -0.027673850088358567
1.051483688299797   0.10753952662284004   0.059617035570683485
1.051483688299797   0.10753952662284004   0.059617035570683485
1.051483688299797   0.10753952662284004   0.059617035570683485
1.051483688299797   0.10753952662284004   0.059617035570683485
0.5296869301999357   -0.046612191504262476   -0.03214749195159573
0.5296869301999357   -0.046612191504262476   -0.03214749195159573
0.5296869301999357   -0.046612191504262476   -0.03214749195159573
0.5296869301999357   -0.046612191504262476   -0.03214749195159573
1.0213202664777836   -0.007924078045868449   0.02426353112933341
1.0213202664777836   -0.007924078045868449   0.02426353112933341
1.0213202664777836   -0.007924078045868449   0.02426353112933341
1.0213202664777836   -0.007924078045868449   0.02426353112933341
0.034552774119615534   -0.10637373787208164   0.0069816272762565496
0.034552774119615534   -0.10637373787208164   0.0069816272762565496
0.034552774119615534   -0.10637373787208164   0.0069816272762565496
0.034552774119615534   -0.10637373787208164   0.0069816272762565496
-0.03400818434951919   -0.22274594752188526   -0.01883867723167587
-0.03400818434951919   -0.22274594752188526   -0.01883867723167587
-0.03400818434951919   -0.22274594752188526   -0.01883867723167587
-0.03400818434951919   -0.22274594752188526   -0.01883867723167587
1.011695610674556   0.0959137863368209   0.0658997110233081
1.011695610674556   0.0959137863368209   0.0658997110233081
1.011695610674556   0.0959137863368209   0.0658997110233081
1.011695610674556   0.0959137863368209   0.0658997110233081
0.4973121440879301   -0.053346247691811906   -0.04028337259603576
0.4973121440879301   -0.053346247691811906   -0.04028337259603576
0.4973121440879301   -0.053346247691811906   -0.04028337259603576
0.4973121440879301   -0.053346247691811906   -0.04028337259603576
0.10748743007795446   -0.06202705515450853   0.0034701158473939304
0.10748743007795446   -0.06202705515450853   0.0034701158473939304
0.10748743007795446   -0.06202705515450853   0.0034701158473939304
0.10748743007795446   -0.06202705515450853   0.0034701158473939304
-0.8397695894642931   -0.09711340770866858   -0.026439524859359687
-0.8397695894642931   -0.09711340770866858   -0.026439524859359687
-0.8397695894642931   -0.09711340770866858   -0.026439524859359687
-0.8397695894642931   -0.09711340770866858   -0.026439524859359687
-0.9122695846292351   -0.28046159800327164   -0.045336810057085786
-0.9122695846292351   -0.28046159800327164   -0.045336810057085786
-0.9122695846292351   -0.28046159800327164   -0.045336810057085786
-0.9122695846292351   -0.28046159800327164   -0.045336810057085786
0.1153522653772902   0.09202719313455483   0.030979697174818396
0.1153522653772902   0.09202719313455483   0.030979697174818396
0.1153522653772902   0.09202719313455483   0.030979697174818396
0.1153522653772902   0.09202719313455483   0.030979697174818396
-0.38344407461526064   -0.0827287902063138   -0.022556788749872908
-0.38344407461526064   -0.0827287902063138   -0.022556788749872908
-0.38344407461526064   -0.0827287902063138   -0.022556788749872908
-0.38344407461526064   -0.0827287902063138   -0.022556788749872908
0.08050254873562349   -0.06924012324890591   0.017998430349945565
0.08050254873562349   -0.06924012324890591   0.017998430349945565
0.08050254873562349   -0.06924012324890591   0.017998430349945565
0.08050254873562349   -0.06924012324890591   0.017998430349945565
-0.8747582965874375   -0.11653271021969025   -0.021709257631679302
-0.8747582965874375   -0.11653271021969025   -0.021709257631679302
-0.8747582965874375   -0.11653271021969025   -0.021709257631679302
-0.8747582965874375   -0.11653271021969025   -0.021709257631679302
-0.954401783038042   -0.2915928583918053   -0.029967066638362377
-0.954401783038042   -0.2915928583918053   -0.029967066638362377
-0.954401783038042   -0.2915928583918053   -0.029967066638362377
-0.954401783038042   -0.2915928583918053   -0.029967066638362377
0.07594153884145288   0.07251300960742385   0.035038703405937795
0.07594153884145288   0.07251300960742385   0.035038703405937795
0.07594153884145288   0.07251300960742385   0.035038703405937795
0.07594153884145288   0.07251300960742385   0.035038703405937795
-0.41829152917510587   -0.09436828307910575   -0.02706334971615869
-0.41829152917510587   -0.09436828307910575   -0.02706334971615869
-0.41829152917510587   -0.09436828307910575   -0.02706334971615869
-0.41829152917510587   -0.09436828307910575   -0.02706334971615869
0.04319940156699738   -0.08109250234576698   0.0249335289868511
0.04319940156699738   -0.08109250234576698   0.0249335289868511
0.04319940156699738   -0.08109250234576698   0.0249335289868511
0.04319940156699738   -0.08109250234576698   0.0249335289868511
-0.9211052433566261   -0.13743294403166417   -0.017644282591423505
-0.9211052433566261   -0.13743294403166417   -0.017644282591423505
-0.9211052433566261   -0.13743294403166417   -0.017644282591423505
-0.9211052433566261   -0.13743294403166417   -0.017644282591423505
-1.001159676091909   -0.2997451101244141   -0.026643018169288935
-1.001159676091909   -0.2997451101244141   -0.026643018169288935
-1.001159676091909   -0.2997451101244141   -0.026643018169288935
-1.001159676091909   -0.2997451101244141   -0.026643018169288935
0.033314125662861176   0.055848566790848916   0.03917835851749179
0.033314125662861176   0.055848566790848916   0.03917835851749179
0.033314125662861176   0.055848566790848916   0.03917835851749179
0.033314125662861176   0.055848566790848916   0.03917835851749179
-0.46357441996611215   -0.10830465410523929   -0.037909277747051634
-0.46357441996611215   -0.10830465410523929   -0.037909277747051634
-0.46357441996611215   -0.10830465410523929   -0.037909277747051634
-0.46357441996611215   -0.10830465410523929   -0.037909277747051634
-0.8270471062585029   -0.07311710146400544   0.013176584924913165
-0.8270471062585029   -0.07311710146400544   0.013176584924913165
-0.8270471062585029   -0.07311710146400544   0.013176584924913165
-0.8270471062585029   -0.07311710146400544   0.013176584924913165
-1.7622598785145913   -0.1136387871725066   -0.04665835598684692
-1.7622598785145913   -0.1136387871725066   -0.04665835598684692
-1.7622598785145913   -0.1136387871725066   -0.04665835598684692
-1.7622598785145913   -0.1136387871725066   -0.04665835598684692
-1.8446995264217474   -0.29376257581175425   -0.04522030917915232
-1.8446995264217474   -0.29376257581175425   -0.04522030917915232
-1.8446995264217474   -0.29376257581175425   -0.04522030917915232
-1.8446995264217474   -0.29376257581175425   -0.04522030917915232
-0.8313242042105137   0.07021355025009716   0.008714943783148604
-0.8313242042105137   0.07021355025009716   0.008714943783148604
-0.8313242042105137   0.07021355025009716   0.008714943783148604
-0.8313242042105137   0.07021355025009716   0.008714943783148604
-1.3054737338425952   -0.09782013749633822   -0.01899463859326167
-1.3054737338425952   -0.09782013749633822   -0.01899463859326167
-1.3054737338425952   -0.09782013749633822   -0.01899463859326167
-1.3054737338425952   -0.09782013749633822   -0.01899463859326167
-0.8569406553090653   -0.08083124337108442   0.03167748191157635
-0.8569406553090653   -0.08083124337108442   0.03167748191157635
-0.8569406553090653   -0.08083124337108442   0.03167748191157635
-0.8569406553090653   -0.08083124337108442   0.03167748191157635
-1.8138558194798917   -0.1374905263472714   -0.04727382393437768
-1.8138558194798917   -0.1374905263472714   -0.04727382393437768
-1.8138558194798917   -0.1374905263472714   -0.04727382393437768
-1.8138558194798917   -0.1374905263472714   -0.04727382393437768
-1.9030074377923332   -0.31268380340245017   -0.03170665057940769
-1.9030074377923332   -0.31268380340245017   -0.03170665057940769
-1.9030074377923332   -0.31268380340245017   -0.03170665057940769
-1.9030074377923332   -0.31268380340245017   -0.03170665057940769
-0.8781858298666977   0.048840052558456   0.010679788268097928
-0.8781858298666977   0.048840052558456   0.010679788268097928
-0.8781858298666977   0.048840052558456   0.010679788268097928
-0.8781858298666977   0.048840052558456   0.010679788268097928
-1.3423927343850268   -0.10832963990132244   -0.019071278664803404
-1.3423927343850268   -0.10832963990132244   -0.019071278664803404
-1.3423927343850268   -0.10832963990132244   -0.019071278664803404
-1.3423927343850268   -0.10832963990132244   -0.019071278664803404
-0.9034895107728222   -0.09986550051956684   0.03286693681549788
-0.9034895107728222   -0.09986550051956684   0.03286693681549788
-0.9034895107728222   -0.09986550051956684   0.03286693681549788
-0.9034895107728222   -0.09986550051956684   0.03286693681549788
-1.8742022675073264   -0.16047676094554802   -0.03988784161129333
-1.8742022675073264   -0.16047676094554802   -0.03988784161129333
-1.8742022675073264   -0.16047676094554802   -0.03988784161129333
-1.8742022675073264   -0.16047676094554802   -0.03988784161129333
-1.9690024488180404   -0.33760645086038826   -0.03396403634486411
-1.9690024488180404   -0.33760645086038826   -0.03396403634486411
-1.9690024488180404   -0.33760645086038826   -0.03396403634486411
-1.9690024488180404   -0.33760645086038826   -0.03396403634486411
-0.9288268022218176   0.02248187217906262   0.012794368877684315
-0.9288268022218176   0.02248187217906262   0.012794368877684315
-0.9288268022218176   0.02248187217906262   0.012794368877684315
-0.9288268022218176   0.02248187217906262   0.012794368877684315
-1.4077852676936777   -0.13384761643458754   -0.030950699751206345
-1.4077852676936777   -0.13384761643458754   -0.030950699751206345
-1.4077852676936777   -0.13384761643458754   -0.030950699751206345
-1.4077852676936777   -0.13384761643458754   -0.030950699751206345
-1.7024495238052904   0.08064368656721788   0.058110943819931926
-1.7024495238052904   0.08064368656721788   0.058110943819931926
-1.7024495238052904   0.08064368656721788   0.058110943819931926
-1.7024495238052904   0.08064368656721788   0.058110943819931926
-2.6399274751483635   -0.13155305364315595   -0.03565594448137299
-2.6399274751483635   -0.13155305364315595   -0.03565594448137299
-2.6399274751483635   -0.13155305364315595   -0.03565594448137299
-2.6399274751483635   -0.13155305364315595   -0.03565594448137299
-2.7051573021671875   -0.13394449315853613   0.05970309573218879
-2.7051573021671875   -0.13394449315853613   0.05970309573218879
-2.7051573021671875   -0.13394449315853613   0.05970309573218879
-2.7051573021671875   -0.13394449315853613   0.05970309573218879
-1.7688398441576785   0.05463509834198342   -0.014319572012565562
-1.7688398441576785   0.05463509834198342   -0.014319572012565562
-1.7688398441576785   0.05463509834198342   -0.014319572012565562
-1.7688398441576785   0.05463509834198342   -0.014319572012565562
-2.1013902697949076   0.001661369510447902   0.05329909963263235
-2.1013902697949076   0.001661369510447902   0.05329909963263235
-2.1013902697949076   0.001661369510447902   0.05329909963263235
-2.1013902697949076   0.001661369510447902   0.05329909963263235
-1.7502871810850644   0.05975390020828948   0.073324941484194
-1.7502871810850644   0.05975390020828948   0.073324941484194
-1.7502871810850644   0.05975390020828948   0.073324941484194
-1.7502871810850644   0.05975390020828948   0.073324941484194
-2.722498232277968   -0.13785156206300953   -0.023094485917240615
-2.722498232277968   -0.13785156206300953   -0.023094485917240615
-2.722498232277968   -0.13785156206300953   -0.023094485917240615
-2.722498232277968   -0.13785156206300953   -0.023094485917240615
-2.787534954006585   -0.15629504247236406   0.08117679405378142
-2.787534954006585   -0.15629504247236406   0.08117679405378142
-2.787534954006585   -0.15629504247236406   0.08117679405378142
-2.787534954006585   -0.15629504247236406   0.08117679405378142
-1.8292306693764457   0.03945339728483058   -0.01496000918726803
-1.8292306693764457   0.03945339728483058   -0.01496000918726803
-1.8292306693764457   0.03945339728483058   -0.01496000918726803
-1.8292306693764457   0.03945339728483058   -0.01496000918726803
-2.207512661173878   -0.024513483239212958   0.029020770138204255
-2.207512661173878   -0.024513483239212958   0.029020770138204255
-2.207512661173878   -0.024513483239212958   0.029020770138204255
-2.207512661173878   -0.024513483239212958   0.029020770138204255
-1.8122730707985595   0.03698187629656946   0.07229950469042368
-1.8122730707985595   0.03698187629656946   0.07229950469042368
-1.8122730707985595   0.03698187629656946   0.07229950469042368
-1.8122730707985595   0.03698187629656946   0.07229950469042368
-2.807685759448334   -0.15701672834796135   -0.018855547279339246
-2.807685759448334   -0.15701672834796135   -0.018855547279339246
-2.807685759448334   -0.15701672834796135   -0.018855547279339246
-2.807685759448334   -0.15701672834796135   -0.018855547279339246
-2.904606280848478   -0.24635891156645612   0.07057927768840144
-2.904606280848478   -0.24635891156645612   0.07057927768840144
-2.904606280848478   -0.24635891156645612   0.07057927768840144
-2.904606280848478   -0.24635891156645612   0.07057927768840144
-1.8988565347852753   -0.006764645136385139   -0.014076271905050564
-1.8988565347852753   -0.006764645136385139   -0.014076271905050564
-1.8988565347852753   -0.006764645136385139   -0.014076271905050564
-1.8988565347852753   -0.006764645136385139   -0.014076271905050564
-2.2529323575012428   -0.05743056674789496   0.0076056418160518335
-2.2529323575012428   -0.05743056674789496   0.0076056418160518335
-2.2529323575012428   -0.05743056674789496   0.0076056418160518335
-2.2529323575012428   -0.05743056674789496   0.0076056418160518335
1.7426501377491959   0.09308854982821337   -0.06235189698671029
1.7426501377491959   0.09308854982821337   -0.06235189698671029
1.7426501377491959   0.09308854982821337   -0.06235189698671029
1.7426501377491959   0.09308854982821337   -0.06235189698671029
0.8642703953469648   -0.0006381045899913063   0.022656201568933276
0.8642703953469648   -0.0006381045899913063   0.022656201568933276
0.8642703953469648   -0.0006381045899913063   0.022656201568933276
0.8642703953469648   -0.0006381045899913063   0.022656201568933276
0.7896633444942303   -0.12891610485816643   -0.05714744332538174
0.7896633444942303   -0.12891610485816643   -0.05714744332538174
0.7896633444942303   -0.12891610485816643   -0.05714744332538174
0.7896633444942303   -0.12891610485816643   -0.05714744332538174
1.709709750451512   0.14102989150089484   0.028405718213018072
1.709709750451512   0.14102989150089484   0.028405718213018072
1.709709750451512   0.14102989150089484   0.028405718213018072
1.709709750451512   0.14102989150089484   0.028405718213018072
1.2105762803684483   0.010704180478241024   -0.03983423956312582
1.2105762803684483   0.010704180478241024   -0.03983423956312582
1.2105762803684483   0.010704180478241024   -0.03983423956312582
1.2105762803684483   0.010704180478241024   -0.03983423956312582
1.6732596422236077   0.04722471422306587   -0.060039645648659046
1.6732596422236077   0.04722471422306587   -0.060039645648659046
1.6732596422236077   0.04722471422306587   -0.060039645648659046
1.6732596422236077   0.04722471422306587   -0.060039645648659046
0.8245464581555484   -0.03667792214691292   0.025029942269942707
0.8245464581555484   -0.03667792214691292   0.025029942269942707
0.8245464581555484   -0.03667792214691292   0.025029942269942707
0.8245464581555484   -0.03667792214691292   0.025029942269942707
0.7523458124142463   -0.13971535936034551   -0.04966151680306377
0.7523458124142463   -0.13971535936034551   -0.04966151680306377
0.7523458124142463   -0.13971535936034551   -0.04966151680306377
0.7523458124142463   -0.13971535936034551   -0.04966151680306377
1.6538840664061887   0.12619808179868997   0.0388051624648888
1.6538840664061887   0.12619808179868997   0.0388051624648888
1.6538840664061887   0.12619808179868997   0.0388051624648888
1.6538840664061887   0.12619808179868997   0.0388051624648888
1.1812944428914818   -0.008734000444684573   -0.05239883346296392
1.1812944428914818   -0.008734000444684573   -0.05239883346296392
1.1812944428914818   -0.008734000444684573   -0.05239883346296392
1.1812944428914818   -0.008734000444684573   -0.05239883346296392
1.61821769937148   0.0339380026747825   -0.04726659358471913
1.61821769937148   0.0339380026747825   -0.04726659358471913
1.61821769937148   0.0339380026747825   -0.04726659358471913
1.61821769937148   0.0339380026747825   -0.04726659358471913
0.7866104682708654   -0.048856991414513475   0.030803394534194867
0.7866104682708654   -0.048856991414513475   0.030803394534194867
0.7866104682708654   -0.048856991414513475   0.030803394534194867
0.7866104682708654   -0.048856991414513475   0.030803394534194867
0.7182600318827721   -0.14298465375142097   -0.04056709275269704
0.7182600318827721   -0.14298465375142097   -0.04056709275269704
0.7182600318827721   -0.14298465375142097   -0.04056709275269704
0.7182600318827721   -0.14298465375142097   -0.04056709275269704
1.5909492285897253   0.11314365864260506   0.048260973952144015
1.5909492285897253   0.11314365864260506   0.048260973952144015
1.5909492285897253   0.11314365864260506   0.048260973952144015
1.5909492285897253   0.11314365864260506   0.048260973952144015
1.1133128639011687   -0.02214189534128462   -0.07119980836090528
1.1133128639011687   -0.02214189534128462   -0.07119980836090528
1.1133128639011687   -0.02214189534128462   -0.07119980836090528
1.1133128639011687   -0.02214189534128462   -0.07119980836090528
0.8789966924009107   0.09095594585090376   0.004693636397768014
0.8789966924009107   0.09095594585090376   0.004693636397768014
0.8789966924009107   0.09095594585090376   0.004693636397768014
0.8789966924009107   0.09095594585090376   0.004693636397768014
0.030589653751910157   -0.028622339447555326   -0.0035201824871505033
0.030589653751910157   -0.028622339447555326   -0.0035201824871505033
0.030589653751910157   -0.028622339447555326   -0.0035201824871505033
0.030589653751910157   -0.028622339447555326   -0.0035201824871505033
-0.025642986748418646   -0.1161266872625579   -0.03885012932974516
-0.025642986748418646   -0.1161266872625579   -0.03885012932974516
-0.025642986748418646   -0.1161266872625579   -0.03885012932974516
-0.025642986748418646   -0.1161266872625579   -0.03885012932974516
0.8619806246429982   0.12766415351178378   0.04785869904849499
0.8619806246429982   0.12766415351178378   0.04785869904849499
0.8619806246429982   0.12766415351178378   0.04785869904849499
0.8619806246429982   0.12766415351178378   0.04785869904849499
0.4296828534954596   0.018181804032639824   -0.0049448897425129895
0.4296828534954596   0.018181804032639824   -0.0049448897425129895
0.4296828534954596   0.018181804032639824   -0.0049448897425129895
0.4296828534954596   0.018181804032639824   -0.0049448897425129895
0.8422468180730551   0.06716005292483258   0.00969376678573361
0.8422468180730551   0.06716005292483258   0.00969376678573361
0.8422468180730551   0.06716005292483258   0.00969376678573361
0.8422468180730551   0.06716005292483258   0.00969376678573361
-0.005560743662504623   -0.05527415015963532   0.0007085489969023782
-0.005560743662504623   -0.05527415015963532   0.0007085489969023782
-0.005560743662504623   -0.05527415015963532   0.0007085489969023782
-0.005560743662504623   -0.05527415015963532   0.0007085489969023782
-0.06099452437694246   -0.13359348464424736   -0.03356980808807552
-0.06099452437694246   -0.13359348464424736   -0.03356980808807552
-0.06099452437694246   -0.13359348464424736   -0.03356980808807552
-0.06099452437694246   -0.13359348464424736   -0.03356980808807552
0.8219362155651679   0.10560971784162074   0.05296542174957333
0.8219362155651679   0.10560971784162074   0.05296542174957333
0.8219362155651679   0.10560971784162074   0.05296542174957333
0.8219362155651679   0.10560971784162074   0.05296542174957333
0.3865269259682591   -0.003543139248665103   -0.017293878175464447
0.3865269259682591   -0.003543139248665103   -0.017293878175464447
0.3865269259682591   -0.003543139248665103   -0.017293878175464447
0.3865269259682591   -0.003543139248665103   -0.017293878175464447
0.802939434460417   0.04885459629527381   0.01473663777217088
0.802939434460417   0.04885459629527381   0.01473663777217088
0.802939434460417   0.04885459629527381   0.01473663777217088
0.802939434460417   0.04885459629527381   0.01473663777217088
-0.041962981679719326   -0.0768036015054376   0.004798022259230379
-0.041962981679719326   -0.0768036015054376   0.004798022259230379
-0.041962981679719326   -0.0768036015054376   0.004798022259230379
-0.041962981679719326   -0.0768036015054376   0.004798022259230379
-0.09599182112729766   -0.14413974069578478   -0.026680492337866714
-0.09599182112729766   -0.14413974069578478   -0.026680492337866714
-0.09599182112729766   -0.14413974069578478   -0.026680492337866714
-0.09599182112729766   -0.14413974069578478   -0.026680492337866714
0.7838512607358553   0.08698453870932757   0.057419859051961064
0.7838512607358553   0.08698453870932757   0.057419859051961064
0.7838512607358553   0.08698453870932757   0.057419859051961064
0.7838512607358553   0.08698453870932757   0.057419859051961064
0.35457629553515646   -0.017474434765364536   -0.026407692498967017
0.35457629553515646   -0.017474434765364536   -0.026407692498967017
0.35457629553515646   -0.017474434765364536   -0.026407692498967017
0.35457629553515646   -0.017474434765364536   -0.026407692498967017
0.05936245921775143   0.09195434006541674   0.019767165329083788
0.05936245921775143   0.09195434006541674   0.019767165329083788
0.05936245921775143   0.09195434006541674   0.019767165329083788
0.05936245921775143   0.09195434006541674   0.019767165329083788
-0.7771550847997284   -0.0501893781233198   -0.026753908677506988
-0.7771550847997284   -0.0501893781233198   -0.026753908677506988
-0.7771550847997284   -0.0501893781233198   -0.026753908677506988
-0.7771550847997284   -0.0501893781233198   -0.026753908677506988
-0.821028056616174   -0.10635262296739818   -0.024539061341482538
-0.821028056616174   -0.10635262296739818   -0.024539061341482538
-0.821028056616174   -0.10635262296739818   -0.024539061341482538
-0.821028056616174   -0.10635262296739818   -0.024539061341482538
0.030891749644824176   0.10452680066080672   0.023170064713104326
0.030891749644824176   0.10452680066080672   0.023170064713104326
0.030891749644824176   0.10452680066080672   0.023170064713104326
0.030891749644824176   0.10452680066080672   0.023170064713104326
-0.3765116754418724   0.01176871492692981   0.001416316934511122
-0.3765116754418724   0.01176871492692981   0.001416316934511122
-0.3765116754418724   0.01176871492692981   0.001416316934511122
-0.3765116754418724   0.01176871492692981   0.001416316934511122
0.024866139061239845   0.07270649243964915   0.024862320016340242
0.024866139061239845   0.07270649243964915   0.024862320016340242
0.024866139061239845   0.07270649243964915   0.024862320016340242
0.024866139061239845   0.07270649243964915   0.024862320016340242
-0.8140394543251848   -0.07356932303883562   -0.02237934981509848
-0.8140394543251848   -0.07356932303883562   -0.02237934981509848
-0.8140394543251848   -0.07356932303883562   -0.02237934981509848
-0.8140394543251848   -0.07356932303883562   -0.02237934981509848
-0.8589685462542361   -0.12554760541368123   -0.0203542866038372
-0.8589685462542361   -0.12554760541368123   -0.0203542866038372
-0.8589685462542361   -0.12554760541368123   -0.0203542866038372
-0.8589685462542361   -0.12554760541368123   -0.0203542866038372
-0.005568496990886962   0.08183751319566772   0.0281293310022869
-0.005568496990886962   0.08183751319566772   0.0281293310022869
-0.005568496990886962   0.08183751319566772   0.0281293310022869
-0.005568496990886962   0.08183751319566772   0.0281293310022869
-0.41285866554655154   -0.007000970331865614   -0.007873633064855015
-0.41285866554655154   -0.007000970331865614   -0.007873633064855015
-0.41285866554655154   -0.007000970331865614   -0.007873633064855015
-0.41285866554655154   -0.007000970331865614   -0.007873633064855015
-0.010717967260341204   0.05418105523000157   0.030038437620681844
-0.010717967260341204   0.05418105523000157   0.030038437620681844
-0.010717967260341204   0.05418105523000157   0.030038437620681844
-0.010717967260341204   0.05418105523000157   0.030038437620681844
-0.8529899972633792   -0.09706206872661238   -0.018947078336621348
-0.8529899972633792   -0.09706206872661238   -0.018947078336621348
-0.8529899972633792   -0.09706206872661238   -0.018947078336621348
-0.8529899972633792   -0.09706206872661238   -0.018947078336621348
-0.8966558497226634   -0.14066110729312664   -0.013400036516922731
-0.8966558497226634   -0.14066110729312664   -0.013400036516922731
-0.8966558497226634   -0.14066110729312664   -0.013400036516922731
-0.8966558497226634   -0.14066110729312664   -0.013400036516922731
-0.04333985357833296   0.06046353044215051   0.031976074269025274
-0.04333985357833296   0.06046353044215051   0.031976074269025274
-0.04333985357833296   0.06046353044215051   0.031976074269025274
-0.04333985357833296   0.06046353044215051   0.031976074269025274
-0.4519662069787423   -0.026090989940213735   -0.01802080357443793
-0.4519662069787423   -0.026090989940213735   -0.01802080357443793
-0.4519662069787423   -0.026090989940213735   -0.01802080357443793
-0.4519662069787423   -0.026090989940213735   -0.01802080357443793
-0.7327732709597917   0.10881946834633074   0.03614631405254046
-0.7327732709597917   0.10881946834633074   0.03614631405254046
-0.7327732709597917   0.10881946834633074   0.03614631405254046
-0.7327732709597917   0.10881946834633074   0.03614631405254046
-1.5578472688438023   -0.06906130359249785   -0.0438716493477056
-1.5578472688438023   -0.06906130359249785   -0.0438716493477056
-1.5578472688438023   -0.06906130359249785   -0.0438716493477056
-1.5578472688438023   -0.06906130359249785   -0.0438716493477056
-1.592061823015633   -0.085057458081307   -0.0069024790688145266
-1.592061823015633   -0.085057458081307   -0.0069024790688145266
-1.592061823015633   -0.085057458081307   -0.0069024790688145266
-1.592061823015633   -0.085057458081307   -0.0069024790688145266
-0.7793139975281301   0.07902202227488779   -0.0013434111435450535
-0.7793139975281301   0.07902202227488779   -0.0013434111435450535
-0.7793139975281301   0.07902202227488779   -0.0013434111435450535
-0.7793139975281301   0.07902202227488779   -0.0013434111435450535
-1.157084222808497   0.012027520179910559   0.008420034214181138
-1.157084222808497   0.012027520179910559   0.008420034214181138
-1.157084222808497   0.012027520179910559   0.008420034214181138
-1.157084222808497   0.012027520179910559   0.008420034214181138
-0.7689207035978516   0.08906689814379931   0.04057818263893581
-0.7689207035978516   0.08906689814379931   0.04057818263893581
-0.7689207035978516   0.08906689814379931   0.04057818263893581
-0.7689207035978516   0.08906689814379931   0.04057818263893581
-1.60114134330751   -0.0937885603118171   -0.04356897829768974
-1.60114134330751   -0.0937885603118171   -0.04356897829768974
-1.60114134330751   -0.0937885603118171   -0.04356897829768974
-1.60114134330751   -0.0937885603118171   -0.04356897829768974
-1.6387905123655115   -0.10663476358680797   -0.00608960995940816
-1.6387905123655115   -0.10663476358680797   -0.00608960995940816
-1.6387905123655115   -0.10663476358680797   -0.00608960995940816
-1.6387905123655115   -0.10663476358680797   -0.00608960995940816
-0.8176988138933903   0.05737010575640892   0.0030766640303100667
-0.8176988138933903   0.05737010575640892   0.0030766640303100667
-0.8176988138933903   0.05737010575640892   0.0030766640303100667
-0.8176988138933903   0.05737010575640892   0.0030766640303100667
-1.1898373600997834   -0.005163514601043265   0.0007959923488560783
-1.1898373600997834   -0.005163514601043265   0.0007959923488560783
-1.1898373600997834   -0.005163514601043265   0.0007959923488560783
-1.1898373600997834   -0.005163514601043265   0.0007959923488560783
-0.8063189043440347   0.07045561959672361   0.04689069793677306
-0.8063189043440347   0.07045561959672361   0.04689069793677306
-0.8063189043440347   0.07045561959672361   0.04689069793677306
-0.8063189043440347   0.07045561959672361   0.04689069793677306
-1.6475099867109995   -0.11705984222325512   -0.039261903050401004
-1.6475099867109995   -0.11705984222325512   -0.039261903050401004
-1.6475099867109995   -0.11705984222325512   -0.039261903050401004
-1.6475099867109995   -0.11705984222325512   -0.039261903050401004
-1.6818243601693281   -0.12972905705926377   0.004737280633563101
-1.6818243601693281   -0.12972905705926377   0.004737280633563101
-1.6818243601693281   -0.12972905705926377   0.004737280633563101
-1.6818243601693281   -0.12972905705926377   0.004737280633563101
-0.858376019848493   0.03162489555760389   0.005713110003199157
-0.858376019848493   0.03162489555760389   0.005713110003199157
-0.858376019848493   0.03162489555760389   0.005713110003199157
-0.858376019848493   0.03162489555760389   0.005713110003199157
-1.2408624846063705   -0.029241596849568743   -0.009435865635204876
-1.2408624846063705   -0.029241596849568743   -0.009435865635204876
-1.2408624846063705   -0.029241596849568743   -0.009435865635204876
-1.2408624846063705   -0.029241596849568743   -0.009435865635204876
-1.502488251552687   0.11319867222943857   0.05066346128592297
-1.502488251552687   0.11319867222943857   0.05066346128592297
-1.502488251552687   0.11319867222943857   0.05066346128592297
-1.502488251552687   0.11319867222943857   0.05066346128592297
-2.2993791255348706   -0.1063225449566467   -0.040568235223968685
-2.2993791255348706   -0.1063225449566467   -0.040568235223968685
-2.2993791255348706   -0.1063225449566467   -0.040568235223968685
-2.2993791255348706   -0.1063225449566467   -0.040568235223968685
-2.3311190041114562   -0.04632661162013668   0.04315103813061216
-2.3311190041114562   -0.04632661162013668   0.04315103813061216
-2.3311190041114562   -0.04632661162013668   0.04315103813061216
-2.3311190041114562   -0.04632661162013668   0.04315103813061216
-1.5688070453059244   0.04713774610004183   -0.022823794701621325
-1.5688070453059244   0.04713774610004183   -0.022823794701621325
-1.5688070453059244   0.04713774610004183   -0.022823794701621325
-1.5688070453059244   0.04713774610004183   -0.022823794701621325
-1.8403919043689312   0.023629365535170088   0.04221278754352231
-1.8403919043689312   0.023629365535170088   0.04221278754352231
-1.8403919043689312   0.023629365535170088   0.04221278754352231
-1.8403919043689312   0.023629365535170088   0.04221278754352231
-1.5390046987598136   0.11510931554154993   0.0582163685874022
-1.5390046987598136   0.11510931554154993   0.0582163685874022
-1.5390046987598136   0.11510931554154993   0.0582163685874022
-1.5390046987598136   0.11510931554154993   0.0582163685874022
-2.359161490702697   -0.11253832110677442   -0.030849685338930066
-2.359161490702697   -0.11253832110677442   -0.030849685338930066
-2.359161490702697   -0.11253832110677442   -0.030849685338930066
-2.359161490702697   -0.11253832110677442   -0.030849685338930066
-2.389149981093734   -0.05761392486949973   0.05962269175830737
-2.389149981093734   -0.05761392486949973   0.05962269175830737
-2.389149981093734   -0.05761392486949973   0.05962269175830737
-2.389149981093734   -0.05761392486949973   0.05962269175830737
-1.613370822008955   0.034692700176816554   -0.020318621940251247
-1.613370822008955   0.034692700176816554   -0.020318621940251247
-1.613370822008955   0.034692700176816554   -0.020318621940251247
-1.613370822008955   0.034692700176816554   -0.020318621940251247
-1.9200676861020283   0.011642214331357328   0.027047948874906802
-1.9200676861020283   0.011642214331357328   0.027047948874906802
-1.9200676861020283   0.011642214331357328   0.027047948874906802
-1.9200676861020283   0.011642214331357328   0.027047948874906802
-1.5804564037633904   0.10665790511482098   0.07228826434956764
-1.5804564037633904   0.10665790511482098   0.07228826434956764
-1.5804564037633904   0.10665790511482098   0.07228826434956764
-1.5804564037633904   0.10665790511482098   0.07228826434956764
-2.4203676552247346   -0.1278823856929361   -0.026197218073235273
-2.4203676552247346   -0.1278823856929361   -0.026197218073235273
-2.4203676552247346   -0.1278823856929361   -0.026197218073235273
-2.4203676552247346   -0.1278823856929361   -0.026197218073235273
-2.467853994634043   -0.10588130464011106   0.059337890425087414
-2.467853994634043   -0.10588130464011106   0.059337890425087414
-2.467853994634043   -0.10588130464011106   0.059337890425087414
-2.467853994634043   -0.10588130464011106   0.059337890425087414
-1.661143997164839   -0.0025110205889497944   -0.01907894081430822
-1.661143997164839   -0.0025110205889497944   -0.01907894081430822
-1.661143997164839   -0.0025110205889497944   -0.01907894081430822
-1.661143997164839   -0.0025110205889497944   -0.01907894081430822
-1.9434793663907237   -0.005560870306469859   0.021979135295826624
-1.9434793663907237   -0.005560870306469859   0.021979135295826624
-1.9434793663907237   -0.005560870306469859   0.021979135295826624
-1.9434793663907237   -0.005560870306469859   0.021979135295826624
1.319329941628096   0.07319512498133274   -0.06323719685557755
1.319329941628096   0.07319512498133274   -0.06323719685557755
1.319329941628096   0.07319512498133274   -0.06323719685557755
1.319329941628096   0.07319512498133274   -0.06323719685557755
0.6276516621910345   0.012825366048002013   0.024166873531114255
0.6276516621910345   0.012825366048002013   0.024166873531114255
0.6276516621910345   0.012825366048002013   0.024166873531114255
0.6276516621910345   0.012825366048002013   0.024166873531114255
0.5573668894635561   -0.10712416674713549   -0.060021712039177666
0.5573668894635561   -0.10712416674713549   -0.060021712039177666
0.5573668894635561   -0.10712416674713549   -0.060021712039177666
0.5573668894635561   -0.10712416674713549   -0.060021712039177666
1.290605628866419   0.12139376808342896   0.02987553327711251
1.290605628866419   0.12139376808342896   0.02987553327711251
1.290605628866419   0.12139376808342896   0.02987553327711251
1.290605628866419   0.12139376808342896   0.02987553327711251
0.8997404123075318   0.012177443243847376   -0.02659938454297356
0.8997404123075318   0.012177443243847376   -0.02659938454297356
0.8997404123075318   0.012177443243847376   -0.02659938454297356
0.8997404123075318   0.012177443243847376   -0.02659938454297356
1.2548896124914302   0.032435470136174094   -0.05974625065056538
1.2548896124914302   0.032435470136174094   -0.05974625065056538
1.2548896124914302   0.032435470136174094   -0.05974625065056538
1.2548896124914302   0.032435470136174094   -0.05974625065056538
0.5923772764322627   -0.018871498206151655   0.026777554263365574
0.5923772764322627   -0.018871498206151655   0.026777554263365574
0.5923772764322627   -0.018871498206151655   0.026777554263365574
0.5923772764322627   -0.018871498206151655   0.026777554263365574
0.5245207626249113   -0.11767034784572006   -0.05117368197594535
0.5245207626249113   -0.11767034784572006   -0.05117368197594535
0.5245207626249113   -0.11767034784572006   -0.05117368197594535
0.5245207626249113   -0.11767034784572006   -0.05117368197594535
1.2395363067875431   0.10632844755841017   0.03926330267803524
1.2395363067875431   0.10632844755841017   0.03926330267803524
1.2395363067875431   0.10632844755841017   0.03926330267803524
1.2395363067875431   0.10632844755841017   0.03926330267803524
0.8702605076215212   -0.006088489120872835   -0.03741868488443151
0.8702605076215212   -0.006088489120872835   -0.03741868488443151
0.8702605076215212   -0.006088489120872835   -0.03741868488443151
0.8702605076215212   -0.006088489120872835   -0.03741868488443151
1.2046595720808817   0.019028138151077248   -0.04782006144792911
1.2046595720808817   0.019028138151077248   -0.04782006144792911
1.2046595720808817   0.019028138151077248   -0.04782006144792911
1.2046595720808817   0.019028138151077248   -0.04782006144792911
0.558511169757986   -0.03125636601197339   0.03236437185567456
0.558511169757986   -0.03125636601197339   0.03236437185567456
0.558511169757986   -0.03125636601197339   0.03236437185567456
0.558511169757986   -0.03125636601197339   0.03236437185567456
0.49490747844246386   -0.12423963250728395   -0.04261373165003955
0.49490747844246386   -0.12423963250728395   -0.04261373165003955
0.49490747844246386   -0.12423963250728395   -0.04261373165003955
0.49490747844246386   -0.12423963250728395   -0.04261373165003955
1.1819566822703713   0.08996487433286102   0.046617702050728016
1.1819566822703713   0.08996487433286102   0.046617702050728016
1.1819566822703713   0.08996487433286102   0.046617702050728016
1.1819566822703713   0.08996487433286102   0.046617702050728016
0.8122237323405738   -0.019916812914551586   -0.05338709433181163
0.8122237323405738   -0.019916812914551586   -0.05338709433181163
0.8122237323405738   -0.019916812914551586   -0.05338709433181163
0.8122237323405738   -0.019916812914551586   -0.05338709433181163
0.6380295463382928   0.09278833969185254   -0.003906679376432326
0.6380295463382928   0.09278833969185254   -0.003906679376432326
0.6380295463382928   0.09278833969185254   -0.003906679376432326
0.6380295463382928   0.09278833969185254   -0.003906679376432326
-0.041425613273093326   -0.008878986786681631   -0.00025860191887936736
-0.041425613273093326   -0.008878986786681631   -0.00025860191887936736
-0.041425613273093326   -0.008878986786681631   -0.00025860191887936736
-0.041425613273093326   -0.008878986786681631   -0.00025860191887936736
-0.0909359284037087   -0.08011569074271797   -0.03812396917730681
-0.0909359284037087   -0.08011569074271797   -0.03812396917730681
-0.0909359284037087   -0.08011569074271797   -0.03812396917730681
-0.0909359284037087   -0.08011569074271797   -0.03812396917730681
0.6213371424871482   0.11030540829242046   0.04239997803922067
0.6213371424871482   0.11030540829242046   0.04239997803922067
0.6213371424871482   0.11030540829242046   0.04239997803922067
0.6213371424871482   0.11030540829242046   0.04239997803922067
0.27741313259446476   0.027250558567951184   0.0019602372529166773
0.27741313259446476   0.027250558567951184   0.0019602372529166773
0.27741313259446476   0.027250558567951184   0.0019602372529166773
0.27741313259446476   0.027250558567951184   0.0019602372529166773
0.6045379957569328   0.06695484871747918   0.0017548039630987944
0.6045379957569328   0.06695484871747918   0.0017548039630987944
0.6045379957569328   0.06695484871747918   0.0017548039630987944
0.6045379957569328   0.06695484871747918   0.0017548039630987944
-0.07384786870702544   -0.036476218201316746   0.003676856764708303
-0.07384786870702544   -0.036476218201316746   0.003676856764708303
-0.07384786870702544   -0.036476218201316746   0.003676856764708303
-0.07384786870702544   -0.036476218201316746   0.003676856764708303
-0.12187688161032798   -0.1000478704745338   -0.03150942265564198
-0.12187688161032798   -0.1000478704745338   -0.03150942265564198
-0.12187688161032798   -0.1000478704745338   -0.03150942265564198
-0.12187688161032798   -0.1000478704745338   -0.03150942265564198
0.584866296194505   0.08652831680771018   0.04635532121858642
0.584866296194505   0.08652831680771018   0.04635532121858642
0.584866296194505   0.08652831680771018   0.04635532121858642
0.584866296194505   0.08652831680771018   0.04635532121858642
0.23930372715359474   0.0037466713857075735   -0.009842377932052629
0.23930372715359474   0.0037466713857075735   -0.009842377932052629
0.23930372715359474   0.0037466713857075735   -0.009842377932052629
0.23930372715359474   0.0037466713857075735   -0.009842377932052629
0.5686223233051563   0.04557217479633604   0.006091598783222935
0.5686223233051563   0.04557217479633604   0.006091598783222935
0.5686223233051563   0.04557217479633604   0.006091598783222935
0.5686223233051563   0.04557217479633604   0.006091598783222935
-0.10586647357933082   -0.05932529332151025   0.007820040346320195
-0.10586647357933082   -0.05932529332151025   0.007820040346320195
-0.10586647357933082   -0.05932529332151025   0.007820040346320195
-0.10586647357933082   -0.05932529332151025   0.007820040346320195
-0.15241651178275015   -0.11681185447587855   -0.025294334355463972
-0.15241651178275015   -0.11681185447587855   -0.025294334355463972
-0.15241651178275015   -0.11681185447587855   -0.025294334355463972
-0.15241651178275015   -0.11681185447587855   -0.025294334355463972
0.5511937870650258   0.06452167536333926   0.050056503592145044
0.5511937870650258   0.06452167536333926   0.050056503592145044
0.5511937870650258   0.06452167536333926   0.050056503592145044
0.5511937870650258   0.06452167536333926   0.050056503592145044
0.21003912760990326   -0.014097805063954288   -0.019684609875753538
0.21003912760990326   -0.014097805063954288   -0.019684609875753538
0.21003912760990326   -0.014097805063954288   -0.019684609875753538
0.21003912760990326   -0.014097805063954288   -0.019684609875753538
-0.014364890806616301   0.11079387261347404   0.015372151013350079
-0.014364890806616301   0.11079387261347404   0.015372151013350079
-0.014364890806616301   0.11079387261347404   0.015372151013350079
-0.014364890806616301   0.11079387261347404   0.015372151013350079
-0.6962379998126031   -0.030059498077097117   -0.023095166393063582
-0.6962379998126031   -0.030059498077097117   -0.023095166393063582
-0.6962379998126031   -0.030059498077097117   -0.023095166393063582
-0.6962379998126031   -0.030059498077097117   -0.023095166393063582
-0.7281497342193942   -0.05551927254376343   -0.018018817445528107
-0.7281497342193942   -0.05551927254376343   -0.018018817445528107
-0.7281497342193942   -0.05551927254376343   -0.018018817445528107
-0.7281497342193942   -0.05551927254376343   -0.018018817445528107
-0.04577734921154249   0.08908865649169964   0.01846457954910667
-0.04577734921154249   0.08908865649169964   0.01846457954910667
-0.04577734921154249   0.08908865649169964   0.01846457954910667
-0.04577734921154249   0.08908865649169964   0.01846457954910667
-0.3702540243678684   0.02877296716562352   0.00726572227582141
-0.3702540243678684   0.02877296716562352   0.00726572227582141
-0.3702540243678684   0.02877296716562352   0.00726572227582141
-0.3702540243678684   0.02877296716562352   0.00726572227582141
-0.04515611670229545   0.08901257847180852   0.021646820115232984
-0.04515611670229545   0.08901257847180852   0.021646820115232984
-0.04515611670229545   0.08901257847180852   0.021646820115232984
-0.04515611670229545   0.08901257847180852   0.021646820115232984
-0.7281724107528579   -0.05484463854808897   -0.018806834108521048
-0.7281724107528579   -0.05484463854808897   -0.018806834108521048
-0.7281724107528579   -0.05484463854808897   -0.018806834108521048
-0.7281724107528579   -0.05484463854808897   -0.018806834108521048
-0.7598416102687217   -0.07709183222871285   -0.012244282841781307
-0.7598416102687217   -0.07709183222871285   -0.012244282841781307
-0.7598416102687217   -0.07709183222871285   -0.012244282841781307
-0.7598416102687217   -0.07709183222871285   -0.012244282841781307
-0.07803325517349897   0.06460484661857688   0.02305599243539232
-0.07803325517349897   0.06460484661857688   0.02305599243539232
-0.07803325517349897   0.06460484661857688   0.02305599243539232
-0.07803325517349897   0.06460484661857688   0.02305599243539232
-0.40227198845523693   0.007500700418206708   -0.0023149231347254495
-0.40227198845523693   0.007500700418206708   -0.0023149231347254495
-0.40227198845523693   0.007500700418206708   -0.0023149231347254495
-0.40227198845523693   0.007500700418206708   -0.0023149231347254495
-0.07677361295764493   0.06730202819042218   0.026657021942817216
-0.07677361295764493   0.06730202819042218   0.026657021942817216
-0.07677361295764493   0.06730202819042218   0.026657021942817216
-0.07677361295764493   0.06730202819042218   0.026657021942817216
-0.7609237106427501   -0.07961147195873142   -0.015135144981897941
-0.7609237106427501   -0.07961147195873142   -0.015135144981897941
-0.7609237106427501   -0.07961147195873142   -0.015135144981897941
-0.7609237106427501   -0.07961147195873142   -0.015135144981897941
-0.7911637140260368   -0.09680243551037646   -0.006529895045905704
-0.7911637140260368   -0.09680243551037646   -0.006529895045905704
-0.7911637140260368   -0.09680243551037646   -0.006529895045905704
-0.7911637140260368   -0.09680243551037646   -0.006529895045905704
-0.1104183973921842   0.04092472406119313   0.026959659060290193
-0.1104183973921842   0.04092472406119313   0.026959659060290193
-0.1104183973921842   0.04092472406119313   0.026959659060290193
-0.1104183973921842   0.04092472406119313   0.026959659060290193
-0.43575413721098866   -0.013952254751849892   -0.012982368604598407
-0.43575413721098866   -0.013952254751849892   -0.012982368604598407
-0.43575413721098866   -0.013952254751849892   -0.012982368604598407
-0.43575413721098866   -0.013952254751849892   -0.012982368604598407
-0.6534530010337152   0.12728828810326315   0.033482041321012235
-0.6534530010337152   0.12728828810326315   0.033482041321012235
-0.6534530010337152   0.12728828810326315   0.033482041321012235
-0.6534530010337152   0.12728828810326315   0.033482041321012235
-1.3359067173362107   -0.05168430980877366   -0.04166778343898414
-1.3359067173362107   -0.05168430980877366   -0.04166778343898414
-1.3359067173362107   -0.05168430980877366   -0.04166778343898414
-1.3359067173362107   -0.05168430980877366   -0.04166778343898414
-1.3533535235828844   -0.03473888398204017   0.0038915836265694947
-1.3533535235828844   -0.03473888398204017   0.0038915836265694947
-1.3533535235828844   -0.03473888398204017   0.0038915836265694947
-1.3533535235828844   -0.03473888398204017   0.0038915836265694947
-0.7017295296987535   0.06395375447399493   -0.005390821860075251
-0.7017295296987535   0.06395375447399493   -0.005390821860075251
-0.7017295296987535   0.06395375447399493   -0.005390821860075251
-0.7017295296987535   0.06395375447399493   -0.005390821860075251
-1.0045522899169352   0.027492787933567173   0.01231626196883856
-1.0045522899169352   0.027492787933567173   0.01231626196883856
-1.0045522899169352   0.027492787933567173   0.01231626196883856
-1.0045522899169352   0.027492787933567173   0.01231626196883856
-0.684297932005334   0.10619841818697526   0.03952250289403461
-0.684297932005334   0.10619841818697526   0.03952250289403461
-0.684297932005334   0.10619841818697526   0.03952250289403461
-0.684297932005334   0.10619841818697526   0.03952250289403461
-1.3706196329742126   -0.07681805939292145   -0.040359787919197865
-1.3706196329742126   -0.07681805939292145   -0.040359787919197865
-1.3706196329742126   -0.07681805939292145   -0.040359787919197865
-1.3706196329742126   -0.07681805939292145   -0.040359787919197865
-1.3902550460475946   -0.05654507795537771   0.006056977625581217
-1.3902550460475946   -0.05654507795537771   0.006056977625581217
-1.3902550460475946   -0.05654507795537771   0.006056977625581217
-1.3902550460475946   -0.05654507795537771   0.006056977625581217
-0.7338627023551475   0.04127865768062089   -0.0007202331832366071
-0.7338627023551475   0.04127865768062089   -0.0007202331832366071
-0.7338627023551475   0.04127865768062089   -0.0007202331832366071
-0.7338627023551475   0.04127865768062089   -0.0007202331832366071
-1.031655077804338   0.008502258661435336   0.003395477480684389
-1.031655077804338   0.008502258661435336   0.003395477480684389
-1.031655077804338   0.008502258661435336   0.003395477480684389
-1.031655077804338   0.008502258661435336   0.003395477480684389
-0.7157054662300264   0.0861853029230146   0.045159302199974605
-0.7157054662300264   0.0861853029230146   0.045159302199974605
-0.7157054662300264   0.0861853029230146   0.045159302199974605
-0.7157054662300264   0.0861853029230146   0.045159302199974605
-1.407476218744512   -0.10051565976957033   -0.03607830404482815
-1.407476218744512   -0.10051565976957033   -0.03607830404482815
-1.407476218744512   -0.10051565976957033   -0.03607830404482815
-1.407476218744512   -0.10051565976957033   -0.03607830404482815
-1.4237344366339881   -0.08000872366479637   0.012903430676693028
-1.4237344366339881   -0.08000872366479637   0.012903430676693028
-1.4237344366339881   -0.08000872366479637   0.012903430676693028
-1.4237344366339881   -0.08000872366479637   0.012903430676693028
-0.766894764862885   0.015349563911383236   0.0026628513480980442
-0.766894764862885   0.015349563911383236   0.0026628513480980442
-0.766894764862885   0.015349563911383236   0.0026628513480980442
-0.766894764862885   0.015349563911383236   0.0026628513480980442
-1.072867230960534   -0.0152853640486229   -0.007919563521806228
-1.072867230960534   -0.0152853640486229   -0.007919563521806228
-1.072867230960534   -0.0152853640486229   -0.007919563521806228
-1.072867230960534   -0.0152853640486229   -0.007919563521806228
-1.2849356117811002   0.11415040978704982   0.04735302474074354
-1.2849356117811002   0.11415040978704982   0.04735302474074354
-1.2849356117811002   0.11415040978704982   0.04735302474074354
-1.2849356117811002   0.11415040978704982   0.04735302474074354
-1.9439027634367474   -0.08965086716582041   -0.04600078146877501
-1.9439027634367474   -0.08965086716582041   -0.04600078146877501
-1.9439027634367474   -0.08965086716582041   -0.04600078146877501
-1.9439027634367474   -0.08965086716582041   -0.04600078146877501
-1.965635303562983   -0.018931394769489768   0.04365875920784029
-1.965635303562983   -0.018931394769489768   0.04365875920784029
-1.965635303562983   -0.018931394769489768   0.04365875920784029
-1.965635303562983   -0.018931394769489768   0.04365875920784029
-1.3461501784490604   0.03212419917787364   -0.026954773864223847
-1.3461501784490604   0.03212419917787364   -0.026954773864223847
-1.3461501784490604   0.03212419917787364   -0.026954773864223847
-1.3461501784490604   0.03212419917787364   -0.026954773864223847
-1.5628418153324866   0.025731080312861962   0.03822719308045475
-1.5628418153324866   0.025731080312861962   0.03822719308045475
-1.5628418153324866   0.025731080312861962   0.03822719308045475
-1.5628418153324866   0.025731080312861962   0.03822719308045475
-1.3132931493109505   0.11391349870015181   0.05554107230401595
-1.3132931493109505   0.11391349870015181   0.05554107230401595
-1.3132931493109505   0.11391349870015181   0.05554107230401595
-1.3132931493109505   0.11391349870015181   0.05554107230401595
-1.997933807322817   -0.10016216891349462   -0.03660298544730872
-1.997933807322817   -0.10016216891349462   -0.03660298544730872
-1.997933807322817   -0.10016216891349462   -0.03660298544730872
-1.997933807322817   -0.10016216891349462   -0.03660298544730872
-2.0139337075437425   -0.030432755665895872   0.05461698438103568
-2.0139337075437425   -0.030432755665895872   0.05461698438103568
-2.0139337075437425   -0.030432755665895872   0.05461698438103568
-2.0139337075437425   -0.030432755665895872   0.05461698438103568
-1.3808394254762413   0.019691780889990684   -0.023101778363020742
-1.3808394254762413   0.019691780889990684   -0.023101778363020742
-1.3808394254762413   0.019691780889990684   -0.023101778363020742
-1.3808394254762413   0.019691780889990684   -0.023101778363020742
-1.6302023339769112   0.012887857653193474   0.023191790500527
-1.6302023339769112   0.012887857653193474   0.023191790500527
-1.6302023339769112   0.012887857653193474   0.023191790500527
-1.6302023339769112   0.012887857653193474   0.023191790500527
-1.345985292284287   0.10533805350595722   0.06552261498078399
-1.345985292284287   0.10533805350595722   0.06552261498078399
-1.345985292284287   0.10533805350595722   0.06552261498078399
-1.345985292284287   0.10533805350595722   0.06552261498078399
-2.047870107247207   -0.11516129479335949   -0.030336475008805874
-2.047870107247207   -0.11516129479335949   -0.030336475008805874
-2.047870107247207   -0.11516129479335949   -0.030336475008805874
-2.047870107247207   -0.11516129479335949   -0.030336475008805874
-2.0776758517552323   -0.0712688327003296   0.05366385321918604
-2.0776758517552323   -0.0712688327003296   0.05366385321918604
-2.0776758517552323   -0.0712688327003296   0.05366385321918604
-2.0776758517552323   -0.0712688327003296   0.05366385321918604
-1.4174599678852275   -0.014800856104382684   -0.020932093139932995
-1.4174599678852275   -0.014800856104382684   -0.020932093139932995
-1.4174599678852275   -0.014800856104382684   -0.020932093139932995
-1.4174599678852275   -0.014800856104382684   -0.020932093139932995
-1.647712458404373   -0.0030624610251254875   0.018151622158652236
-1.647712458404373   -0.0030624610251254875   0.018151622158652236
-1.647712458404373   -0.0030624610251254875   0.018151622158652236
-1.647712458404373   -0.0030624610251254875   0.018151622158652236
0.9046791497089232   0.051124776678273504   -0.061363560835417
0.9046791497089232   0.051124776678273504   -0.061363560835417
0.9046791497089232   0.051124776678273504   -0.061363560835417
0.9046791497089232   0.051124776678273504   -0.061363560835417
0.38643886602583727   0.02491150541464021   0.02637748180917277
0.38643886602583727   0.02491150541464021   0.02637748180917277
0.38643886602583727   0.02491150541464021   0.02637748180917277
0.38643886602583727   0.02491150541464021   0.02637748180917277
0.32315882700645654   -0.0895104711323608   -0.057198860941873896
0.32315882700645654   -0.0895104711323608   -0.057198860941873896
0.32315882700645654   -0.0895104711323608   -0.057198860941873896
0.32315882700645654   -0.0895104711323608   -0.057198860941873896
0.883330519798228   0.10293036029943733   0.03204326280132874
0.883330519798228   0.10293036029943733   0.03204326280132874
0.883330519798228   0.10293036029943733   0.03204326280132874
0.883330519798228   0.10293036029943733   0.03204326280132874
0.5913289473403189   0.013124729772187586   -0.016160538637712857
0.5913289473403189   0.013124729772187586   -0.016160538637712857
0.5913289473403189   0.013124729772187586   -0.016160538637712857
0.5913289473403189   0.013124729772187586   -0.016160538637712857
0.847980852271072   0.015448969334933949   -0.057223683869954245
0.847980852271072   0.015448969334933949   -0.057223683869954245
0.847980852271072   0.015448969334933949   -0.057223683869954245
0.847980852271072   0.015448969334933949   -0.057223683869954245
0.35784471739871315   -0.002692857302767299   0.02941297718982027
0.35784471739871315   -0.002692857302767299   0.02941297718982027
0.35784471739871315   -0.002692857302767299   0.02941297718982027
0.35784471739871315   -0.002692857302767299   0.02941297718982027
0.2961927357670598   -0.09992701877810675   -0.04867045798406604
0.2961927357670598   -0.09992701877810675   -0.04867045798406604
0.2961927357670598   -0.09992701877810675   -0.04867045798406604
0.2961927357670598   -0.09992701877810675   -0.04867045798406604
0.8389718774156927   0.08815264682634633   0.04127309729092998
0.8389718774156927   0.08815264682634633   0.04127309729092998
0.8389718774156927   0.08815264682634633   0.04127309729092998
0.8389718774156927   0.08815264682634633   0.04127309729092998
0.5633953768398172   -0.004042367683340646   -0.02637547107173252
0.5633953768398172   -0.004042367683340646   -0.02637547107173252
0.5633953768398172   -0.004042367683340646   -0.02637547107173252
0.5633953768398172   -0.004042367683340646   -0.02637547107173252
0.8042080085456479   0.0021095061065274853   -0.046503106339482986
0.8042080085456479   0.0021095061065274853   -0.046503106339482986
0.8042080085456479   0.0021095061065274853   -0.046503106339482986
0.8042080085456479   0.0021095061065274853   -0.046503106339482986
0.32997971957381694   -0.014860763121576182   0.035198205393193294
0.32997971957381694   -0.014860763121576182   0.035198205393193294
0.32997971957381694   -0.014860763121576182   0.035198205393193294
0.32997971957381694   -0.014860763121576182   0.035198205393193294
0.27208076026352856   -0.10944576859044776   -0.040559590558911805
0.27208076026352856   -0.10944576859044776   -0.040559590558911805
0.27208076026352856   -0.10944576859044776   -0.040559590558911805
0.27208076026352856   -0.10944576859044776   -0.040559590558911805
0.7872018840086638   0.0686855750772908   0.047087877990905025
0.7872018840086638   0.0686855750772908   0.047087877990905025
0.7872018840086638   0.0686855750772908   0.047087877990905025
0.7872018840086638   0.0686855750772908   0.047087877990905025
0.5162989772200456   -0.018150062527436867   -0.04037468307842523
0.5162989772200456   -0.018150062527436867   -0.04037468307842523
0.5162989772200456   -0.018150062527436867   -0.04037468307842523
0.5162989772200456   -0.018150062527436867   -0.04037468307842523
0.3889593329053642   0.07502332263088492   -0.011132001009442838
0.3889593329053642   0.07502332263088492   -0.011132001009442838
0.3889593329053642   0.07502332263088492   -0.011132001009442838
0.3889593329053642   0.07502332263088492   -0.011132001009442838
-0.11970303545034068   0.00662033619886126   0.0036218085762771968
-0.11970303545034068   0.00662033619886126   0.0036218085762771968
-0.11970303545034068   0.00662033619886126   0.0036218085762771968
-0.11970303545034068   0.00662033619886126   0.0036218085762771968
-0.1629631498495562   -0.0620757376647205   -0.03520545940977972
-0.1629631498495562   -0.0620757376647205   -0.03520545940977972
-0.1629631498495562   -0.0620757376647205   -0.03520545940977972
-0.1629631498495562   -0.0620757376647205   -0.03520545940977972
0.3781001029585833   0.09022468297800837   0.037772364708395616
0.3781001029585833   0.09022468297800837   0.037772364708395616
0.3781001029585833   0.09022468297800837   0.037772364708395616
0.3781001029585833   0.09022468297800837   0.037772364708395616
0.11843951607605699   0.026117113967367978   0.0045351281175088146
0.11843951607605699   0.026117113967367978   0.0045351281175088146
0.11843951607605699   0.026117113967367978   0.0045351281175088146
0.11843951607605699   0.026117113967367978   0.0045351281175088146
0.3610103212473655   0.04855806355224514   -0.006009924421934515
0.3610103212473655   0.04855806355224514   -0.006009924421934515
0.3610103212473655   0.04855806355224514   -0.006009924421934515
0.3610103212473655   0.04855806355224514   -0.006009924421934515
-0.14612397283298298   -0.020659722933582127   0.007574410941948058
-0.14612397283298298   -0.020659722933582127   0.007574410941948058
-0.14612397283298298   -0.020659722933582127   0.007574410941948058
-0.14612397283298298   -0.020659722933582127   0.007574410941948058
-0.1880466763352632   -0.08301966058968327   -0.028471593238612553
-0.1880466763352632   -0.08301966058968327   -0.028471593238612553
-0.1880466763352632   -0.08301966058968327   -0.028471593238612553
-0.1880466763352632   -0.08301966058968327   -0.028471593238612553
0.34734025049107214   0.0660745346575396   0.04106556220035345
0.34734025049107214   0.0660745346575396   0.04106556220035345
0.34734025049107214   0.0660745346575396   0.04106556220035345
0.34734025049107214   0.0660745346575396   0.04106556220035345
0.08752301207446002   0.0024555523160407775   -0.006831573463450442
0.08752301207446002   0.0024555523160407775   -0.006831573463450442
0.08752301207446002   0.0024555523160407775   -0.006831573463450442
0.08752301207446002   0.0024555523160407775   -0.006831573463450442
0.3307906469193176   0.026100448757315115   -0.0017083697582014196
0.3307906469193176   0.026100448757315115   -0.0017083697582014196
0.3307906469193176   0.026100448757315115   -0.0017083697582014196
0.3307906469193176   0.026100448757315115   -0.0017083697582014196
-0.17213353711966792   -0.043682039045619174   0.011756481295299645
-0.17213353711966792   -0.043682039045619174   0.011756481295299645
-0.17213353711966792   -0.043682039045619174   0.011756481295299645
-0.17213353711966792   -0.043682039045619174   0.011756481295299645
-0.21279907598518433   -0.10273800235336374   -0.022249021941221206
-0.21279907598518433   -0.10273800235336374   -0.022249021941221206
-0.21279907598518433   -0.10273800235336374   -0.022249021941221206
-0.21279907598518433   -0.10273800235336374   -0.022249021941221206
0.31958198128030746   0.04284161297977857   0.04465913295476236
0.31958198128030746   0.04284161297977857   0.04465913295476236
0.31958198128030746   0.04284161297977857   0.04465913295476236
0.31958198128030746   0.04284161297977857   0.04465913295476236
0.06267559147562829   -0.017214059152120015   -0.016880615717938315
0.06267559147562829   -0.017214059152120015   -0.016880615717938315
0.06267559147562829   -0.017214059152120015   -0.016880615717938315
0.06267559147562829   -0.017214059152120015   -0.016880615717938315
-0.10094344565676625   0.09535538731773693   0.008684706425269759
-0.10094344565676625   0.09535538731773693   0.008684706425269759
-0.10094344565676625   0.09535538731773693   0.008684706425269759
-0.10094344565676625   0.09535538731773693   0.008684706425269759
-0.6183621069795364   -0.01547279943189626   -0.0187868139897215
-0.6183621069795364   -0.01547279943189626   -0.0187868139897215
-0.6183621069795364   -0.01547279943189626   -0.0187868139897215
-0.6183621069795364   -0.01547279943189626   -0.0187868139897215
-0.6431008545659257   -0.03683346670277099   -0.013822531068863247
-0.6431008545659257   -0.03683346670277099   -0.013822531068863247
-0.6431008545659257   -0.03683346670277099   -0.013822531068863247
-0.6431008545659257   -0.03683346670277099   -0.013822531068863247
-0.12681971472352058   0.06880131089483764   0.01463466766083649
-0.12681971472352058   0.06880131089483764   0.01463466766083649
-0.12681971472352058   0.06880131089483764   0.01463466766083649
-0.12681971472352058   0.06880131089483764   0.01463466766083649
-0.37140159845807535   0.02753375177479263   0.007332207412350661
-0.37140159845807535   0.02753375177479263   0.007332207412350661
-0.37140159845807535   0.02753375177479263   0.007332207412350661
-0.37140159845807535   0.02753375177479263   0.007332207412350661
-0.12603743254668365   0.0723443348356855   0.015003054604177113
-0.12603743254668365   0.0723443348356855   0.015003054604177113
-0.12603743254668365   0.0723443348356855   0.015003054604177113
-0.12603743254668365   0.0723443348356855   0.015003054604177113
-0.6439514602322723   -0.04044481413312717   -0.014464211970235868
-0.6439514602322723   -0.04044481413312717   -0.014464211970235868
-0.6439514602322723   -0.04044481413312717   -0.014464211970235868
-0.6439514602322723   -0.04044481413312717   -0.014464211970235868
-0.6684419206271074   -0.05965254857705607   -0.007822318089164004
-0.6684419206271074   -0.05965254857705607   -0.007822318089164004
-0.6684419206271074   -0.05965254857705607   -0.007822318089164004
-0.6684419206271074   -0.05965254857705607   -0.007822318089164004
-0.15314045497854828   0.04394732821310318   0.019092524742171674
-0.15314045497854828   0.04394732821310318   0.019092524742171674
-0.15314045497854828   0.04394732821310318   0.019092524742171674
-0.15314045497854828   0.04394732821310318   0.019092524742171674
-0.39745616185387644   0.00532428708324105   -0.0024435804862340815
-0.39745616185387644   0.00532428708324105   -0.0024435804862340815
-0.39745616185387644   0.00532428708324105   -0.0024435804862340815
-0.39745616185387644   0.00532428708324105   -0.0024435804862340815
-0.15181528038492487   0.04930865689491033   0.020357069028485504
-0.15181528038492487   0.04930865689491033   0.020357069028485504
-0.15181528038492487   0.04930865689491033   0.020357069028485504
-0.15181528038492487   0.04930865689491033   0.020357069028485504
-0.6701686736985861   -0.06541545573672622   -0.010693176286876105
-0.6701686736985861   -0.06541545573672622   -0.010693176286876105
-0.6701686736985861   -0.06541545573672622   -0.010693176286876105
-0.6701686736985861   -0.06541545573672622   -0.010693176286876105
-0.6933588939382093   -0.08145342136449857   -0.0019905715221431863
-0.6933588939382093   -0.08145342136449857   -0.0019905715221431863
-0.6933588939382093   -0.08145342136449857   -0.0019905715221431863
-0.6933588939382093   -0.08145342136449857   -0.0019905715221431863
-0.17923614471760033   0.019796053715411842   0.02303157832791937
-0.17923614471760033   0.019796053715411842   0.02303157832791937
-0.17923614471760033   0.019796053715411842   0.02303157832791937
-0.17923614471760033   0.019796053715411842   0.02303157832791937
-0.4245815367136816   -0.01691093132208472   -0.01303854039938794
-0.4245815367136816   -0.01691093132208472   -0.01303854039938794
-0.4245815367136816   -0.01691093132208472   -0.01303854039938794
-0.4245815367136816   -0.01691093132208472   -0.01303854039938794
-0.5833460593471416   0.1127712528540901   0.0280493718862658
-0.5833460593471416   0.1127712528540901   0.0280493718862658
-0.5833460593471416   0.1127712528540901   0.0280493718862658
-0.5833460593471416   0.1127712528540901   0.0280493718862658
-1.1080907352509615   -0.03743621785898428   -0.03827452101675349
-1.1080907352509615   -0.03743621785898428   -0.03827452101675349
-1.1080907352509615   -0.03743621785898428   -0.03827452101675349
-1.1080907352509615   -0.03743621785898428   -0.03827452101675349
-1.117395084851111   -0.016278032479690882   0.009115798523853136
-1.117395084851111   -0.016278032479690882   0.009115798523853136
-1.117395084851111   -0.016278032479690882   0.009115798523853136
-1.117395084851111   -0.016278032479690882   0.009115798523853136
-0.6256419150504618   0.04482242960267442   -0.008183729796992431
-0.6256419150504618   0.04482242960267442   -0.008183729796992431
-0.6256419150504618   0.04482242960267442   -0.008183729796992431
-0.6256419150504618   0.04482242960267442   -0.008183729796992431
-0.8535351537395496   0.026226438319604174   0.01065431108713083
-0.8535351537395496   0.026226438319604174   0.01065431108713083
-0.8535351537395496   0.026226438319604174   0.01065431108713083
-0.8535351537395496   0.026226438319604174   0.01065431108713083
-0.6079733943080505   0.09064950552307297   0.0343317979946732
-0.6079733943080505   0.09064950552307297   0.0343317979946732
-0.6079733943080505   0.09064950552307297   0.0343317979946732
-0.6079733943080505   0.09064950552307297   0.0343317979946732
-1.1358320399748207   -0.06287354278138782   -0.03647346679300603
-1.1358320399748207   -0.06287354278138782   -0.03647346679300603
-1.1358320399748207   -0.06287354278138782   -0.03647346679300603
-1.1358320399748207   -0.06287354278138782   -0.03647346679300603
-1.1472636332155248   -0.03887758028393998   0.01189950785433641
-1.1472636332155248   -0.03887758028393998   0.01189950785433641
-1.1472636332155248   -0.03887758028393998   0.01189950785433641
-1.1472636332155248   -0.03887758028393998   0.01189950785433641
-0.6512532152070158   0.021920217143994294   -0.0034515567097606614
-0.6512532152070158   0.021920217143994294   -0.0034515567097606614
-0.6512532152070158   0.021920217143994294   -0.0034515567097606614
-0.6512532152070158   0.021920217143994294   -0.0034515567097606614
-0.8754887916179999   0.00607675879132788   0.0008504657194488285
-0.8754887916179999   0.00607675879132788   0.0008504657194488285
-0.8754887916179999   0.00607675879132788   0.0008504657194488285
-0.8754887916179999   0.00607675879132788   0.0008504657194488285
-0.6329501813468796   0.06966831205492319   0.0403155176800071
-0.6329501813468796   0.06966831205492319   0.0403155176800071
-0.6329501813468796   0.06966831205492319   0.0403155176800071
-0.6329501813468796   0.06966831205492319   0.0403155176800071
-1.165631836053976   -0.08669084417317227   -0.032128242448694805
-1.165631836053976   -0.08669084417317227   -0.032128242448694805
-1.165631836053976   -0.08669084417317227   -0.032128242448694805
-1.165631836053976   -0.08669084417317227   -0.032128242448694805
-1.1738653371331822   -0.06294554163128914   0.018157895905094756
-1.1738653371331822   -0.06294554163128914   0.018157895905094756
-1.1738653371331822   -0.06294554163128914   0.018157895905094756
-1.1738653371331822   -0.06294554163128914   0.018157895905094756
-0.6773108793650049   -0.003471161456516686   0.0002672414358816655
-0.6773108793650049   -0.003471161456516686   0.0002672414358816655
-0.6773108793650049   -0.003471161456516686   0.0002672414358816655
-0.6773108793650049   -0.003471161456516686   0.0002672414358816655
-0.9083879944076186   -0.0172887588205431   -0.010519782521819426
-0.9083879944076186   -0.0172887588205431   -0.010519782521819426
-0.9083879944076186   -0.0172887588205431   -0.010519782521819426
-0.9083879944076186   -0.0172887588205431   -0.010519782521819426
-1.0632261350272074   0.10450588938205109   0.04410637286098146
-1.0632261350272074   0.10450588938205109   0.04410637286098146
-1.0632261350272074   0.10450588938205109   0.04410637286098146
-1.0632261350272074   0.10450588938205109   0.04410637286098146
-1.5684834647387178   -0.07217194327527282   -0.04978363246684153
-1.5684834647387178   -0.07217194327527282   -0.04978363246684153
-1.5684834647387178   -0.07217194327527282   -0.04978363246684153
-1.5684834647387178   -0.07217194327527282   -0.04978363246684153
-1.5836971567609777   -0.00125014484557949   0.0437204843304278
-1.5836971567609777   -0.00125014484557949   0.0437204843304278
-1.5836971567609777   -0.00125014484557949   0.0437204843304278
-1.5836971567609777   -0.00125014484557949   0.0437204843304278
-1.118905899530944   0.015195002454946385   -0.02991130980996387
-1.118905899530944   0.015195002454946385   -0.02991130980996387
-1.118905899530944   0.015195002454946385   -0.02991130980996387
-1.118905899530944   0.015195002454946385   -0.02991130980996387
-1.274916841349715   0.02430361556391919   0.03223781502360906
-1.274916841349715   0.02430361556391919   0.03223781502360906
-1.274916841349715   0.02430361556391919   0.03223781502360906
-1.274916841349715   0.02430361556391919   0.03223781502360906
-1.085549336679167   0.10004051973790473   0.052025987165976895
-1.085549336679167   0.10004051973790473   0.052025987165976895
-1.085549336679167   0.10004051973790473   0.052025987165976895
-1.085549336679167   0.10004051973790473   0.052025987165976895
-1.6177086584671176   -0.08675060098290083   -0.04083656806296487
-1.6177086584671176   -0.08675060098290083   -0.04083656806296487
-1.6177086584671176   -0.08675060098290083   -0.04083656806296487
-1.6177086584671176   -0.08675060098290083   -0.04083656806296487
-1.6258845865394005   -0.013676080366273227   0.055104076418818815
-1.6258845865394005   -0.013676080366273227   0.055104076418818815
-1.6258845865394005   -0.013676080366273227   0.055104076418818815
-1.6258845865394005   -0.013676080366273227   0.055104076418818815
-1.1464395593493117   0.0026354658442214116   -0.02549316894278278
-1.1464395593493117   0.0026354658442214116   -0.02549316894278278
-1.1464395593493117   0.0026354658442214116   -0.02549316894278278
-1.1464395593493117   0.0026354658442214116   -0.02549316894278278
-1.3317455844667871   0.010014579832235457   0.016835369316004434
-1.3317455844667871   0.010014579832235457   0.016835369316004434
-1.3317455844667871   0.010014579832235457   0.016835369316004434
-1.3317455844667871   0.010014579832235457   0.016835369316004434
-1.111519994889605   0.09043670543326618   0.06130341376672052
-1.111519994889605   0.09043670543326618   0.06130341376672052
-1.111519994889605   0.09043670543326618   0.06130341376672052
-1.111519994889605   0.09043670543326618   0.06130341376672052
-1.6612777419078015   -0.10195091086402268   -0.033586869925451956
-1.6612777419078015   -0.10195091086402268   -0.033586869925451956
-1.6612777419078015   -0.10195091086402268   -0.033586869925451956
-1.6612777419078015   -0.10195091086402268   -0.033586869925451956
-1.68232295687878   -0.05252707548999601   0.05529979892555292
-1.68232295687878   -0.05252707548999601   0.05529979892555292
-1.68232295687878   -0.05252707548999601   0.05529979892555292
-1.68232295687878   -0.05252707548999601   0.05529979892555292
-1.1752435859041328   -0.0291387216640649   -0.022540167916904746
-1.1752435859041328   -0.0291387216640649   -0.022540167916904746
-1.1752435859041328   -0.0291387216640649   -0.022540167916904746
-1.1752435859041328   -0.0291387216640649   -0.022540167916904746
-1.3479172141634026   -0.006271924171108348   0.009491278940368941
-1.3479172141634026   -0.006271924171108348   0.009491278940368941
-1.3479172141634026   -0.006271924171108348   0.009491278940368941
-1.3479172141634026   -0.006271924171108348   0.009491278940368941
0.4964499106007805   0.029640033071025675   -0.05999092448384308
0.4964499106007805   0.029640033071025675   -0.05999092448384308
0.4964499106007805   0.029640033071025675   -0.05999092448384308
0.4964499106007805   0.029640033071025675   -0.05999092448384308
0.1439682118331444   0.03611047708057701   0.02872689502373802
0.1439682118331444   0.03611047708057701   0.02872689502373802
0.1439682118331444   0.03611047708057701   0.02872689502373802
0.1439682118331444   0.03611047708057701   0.02872689502373802
0.08810616627214335   -0.07310149459474623   -0.05289165814344329
0.08810616627214335   -0.07310149459474623   -0.05289165814344329
0.08810616627214335   -0.07310149459474623   -0.05289165814344329
0.08810616627214335   -0.07310149459474623   -0.05289165814344329
0.482679194498411   0.08487532255340793   0.03456539367682364
0.482679194498411   0.08487532255340793   0.03456539367682364
0.482679194498411   0.08487532255340793   0.03456539367682364
0.482679194498411   0.08487532255340793   0.03456539367682364
0.28509794463103716   0.014146604323064828   -0.006607481594935849
0.28509794463103716   0.014146604323064828   -0.006607481594935849
0.28509794463103716   0.014146604323064828   -0.006607481594935849
0.28509794463103716   0.014146604323064828   -0.006607481594935849
0.4474633336754159   -0.0016495392186271149   -0.05498904866612027
0.4474633336754159   -0.0016495392186271149   -0.05498904866612027
0.4474633336754159   -0.0016495392186271149   -0.05498904866612027
0.4474633336754159   -0.0016495392186271149   -0.05498904866612027
0.12222280056637845   0.012324140648528483   0.03226587808445889
0.12222280056637845   0.012324140648528483   0.03226587808445889
0.12222280056637845   0.012324140648528483   0.03226587808445889
0.12222280056637845   0.012324140648528483   0.03226587808445889
0.06701325224658063   -0.08347567348089625   -0.044909879076232014
0.06701325224658063   -0.08347567348089625   -0.044909879076232014
0.06701325224658063   -0.08347567348089625   -0.044909879076232014
0.06701325224658063   -0.08347567348089625   -0.044909879076232014
0.4447654589039356   0.07055825023900404   0.04438737413231021
0.4447654589039356   0.07055825023900404   0.04438737413231021
0.4447654589039356   0.07055825023900404   0.04438737413231021
0.4447654589039356   0.07055825023900404   0.04438737413231021
0.2585903214346556   -0.002050967435301993   -0.017127128337654313
0.2585903214346556   -0.002050967435301993   -0.017127128337654313
0.2585903214346556   -0.002050967435301993   -0.017127128337654313
0.2585903214346556   -0.002050967435301993   -0.017127128337654313
0.4097553817159527   -0.014971853404590396   -0.04513290816401361
0.4097553817159527   -0.014971853404590396   -0.04513290816401361
0.4097553817159527   -0.014971853404590396   -0.04513290816401361
0.4097553817159527   -0.014971853404590396   -0.04513290816401361
0.10055263206853819   0.0005837327966621893   0.03872761375599834
0.10055263206853819   0.0005837327966621893   0.03872761375599834
0.10055263206853819   0.0005837327966621893   0.03872761375599834
0.10055263206853819   0.0005837327966621893   0.03872761375599834
0.04814977603090552   -0.09602244609860061   -0.03740011991079387
0.04814977603090552   -0.09602244609860061   -0.03740011991079387
0.04814977603090552   -0.09602244609860061   -0.03740011991079387
0.04814977603090552   -0.09602244609860061   -0.03740011991079387
0.39782662399747504   0.04763225574208746   0.04926724826743333
0.39782662399747504   0.04763225574208746   0.04926724826743333
0.39782662399747504   0.04763225574208746   0.04926724826743333
0.39782662399747504   0.04763225574208746   0.04926724826743333
0.22203689520948705   -0.016490230978358354   -0.02997292155013981
0.22203689520948705   -0.016490230978358354   -0.02997292155013981
0.22203689520948705   -0.016490230978358354   -0.02997292155013981
0.22203689520948705   -0.016490230978358354   -0.02997292155013981
0.13831859409552502   0.05401513089669546   -0.017425847480478818
0.13831859409552502   0.05401513089669546   -0.017425847480478818
0.13831859409552502   0.05401513089669546   -0.017425847480478818
0.13831859409552502   0.05401513089669546   -0.017425847480478818
-0.20263708275698616   0.017499012859474063   0.00700101110988785
-0.20263708275698616   0.017499012859474063   0.00700101110988785
-0.20263708275698616   0.017499012859474063   0.00700101110988785
-0.20263708275698616   0.017499012859474063   0.00700101110988785
-0.2386172111758051   -0.04684403286694378   -0.030853900381976697
-0.2386172111758051   -0.04684403286694378   -0.030853900381976697
-0.2386172111758051   -0.04684403286694378   -0.030853900381976697
-0.2386172111758051   -0.04684403286694378   -0.030853900381976697
0.13327090696975696   0.06705434342911236   0.03277620732076761
0.13327090696975696   0.06705434342911236   0.03277620732076761
0.13327090696975696   0.06705434342911236   0.03277620732076761
0.13327090696975696   0.06705434342911236   0.03277620732076761
-0.043601104613100926   0.021965331594892893   0.005549097368378797
-0.043601104613100926   0.021965331594892893   0.005549097368378797
-0.043601104613100926   0.021965331594892893   0.005549097368378797
-0.043601104613100926   0.021965331594892893   0.005549097368378797
0.1162922171928835   0.02774671104691992   -0.0128096091814082
0.1162922171928835   0.02774671104691992   -0.0128096091814082
0.1162922171928835   0.02774671104691992   -0.0128096091814082
0.1162922171928835   0.02774671104691992   -0.0128096091814082
-0.222574526774049   -0.008472405859854162   0.010987894619710309
-0.222574526774049   -0.008472405859854162   0.010987894619710309
-0.222574526774049   -0.008472405859854162   0.010987894619710309
-0.222574526774049   -0.008472405859854162   0.010987894619710309
-0.25748751884855825   -0.06793479415139073   -0.024153312504729102
-0.25748751884855825   -0.06793479415139073   -0.024153312504729102
-0.25748751884855825   -0.06793479415139073   -0.024153312504729102
-0.25748751884855825   -0.06793479415139073   -0.024153312504729102
0.10851195957590737   0.04337425194403951   0.03573373214546688
0.10851195957590737   0.04337425194403951   0.03573373214546688
0.10851195957590737   0.04337425194403951   0.03573373214546688
0.10851195957590737   0.04337425194403951   0.03573373214546688
-0.06691042171844645   -0.0007720788408961152   -0.005345057815070399
-0.06691042171844645   -0.0007720788408961152   -0.005345057815070399
-0.06691042171844645   -0.0007720788408961152   -0.005345057815070399
-0.06691042171844645   -0.0007720788408961152   -0.005345057815070399
0.09203589923722919   0.005121740371602704   -0.008394057975488093
0.09203589923722919   0.005121740371602704   -0.008394057975488093
0.09203589923722919   0.005121740371602704   -0.008394057975488093
0.09203589923722919   0.005121740371602704   -0.008394057975488093
-0.24222279243602904   -0.030893616505112593   0.015129141911642725
-0.24222279243602904   -0.030893616505112593   0.015129141911642725
-0.24222279243602904   -0.030893616505112593   0.015129141911642725
-0.24222279243602904   -0.030893616505112593   0.015129141911642725
-0.27621441344099396   -0.0888689060285443   -0.018097067365550577
-0.27621441344099396   -0.0888689060285443   -0.018097067365550577
-0.27621441344099396   -0.0888689060285443   -0.018097067365550577
-0.27621441344099396   -0.0888689060285443   -0.018097067365550577
0.08683437453306737   0.020111009009870808   0.0398894174915459
0.08683437453306737   0.020111009009870808   0.0398894174915459
0.08683437453306737   0.020111009009870808   0.0398894174915459
0.08683437453306737   0.020111009009870808   0.0398894174915459
-0.0870945126473118   -0.02114723155426755   -0.015637307610579042
-0.0870945126473118   -0.02114723155426755   -0.015637307610579042
-0.0870945126473118   -0.02114723155426755   -0.015637307610579042
-0.0870945126473118   -0.02114723155426755   -0.015637307610579042
-0.1922091713930293   0.07403588886764893   0.002603691921497394
-0.1922091713930293   0.07403588886764893   0.002603691921497394
-0.1922091713930293   0.07403588886764893   0.002603691921497394
-0.1922091713930293   0.07403588886764893   0.002603691921497394
-0.5446641713831584   -0.006424995662514362   -0.014952608458475986
-0.5446641713831584   -0.006424995662514362   -0.014952608458475986
-0.5446641713831584   -0.006424995662514362   -0.014952608458475986
-0.5446641713831584   -0.006424995662514362   -0.014952608458475986
-0.5616561893006445   -0.022878262152361606   -0.008926722998035819
-0.5616561893006445   -0.022878262152361606   -0.008926722998035819
-0.5616561893006445   -0.022878262152361606   -0.008926722998035819
-0.5616561893006445   -0.022878262152361606   -0.008926722998035819
-0.21216645617631075   0.04413375657868272   0.010422085169864662
-0.21216645617631075   0.04413375657868272   0.010422085169864662
-0.21216645617631075   0.04413375657868272   0.010422085169864662
-0.21216645617631075   0.04413375657868272   0.010422085169864662
-0.37678027015402027   0.021752825962079975   0.005757737474227184
-0.37678027015402027   0.021752825962079975   0.005757737474227184
-0.37678027015402027   0.021752825962079975   0.005757737474227184
-0.37678027015402027   0.021752825962079975   0.005757737474227184
-0.21115028547262724   0.050779668555191435   0.008857026711773533
-0.21115028547262724   0.050779668555191435   0.008857026711773533
-0.21115028547262724   0.050779668555191435   0.008857026711773533
-0.21115028547262724   0.050779668555191435   0.008857026711773533
-0.5634916390741894   -0.030343453198747032   -0.010638780819374832
-0.5634916390741894   -0.030343453198747032   -0.010638780819374832
-0.5634916390741894   -0.030343453198747032   -0.010638780819374832
-0.5634916390741894   -0.030343453198747032   -0.010638780819374832
-0.5804435676180918   -0.04590263894521568   -0.0028541984098178486
-0.5804435676180918   -0.04590263894521568   -0.0028541984098178486
-0.5804435676180918   -0.04590263894521568   -0.0028541984098178486
-0.5804435676180918   -0.04590263894521568   -0.0028541984098178486
-0.23208560634638326   0.020117746647950657   0.014803709206804419
-0.23208560634638326   0.020117746647950657   0.014803709206804419
-0.23208560634638326   0.020117746647950657   0.014803709206804419
-0.23208560634638326   0.020117746647950657   0.014803709206804419
-0.3963828008271548   -0.00011257655089362203   -0.0040105514887356225
-0.3963828008271548   -0.00011257655089362203   -0.0040105514887356225
-0.3963828008271548   -0.00011257655089362203   -0.0040105514887356225
-0.3963828008271548   -0.00011257655089362203   -0.0040105514887356225
-0.23072307757794572   0.02746593223681556   0.014268167460131036
-0.23072307757794572   0.02746593223681556   0.014268167460131036
-0.23072307757794572   0.02746593223681556   0.014268167460131036
-0.23072307757794572   0.02746593223681556   0.014268167460131036
-0.5829709452205167   -0.054415673368062294   -0.00697805199909618
-0.5829709452205167   -0.054415673368062294   -0.00697805199909618
-0.5829709452205167   -0.054415673368062294   -0.00697805199909618
-0.5829709452205167   -0.054415673368062294   -0.00697805199909618
-0.5988719478166565   -0.0681328860027211   0.003022682836310825
-0.5988719478166565   -0.0681328860027211   0.003022682836310825
-0.5988719478166565   -0.0681328860027211   0.003022682836310825
-0.5988719478166565   -0.0681328860027211   0.003022682836310825
-0.25166174091713917   -0.003018905242720065   0.01881629446789901
-0.25166174091713917   -0.003018905242720065   0.01881629446789901
-0.25166174091713917   -0.003018905242720065   0.01881629446789901
-0.25166174091713917   -0.003018905242720065   0.01881629446789901
-0.4170065878245015   -0.0220310334124365   -0.014615728161692487
-0.4170065878245015   -0.0220310334124365   -0.014615728161692487
-0.4170065878245015   -0.0220310334124365   -0.014615728161692487
-0.4170065878245015   -0.0220310334124365   -0.014615728161692487
-0.5171493337635327   0.09303856953106653   0.02315801444607181
-0.5171493337635327   0.09303856953106653   0.02315801444607181
-0.5171493337635327   0.09303856953106653   0.02315801444607181
-0.5171493337635327   0.09303856953106653   0.02315801444607181
-0.8791502189400685   -0.02604148329194888   -0.03414693323861287
-0.8791502189400685   -0.02604148329194888   -0.03414693323861287
-0.8791502189400685   -0.02604148329194888   -0.03414693323861287
-0.8791502189400685   -0.02604148329194888   -0.03414693323861287
-0.8808341131427528   -0.0017150569385918774   0.01432103558896708
-0.8808341131427528   -0.0017150569385918774   0.01432103558896708
-0.8808341131427528   -0.0017150569385918774   0.01432103558896708
-0.8808341131427528   -0.0017150569385918774   0.01432103558896708
-0.5529160870314036   0.022677932209517932   -0.01078240601371859
-0.5529160870314036   0.022677932209517932   -0.01078240601371859
-0.5529160870314036   0.022677932209517932   -0.01078240601371859
-0.5529160870314036   0.022677932209517932   -0.01078240601371859
-0.7039161717282543   0.021950816930985148   0.0075891348931557134
-0.7039161717282543   0.021950816930985148   0.0075891348931557134
-0.7039161717282543   0.021950816930985148   0.0075891348931557134
-0.7039161717282543   0.021950816930985148   0.0075891348931557134
-0.5353272687797936   0.07040835692248294   0.02943126053138191
-0.5353272687797936   0.07040835692248294   0.02943126053138191
-0.5353272687797936   0.07040835692248294   0.02943126053138191
-0.5353272687797936   0.07040835692248294   0.02943126053138191
-0.8999967496491155   -0.05101929990630821   -0.03218790397513746
-0.8999967496491155   -0.05101929990630821   -0.03218790397513746
-0.8999967496491155   -0.05101929990630821   -0.03218790397513746
-0.8999967496491155   -0.05101929990630821   -0.03218790397513746
-0.9039613454796078   -0.024412522329280276   0.01759287619645844
-0.9039613454796078   -0.024412522329280276   0.01759287619645844
-0.9039613454796078   -0.024412522329280276   0.01759287619645844
-0.9039613454796078   -0.024412522329280276   0.01759287619645844
-0.5718022158512961   0.0005684391783199287   -0.006118517699382944
-0.5718022158512961   0.0005684391783199287   -0.006118517699382944
-0.5718022158512961   0.0005684391783199287   -0.006118517699382944
-0.5718022158512961   0.0005684391783199287   -0.006118517699382944
-0.7205825738343707   0.0015692109385359934   -0.002653339585109271
-0.7205825738343707   0.0015692109385359934   -0.002653339585109271
-0.7205825738343707   0.0015692109385359934   -0.002653339585109271
-0.7205825738343707   0.0015692109385359934   -0.002653339585109271
-0.5537455498502201   0.04921559321181901   0.035517658272505775
-0.5537455498502201   0.04921559321181901   0.035517658272505775
-0.5537455498502201   0.04921559321181901   0.035517658272505775
-0.5537455498502201   0.04921559321181901   0.035517658272505775
-0.9229989547414758   -0.07404061962356086   -0.02796707281860733
-0.9229989547414758   -0.07404061962356086   -0.02796707281860733
-0.9229989547414758   -0.07404061962356086   -0.02796707281860733
-0.9229989547414758   -0.07404061962356086   -0.02796707281860733
-0.9239430534498118   -0.048064070811783446   0.023934868744416138
-0.9239430534498118   -0.048064070811783446   0.023934868744416138
-0.9239430534498118   -0.048064070811783446   0.023934868744416138
-0.9239430534498118   -0.048064070811783446   0.023934868744416138
-0.5909237318157591   -0.02306970709783148   -0.0022994160640986694
-0.5909237318157591   -0.02306970709783148   -0.0022994160640986694
-0.5909237318157591   -0.02306970709783148   -0.0022994160640986694
-0.5909237318157591   -0.02306970709783148   -0.0022994160640986694
-0.7453494937124678   -0.02062627209699773   -0.013811518037266296
-0.7453494937124678   -0.02062627209699773   -0.013811518037266296
-0.7453494937124678   -0.02062627209699773   -0.013811518037266296
-0.7453494937124678   -0.02062627209699773   -0.013811518037266296
-0.8405938324346542   0.09156784406517632   0.041025671931340796
-0.8405938324346542   0.09156784406517632   0.041025671931340796
-0.8405938324346542   0.09156784406517632   0.041025671931340796
-0.8405938324346542   0.09156784406517632   0.041025671931340796
-1.182713577839205   -0.05439049914100659   -0.05188854201202281
-1.182713577839205   -0.05439049914100659   -0.05188854201202281
-1.182713577839205   -0.05439049914100659   -0.05188854201202281
-1.182713577839205   -0.05439049914100659   -0.05188854201202281
-1.1913972416883039   0.0153047876511605   0.04312895832852792
-1.1913972416883039   0.0153047876511605   0.04312895832852792
-1.1913972416883039   0.0153047876511605   0.04312895832852792
-1.1913972416883039   0.0153047876511605   0.04312895832852792
-0.890245550666363   -0.002744588368507543   -0.03170662059918353
-0.890245550666363   -0.002744588368507543   -0.03170662059918353
-0.890245550666363   -0.002744588368507543   -0.03170662059918353
-0.890245550666363   -0.002744588368507543   -0.03170662059918353
-0.9821451780583885   0.0219990130803151   0.02375458113375012
-0.9821451780583885   0.0219990130803151   0.02375458113375012
-0.9821451780583885   0.0219990130803151   0.02375458113375012
-0.9821451780583885   0.0219990130803151   0.02375458113375012
-0.8569986503916522   0.08326281060496488   0.04852048180089824
-0.8569986503916522   0.08326281060496488   0.04852048180089824
-0.8569986503916522   0.08326281060496488   0.04852048180089824
-0.8569986503916522   0.08326281060496488   0.04852048180089824
-1.2263185233484846   -0.0723769927077744   -0.043795669613426874
-1.2263185233484846   -0.0723769927077744   -0.043795669613426874
-1.2263185233484846   -0.0723769927077744   -0.043795669613426874
-1.2263185233484846   -0.0723769927077744   -0.043795669613426874
-1.2274086538275326   0.0025572826556669592   0.05508500959266566
-1.2274086538275326   0.0025572826556669592   0.05508500959266566
-1.2274086538275326   0.0025572826556669592   0.05508500959266566
-1.2274086538275326   0.0025572826556669592   0.05508500959266566
-0.9110562182401268   -0.015081726852794484   -0.027212283082637345
-0.9110562182401268   -0.015081726852794484   -0.027212283082637345
-0.9110562182401268   -0.015081726852794484   -0.027212283082637345
-0.9110562182401268   -0.015081726852794484   -0.027212283082637345
-1.0281434788217412   0.006918491590420052   0.008524930189256902
-1.0281434788217412   0.006918491590420052   0.008524930189256902
-1.0281434788217412   0.006918491590420052   0.008524930189256902
-1.0281434788217412   0.006918491590420052   0.008524930189256902
-0.8763975999757757   0.07328525648729288   0.05771382489903859
-0.8763975999757757   0.07328525648729288   0.05771382489903859
-0.8763975999757757   0.07328525648729288   0.05771382489903859
-0.8763975999757757   0.07328525648729288   0.05771382489903859
-1.2636530623395552   -0.08739549093208314   -0.036184259379683004
-1.2636530623395552   -0.08739549093208314   -0.036184259379683004
-1.2636530623395552   -0.08739549093208314   -0.036184259379683004
-1.2636530623395552   -0.08739549093208314   -0.036184259379683004
-1.277214844736998   -0.03364766824057756   0.05688635803339731
-1.277214844736998   -0.03364766824057756   0.05688635803339731
-1.277214844736998   -0.03364766824057756   0.05688635803339731
-1.277214844736998   -0.03364766824057756   0.05688635803339731
-0.9325287358988958   -0.04332725765619298   -0.023730356656617574
-0.9325287358988958   -0.04332725765619298   -0.023730356656617574
-0.9325287358988958   -0.04332725765619298   -0.023730356656617574
-0.9325287358988958   -0.04332725765619298   -0.023730356656617574
-1.0431829736883276   -0.009111116900439593   -0.0005433129280355831
-1.0431829736883276   -0.009111116900439593   -0.0005433129280355831
-1.0431829736883276   -0.009111116900439593   -0.0005433129280355831
-1.0431829736883276   -0.009111116900439593   -0.0005433129280355831
0.08831697122202747   0.0072691946414301725   -0.05982827656084862
0.08831697122202747   0.0072691946414301725   -0.05982827656084862
0.08831697122202747   0.0072691946414301725   -0.05982827656084862
0.08831697122202747   0.0072691946414301725   -0.05982827656084862
-0.09810158163964235   0.04488691368771747   0.03061314526352741
-0.09810158163964235   0.04488691368771747   0.03061314526352741
-0.09810158163964235   0.04488691368771747   0.03061314526352741
-0.09810158163964235   0.04488691368771747   0.03061314526352741
-0.14685694797447238   -0.0575802407784581   -0.048176280509592544
-0.14685694797447238   -0.0575802407784581   -0.048176280509592544
-0.14685694797447238   -0.0575802407784581   -0.048176280509592544
-0.14685694797447238   -0.0575802407784581   -0.048176280509592544
0.08092964429118346   0.06329910126354403   0.037596936461109634
0.08092964429118346   0.06329910126354403   0.037596936461109634
0.08092964429118346   0.06329910126354403   0.037596936461109634
0.08092964429118346   0.06329910126354403   0.037596936461109634
-0.0209253606512137   0.013889954491574118   0.005204253764297
-0.0209253606512137   0.013889954491574118   0.005204253764297
-0.0209253606512137   0.013889954491574118   0.005204253764297
-0.0209253606512137   0.013889954491574118   0.005204253764297
0.046041884501968854   -0.020061475354612685   -0.05348128586680668
0.046041884501968854   -0.020061475354612685   -0.05348128586680668
0.046041884501968854   -0.020061475354612685   -0.05348128586680668
0.046041884501968854   -0.020061475354612685   -0.05348128586680668
-0.11403286610265444   0.023716657922301924   0.03464723014873705
-0.11403286610265444   0.023716657922301924   0.03464723014873705
-0.11403286610265444   0.023716657922301924   0.03464723014873705
-0.11403286610265444   0.023716657922301924   0.03464723014873705
-0.16291808186643608   -0.0680222479665565   -0.040831576125120825
-0.16291808186643608   -0.0680222479665565   -0.040831576125120825
-0.16291808186643608   -0.0680222479665565   -0.040831576125120825
-0.16291808186643608   -0.0680222479665565   -0.040831576125120825
0.04785504425600305   0.049113878948388645   0.05155751129364908
0.04785504425600305   0.049113878948388645   0.05155751129364908
0.04785504425600305   0.049113878948388645   0.05155751129364908
0.04785504425600305   0.049113878948388645   0.05155751129364908
-0.04703600654695199   -0.0017535176985490003   -0.006861190104189306
-0.04703600654695199   -0.0017535176985490003   -0.006861190104189306
-0.04703600654695199   -0.0017535176985490003   -0.006861190104189306
-0.04703600654695199   -0.0017535176985490003   -0.006861190104189306
0.012162839106016456   -0.03366472970718438   -0.04412490580071276
0.012162839106016456   -0.03366472970718438   -0.04412490580071276
0.012162839106016456   -0.03366472970718438   -0.04412490580071276
0.012162839106016456   -0.03366472970718438   -0.04412490580071276
-0.13008892569080727   0.011893311714658218   0.04339864507180722
-0.13008892569080727   0.011893311714658218   0.04339864507180722
-0.13008892569080727   0.011893311714658218   0.04339864507180722
-0.13008892569080727   0.011893311714658218   0.04339864507180722
-0.17762914716499054   -0.0840806727853192   -0.033841623207103676
-0.17762914716499054   -0.0840806727853192   -0.033841623207103676
-0.17762914716499054   -0.0840806727853192   -0.033841623207103676
-0.17762914716499054   -0.0840806727853192   -0.033841623207103676
0.0019223859307514   0.019374155573231803   0.05877362747257177
0.0019223859307514   0.019374155573231803   0.05877362747257177
0.0019223859307514   0.019374155573231803   0.05877362747257177
0.0019223859307514   0.019374155573231803   0.05877362747257177
-0.07505640113527123   -0.017507551112568322   -0.02076956385850225
-0.07505640113527123   -0.017507551112568322   -0.02076956385850225
-0.07505640113527123   -0.017507551112568322   -0.02076956385850225
-0.07505640113527123   -0.017507551112568322   -0.02076956385850225
-0.11207471924713279   0.029448464601854758   -0.023814093688062053
-0.11207471924713279   0.029448464601854758   -0.023814093688062053
-0.11207471924713279   0.029448464601854758   -0.023814093688062053
-0.11207471924713279   0.029448464601854758   -0.023814093688062053
-0.28670014392314064   0.012058545432575382   0.007994995084586662
-0.28670014392314064   0.012058545432575382   0.007994995084586662
-0.28670014392314064   0.012058545432575382   0.007994995084586662
-0.28670014392314064   0.012058545432575382   0.007994995084586662
-0.31184700428455703   -0.03353399524937714   -0.02504757481739657
-0.31184700428455703   -0.03353399524937714   -0.02504757481739657
-0.31184700428455703   -0.03353399524937714   -0.02504757481739657
-0.31184700428455703   -0.03353399524937714   -0.02504757481739657
-0.11521154670716532   0.028547262946671058   0.02392322210181353
-0.11521154670716532   0.028547262946671058   0.02392322210181353
-0.11521154670716532   0.028547262946671058   0.02392322210181353
-0.11521154670716532   0.028547262946671058   0.02392322210181353
-0.20603442220120313   0.00854744225495595   0.0045503811928460855
-0.20603442220120313   0.00854744225495595   0.0045503811928460855
-0.20603442220120313   0.00854744225495595   0.0045503811928460855
-0.20603442220120313   0.00854744225495595   0.0045503811928460855
-0.12878365679304343   0.004175146780186096   -0.01956521216109397
-0.12878365679304343   0.004175146780186096   -0.01956521216109397
-0.12878365679304343   0.004175146780186096   -0.01956521216109397
-0.12878365679304343   0.004175146780186096   -0.01956521216109397
-0.2999682141120591   -0.01085519899627211   0.011667579791991525
-0.2999682141120591   -0.01085519899627211   0.011667579791991525
-0.2999682141120591   -0.01085519899627211   0.011667579791991525
-0.2999682141120591   -0.01085519899627211   0.011667579791991525
-0.3243496276502988   -0.0540409800072945   -0.018480840385027703
-0.3243496276502988   -0.0540409800072945   -0.018480840385027703
-0.3243496276502988   -0.0540409800072945   -0.018480840385027703
-0.3243496276502988   -0.0540409800072945   -0.018480840385027703
-0.13457533956596346   0.005887069615891355   0.026972817794793137
-0.13457533956596346   0.005887069615891355   0.026972817794793137
-0.13457533956596346   0.005887069615891355   0.026972817794793137
-0.13457533956596346   0.005887069615891355   0.026972817794793137
-0.2218288979784821   -0.0120286882472934   -0.0057717159071433086
-0.2218288979784821   -0.0120286882472934   -0.0057717159071433086
-0.2218288979784821   -0.0120286882472934   -0.0057717159071433086
-0.2218288979784821   -0.0120286882472934   -0.0057717159071433086
-0.1476566149471312   -0.01792958940723858   -0.01461690008791569
-0.1476566149471312   -0.01792958940723858   -0.01461690008791569
-0.1476566149471312   -0.01792958940723858   -0.01461690008791569
-0.1476566149471312   -0.01792958940723858   -0.01461690008791569
-0.3130858506667524   -0.032041819381785866   0.015838883907195914
-0.3130858506667524   -0.032041819381785866   0.015838883907195914
-0.3130858506667524   -0.032041819381785866   0.015838883907195914
-0.3130858506667524   -0.032041819381785866   0.015838883907195914
-0.33693468270416477   -0.07515373802508035   -0.01266526044597778
-0.33693468270416477   -0.07515373802508035   -0.01266526044597778
-0.33693468270416477   -0.07515373802508035   -0.01266526044597778
-0.33693468270416477   -0.07515373802508035   -0.01266526044597778
-0.15076849888031169   -0.017085935550003775   0.03346688098097393
-0.15076849888031169   -0.017085935550003775   0.03346688098097393
-0.15076849888031169   -0.017085935550003775   0.03346688098097393
-0.15076849888031169   -0.017085935550003775   0.03346688098097393
-0.2376117584569062   -0.03239186775830954   -0.0162724210207498
-0.2376117584569062   -0.03239186775830954   -0.0162724210207498
-0.2376117584569062   -0.03239186775830954   -0.0162724210207498
-0.2376117584569062   -0.03239186775830954   -0.0162724210207498
-0.2814767840864137   0.048697559523907585   -0.0025272198231109516
-0.2814767840864137   0.048697559523907585   -0.0025272198231109516
-0.2814767840864137   0.048697559523907585   -0.0025272198231109516
-0.2814767840864137   0.048697559523907585   -0.0025272198231109516
-0.47362537592889004   -0.016209429299101817   -0.013374084995932428
-0.47362537592889004   -0.016209429299101817   -0.013374084995932428
-0.47362537592889004   -0.016209429299101817   -0.013374084995932428
-0.47362537592889004   -0.016209429299101817   -0.013374084995932428
-0.4785971670711882   -0.011799629507278791   -0.0028141343650348316
-0.4785971670711882   -0.011799629507278791   -0.0028141343650348316
-0.4785971670711882   -0.011799629507278791   -0.0028141343650348316
-0.4785971670711882   -0.011799629507278791   -0.0028141343650348316
-0.29885511710280077   0.002687978733226626   0.0036898871087848867
-0.29885511710280077   0.002687978733226626   0.0036898871087848867
-0.29885511710280077   0.002687978733226626   0.0036898871087848867
-0.29885511710280077   0.002687978733226626   0.0036898871087848867
-0.3823389436213558   0.005472367670591047   0.0015423065248331702
-0.3823389436213558   0.005472367670591047   0.0015423065248331702
-0.3823389436213558   0.005472367670591047   0.0015423065248331702
-0.3823389436213558   0.005472367670591047   0.0015423065248331702
-0.29412301365509874   0.026388087220875323   0.0036502958596462687
-0.29412301365509874   0.026388087220875323   0.0036502958596462687
-0.29412301365509874   0.026388087220875323   0.0036502958596462687
-0.29412301365509874   0.026388087220875323   0.0036502958596462687
-0.4849578124402835   -0.03712827991632084   -0.009288710801469632
-0.4849578124402835   -0.03712827991632084   -0.009288710801469632
-0.4849578124402835   -0.03712827991632084   -0.009288710801469632
-0.4849578124402835   -0.03712827991632084   -0.009288710801469632
-0.4903191635360028   -0.0338300267143103   0.0032983995851498527
-0.4903191635360028   -0.0338300267143103   0.0032983995851498527
-0.4903191635360028   -0.0338300267143103   0.0032983995851498527
-0.4903191635360028   -0.0338300267143103   0.0032983995851498527
-0.3121158098500899   -0.018968193195764774   0.007615461804486842
-0.3121158098500899   -0.018968193195764774   0.007615461804486842
-0.3121158098500899   -0.018968193195764774   0.007615461804486842
-0.3121158098500899   -0.018968193195764774   0.007615461804486842
-0.3950476845596255   -0.014563466302373023   -0.007937983915921612
-0.3950476845596255   -0.014563466302373023   -0.007937983915921612
-0.3950476845596255   -0.014563466302373023   -0.007937983915921612
-0.3950476845596255   -0.014563466302373023   -0.007937983915921612
-0.30723736236433496   0.003945462342077179   0.009094043695419482
-0.30723736236433496   0.003945462342077179   0.009094043695419482
-0.30723736236433496   0.003945462342077179   0.009094043695419482
-0.30723736236433496   0.003945462342077179   0.009094043695419482
-0.4971607670245137   -0.05870683825490826   -0.0060328063168068324
-0.4971607670245137   -0.05870683825490826   -0.0060328063168068324
-0.4971607670245137   -0.05870683825490826   -0.0060328063168068324
-0.4971607670245137   -0.05870683825490826   -0.0060328063168068324
-0.5017360406498321   -0.0549652201719873   0.009159019554255743
-0.5017360406498321   -0.0549652201719873   0.009159019554255743
-0.5017360406498321   -0.0549652201719873   0.009159019554255743
-0.5017360406498321   -0.0549652201719873   0.009159019554255743
-0.3248483892096847   -0.03940189256135328   0.012014361562695766
-0.3248483892096847   -0.03940189256135328   0.012014361562695766
-0.3248483892096847   -0.03940189256135328   0.012014361562695766
-0.3248483892096847   -0.03940189256135328   0.012014361562695766
-0.4087233587759076   -0.034724914212785465   -0.018239089146221438
-0.4087233587759076   -0.034724914212785465   -0.018239089146221438
-0.4087233587759076   -0.034724914212785465   -0.018239089146221438
-0.4087233587759076   -0.034724914212785465   -0.018239089146221438
-0.4497087556069686   0.07056342790442359   0.01943615941014956
-0.4497087556069686   0.07056342790442359   0.01943615941014956
-0.4497087556069686   0.07056342790442359   0.01943615941014956
-0.4497087556069686   0.07056342790442359   0.01943615941014956
-0.6531373444660573   -0.026942208703724557   -0.03001013653425301
-0.6531373444660573   -0.026942208703724557   -0.03001013653425301
-0.6531373444660573   -0.026942208703724557   -0.03001013653425301
-0.6531373444660573   -0.026942208703724557   -0.03001013653425301
-0.6443554457798151   0.010573547159317659   0.020135027483691476
-0.6443554457798151   0.010573547159317659   0.020135027483691476
-0.6443554457798151   0.010573547159317659   0.020135027483691476
-0.6443554457798151   0.010573547159317659   0.020135027483691476
-0.4802507384262423   -0.009520290843334674   -0.013361329804249436
-0.4802507384262423   -0.009520290843334674   -0.013361329804249436
-0.4802507384262423   -0.009520290843334674   -0.013361329804249436
-0.4802507384262423   -0.009520290843334674   -0.013361329804249436
-0.5549412910460947   0.011249040837432351   0.0026605790819567293
-0.5549412910460947   0.011249040837432351   0.0026605790819567293
-0.5549412910460947   0.011249040837432351   0.0026605790819567293
-0.5549412910460947   0.011249040837432351   0.0026605790819567293
-0.4608754968703185   0.048367874059071364   0.025626713072963422
-0.4608754968703185   0.048367874059071364   0.025626713072963422
-0.4608754968703185   0.048367874059071364   0.025626713072963422
-0.4608754968703185   0.048367874059071364   0.025626713072963422
-0.6661086872145641   -0.04969261762192124   -0.02836501490882984
-0.6661086872145641   -0.04969261762192124   -0.02836501490882984
-0.6661086872145641   -0.04969261762192124   -0.02836501490882984
-0.6661086872145641   -0.04969261762192124   -0.02836501490882984
-0.660067908914853   -0.011104844858249426   0.02378075518132719
-0.660067908914853   -0.011104844858249426   0.02378075518132719
-0.660067908914853   -0.011104844858249426   0.02378075518132719
-0.660067908914853   -0.011104844858249426   0.02378075518132719
-0.49187155854090736   -0.02920649842946084   -0.009087103724222584
-0.49187155854090736   -0.02920649842946084   -0.009087103724222584
-0.49187155854090736   -0.02920649842946084   -0.009087103724222584
-0.49187155854090736   -0.02920649842946084   -0.009087103724222584
-0.5656157864392074   -0.008058894236671353   -0.007616306793374911
-0.5656157864392074   -0.008058894236671353   -0.007616306793374911
-0.5656157864392074   -0.008058894236671353   -0.007616306793374911
-0.5656157864392074   -0.008058894236671353   -0.007616306793374911
-0.47227763745377976   0.028026882545075592   0.03164912073687899
-0.47227763745377976   0.028026882545075592   0.03164912073687899
-0.47227763745377976   0.028026882545075592   0.03164912073687899
-0.47227763745377976   0.028026882545075592   0.03164912073687899
-0.6815396395845219   -0.07021603541532975   -0.024466707609952565
-0.6815396395845219   -0.07021603541532975   -0.024466707609952565
-0.6815396395845219   -0.07021603541532975   -0.024466707609952565
-0.6815396395845219   -0.07021603541532975   -0.024466707609952565
-0.6728414008097244   -0.032936297193035126   0.030285302453848473
-0.6728414008097244   -0.032936297193035126   0.030285302453848473
-0.6728414008097244   -0.032936297193035126   0.030285302453848473
-0.6728414008097244   -0.032936297193035126   0.030285302453848473
-0.5035341596691159   -0.04935889876617089   -0.005437896947979817
-0.5035341596691159   -0.04935889876617089   -0.005437896947979817
-0.5035341596691159   -0.04935889876617089   -0.005437896947979817
-0.5035341596691159   -0.04935889876617089   -0.005437896947979817
-0.5816783359322985   -0.027744262334229282   -0.018145947560084863
-0.5816783359322985   -0.027744262334229282   -0.018145947560084863
-0.5816783359322985   -0.027744262334229282   -0.018145947560084863
-0.5816783359322985   -0.027744262334229282   -0.018145947560084863
-0.6187683804546715   0.07646228641841243   0.03843018840053877
-0.6187683804546715   0.07646228641841243   0.03843018840053877
-0.6187683804546715   0.07646228641841243   0.03843018840053877
-0.6187683804546715   0.07646228641841243   0.03843018840053877
-0.7960216573542687   -0.039787627900214714   -0.05023295211376144
-0.7960216573542687   -0.039787627900214714   -0.05023295211376144
-0.7960216573542687   -0.039787627900214714   -0.05023295211376144
-0.7960216573542687   -0.039787627900214714   -0.05023295211376144
-0.7966360433266892   0.030791302253125194   0.042363325169306354
-0.7966360433266892   0.030791302253125194   0.042363325169306354
-0.7966360433266892   0.030791302253125194   0.042363325169306354
-0.7966360433266892   0.030791302253125194   0.042363325169306354
-0.6611535919276771   -0.022547676508730817   -0.03073447958757841
-0.6611535919276771   -0.022547676508730817   -0.03073447958757841
-0.6611535919276771   -0.022547676508730817   -0.03073447958757841
-0.6611535919276771   -0.022547676508730817   -0.03073447958757841
-0.6891015702803767   0.018172542352881085   0.013301005121783921
-0.6891015702803767   0.018172542352881085   0.013301005121783921
-0.6891015702803767   0.018172542352881085   0.013301005121783921
-0.6891015702803767   0.018172542352881085   0.013301005121783921
-0.628424303059196   0.06502820243498988   0.04533608581110604
-0.628424303059196   0.06502820243498988   0.04533608581110604
-0.628424303059196   0.06502820243498988   0.04533608581110604
-0.628424303059196   0.06502820243498988   0.04533608581110604
-0.8318343026710548   -0.05925354716647249   -0.04358312213290905
-0.8318343026710548   -0.05925354716647249   -0.04358312213290905
-0.8318343026710548   -0.05925354716647249   -0.04358312213290905
-0.8318343026710548   -0.05925354716647249   -0.04358312213290905
-0.8252159341161589   0.01844670410775534   0.05458958759614385
-0.8252159341161589   0.01844670410775534   0.05458958759614385
-0.8252159341161589   0.01844670410775534   0.05458958759614385
-0.8252159341161589   0.01844670410775534   0.05458958759614385
-0.6747617582447464   -0.033863525613262196   -0.02692981071313466
-0.6747617582447464   -0.033863525613262196   -0.02692981071313466
-0.6747617582447464   -0.033863525613262196   -0.02692981071313466
-0.6747617582447464   -0.033863525613262196   -0.02692981071313466
-0.723109276061234   0.003159160011599868   -0.0009473593592331242
-0.723109276061234   0.003159160011599868   -0.0009473593592331242
-0.723109276061234   0.003159160011599868   -0.0009473593592331242
-0.723109276061234   0.003159160011599868   -0.0009473593592331242
-0.6406665412365843   0.05531267908944194   0.05437006962497154
-0.6406665412365843   0.05531267908944194   0.05437006962497154
-0.6406665412365843   0.05531267908944194   0.05437006962497154
-0.6406665412365843   0.05531267908944194   0.05437006962497154
-0.8618287228053487   -0.07324707227596886   -0.03678057946606558
-0.8618287228053487   -0.07324707227596886   -0.03678057946606558
-0.8618287228053487   -0.07324707227596886   -0.03678057946606558
-0.8618287228053487   -0.07324707227596886   -0.03678057946606558
-0.8674664668708647   -0.014023230144967688   0.05772751187147779
-0.8674664668708647   -0.014023230144967688   0.05772751187147779
-0.8674664668708647   -0.014023230144967688   0.05772751187147779
-0.8674664668708647   -0.014023230144967688   0.05772751187147779
-0.6884247147249266   -0.057305873966870924   -0.023261690348341718
-0.6884247147249266   -0.057305873966870924   -0.023261690348341718
-0.6884247147249266   -0.057305873966870924   -0.023261690348341718
-0.6884247147249266   -0.057305873966870924   -0.023261690348341718
-0.7361853576351985   -0.011708408879486334   -0.01106771847809046
-0.7361853576351985   -0.011708408879486334   -0.01106771847809046
-0.7361853576351985   -0.011708408879486334   -0.01106771847809046
-0.7361853576351985   -0.011708408879486334   -0.01106771847809046
-0.33916608569568063   -0.022151064722906323   -0.06351224273355326
-0.33916608569568063   -0.022151064722906323   -0.06351224273355326
-0.33916608569568063   -0.022151064722906323   -0.06351224273355326
-0.33916608569568063   -0.022151064722906323   -0.06351224273355326
-0.33518072048351477   0.0486750436158086   0.02858031622201418
-0.33518072048351477   0.0486750436158086   0.02858031622201418
-0.33518072048351477   0.0486750436158086   0.02858031622201418
-0.33518072048351477   0.0486750436158086   0.02858031622201418
-0.377066068367719   -0.04442797450456736   -0.04304272972054488
-0.377066068367719   -0.04442797450456736   -0.04304272972054488
-0.377066068367719   -0.04442797450456736   -0.04304272972054488
-0.377066068367719   -0.04442797450456736   -0.04304272972054488
-0.3461447067153695   0.025356212249524897   0.0429682003767935
-0.3461447067153695   0.025356212249524897   0.0429682003767935
-0.3461447067153695   0.025356212249524897   0.0429682003767935
-0.3461447067153695   0.025356212249524897   0.0429682003767935
-0.33185346584263437   0.008181667447492439   0.029157502459891335
-0.33185346584263437   0.008181667447492439   0.029157502459891335
-0.33185346584263437   0.008181667447492439   0.029157502459891335
-0.33185346584263437   0.008181667447492439   0.029157502459891335
-0.3798557903324089   -0.047019645037637954   -0.05321136042123857
-0.3798557903324089   -0.047019645037637954   -0.05321136042123857
-0.3798557903324089   -0.047019645037637954   -0.05321136042123857
-0.3798557903324089   -0.047019645037637954   -0.05321136042123857
-0.3475480896618481   0.0237547778714324   0.03636441143280959
-0.3475480896618481   0.0237547778714324   0.03636441143280959
-0.3475480896618481   0.0237547778714324   0.03636441143280959
-0.3475480896618481   0.0237547778714324   0.03636441143280959
-0.38965872499580667   -0.05598399146205611   -0.036418071506764994
-0.38965872499580667   -0.05598399146205611   -0.036418071506764994
-0.38965872499580667   -0.05598399146205611   -0.036418071506764994
-0.38965872499580667   -0.05598399146205611   -0.036418071506764994
-0.37863823911090017   0.009618735451383406   0.07985268595426753
-0.37863823911090017   0.009618735451383406   0.07985268595426753
-0.37863823911090017   0.009618735451383406   0.07985268595426753
-0.37863823911090017   0.009618735451383406   0.07985268595426753
-0.3618202937809293   -0.011673998484771492   0.011645414845674038
-0.3618202937809293   -0.011673998484771492   0.011645414845674038
-0.3618202937809293   -0.011673998484771492   0.011645414845674038
-0.3618202937809293   -0.011673998484771492   0.011645414845674038
-0.4173290018216364   -0.06252575912956193   -0.04145663301846444
-0.4173290018216364   -0.06252575912956193   -0.04145663301846444
-0.4173290018216364   -0.06252575912956193   -0.04145663301846444
-0.4173290018216364   -0.06252575912956193   -0.04145663301846444
-0.3608843870450722   0.006244078358888121   0.04522554842596313
-0.3608843870450722   0.006244078358888121   0.04522554842596313
-0.3608843870450722   0.006244078358888121   0.04522554842596313
-0.3608843870450722   0.006244078358888121   0.04522554842596313
-0.3999656465207343   -0.0784888007281203   -0.02865312158273374
-0.3999656465207343   -0.0784888007281203   -0.02865312158273374
-0.3999656465207343   -0.0784888007281203   -0.02865312158273374
-0.3999656465207343   -0.0784888007281203   -0.02865312158273374
-0.42915173468514806   -0.04238761023909307   0.07473411526866157
-0.42915173468514806   -0.04238761023909307   0.07473411526866157
-0.42915173468514806   -0.04238761023909307   0.07473411526866157
-0.42915173468514806   -0.04238761023909307   0.07473411526866157
-0.38775585371064925   -0.0351497262720282   -0.01608640726572308
-0.38775585371064925   -0.0351497262720282   -0.01608640726572308
-0.38775585371064925   -0.0351497262720282   -0.01608640726572308
-0.38775585371064925   -0.0351497262720282   -0.01608640726572308
-0.3592976432639202   -0.010604836887777152   -0.03272441717642708
-0.3592976432639202   -0.010604836887777152   -0.03272441717642708
-0.3592976432639202   -0.010604836887777152   -0.03272441717642708
-0.3592976432639202   -0.010604836887777152   -0.03272441717642708
-0.3637873315887094   -0.04468085589144745   -0.0019013013399306056
-0.3637873315887094   -0.04468085589144745   -0.0019013013399306056
-0.3637873315887094   -0.04468085589144745   -0.0019013013399306056
-0.3637873315887094   -0.04468085589144745   -0.0019013013399306056
-0.36640082035822336   -0.02973604798092943   -0.016304058885130854
-0.36640082035822336   -0.02973604798092943   -0.016304058885130854
-0.36640082035822336   -0.02973604798092943   -0.016304058885130854
-0.36640082035822336   -0.02973604798092943   -0.016304058885130854
-0.3718682604048872   -0.06082455327127624   -0.0006571111396772578
-0.3718682604048872   -0.06082455327127624   -0.0006571111396772578
-0.3718682604048872   -0.06082455327127624   -0.0006571111396772578
-0.3718682604048872   -0.06082455327127624   -0.0006571111396772578
-0.36223115397511757   -0.038044080483870105   -0.0013215157062599209
-0.36223115397511757   -0.038044080483870105   -0.0013215157062599209
-0.36223115397511757   -0.038044080483870105   -0.0013215157062599209
-0.36223115397511757   -0.038044080483870105   -0.0013215157062599209
-0.3718811973439566   -0.03323381785192999   -0.02831253125436977
-0.3718811973439566   -0.03323381785192999   -0.02831253125436977
-0.3718811973439566   -0.03323381785192999   -0.02831253125436977
-0.3718811973439566   -0.03323381785192999   -0.02831253125436977
-0.36872339483916006   -0.05966229482028679   0.002009315549542881
-0.36872339483916006   -0.05966229482028679   0.002009315549542881
-0.36872339483916006   -0.05966229482028679   0.002009315549542881
-0.36872339483916006   -0.05966229482028679   0.002009315549542881
-0.3725150076336208   -0.04919747435335223   -0.010510233983736822
-0.3725150076336208   -0.04919747435335223   -0.010510233983736822
-0.3725150076336208   -0.04919747435335223   -0.010510233983736822
-0.3725150076336208   -0.04919747435335223   -0.010510233983736822
-0.3852991035983068   -0.07888934087712775   0.008285384895805825
-0.3852991035983068   -0.07888934087712775   0.008285384895805825
-0.3852991035983068   -0.07888934087712775   0.008285384895805825
-0.3852991035983068   -0.07888934087712775   0.008285384895805825
-0.37051992453057003   -0.053760581011920335   -0.010326490478968317
-0.37051992453057003   -0.053760581011920335   -0.010326490478968317
-0.37051992453057003   -0.053760581011920335   -0.010326490478968317
-0.37051992453057003   -0.053760581011920335   -0.010326490478968317
-0.3861855299363926   -0.054030624626257864   -0.02100546304549307
-0.3861855299363926   -0.054030624626257864   -0.02100546304549307
-0.3861855299363926   -0.054030624626257864   -0.02100546304549307
-0.3861855299363926   -0.054030624626257864   -0.02100546304549307
-0.3746158769426541   -0.07704348625134184   0.006831431369082597
-0.3746158769426541   -0.07704348625134184   0.006831431369082597
-0.3746158769426541   -0.07704348625134184   0.006831431369082597
-0.3746158769426541   -0.07704348625134184   0.006831431369082597
-0.3779994128588031   -0.07017977861757115   -0.004771420378371499
-0.3779994128588031   -0.07017977861757115   -0.004771420378371499
-0.3779994128588031   -0.07017977861757115   -0.004771420378371499
-0.3779994128588031   -0.07017977861757115   -0.004771420378371499
-0.3955725851401115   -0.10184642378576886   0.01666980837802387
-0.3955725851401115   -0.10184642378576886   0.01666980837802387
-0.3955725851401115   -0.10184642378576886   0.01666980837802387
-0.3955725851401115   -0.10184642378576886   0.01666980837802387
-0.381937225828418   -0.07276068677279614   -0.021787104055528764
-0.381937225828418   -0.07276068677279614   -0.021787104055528764
-0.381937225828418   -0.07276068677279614   -0.021787104055528764
-0.381937225828418   -0.07276068677279614   -0.021787104055528764
-0.35382495080588466   0.009226185051025224   -0.005996438368271975
-0.35382495080588466   0.009226185051025224   -0.005996438368271975
-0.35382495080588466   0.009226185051025224   -0.005996438368271975
-0.35382495080588466   0.009226185051025224   -0.005996438368271975
-0.39999487239826037   -0.07593454140873045   -0.019163149762959575
-0.39999487239826037   -0.07593454140873045   -0.019163149762959575
-0.39999487239826037   -0.07593454140873045   -0.019163149762959575
-0.39999487239826037   -0.07593454140873045   -0.019163149762959575
-0.38363128735148344   -0.013991571898326057   0.005068304199704235
-0.38363128735148344   -0.013991571898326057   0.005068304199704235
-0.38363128735148344   -0.013991571898326057   0.005068304199704235
-0.38363128735148344   -0.013991571898326057   0.005068304199704235
-0.3759955085362588   -0.08217231850423873   -0.011841229251998639
-0.3759955085362588   -0.08217231850423873   -0.011841229251998639
-0.3759955085362588   -0.08217231850423873   -0.011841229251998639
-0.3759955085362588   -0.08217231850423873   -0.011841229251998639
-0.37809747789710596   -0.04200642464041463   -0.008576146010135552
-0.37809747789710596   -0.04200642464041463   -0.008576146010135552
-0.37809747789710596   -0.04200642464041463   -0.008576146010135552
-0.37809747789710596   -0.04200642464041463   -0.008576146010135552
-0.35922719688732163   -0.01013234378978732   -3.964572176400061e-05
-0.35922719688732163   -0.01013234378978732   -3.964572176400061e-05
-0.35922719688732163   -0.01013234378978732   -3.964572176400061e-05
-0.35922719688732163   -0.01013234378978732   -3.964572176400061e-05
-0.4025193770449614   -0.08815132465731942   -0.015212391508699533
-0.4025193770449614   -0.08815132465731942   -0.015212391508699533
-0.4025193770449614   -0.08815132465731942   -0.015212391508699533
-0.4025193770449614   -0.08815132465731942   -0.015212391508699533
-0.38801694847391355   -0.0335067600900137   0.0108237659570658
-0.38801694847391355   -0.0335067600900137   0.0108237659570658
-0.38801694847391355   -0.0335067600900137   0.0108237659570658
-0.38801694847391355   -0.0335067600900137   0.0108237659570658
-0.3817179763737091   -0.09755450853685414   -0.0081680435006804
-0.3817179763737091   -0.09755450853685414   -0.0081680435006804
-0.3817179763737091   -0.09755450853685414   -0.0081680435006804
-0.3817179763737091   -0.09755450853685414   -0.0081680435006804
-0.3827586030564135   -0.05687473266558812   -0.01629763312720775
-0.3827586030564135   -0.05687473266558812   -0.01629763312720775
-0.3827586030564135   -0.05687473266558812   -0.01629763312720775
-0.3827586030564135   -0.05687473266558812   -0.01629763312720775
-0.3654159915373748   -0.029994872887743107   0.0057822450318800594
-0.3654159915373748   -0.029994872887743107   0.0057822450318800594
-0.3654159915373748   -0.029994872887743107   0.0057822450318800594
-0.3654159915373748   -0.029994872887743107   0.0057822450318800594
-0.40668683764495683   -0.10343430007383378   -0.0125981399143308
-0.40668683764495683   -0.10343430007383378   -0.0125981399143308
-0.40668683764495683   -0.10343430007383378   -0.0125981399143308
-0.40668683764495683   -0.10343430007383378   -0.0125981399143308
-0.3915826934744327   -0.05186124012292061   0.0164519280196071
-0.3915826934744327   -0.05186124012292061   0.0164519280196071
-0.3915826934744327   -0.05186124012292061   0.0164519280196071
-0.3915826934744327   -0.05186124012292061   0.0164519280196071
-0.3859716708122496   -0.11231788217384218   -0.002494606589336576
-0.3859716708122496   -0.11231788217384218   -0.002494606589336576
-0.3859716708122496   -0.11231788217384218   -0.002494606589336576
-0.3859716708122496   -0.11231788217384218   -0.002494606589336576
-0.3883174081622515   -0.07242594593614793   -0.024781864604963885
-0.3883174081622515   -0.07242594593614793   -0.024781864604963885
-0.3883174081622515   -0.07242594593614793   -0.024781864604963885
-0.3883174081622515   -0.07242594593614793   -0.024781864604963885
-0.36933921475269055   0.039546303297526   0.01863429375863304
-0.36933921475269055   0.039546303297526   0.01863429375863304
-0.36933921475269055   0.039546303297526   0.01863429375863304
-0.36933921475269055   0.039546303297526   0.01863429375863304
-0.4362636077649111   -0.05660712356367694   -0.02669230722106164
-0.4362636077649111   -0.05660712356367694   -0.02669230722106164
-0.4362636077649111   -0.05660712356367694   -0.02669230722106164
-0.4362636077649111   -0.05660712356367694   -0.02669230722106164
-0.41269588567755155   0.011829442770922741   0.025832485518377593
-0.41269588567755155   0.011829442770922741   0.025832485518377593
-0.41269588567755155   0.011829442770922741   0.025832485518377593
-0.41269588567755155   0.011829442770922741   0.025832485518377593
-0.39773441876589793   -0.06326231167996083   -0.016176613090733247
-0.39773441876589793   -0.06326231167996083   -0.016176613090733247
-0.39773441876589793   -0.06326231167996083   -0.016176613090733247
-0.39773441876589793   -0.06326231167996083   -0.016176613090733247
-0.40397829331987123   -0.01669727642057178   -0.005122325568554895
-0.40397829331987123   -0.01669727642057178   -0.005122325568554895
-0.40397829331987123   -0.01669727642057178   -0.005122325568554895
-0.40397829331987123   -0.01669727642057178   -0.005122325568554895
-0.3730710846595616   0.019469545852540723   0.02440819990844688
-0.3730710846595616   0.019469545852540723   0.02440819990844688
-0.3730710846595616   0.019469545852540723   0.02440819990844688
-0.3730710846595616   0.019469545852540723   0.02440819990844688
-0.44017319495018925   -0.073716389927875   -0.02600822814601292
-0.44017319495018925   -0.073716389927875   -0.02600822814601292
-0.44017319495018925   -0.073716389927875   -0.02600822814601292
-0.44017319495018925   -0.073716389927875   -0.02600822814601292
-0.4203194083114137   -0.007221223707792344   0.029287119654626215
-0.4203194083114137   -0.007221223707792344   0.029287119654626215
-0.4203194083114137   -0.007221223707792344   0.029287119654626215
-0.4203194083114137   -0.007221223707792344   0.029287119654626215
-0.40154822300249454   -0.07745955917259194   -0.012879807603260768
-0.40154822300249454   -0.07745955917259194   -0.012879807603260768
-0.40154822300249454   -0.07745955917259194   -0.012879807603260768
-0.40154822300249454   -0.07745955917259194   -0.012879807603260768
-0.40781295836863757   -0.032810871540651244   -0.014177132901669415
-0.40781295836863757   -0.032810871540651244   -0.014177132901669415
-0.40781295836863757   -0.032810871540651244   -0.014177132901669415
-0.40781295836863757   -0.032810871540651244   -0.014177132901669415
-0.3771654027296259   0.0015559169961150525   0.030018817592375388
-0.3771654027296259   0.0015559169961150525   0.030018817592375388
-0.3771654027296259   0.0015559169961150525   0.030018817592375388
-0.3771654027296259   0.0015559169961150525   0.030018817592375388
-0.4471408541434607   -0.08867532543567519   -0.023366007777726086
-0.4471408541434607   -0.08867532543567519   -0.023366007777726086
-0.4471408541434607   -0.08867532543567519   -0.023366007777726086
-0.4471408541434607   -0.08867532543567519   -0.023366007777726086
-0.4253558121397621   -0.02549270508155318   0.035714723945754895
-0.4253558121397621   -0.02549270508155318   0.035714723945754895
-0.4253558121397621   -0.02549270508155318   0.035714723945754895
-0.4253558121397621   -0.02549270508155318   0.035714723945754895
-0.4048211118836582   -0.09171939116845387   -0.009882012980995183
-0.4048211118836582   -0.09171939116845387   -0.009882012980995183
-0.4048211118836582   -0.09171939116845387   -0.009882012980995183
-0.4048211118836582   -0.09171939116845387   -0.009882012980995183
-0.41454029958892913   -0.04799449183159147   -0.022948851210438256
-0.41454029958892913   -0.04799449183159147   -0.022948851210438256
-0.41454029958892913   -0.04799449183159147   -0.022948851210438256
-0.41454029958892913   -0.04799449183159147   -0.022948851210438256
-0.4008182828718775   0.05673756346258477   0.03718963021784483
-0.4008182828718775   0.05673756346258477   0.03718963021784483
-0.4008182828718775   0.05673756346258477   0.03718963021784483
-0.4008182828718775   0.05673756346258477   0.03718963021784483
-0.42807696647416726   -0.03415139831194065   -0.038691110609371006
-0.42807696647416726   -0.03415139831194065   -0.038691110609371006
-0.42807696647416726   -0.03415139831194065   -0.038691110609371006
-0.42807696647416726   -0.03415139831194065   -0.038691110609371006
-0.41841974026213863   0.04041143866545856   0.041327244617799186
-0.41841974026213863   0.04041143866545856   0.041327244617799186
-0.41841974026213863   0.04041143866545856   0.041327244617799186
-0.41841974026213863   0.04041143866545856   0.041327244617799186
-0.43374090533801923   -0.04391402332507512   -0.02364914668796292
-0.43374090533801923   -0.04391402332507512   -0.02364914668796292
-0.43374090533801923   -0.04391402332507512   -0.02364914668796292
-0.43374090533801923   -0.04391402332507512   -0.02364914668796292
-0.4059827330624597   0.01015720425793484   0.0015517704734883259
-0.4059827330624597   0.01015720425793484   0.0015517704734883259
-0.4059827330624597   0.01015720425793484   0.0015517704734883259
-0.4059827330624597   0.01015720425793484   0.0015517704734883259
-0.4028577504135685   0.04385742386121192   0.04299518074799591
-0.4028577504135685   0.04385742386121192   0.04299518074799591
-0.4028577504135685   0.04385742386121192   0.04299518074799591
-0.4028577504135685   0.04385742386121192   0.04299518074799591
-0.45159375167627214   -0.04965086501051255   -0.03448050877689718
-0.45159375167627214   -0.04965086501051255   -0.03448050877689718
-0.45159375167627214   -0.04965086501051255   -0.03448050877689718
-0.45159375167627214   -0.04965086501051255   -0.03448050877689718
-0.43684924256667407   0.02974777034294946   0.05321415338985133
-0.43684924256667407   0.02974777034294946   0.05321415338985133
-0.43684924256667407   0.02974777034294946   0.05321415338985133
-0.43684924256667407   0.02974777034294946   0.05321415338985133
-0.43950278106394813   -0.052266750360540445   -0.021584217455297774
-0.43950278106394813   -0.052266750360540445   -0.021584217455297774
-0.43950278106394813   -0.052266750360540445   -0.021584217455297774
-0.43950278106394813   -0.052266750360540445   -0.021584217455297774
-0.42583000333475607   -0.002766310380197784   -0.009125928190029761
-0.42583000333475607   -0.002766310380197784   -0.009125928190029761
-0.42583000333475607   -0.002766310380197784   -0.009125928190029761
-0.42583000333475607   -0.002766310380197784   -0.009125928190029761
-0.40738087067632883   0.03529194238958835   0.05146664173266986
-0.40738087067632883   0.03529194238958835   0.05146664173266986
-0.40738087067632883   0.03529194238958835   0.05146664173266986
-0.40738087067632883   0.03529194238958835   0.05146664173266986
-0.47195826690396037   -0.06079803635683864   -0.03178516159677651
-0.47195826690396037   -0.06079803635683864   -0.03178516159677651
-0.47195826690396037   -0.06079803635683864   -0.03178516159677651
-0.47195826690396037   -0.06079803635683864   -0.03178516159677651
-0.46938437525317966   0.0025271592677699878   0.05686313635311581
-0.46938437525317966   0.0025271592677699878   0.05686313635311581
-0.46938437525317966   0.0025271592677699878   0.05686313635311581
-0.46938437525317966   0.0025271592677699878   0.05686313635311581
-0.44475732556810704   -0.06802609275166885   -0.018759455525854077
-0.44475732556810704   -0.06802609275166885   -0.018759455525854077
-0.44475732556810704   -0.06802609275166885   -0.018759455525854077
-0.44475732556810704   -0.06802609275166885   -0.018759455525854077
-0.43524351942547107   -0.014652660807609283   -0.01876270660305271
-0.43524351942547107   -0.014652660807609283   -0.01876270660305271
-0.43524351942547107   -0.014652660807609283   -0.01876270660305271
-0.43524351942547107   -0.014652660807609283   -0.01876270660305271
-0.8628257945447991   -0.0788102983006777   -0.08120131929913305
-0.8628257945447991   -0.0788102983006777   -0.08120131929913305
-0.8628257945447991   -0.0788102983006777   -0.08120131929913305
-0.8628257945447991   -0.0788102983006777   -0.08120131929913305
-0.5468777664719787   0.04686500351819656   0.01915734658137716
-0.5468777664719787   0.04686500351819656   0.01915734658137716
-0.5468777664719787   0.04686500351819656   0.01915734658137716
-0.5468777664719787   0.04686500351819656   0.01915734658137716
-0.574209165394486   -0.036085829019089   -0.036177547287159495
-0.574209165394486   -0.036085829019089   -0.036177547287159495
-0.574209165394486   -0.036085829019089   -0.036177547287159495
-0.574209165394486   -0.036085829019089   -0.036177547287159495
-0.9170722999838934   -0.10302395473013681   0.09111306059164162
-0.9170722999838934   -0.10302395473013681   0.09111306059164162
-0.9170722999838934   -0.10302395473013681   0.09111306059164162
-0.9170722999838934   -0.10302395473013681   0.09111306059164162
-0.6667861747181213   -0.025282226858430484   0.08830430105428475
-0.6667861747181213   -0.025282226858430484   0.08830430105428475
-0.6667861747181213   -0.025282226858430484   0.08830430105428475
-0.6667861747181213   -0.025282226858430484   0.08830430105428475
-0.9497534401170484   -0.11585207788918471   -0.059464516915075594
-0.9497534401170484   -0.11585207788918471   -0.059464516915075594
-0.9497534401170484   -0.11585207788918471   -0.059464516915075594
-0.9497534401170484   -0.11585207788918471   -0.059464516915075594
-0.5645050596636375   -0.04623474026234703   0.02249189261033463
-0.5645050596636375   -0.04623474026234703   0.02249189261033463
-0.5645050596636375   -0.04623474026234703   0.02249189261033463
-0.5645050596636375   -0.04623474026234703   0.02249189261033463
-0.5829113233800597   -0.052394017469086215   -0.02593799437893636
-0.5829113233800597   -0.052394017469086215   -0.02593799437893636
-0.5829113233800597   -0.052394017469086215   -0.02593799437893636
-0.5829113233800597   -0.052394017469086215   -0.02593799437893636
-0.9461082203477313   -0.14399377553155293   0.0023312407481387576
-0.9461082203477313   -0.14399377553155293   0.0023312407481387576
-0.9461082203477313   -0.14399377553155293   0.0023312407481387576
-0.9461082203477313   -0.14399377553155293   0.0023312407481387576
-0.7380327106388623   -0.08688913926385651   0.020374949464900982
-0.7380327106388623   -0.08688913926385651   0.020374949464900982
-0.7380327106388623   -0.08688913926385651   0.020374949464900982
-0.7380327106388623   -0.08688913926385651   0.020374949464900982
-0.9535236175633282   -0.13089731800186122   -0.04784220285952784
-0.9535236175633282   -0.13089731800186122   -0.04784220285952784
-0.9535236175633282   -0.13089731800186122   -0.04784220285952784
-0.9535236175633282   -0.13089731800186122   -0.04784220285952784
-0.5824671940255205   -0.0724617428598375   -0.003649622215495002
-0.5824671940255205   -0.0724617428598375   -0.003649622215495002
-0.5824671940255205   -0.0724617428598375   -0.003649622215495002
-0.5824671940255205   -0.0724617428598375   -0.003649622215495002
-0.5832023853360893   -0.09191868417064292   -0.01887060373814639
-0.5832023853360893   -0.09191868417064292   -0.01887060373814639
-0.5832023853360893   -0.09191868417064292   -0.01887060373814639
-0.5832023853360893   -0.09191868417064292   -0.01887060373814639
-0.9685615450236746   -0.21997267330476275   0.014554985660776842
-0.9685615450236746   -0.21997267330476275   0.014554985660776842
-0.9685615450236746   -0.21997267330476275   0.014554985660776842
-0.9685615450236746   -0.21997267330476275   0.014554985660776842
-0.7371134182421546   -0.11946673100974811   0.0014950074451631212
-0.7371134182421546   -0.11946673100974811   0.0014950074451631212
-0.7371134182421546   -0.11946673100974811   0.0014950074451631212
-0.7371134182421546   -0.11946673100974811   0.0014950074451631212
-0.5905529510215958   -0.10010369503311915   -0.05224987761538742
-0.5905529510215958   -0.10010369503311915   -0.05224987761538742
-0.5905529510215958   -0.10010369503311915   -0.05224987761538742
-0.5905529510215958   -0.10010369503311915   -0.05224987761538742
-0.40540673223295814   -0.26162835809684415   -0.049069107658206615
-0.40540673223295814   -0.26162835809684415   -0.049069107658206615
-0.40540673223295814   -0.26162835809684415   -0.049069107658206615
-0.40540673223295814   -0.26162835809684415   -0.049069107658206615
-0.3561135435241184   -0.05815443976764023   -0.0030612605022507233
-0.3561135435241184   -0.05815443976764023   -0.0030612605022507233
-0.3561135435241184   -0.05815443976764023   -0.0030612605022507233
-0.3561135435241184   -0.05815443976764023   -0.0030612605022507233
-0.6276563795130606   -0.27760672514054086   -0.06189272175858668
-0.6276563795130606   -0.27760672514054086   -0.06189272175858668
-0.6276563795130606   -0.27760672514054086   -0.06189272175858668
-0.6276563795130606   -0.27760672514054086   -0.06189272175858668
-0.48918125708442717   -0.18509228112014867   -0.014249299874273175
-0.48918125708442717   -0.18509228112014867   -0.014249299874273175
-0.48918125708442717   -0.18509228112014867   -0.014249299874273175
-0.48918125708442717   -0.18509228112014867   -0.014249299874273175
-0.590061768251227   -0.11219759227550241   -0.039328798314452934
-0.590061768251227   -0.11219759227550241   -0.039328798314452934
-0.590061768251227   -0.11219759227550241   -0.039328798314452934
-0.590061768251227   -0.11219759227550241   -0.039328798314452934
-0.39610225418699113   -0.22595767203371767   -0.03520158155054043
-0.39610225418699113   -0.22595767203371767   -0.03520158155054043
-0.39610225418699113   -0.22595767203371767   -0.03520158155054043
-0.39610225418699113   -0.22595767203371767   -0.03520158155054043
-0.360044927593396   -0.07537509277370749   0.0006024494080116433
-0.360044927593396   -0.07537509277370749   0.0006024494080116433
-0.360044927593396   -0.07537509277370749   0.0006024494080116433
-0.360044927593396   -0.07537509277370749   0.0006024494080116433
-0.6297887509713227   -0.2761677101713422   -0.03655143963300142
-0.6297887509713227   -0.2761677101713422   -0.03655143963300142
-0.6297887509713227   -0.2761677101713422   -0.03655143963300142
-0.6297887509713227   -0.2761677101713422   -0.03655143963300142
-0.4836679443246321   -0.17350013856245497   -0.015137587732645674
-0.4836679443246321   -0.17350013856245497   -0.015137587732645674
-0.4836679443246321   -0.17350013856245497   -0.015137587732645674
-0.4836679443246321   -0.17350013856245497   -0.015137587732645674
-0.59897574194868   -0.12917713872049036   -0.029476965970633928
-0.59897574194868   -0.12917713872049036   -0.029476965970633928
-0.59897574194868   -0.12917713872049036   -0.029476965970633928
-0.59897574194868   -0.12917713872049036   -0.029476965970633928
-0.3958064844954372   -0.22731421210395486   -0.026266215771950638
-0.3958064844954372   -0.22731421210395486   -0.026266215771950638
-0.3958064844954372   -0.22731421210395486   -0.026266215771950638
-0.3958064844954372   -0.22731421210395486   -0.026266215771950638
-0.3597674558675804   -0.09685145524999401   0.0058395217843669606
-0.3597674558675804   -0.09685145524999401   0.0058395217843669606
-0.3597674558675804   -0.09685145524999401   0.0058395217843669606
-0.3597674558675804   -0.09685145524999401   0.0058395217843669606
-0.6280933672060951   -0.2808014074826521   -0.05444278977617281
-0.6280933672060951   -0.2808014074826521   -0.05444278977617281
-0.6280933672060951   -0.2808014074826521   -0.05444278977617281
-0.6280933672060951   -0.2808014074826521   -0.05444278977617281
-0.49082854299652573   -0.1866492961092117   -0.028106925159293833
-0.49082854299652573   -0.1866492961092117   -0.028106925159293833
-0.49082854299652573   -0.1866492961092117   -0.028106925159293833
-0.49082854299652573   -0.1866492961092117   -0.028106925159293833
-0.3570498769856048   -0.06441295856438688   -0.0045002309538972884
-0.3570498769856048   -0.06441295856438688   -0.0045002309538972884
-0.3570498769856048   -0.06441295856438688   -0.0045002309538972884
-0.3570498769856048   -0.06441295856438688   -0.0045002309538972884
-0.29908959100646987   -0.20009096778856283   -0.03454230469695595
-0.29908959100646987   -0.20009096778856283   -0.03454230469695595
-0.29908959100646987   -0.20009096778856283   -0.03454230469695595
-0.29908959100646987   -0.20009096778856283   -0.03454230469695595
-0.25773141865637034   -0.05339163002544308   0.013798123262075815
-0.25773141865637034   -0.05339163002544308   0.013798123262075815
-0.25773141865637034   -0.05339163002544308   0.013798123262075815
-0.25773141865637034   -0.05339163002544308   0.013798123262075815
-0.3950341148021451   -0.2176247034227939   -0.038193853237234204
-0.3950341148021451   -0.2176247034227939   -0.038193853237234204
-0.3950341148021451   -0.2176247034227939   -0.038193853237234204
-0.3950341148021451   -0.2176247034227939   -0.038193853237234204
-0.3257788871642477   -0.13576553982947473   -0.015944519065011833
-0.3257788871642477   -0.13576553982947473   -0.015944519065011833
-0.3257788871642477   -0.13576553982947473   -0.015944519065011833
-0.3257788871642477   -0.13576553982947473   -0.015944519065011833
-0.35900003648492024   -0.07627884271529337   0.0006306776413895765
-0.35900003648492024   -0.07627884271529337   0.0006306776413895765
-0.35900003648492024   -0.07627884271529337   0.0006306776413895765
-0.35900003648492024   -0.07627884271529337   0.0006306776413895765
-0.2958839985357977   -0.19685599229514864   -0.0335004138653552
-0.2958839985357977   -0.19685599229514864   -0.0335004138653552
-0.2958839985357977   -0.19685599229514864   -0.0335004138653552
-0.2958839985357977   -0.19685599229514864   -0.0335004138653552
-0.25769764463968875   -0.06754207240536482   0.0178738054227459
-0.25769764463968875   -0.06754207240536482   0.0178738054227459
-0.25769764463968875   -0.06754207240536482   0.0178738054227459
-0.25769764463968875   -0.06754207240536482   0.0178738054227459
-0.3961526705575384   -0.22107602314042094   -0.034235335045990634
-0.3961526705575384   -0.22107602314042094   -0.034235335045990634
-0.3961526705575384   -0.22107602314042094   -0.034235335045990634
-0.3961526705575384   -0.22107602314042094   -0.034235335045990634
-0.32508972876751824   -0.14110447898185335   -0.020687778028104578
-0.32508972876751824   -0.14110447898185335   -0.020687778028104578
-0.32508972876751824   -0.14110447898185335   -0.020687778028104578
-0.32508972876751824   -0.14110447898185335   -0.020687778028104578
-0.3618821100653108   -0.09062119810007759   0.006662642374804073
-0.3618821100653108   -0.09062119810007759   0.006662642374804073
-0.3618821100653108   -0.09062119810007759   0.006662642374804073
-0.3618821100653108   -0.09062119810007759   0.006662642374804073
-0.2931314433258597   -0.19916013563965151   -0.027677124773822143
-0.2931314433258597   -0.19916013563965151   -0.027677124773822143
-0.2931314433258597   -0.19916013563965151   -0.027677124773822143
-0.2931314433258597   -0.19916013563965151   -0.027677124773822143
-0.2545212350668393   -0.08106719331633434   0.022308401952792392
-0.2545212350668393   -0.08106719331633434   0.022308401952792392
-0.2545212350668393   -0.08106719331633434   0.022308401952792392
-0.2545212350668393   -0.08106719331633434   0.022308401952792392
-0.3912853727028485   -0.22391863887444105   -0.024682878767530225
-0.3912853727028485   -0.22391863887444105   -0.024682878767530225
-0.3912853727028485   -0.22391863887444105   -0.024682878767530225
-0.3912853727028485   -0.22391863887444105   -0.024682878767530225
-0.3239770650737919   -0.1481183619484166   -0.023961850631770032
-0.3239770650737919   -0.1481183619484166   -0.023961850631770032
-0.3239770650737919   -0.1481183619484166   -0.023961850631770032
-0.3239770650737919   -0.1481183619484166   -0.023961850631770032
-0.24906804266819677   -0.008945546049126975   0.024420015254973844
-0.24906804266819677   -0.008945546049126975   0.024420015254973844
-0.24906804266819677   -0.008945546049126975   0.024420015254973844
-0.24906804266819677   -0.008945546049126975   0.024420015254973844
-0.23509036386282786   -0.10583200610862405   -0.02063996253665655
-0.23509036386282786   -0.10583200610862405   -0.02063996253665655
-0.23509036386282786   -0.10583200610862405   -0.02063996253665655
-0.23509036386282786   -0.10583200610862405   -0.02063996253665655
-0.20258606309849073   -0.015337909003480373   0.028297044624261747
-0.20258606309849073   -0.015337909003480373   0.028297044624261747
-0.20258606309849073   -0.015337909003480373   0.028297044624261747
-0.20258606309849073   -0.015337909003480373   0.028297044624261747
-0.2772243878321979   -0.12242273511509638   -0.014635617527408343
-0.2772243878321979   -0.12242273511509638   -0.014635617527408343
-0.2772243878321979   -0.12242273511509638   -0.014635617527408343
-0.2772243878321979   -0.12242273511509638   -0.014635617527408343
-0.24179994732342033   -0.06255812025094491   -0.00864357347520469
-0.24179994732342033   -0.06255812025094491   -0.00864357347520469
-0.24179994732342033   -0.06255812025094491   -0.00864357347520469
-0.24179994732342033   -0.06255812025094491   -0.00864357347520469
-0.24911367380324045   -0.02466983047402184   0.02816504797630416
-0.24911367380324045   -0.02466983047402184   0.02816504797630416
-0.24911367380324045   -0.02466983047402184   0.02816504797630416
-0.24911367380324045   -0.02466983047402184   0.02816504797630416
-0.23294595566343024   -0.11533999218053576   -0.023500335023380572
-0.23294595566343024   -0.11533999218053576   -0.023500335023380572
-0.23294595566343024   -0.11533999218053576   -0.023500335023380572
-0.23294595566343024   -0.11533999218053576   -0.023500335023380572
-0.202760072464534   -0.02904420070521454   0.030408834195650408
-0.202760072464534   -0.02904420070521454   0.030408834195650408
-0.202760072464534   -0.02904420070521454   0.030408834195650408
-0.202760072464534   -0.02904420070521454   0.030408834195650408
-0.2770051414936241   -0.129876922712004   -0.01632882854029165
-0.2770051414936241   -0.129876922712004   -0.01632882854029165
-0.2770051414936241   -0.129876922712004   -0.01632882854029165
-0.2770051414936241   -0.129876922712004   -0.01632882854029165
-0.24063110823726883   -0.07357442675330539   -0.0146615883232152
-0.24063110823726883   -0.07357442675330539   -0.0146615883232152
-0.24063110823726883   -0.07357442675330539   -0.0146615883232152
-0.24063110823726883   -0.07357442675330539   -0.0146615883232152
-0.2489455084429649   -0.037953809949861445   0.03204622395086207
-0.2489455084429649   -0.037953809949861445   0.03204622395086207
-0.2489455084429649   -0.037953809949861445   0.03204622395086207
-0.2489455084429649   -0.037953809949861445   0.03204622395086207
-0.2321812330991178   -0.12232884105128419   -0.023412328631198936
-0.2321812330991178   -0.12232884105128419   -0.023412328631198936
-0.2321812330991178   -0.12232884105128419   -0.023412328631198936
-0.2321812330991178   -0.12232884105128419   -0.023412328631198936
-0.20089603561114192   -0.04191080116101775   0.03523586078366907
-0.20089603561114192   -0.04191080116101775   0.03523586078366907
-0.20089603561114192   -0.04191080116101775   0.03523586078366907
-0.20089603561114192   -0.04191080116101775   0.03523586078366907
-0.27247373150817233   -0.1373397652398771   -0.011181508330329881
-0.27247373150817233   -0.1373397652398771   -0.011181508330329881
-0.27247373150817233   -0.1373397652398771   -0.011181508330329881
-0.27247373150817233   -0.1373397652398771   -0.011181508330329881
-0.2397698291553683   -0.08303061958855698   -0.0188313207249481
-0.2397698291553683   -0.08303061958855698   -0.0188313207249481
-0.2397698291553683   -0.08303061958855698   -0.0188313207249481
-0.2397698291553683   -0.08303061958855698   -0.0188313207249481
-0.19669439566268446   0.027470760369431163   0.038037111986005304
-0.19669439566268446   0.027470760369431163   0.038037111986005304
-0.19669439566268446   0.027470760369431163   0.038037111986005304
-0.19669439566268446   0.027470760369431163   0.038037111986005304
-0.13012805002670014   -0.03474112299023152   -0.012666736507424958
-0.13012805002670014   -0.03474112299023152   -0.012666736507424958
-0.13012805002670014   -0.03474112299023152   -0.012666736507424958
-0.13012805002670014   -0.03474112299023152   -0.012666736507424958
-0.11342401019147756   0.03238868448305598   0.03754749720616624
-0.11342401019147756   0.03238868448305598   0.03754749720616624
-0.11342401019147756   0.03238868448305598   0.03754749720616624
-0.11342401019147756   0.03238868448305598   0.03754749720616624
-0.21715562894685272   -0.05333506607440998   -0.006553627546618812
-0.21715562894685272   -0.05333506607440998   -0.006553627546618812
-0.21715562894685272   -0.05333506607440998   -0.006553627546618812
-0.21715562894685272   -0.05333506607440998   -0.006553627546618812
-0.16211766389768728   -0.003386100173004258   -0.0069033776772672445
-0.16211766389768728   -0.003386100173004258   -0.0069033776772672445
-0.16211766389768728   -0.003386100173004258   -0.0069033776772672445
-0.16211766389768728   -0.003386100173004258   -0.0069033776772672445
-0.19343830138357487   0.017179929702062807   0.0415180144932977
-0.19343830138357487   0.017179929702062807   0.0415180144932977
-0.19343830138357487   0.017179929702062807   0.0415180144932977
-0.19343830138357487   0.017179929702062807   0.0415180144932977
-0.13736315876648164   -0.03834813230514046   -0.011411428880642348
-0.13736315876648164   -0.03834813230514046   -0.011411428880642348
-0.13736315876648164   -0.03834813230514046   -0.011411428880642348
-0.13736315876648164   -0.03834813230514046   -0.011411428880642348
-0.11835493780152734   0.02572827831566047   0.047243082663286015
-0.11835493780152734   0.02572827831566047   0.047243082663286015
-0.11835493780152734   0.02572827831566047   0.047243082663286015
-0.11835493780152734   0.02572827831566047   0.047243082663286015
-0.21606694615061794   -0.05676100021272102   -0.008408734727255264
-0.21606694615061794   -0.05676100021272102   -0.008408734727255264
-0.21606694615061794   -0.05676100021272102   -0.008408734727255264
-0.21606694615061794   -0.05676100021272102   -0.008408734727255264
-0.16683796642785426   -0.010662473804112504   -0.009701990730623493
-0.16683796642785426   -0.010662473804112504   -0.009701990730623493
-0.16683796642785426   -0.010662473804112504   -0.009701990730623493
-0.16683796642785426   -0.010662473804112504   -0.009701990730623493
-0.1912178108803003   0.011268562874642566   0.04780737853696946
-0.1912178108803003   0.011268562874642566   0.04780737853696946
-0.1912178108803003   0.011268562874642566   0.04780737853696946
-0.1912178108803003   0.011268562874642566   0.04780737853696946
-0.14490520816879163   -0.04400241986864975   -0.015777570988725287
-0.14490520816879163   -0.04400241986864975   -0.015777570988725287
-0.14490520816879163   -0.04400241986864975   -0.015777570988725287
-0.14490520816879163   -0.04400241986864975   -0.015777570988725287
-0.1354530466092578   0.007418491762477199   0.04915918808602697
-0.1354530466092578   0.007418491762477199   0.04915918808602697
-0.1354530466092578   0.007418491762477199   0.04915918808602697
-0.1354530466092578   0.007418491762477199   0.04915918808602697
-0.2129339145672889   -0.05980603203625594   -0.007058303121827703
-0.2129339145672889   -0.05980603203625594   -0.007058303121827703
-0.2129339145672889   -0.05980603203625594   -0.007058303121827703
-0.2129339145672889   -0.05980603203625594   -0.007058303121827703
-0.16907489400090955   -0.015911641116300765   -0.014261252882176206
-0.16907489400090955   -0.015911641116300765   -0.014261252882176206
-0.16907489400090955   -0.015911641116300765   -0.014261252882176206
-0.16907489400090955   -0.015911641116300765   -0.014261252882176206
-2.0329447681183495   -0.28799082765124545   -0.16905480761947028
-2.0329447681183495   -0.28799082765124545   -0.16905480761947028
-2.0329447681183495   -0.28799082765124545   -0.16905480761947028
-2.0329447681183495   -0.28799082765124545   -0.16905480761947028
-0.7054155377512864   -1.1092771455557229   -0.1323372360741225
-0.7054155377512864   -1.1092771455557229   -0.1323372360741225
-0.7054155377512864   -1.1092771455557229   -0.1323372360741225
-0.7054155377512864   -1.1092771455557229   -0.1323372360741225
-0.5452529742092658   -0.04673004252863023   0.0007632958245544774
-0.5452529742092658   -0.04673004252863023   0.0007632958245544774
-0.5452529742092658   -0.04673004252863023   0.0007632958245544774
-0.5452529742092658   -0.04673004252863023   0.0007632958245544774
-2.170507126965526   -1.3039782982506383   -0.6948970850432328
-2.170507126965526   -1.3039782982506383   -0.6948970850432328
-2.170507126965526   -1.3039782982506383   -0.6948970850432328
-2.170507126965526   -1.3039782982506383   -0.6948970850432328
-1.3294512405212011   -0.6487195909905291   -0.09452639311760769
-1.3294512405212011   -0.6487195909905291   -0.09452639311760769
-1.3294512405212011   -0.6487195909905291   -0.09452639311760769
-1.3294512405212011   -0.6487195909905291   -0.09452639311760769
-1.8890024078207464   -0.3615857882748623   -0.2297659992951257
-1.8890024078207464   -0.3615857882748623   -0.2297659992951257
-1.8890024078207464   -0.3615857882748623   -0.2297659992951257
-1.8890024078207464   -0.3615857882748623   -0.2297659992951257
-0.7617540994932378   -0.9241189586436   -0.20435341448033026
-0.7617540994932378   -0.9241189586436   -0.20435341448033026
-0.7617540994932378   -0.9241189586436   -0.20435341448033026
-0.7617540994932378   -0.9241189586436   -0.20435341448033026
-0.5562283029556618   -0.062297085210298885   0.020934774962339503
-0.5562283029556618   -0.062297085210298885   0.020934774962339503
-0.5562283029556618   -0.062297085210298885   0.020934774962339503
-0.5562283029556618   -0.062297085210298885   0.020934774962339503
-2.0310853888529827   -1.163153698783027   -0.638847817527202
-2.0310853888529827   -1.163153698783027   -0.638847817527202
-2.0310853888529827   -1.163153698783027   -0.638847817527202
-2.0310853888529827   -1.163153698783027   -0.638847817527202
-1.2521625160376324   -0.5849631137484468   0.05068911617697219
-1.2521625160376324   -0.5849631137484468   0.05068911617697219
-1.2521625160376324   -0.5849631137484468   0.05068911617697219
-1.2521625160376324   -0.5849631137484468   0.05068911617697219
-1.7738102479580293   -0.344271326308613   -0.1713544855268636
-1.7738102479580293   -0.344271326308613   -0.1713544855268636
-1.7738102479580293   -0.344271326308613   -0.1713544855268636
-1.7738102479580293   -0.344271326308613   -0.1713544855268636
-0.741275059177418   -0.8089510730115175   -0.15764501834521838
-0.741275059177418   -0.8089510730115175   -0.15764501834521838
-0.741275059177418   -0.8089510730115175   -0.15764501834521838
-0.741275059177418   -0.8089510730115175   -0.15764501834521838
-0.6391378078560203   -0.1636429190472007   -0.0332199802190673
-0.6391378078560203   -0.1636429190472007   -0.0332199802190673
-0.6391378078560203   -0.1636429190472007   -0.0332199802190673
-0.6391378078560203   -0.1636429190472007   -0.0332199802190673
-1.851173804979596   -0.9775438149725579   -0.5657435239904308
-1.851173804979596   -0.9775438149725579   -0.5657435239904308
-1.851173804979596   -0.9775438149725579   -0.5657435239904308
-1.851173804979596   -0.9775438149725579   -0.5657435239904308
-1.1598654821528034   -0.5071381820935781   0.2147246016966624
-1.1598654821528034   -0.5071381820935781   0.2147246016966624
-1.1598654821528034   -0.5071381820935781   0.2147246016966624
-1.1598654821528034   -0.5071381820935781   0.2147246016966624
-0.5222066490688176   -0.2835737563132299   -0.041996181904275814
-0.5222066490688176   -0.2835737563132299   -0.041996181904275814
-0.5222066490688176   -0.2835737563132299   -0.041996181904275814
-0.5222066490688176   -0.2835737563132299   -0.041996181904275814
-0.24138498133150466   -0.35020157124366513   -0.0596390381155807
-0.24138498133150466   -0.35020157124366513   -0.0596390381155807
-0.24138498133150466   -0.35020157124366513   -0.0596390381155807
-0.24138498133150466   -0.35020157124366513   -0.0596390381155807
-0.21295547422163252   -0.1811860798102614   0.005509599601374898
-0.21295547422163252   -0.1811860798102614   0.005509599601374898
-0.21295547422163252   -0.1811860798102614   0.005509599601374898
-0.21295547422163252   -0.1811860798102614   0.005509599601374898
-0.6385923209862707   -0.512955264149267   0.00029178356017184326
-0.6385923209862707   -0.512955264149267   0.00029178356017184326
-0.6385923209862707   -0.512955264149267   0.00029178356017184326
-0.6385923209862707   -0.512955264149267   0.00029178356017184326
-0.3430375286574645   -0.24878868928446257   0.10988852639981872
-0.3430375286574645   -0.24878868928446257   0.10988852639981872
-0.3430375286574645   -0.24878868928446257   0.10988852639981872
-0.3430375286574645   -0.24878868928446257   0.10988852639981872
-0.594248764379022   -0.263946497727155   -0.02699919982570373
-0.594248764379022   -0.263946497727155   -0.02699919982570373
-0.594248764379022   -0.263946497727155   -0.02699919982570373
-0.594248764379022   -0.263946497727155   -0.02699919982570373
-0.27531609928145356   -0.4482119146849468   -0.03926769082304475
-0.27531609928145356   -0.4482119146849468   -0.03926769082304475
-0.27531609928145356   -0.4482119146849468   -0.03926769082304475
-0.27531609928145356   -0.4482119146849468   -0.03926769082304475
-0.22998802411706842   -0.18776533031234732   0.005659732807718351
-0.22998802411706842   -0.18776533031234732   0.005659732807718351
-0.22998802411706842   -0.18776533031234732   0.005659732807718351
-0.22998802411706842   -0.18776533031234732   0.005659732807718351
-0.6697038677721471   -0.5063504649358241   -0.1023896693945569
-0.6697038677721471   -0.5063504649358241   -0.1023896693945569
-0.6697038677721471   -0.5063504649358241   -0.1023896693945569
-0.6697038677721471   -0.5063504649358241   -0.1023896693945569
-0.4089932796492417   -0.319175651043235   0.05018926063507595
-0.4089932796492417   -0.319175651043235   0.05018926063507595
-0.4089932796492417   -0.319175651043235   0.05018926063507595
-0.4089932796492417   -0.319175651043235   0.05018926063507595
-0.6131630195869947   -0.27561621220733407   -0.050419681197289096
-0.6131630195869947   -0.27561621220733407   -0.050419681197289096
-0.6131630195869947   -0.27561621220733407   -0.050419681197289096
-0.6131630195869947   -0.27561621220733407   -0.050419681197289096
-0.28484695173721003   -0.41681766247582724   -0.039582573129509746
-0.28484695173721003   -0.41681766247582724   -0.039582573129509746
-0.28484695173721003   -0.41681766247582724   -0.039582573129509746
-0.28484695173721003   -0.41681766247582724   -0.039582573129509746
-0.2562460166517812   -0.19387670351358377   0.008333379514854924
-0.2562460166517812   -0.19387670351358377   0.008333379514854924
-0.2562460166517812   -0.19387670351358377   0.008333379514854924
-0.2562460166517812   -0.19387670351358377   0.008333379514854924
-0.7159990798810921   -0.49197470958998424   -0.0891945498016466
-0.7159990798810921   -0.49197470958998424   -0.0891945498016466
-0.7159990798810921   -0.49197470958998424   -0.0891945498016466
-0.7159990798810921   -0.49197470958998424   -0.0891945498016466
-0.4278982910367965   -0.3008167848702446   0.05310748860918102
-0.4278982910367965   -0.3008167848702446   0.05310748860918102
-0.4278982910367965   -0.3008167848702446   0.05310748860918102
-0.4278982910367965   -0.3008167848702446   0.05310748860918102
-0.19074836557742939   -0.16903813990094788   0.012380609312078392
-0.19074836557742939   -0.16903813990094788   0.012380609312078392
-0.19074836557742939   -0.16903813990094788   0.012380609312078392
-0.19074836557742939   -0.16903813990094788   0.012380609312078392
-0.11645178533183309   -0.10903610265966257   -0.029105288560949454
-0.11645178533183309   -0.10903610265966257   -0.029105288560949454
-0.11645178533183309   -0.10903610265966257   -0.029105288560949454
-0.11645178533183309   -0.10903610265966257   -0.029105288560949454
-0.11295805397076192   -0.1510732097453045   0.012487554318837309
-0.11295805397076192   -0.1510732097453045   0.012487554318837309
-0.11295805397076192   -0.1510732097453045   0.012487554318837309
-0.11295805397076192   -0.1510732097453045   0.012487554318837309
-0.21043894828898171   -0.14973694440607463   -0.01335690613955784
-0.21043894828898171   -0.14973694440607463   -0.01335690613955784
-0.21043894828898171   -0.14973694440607463   -0.01335690613955784
-0.21043894828898171   -0.14973694440607463   -0.01335690613955784
-0.13314843573651633   -0.12209355009373737   0.0550968542519575
-0.13314843573651633   -0.12209355009373737   0.0550968542519575
-0.13314843573651633   -0.12209355009373737   0.0550968542519575
-0.13314843573651633   -0.12209355009373737   0.0550968542519575
-0.20918039412242667   -0.17014617048498096   0.013345090772119789
-0.20918039412242667   -0.17014617048498096   0.013345090772119789
-0.20918039412242667   -0.17014617048498096   0.013345090772119789
-0.20918039412242667   -0.17014617048498096   0.013345090772119789
-0.1160349014221348   -0.1324822769512165   -0.021487615732115113
-0.1160349014221348   -0.1324822769512165   -0.021487615732115113
-0.1160349014221348   -0.1324822769512165   -0.021487615732115113
-0.1160349014221348   -0.1324822769512165   -0.021487615732115113
-0.11416197170537307   -0.15561226913420767   0.011092736132918016
-0.11416197170537307   -0.15561226913420767   0.011092736132918016
-0.11416197170537307   -0.15561226913420767   0.011092736132918016
-0.11416197170537307   -0.15561226913420767   0.011092736132918016
-0.2233560651820541   -0.17476041813615162   0.025814615306594235
-0.2233560651820541   -0.17476041813615162   0.025814615306594235
-0.2233560651820541   -0.17476041813615162   0.025814615306594235
-0.2233560651820541   -0.17476041813615162   0.025814615306594235
-0.14467669220831492   -0.1360218680208946   0.04673261145949266
-0.14467669220831492   -0.1360218680208946   0.04673261145949266
-0.14467669220831492   -0.1360218680208946   0.04673261145949266
-0.14467669220831492   -0.1360218680208946   0.04673261145949266
-0.22525225470454294   -0.17644518587418737   0.01801843543218186
-0.22525225470454294   -0.17644518587418737   0.01801843543218186
-0.22525225470454294   -0.17644518587418737   0.01801843543218186
-0.22525225470454294   -0.17644518587418737   0.01801843543218186
-0.12193135958927827   -0.16359307880256535   -0.01977339361825018
-0.12193135958927827   -0.16359307880256535   -0.01977339361825018
-0.12193135958927827   -0.16359307880256535   -0.01977339361825018
-0.12193135958927827   -0.16359307880256535   -0.01977339361825018
-0.11534635078096525   -0.1606790360041051   0.015576113662266161
-0.11534635078096525   -0.1606790360041051   0.015576113662266161
-0.11534635078096525   -0.1606790360041051   0.015576113662266161
-0.11534635078096525   -0.1606790360041051   0.015576113662266161
-0.2610672405363692   -0.21515528752290727   0.0055058441012424825
-0.2610672405363692   -0.21515528752290727   0.0055058441012424825
-0.2610672405363692   -0.21515528752290727   0.0055058441012424825
-0.2610672405363692   -0.21515528752290727   0.0055058441012424825
-0.16143427772155974   -0.15512056514228065   0.022163315601055056
-0.16143427772155974   -0.15512056514228065   0.022163315601055056
-0.16143427772155974   -0.15512056514228065   0.022163315601055056
-0.16143427772155974   -0.15512056514228065   0.022163315601055056
-0.09574615614375537   -0.0672981842612691   0.0326849389810457
-0.09574615614375537   -0.0672981842612691   0.0326849389810457
-0.09574615614375537   -0.0672981842612691   0.0326849389810457
-0.09574615614375537   -0.0672981842612691   0.0326849389810457
-0.06696028083822657   0.00030681363405798924   -0.006523350224732187
-0.06696028083822657   0.00030681363405798924   -0.006523350224732187
-0.06696028083822657   0.00030681363405798924   -0.006523350224732187
-0.06696028083822657   0.00030681363405798924   -0.006523350224732187
-0.06355883103164417   -0.07270411583254476   0.02029192208479605
-0.06355883103164417   -0.07270411583254476   0.02029192208479605
-0.06355883103164417   -0.07270411583254476   0.02029192208479605
-0.06355883103164417   -0.07270411583254476   0.02029192208479605
-0.08856986132679917   -0.012435840815536135   -0.004208851391117381
-0.08856986132679917   -0.012435840815536135   -0.004208851391117381
-0.08856986132679917   -0.012435840815536135   -0.004208851391117381
-0.08856986132679917   -0.012435840815536135   -0.004208851391117381
-0.07278835311679145   -0.03662930307911887   0.01621361021696243
-0.07278835311679145   -0.03662930307911887   0.01621361021696243
-0.07278835311679145   -0.03662930307911887   0.01621361021696243
-0.07278835311679145   -0.03662930307911887   0.01621361021696243
-0.09443523369005968   -0.07677674298814854   0.03080518896519252
-0.09443523369005968   -0.07677674298814854   0.03080518896519252
-0.09443523369005968   -0.07677674298814854   0.03080518896519252
-0.09443523369005968   -0.07677674298814854   0.03080518896519252
-0.05601968567595047   -0.006689440667499135   -0.008027026301781082
-0.05601968567595047   -0.006689440667499135   -0.008027026301781082
-0.05601968567595047   -0.006689440667499135   -0.008027026301781082
-0.05601968567595047   -0.006689440667499135   -0.008027026301781082
-0.05817987197797612   -0.07910617403213813   0.018699645343389686
-0.05817987197797612   -0.07910617403213813   0.018699645343389686
-0.05817987197797612   -0.07910617403213813   0.018699645343389686
-0.05817987197797612   -0.07910617403213813   0.018699645343389686
-0.08913443563771502   -0.024808987898342932   0.0054271352353435845
-0.08913443563771502   -0.024808987898342932   0.0054271352353435845
-0.08913443563771502   -0.024808987898342932   0.0054271352353435845
-0.08913443563771502   -0.024808987898342932   0.0054271352353435845
-0.06670138566575187   -0.04196919898217187   0.019375815912939458
-0.06670138566575187   -0.04196919898217187   0.019375815912939458
-0.06670138566575187   -0.04196919898217187   0.019375815912939458
-0.06670138566575187   -0.04196919898217187   0.019375815912939458
-0.09485033280733365   -0.08314371914075508   0.03518238062966249
-0.09485033280733365   -0.08314371914075508   0.03518238062966249
-0.09485033280733365   -0.08314371914075508   0.03518238062966249
-0.09485033280733365   -0.08314371914075508   0.03518238062966249
-0.05295421325008276   -0.021261681231452542   -0.013016553817836757
-0.05295421325008276   -0.021261681231452542   -0.013016553817836757
-0.05295421325008276   -0.021261681231452542   -0.013016553817836757
-0.05295421325008276   -0.021261681231452542   -0.013016553817836757
-0.04852130033774098   -0.08620405428485385   0.0205446152743625
-0.04852130033774098   -0.08620405428485385   0.0205446152743625
-0.04852130033774098   -0.08620405428485385   0.0205446152743625
-0.04852130033774098   -0.08620405428485385   0.0205446152743625
-0.09591923055133188   -0.05509580761960352   0.007128486425931439
-0.09591923055133188   -0.05509580761960352   0.007128486425931439
-0.09591923055133188   -0.05509580761960352   0.007128486425931439
-0.09591923055133188   -0.05509580761960352   0.007128486425931439
-0.06405665894127731   -0.0529997974101698   0.016816212377126202
-0.06405665894127731   -0.0529997974101698   0.016816212377126202
-0.06405665894127731   -0.0529997974101698   0.016816212377126202
-0.06405665894127731   -0.0529997974101698   0.016816212377126202
-0.06152931897392766   -0.011916979110023304   0.03285525184084363
-0.06152931897392766   -0.011916979110023304   0.03285525184084363
-0.06152931897392766   -0.011916979110023304   0.03285525184084363
-0.06152931897392766   -0.011916979110023304   0.03285525184084363
-0.010649438149014818   0.0072507166267420575   -0.0006633103800725182
-0.010649438149014818   0.0072507166267420575   -0.0006633103800725182
-0.010649438149014818   0.0072507166267420575   -0.0006633103800725182
-0.010649438149014818   0.0072507166267420575   -0.0006633103800725182
0.0037597411862369855   -0.0037806846581526126   0.020302909401578247
0.0037597411862369855   -0.0037806846581526126   0.020302909401578247
0.0037597411862369855   -0.0037806846581526126   0.020302909401578247
0.0037597411862369855   -0.0037806846581526126   0.020302909401578247
-0.05249974800705441   0.005479856467091088   -0.002596635091891039
-0.05249974800705441   0.005479856467091088   -0.002596635091891039
-0.05249974800705441   0.005479856467091088   -0.002596635091891039
-0.05249974800705441   0.005479856467091088   -0.002596635091891039
-0.030750001302411914   -0.0022948770567132737   -0.0025630154853790643
-0.030750001302411914   -0.0022948770567132737   -0.0025630154853790643
-0.030750001302411914   -0.0022948770567132737   -0.0025630154853790643
-0.030750001302411914   -0.0022948770567132737   -0.0025630154853790643
-0.04853942482185533   -0.011470110233205086   0.03415494753440054
-0.04853942482185533   -0.011470110233205086   0.03415494753440054
-0.04853942482185533   -0.011470110233205086   0.03415494753440054
-0.04853942482185533   -0.011470110233205086   0.03415494753440054
0.0016409472206768915   0.015010811261783826   -0.009082556346158658
0.0016409472206768915   0.015010811261783826   -0.009082556346158658
0.0016409472206768915   0.015010811261783826   -0.009082556346158658
0.0016409472206768915   0.015010811261783826   -0.009082556346158658
0.011079948118827851   -0.00464636523113674   0.025017545911220296
0.011079948118827851   -0.00464636523113674   0.025017545911220296
0.011079948118827851   -0.00464636523113674   0.025017545911220296
0.011079948118827851   -0.00464636523113674   0.025017545911220296
-0.04601272217652558   0.0042641381557441335   -0.0038349178372475475
-0.04601272217652558   0.0042641381557441335   -0.0038349178372475475
-0.04601272217652558   0.0042641381557441335   -0.0038349178372475475
-0.04601272217652558   0.0042641381557441335   -0.0038349178372475475
-0.020025332324481407   -0.0004923781803632503   0.0032571706808264076
-0.020025332324481407   -0.0004923781803632503   0.0032571706808264076
-0.020025332324481407   -0.0004923781803632503   0.0032571706808264076
-0.020025332324481407   -0.0004923781803632503   0.0032571706808264076
-0.04132512299976791   -0.012797871163869143   0.03666508736615405
-0.04132512299976791   -0.012797871163869143   0.03666508736615405
-0.04132512299976791   -0.012797871163869143   0.03666508736615405
-0.04132512299976791   -0.012797871163869143   0.03666508736615405
0.008057009178379034   0.014080304324785381   -0.008823818346945919
0.008057009178379034   0.014080304324785381   -0.008823818346945919
0.008057009178379034   0.014080304324785381   -0.008823818346945919
0.008057009178379034   0.014080304324785381   -0.008823818346945919
0.01859398325594474   -0.007233584992972169   0.024276034271357508
0.01859398325594474   -0.007233584992972169   0.024276034271357508
0.01859398325594474   -0.007233584992972169   0.024276034271357508
0.01859398325594474   -0.007233584992972169   0.024276034271357508
-0.035366847053540804   0.004466309785622718   -0.004353482375113218
-0.035366847053540804   0.004466309785622718   -0.004353482375113218
-0.035366847053540804   0.004466309785622718   -0.004353482375113218
-0.035366847053540804   0.004466309785622718   -0.004353482375113218
-0.010430866651901436   0.0006527942810016819   0.008401486732971407
-0.010430866651901436   0.0006527942810016819   0.008401486732971407
-0.010430866651901436   0.0006527942810016819   0.008401486732971407
-0.010430866651901436   0.0006527942810016819   0.008401486732971407
              </DataArray>   
             <DataArray type="Float64" NumberOfComponents="3" Name="Displacements" format="ascii">   
0.0   0.0   0.0
-0.0056574543713264714   -0.0037104179970130534   -0.0018951020828679953
0.0   0.0   0.0
0.0   0.0   0.0
-0.0056574543713264714   -0.0037104179970130534   -0.0018951020828679953
-0.003600202975127644   -0.003334170174207425   -0.0013923256780782366
0.0   0.0   0.0
-0.003529189452493372   -0.0035015628933905045   -0.0011664219379383613
0.0   0.0   0.0
0.0   0.0   0.0
-0.003529189452493372   -0.0035015628933905045   -0.0011664219379383613
0.0   0.0   0.0
0.0   0.0   0.0
-0.003529189452493372   -0.0035015628933905045   -0.0011664219379383613
-0.005921024795561961   -0.003952981468764423   -0.0015214283817451375
-0.0056574543713264714   -0.0037104179970130534   -0.0018951020828679953
0.0   0.0   0.0
-0.003529189452493372   -0.0035015628933905045   -0.0011664219379383613
-0.0056574543713264714   -0.0037104179970130534   -0.0018951020828679953
0.0   0.0   0.0
0.0   0.0   0.0
-0.005921024795561961   -0.003952981468764423   -0.0015214283817451375
0.0   0.0   0.0
0.0   0.0   0.0
-0.005921024795561961   -0.003952981468764423   -0.0015214283817451375
-0.003529189452493372   -0.0035015628933905045   -0.0011664219379383613
0.0   0.0   0.0
-0.003539344428137023   -0.0035873232303072597   -0.0009408205744760935
0.0   0.0   0.0
0.0   0.0   0.0
-0.003539344428137023   -0.0035873232303072597   -0.0009408205744760935
0.0   0.0   0.0
0.0   0.0   0.0
-0.003539344428137023   -0.0035873232303072597   -0.0009408205744760935
-0.006106220473083857   -0.004070923492190506   -0.0011633471616723078
-0.005921024795561961   -0.003952981468764423   -0.0015214283817451375
0.0   0.0   0.0
-0.003539344428137023   -0.0035873232303072597   -0.0009408205744760935
-0.005921024795561961   -0.003952981468764423   -0.0015214283817451375
0.0   0.0   0.0
0.0   0.0   0.0
-0.006106220473083857   -0.004070923492190506   -0.0011633471616723078
0.0   0.0   0.0
0.0   0.0   0.0
-0.006106220473083857   -0.004070923492190506   -0.0011633471616723078
-0.003539344428137023   -0.0035873232303072597   -0.0009408205744760935
0.0   0.0   0.0
-0.0035377118225247187   -0.0036093283574444575   -0.0007075170578144483
0.0   0.0   0.0
0.0   0.0   0.0
-0.0035377118225247187   -0.0036093283574444575   -0.0007075170578144483
0.0   0.0   0.0
0.0   0.0   0.0
-0.0035377118225247187   -0.0036093283574444575   -0.0007075170578144483
-0.006504982482989563   -0.004160164779727137   -0.0007478935637193747
-0.006106220473083857   -0.004070923492190506   -0.0011633471616723078
0.0   0.0   0.0
-0.0035377118225247187   -0.0036093283574444575   -0.0007075170578144483
-0.006106220473083857   -0.004070923492190506   -0.0011633471616723078
0.0   0.0   0.0
0.0   0.0   0.0
-0.003600202975127644   -0.003334170174207425   -0.0013923256780782366
0.0   0.0   0.0
0.0   0.0   0.0
-0.003600202975127644   -0.003334170174207425   -0.0013923256780782366
-0.0016393182623532993   -0.003196137646519659   -0.0010589449471463419
0.0   0.0   0.0
-0.001576870025775774   -0.0033051149794917764   -0.0009523223334709683
0.0   0.0   0.0
0.0   0.0   0.0
-0.001576870025775774   -0.0033051149794917764   -0.0009523223334709683
0.0   0.0   0.0
0.0   0.0   0.0
-0.001576870025775774   -0.0033051149794917764   -0.0009523223334709683
-0.003529189452493372   -0.0035015628933905045   -0.0011664219379383613
-0.003600202975127644   -0.003334170174207425   -0.0013923256780782366
0.0   0.0   0.0
-0.001576870025775774   -0.0033051149794917764   -0.0009523223334709683
-0.003600202975127644   -0.003334170174207425   -0.0013923256780782366
0.0   0.0   0.0
0.0   0.0   0.0
-0.003529189452493372   -0.0035015628933905045   -0.0011664219379383613
0.0   0.0   0.0
0.0   0.0   0.0
-0.003529189452493372   -0.0035015628933905045   -0.0011664219379383613
-0.001576870025775774   -0.0033051149794917764   -0.0009523223334709683
0.0   0.0   0.0
-0.0015418797609498638   -0.00334664487074228   -0.0008484614230396774
0.0   0.0   0.0
0.0   0.0   0.0
-0.0015418797609498638   -0.00334664487074228   -0.0008484614230396774
0.0   0.0   0.0
0.0   0.0   0.0
-0.0015418797609498638   -0.00334664487074228   -0.0008484614230396774
-0.003539344428137023   -0.0035873232303072597   -0.0009408205744760935
-0.003529189452493372   -0.0035015628933905045   -0.0011664219379383613
0.0   0.0   0.0
-0.0015418797609498638   -0.00334664487074228   -0.0008484614230396774
-0.003529189452493372   -0.0035015628933905045   -0.0011664219379383613
0.0   0.0   0.0
0.0   0.0   0.0
-0.003539344428137023   -0.0035873232303072597   -0.0009408205744760935
0.0   0.0   0.0
0.0   0.0   0.0
-0.003539344428137023   -0.0035873232303072597   -0.0009408205744760935
-0.0015418797609498638   -0.00334664487074228   -0.0008484614230396774
0.0   0.0   0.0
-0.0015100517594577262   -0.0033292997501593487   -0.0007410644240465024
0.0   0.0   0.0
0.0   0.0   0.0
-0.0015100517594577262   -0.0033292997501593487   -0.0007410644240465024
0.0   0.0   0.0
0.0   0.0   0.0
-0.0015100517594577262   -0.0033292997501593487   -0.0007410644240465024
-0.0035377118225247187   -0.0036093283574444575   -0.0007075170578144483
-0.003539344428137023   -0.0035873232303072597   -0.0009408205744760935
0.0   0.0   0.0
-0.0015100517594577262   -0.0033292997501593487   -0.0007410644240465024
-0.003539344428137023   -0.0035873232303072597   -0.0009408205744760935
0.0   0.0   0.0
0.0   0.0   0.0
-0.0016393182623532993   -0.003196137646519659   -0.0010589449471463419
0.0   0.0   0.0
0.0   0.0   0.0
-0.0016393182623532993   -0.003196137646519659   -0.0010589449471463419
0.00021352209533901154   -0.003213791820827202   -0.0008464591433448791
0.0   0.0   0.0
0.0002532890463708001   -0.0032703006552547427   -0.0008612707147210617
0.0   0.0   0.0
0.0   0.0   0.0
0.0002532890463708001   -0.0032703006552547427   -0.0008612707147210617
0.0   0.0   0.0
0.0   0.0   0.0
0.0002532890463708001   -0.0032703006552547427   -0.0008612707147210617
-0.001576870025775774   -0.0033051149794917764   -0.0009523223334709683
-0.0016393182623532993   -0.003196137646519659   -0.0010589449471463419
0.0   0.0   0.0
0.0002532890463708001   -0.0032703006552547427   -0.0008612707147210617
-0.0016393182623532993   -0.003196137646519659   -0.0010589449471463419
0.0   0.0   0.0
0.0   0.0   0.0
-0.001576870025775774   -0.0033051149794917764   -0.0009523223334709683
0.0   0.0   0.0
0.0   0.0   0.0
-0.001576870025775774   -0.0033051149794917764   -0.0009523223334709683
0.0002532890463708001   -0.0032703006552547427   -0.0008612707147210617
0.0   0.0   0.0
0.0002846489407772392   -0.0032656375119856874   -0.0008746303399264393
0.0   0.0   0.0
0.0   0.0   0.0
0.0002846489407772392   -0.0032656375119856874   -0.0008746303399264393
0.0   0.0   0.0
0.0   0.0   0.0
0.0002846489407772392   -0.0032656375119856874   -0.0008746303399264393
-0.0015418797609498638   -0.00334664487074228   -0.0008484614230396774
-0.001576870025775774   -0.0033051149794917764   -0.0009523223334709683
0.0   0.0   0.0
0.0002846489407772392   -0.0032656375119856874   -0.0008746303399264393
-0.001576870025775774   -0.0033051149794917764   -0.0009523223334709683
0.0   0.0   0.0
0.0   0.0   0.0
-0.0015418797609498638   -0.00334664487074228   -0.0008484614230396774
0.0   0.0   0.0
0.0   0.0   0.0
-0.0015418797609498638   -0.00334664487074228   -0.0008484614230396774
0.0002846489407772392   -0.0032656375119856874   -0.0008746303399264393
0.0   0.0   0.0
0.00032691089590652754   -0.0031947818772013656   -0.0008883373704115116
0.0   0.0   0.0
0.0   0.0   0.0
0.00032691089590652754   -0.0031947818772013656   -0.0008883373704115116
0.0   0.0   0.0
0.0   0.0   0.0
0.00032691089590652754   -0.0031947818772013656   -0.0008883373704115116
-0.0015100517594577262   -0.0033292997501593487   -0.0007410644240465024
-0.0015418797609498638   -0.00334664487074228   -0.0008484614230396774
0.0   0.0   0.0
0.00032691089590652754   -0.0031947818772013656   -0.0008883373704115116
-0.0015418797609498638   -0.00334664487074228   -0.0008484614230396774
0.0   0.0   0.0
0.0   0.0   0.0
0.00021352209533901154   -0.003213791820827202   -0.0008464591433448791
0.0   0.0   0.0
0.0   0.0   0.0
0.00021352209533901154   -0.003213791820827202   -0.0008464591433448791
0.002224580380718164   -0.003370343516076255   -0.0007413193687466606
0.0   0.0   0.0
0.002228248264945955   -0.003388354085637057   -0.0008839050566955896
0.0   0.0   0.0
0.0   0.0   0.0
0.002228248264945955   -0.003388354085637057   -0.0008839050566955896
0.0   0.0   0.0
0.0   0.0   0.0
0.002228248264945955   -0.003388354085637057   -0.0008839050566955896
0.0002532890463708001   -0.0032703006552547427   -0.0008612707147210617
0.00021352209533901154   -0.003213791820827202   -0.0008464591433448791
0.0   0.0   0.0
0.002228248264945955   -0.003388354085637057   -0.0008839050566955896
0.00021352209533901154   -0.003213791820827202   -0.0008464591433448791
0.0   0.0   0.0
0.0   0.0   0.0
0.0002532890463708001   -0.0032703006552547427   -0.0008612707147210617
0.0   0.0   0.0
0.0   0.0   0.0
0.0002532890463708001   -0.0032703006552547427   -0.0008612707147210617
0.002228248264945955   -0.003388354085637057   -0.0008839050566955896
0.0   0.0   0.0
0.0022184569854158654   -0.0033399676068281412   -0.0010206677527339171
0.0   0.0   0.0
0.0   0.0   0.0
0.0022184569854158654   -0.0033399676068281412   -0.0010206677527339171
0.0   0.0   0.0
0.0   0.0   0.0
0.0022184569854158654   -0.0033399676068281412   -0.0010206677527339171
0.0002846489407772392   -0.0032656375119856874   -0.0008746303399264393
0.0002532890463708001   -0.0032703006552547427   -0.0008612707147210617
0.0   0.0   0.0
0.0022184569854158654   -0.0033399676068281412   -0.0010206677527339171
0.0002532890463708001   -0.0032703006552547427   -0.0008612707147210617
0.0   0.0   0.0
0.0   0.0   0.0
0.0002846489407772392   -0.0032656375119856874   -0.0008746303399264393
0.0   0.0   0.0
0.0   0.0   0.0
0.0002846489407772392   -0.0032656375119856874   -0.0008746303399264393
0.0022184569854158654   -0.0033399676068281412   -0.0010206677527339171
0.0   0.0   0.0
0.002261183511961836   -0.003210348503480153   -0.0011548083876949354
0.0   0.0   0.0
0.0   0.0   0.0
0.002261183511961836   -0.003210348503480153   -0.0011548083876949354
0.0   0.0   0.0
0.0   0.0   0.0
0.002261183511961836   -0.003210348503480153   -0.0011548083876949354
0.00032691089590652754   -0.0031947818772013656   -0.0008883373704115116
0.0002846489407772392   -0.0032656375119856874   -0.0008746303399264393
0.0   0.0   0.0
0.002261183511961836   -0.003210348503480153   -0.0011548083876949354
0.0002846489407772392   -0.0032656375119856874   -0.0008746303399264393
0.0   0.0   0.0
0.0   0.0   0.0
0.002224580380718164   -0.003370343516076255   -0.0007413193687466606
0.0   0.0   0.0
0.0   0.0   0.0
0.002224580380718164   -0.003370343516076255   -0.0007413193687466606
0.005020786195869943   -0.003767085174875314   -0.0006993413488720868
0.0   0.0   0.0
0.004714954661692675   -0.003726009308174727   -0.0010225445359795537
0.0   0.0   0.0
0.0   0.0   0.0
0.004714954661692675   -0.003726009308174727   -0.0010225445359795537
0.0   0.0   0.0
0.0   0.0   0.0
0.004714954661692675   -0.003726009308174727   -0.0010225445359795537
0.002228248264945955   -0.003388354085637057   -0.0008839050566955896
0.002224580380718164   -0.003370343516076255   -0.0007413193687466606
0.0   0.0   0.0
0.004714954661692675   -0.003726009308174727   -0.0010225445359795537
0.002224580380718164   -0.003370343516076255   -0.0007413193687466606
0.0   0.0   0.0
0.0   0.0   0.0
0.002228248264945955   -0.003388354085637057   -0.0008839050566955896
0.0   0.0   0.0
0.0   0.0   0.0
0.002228248264945955   -0.003388354085637057   -0.0008839050566955896
0.004714954661692675   -0.003726009308174727   -0.0010225445359795537
0.0   0.0   0.0
0.004573811486716985   -0.0036485408168154777   -0.0012958365766789382
0.0   0.0   0.0
0.0   0.0   0.0
0.004573811486716985   -0.0036485408168154777   -0.0012958365766789382
0.0   0.0   0.0
0.0   0.0   0.0
0.004573811486716985   -0.0036485408168154777   -0.0012958365766789382
0.0022184569854158654   -0.0033399676068281412   -0.0010206677527339171
0.002228248264945955   -0.003388354085637057   -0.0008839050566955896
0.0   0.0   0.0
0.004573811486716985   -0.0036485408168154777   -0.0012958365766789382
0.002228248264945955   -0.003388354085637057   -0.0008839050566955896
0.0   0.0   0.0
0.0   0.0   0.0
0.0022184569854158654   -0.0033399676068281412   -0.0010206677527339171
0.0   0.0   0.0
0.0   0.0   0.0
0.0022184569854158654   -0.0033399676068281412   -0.0010206677527339171
0.004573811486716985   -0.0036485408168154777   -0.0012958365766789382
0.0   0.0   0.0
0.004363862348708929   -0.003450286238787373   -0.0015850000185975387
0.0   0.0   0.0
0.0   0.0   0.0
0.004363862348708929   -0.003450286238787373   -0.0015850000185975387
0.0   0.0   0.0
0.0   0.0   0.0
0.004363862348708929   -0.003450286238787373   -0.0015850000185975387
0.002261183511961836   -0.003210348503480153   -0.0011548083876949354
0.0022184569854158654   -0.0033399676068281412   -0.0010206677527339171
0.0   0.0   0.0
0.004363862348708929   -0.003450286238787373   -0.0015850000185975387
0.0022184569854158654   -0.0033399676068281412   -0.0010206677527339171
0.0   0.0   0.0
-0.0056574543713264714   -0.0037104179970130534   -0.0018951020828679953
-0.01056800956865116   -0.010359413525258761   -0.0025531477520082907
-0.003600202975127644   -0.003334170174207425   -0.0013923256780782366
-0.005921024795561961   -0.003952981468764423   -0.0015214283817451375
-0.01056800956865116   -0.010359413525258761   -0.0025531477520082907
-0.006745201808141701   -0.010020990946668832   -0.002101428344440508
-0.003600202975127644   -0.003334170174207425   -0.0013923256780782366
-0.006753438471199687   -0.010192279392970977   -0.001892461788418937
-0.005921024795561961   -0.003952981468764423   -0.0015214283817451375
-0.003529189452493372   -0.0035015628933905045   -0.0011664219379383613
-0.006753438471199687   -0.010192279392970977   -0.001892461788418937
-0.003600202975127644   -0.003334170174207425   -0.0013923256780782366
-0.005921024795561961   -0.003952981468764423   -0.0015214283817451375
-0.006753438471199687   -0.010192279392970977   -0.001892461788418937
-0.010884990016690833   -0.010598400298485786   -0.002213779437634082
-0.01056800956865116   -0.010359413525258761   -0.0025531477520082907
-0.005921024795561961   -0.003952981468764423   -0.0015214283817451375
-0.006753438471199687   -0.010192279392970977   -0.001892461788418937
-0.01056800956865116   -0.010359413525258761   -0.0025531477520082907
-0.003600202975127644   -0.003334170174207425   -0.0013923256780782366
-0.005921024795561961   -0.003952981468764423   -0.0015214283817451375
-0.010884990016690833   -0.010598400298485786   -0.002213779437634082
-0.003529189452493372   -0.0035015628933905045   -0.0011664219379383613
-0.006106220473083857   -0.004070923492190506   -0.0011633471616723078
-0.010884990016690833   -0.010598400298485786   -0.002213779437634082
-0.006753438471199687   -0.010192279392970977   -0.001892461788418937
-0.003529189452493372   -0.0035015628933905045   -0.0011664219379383613
-0.00678032392906877   -0.010296674137224121   -0.001691636221705953
-0.006106220473083857   -0.004070923492190506   -0.0011633471616723078
-0.003539344428137023   -0.0035873232303072597   -0.0009408205744760935
-0.00678032392906877   -0.010296674137224121   -0.001691636221705953
-0.003529189452493372   -0.0035015628933905045   -0.0011664219379383613
-0.006106220473083857   -0.004070923492190506   -0.0011633471616723078
-0.00678032392906877   -0.010296674137224121   -0.001691636221705953
-0.011105338535717733   -0.010733346713571033   -0.0018814560430903112
-0.010884990016690833   -0.010598400298485786   -0.002213779437634082
-0.006106220473083857   -0.004070923492190506   -0.0011633471616723078
-0.00678032392906877   -0.010296674137224121   -0.001691636221705953
-0.010884990016690833   -0.010598400298485786   -0.002213779437634082
-0.003529189452493372   -0.0035015628933905045   -0.0011664219379383613
-0.006106220473083857   -0.004070923492190506   -0.0011633471616723078
-0.011105338535717733   -0.010733346713571033   -0.0018814560430903112
-0.003539344428137023   -0.0035873232303072597   -0.0009408205744760935
-0.006504982482989563   -0.004160164779727137   -0.0007478935637193747
-0.011105338535717733   -0.010733346713571033   -0.0018814560430903112
-0.00678032392906877   -0.010296674137224121   -0.001691636221705953
-0.003539344428137023   -0.0035873232303072597   -0.0009408205744760935
-0.006760421927994509   -0.010350808094831817   -0.0015036394064417153
-0.006504982482989563   -0.004160164779727137   -0.0007478935637193747
-0.0035377118225247187   -0.0036093283574444575   -0.0007075170578144483
-0.006760421927994509   -0.010350808094831817   -0.0015036394064417153
-0.003539344428137023   -0.0035873232303072597   -0.0009408205744760935
-0.006504982482989563   -0.004160164779727137   -0.0007478935637193747
-0.006760421927994509   -0.010350808094831817   -0.0015036394064417153
-0.011365793978023437   -0.010811740604481467   -0.0015790652849814871
-0.011105338535717733   -0.010733346713571033   -0.0018814560430903112
-0.006504982482989563   -0.004160164779727137   -0.0007478935637193747
-0.006760421927994509   -0.010350808094831817   -0.0015036394064417153
-0.011105338535717733   -0.010733346713571033   -0.0018814560430903112
-0.003539344428137023   -0.0035873232303072597   -0.0009408205744760935
-0.003600202975127644   -0.003334170174207425   -0.0013923256780782366
-0.006745201808141701   -0.010020990946668832   -0.002101428344440508
-0.0016393182623532993   -0.003196137646519659   -0.0010589449471463419
-0.003529189452493372   -0.0035015628933905045   -0.0011664219379383613
-0.006745201808141701   -0.010020990946668832   -0.002101428344440508
-0.0031292906040222084   -0.009863519885153556   -0.0017930466300584565
-0.0016393182623532993   -0.003196137646519659   -0.0010589449471463419
-0.003102569204438855   -0.009972553838399083   -0.0016859873624326899
-0.003529189452493372   -0.0035015628933905045   -0.0011664219379383613
-0.001576870025775774   -0.0033051149794917764   -0.0009523223334709683
-0.003102569204438855   -0.009972553838399083   -0.0016859873624326899
-0.0016393182623532993   -0.003196137646519659   -0.0010589449471463419
-0.003529189452493372   -0.0035015628933905045   -0.0011664219379383613
-0.003102569204438855   -0.009972553838399083   -0.0016859873624326899
-0.006753438471199687   -0.010192279392970977   -0.001892461788418937
-0.006745201808141701   -0.010020990946668832   -0.002101428344440508
-0.003529189452493372   -0.0035015628933905045   -0.0011664219379383613
-0.003102569204438855   -0.009972553838399083   -0.0016859873624326899
-0.006745201808141701   -0.010020990946668832   -0.002101428344440508
-0.0016393182623532993   -0.003196137646519659   -0.0010589449471463419
-0.003529189452493372   -0.0035015628933905045   -0.0011664219379383613
-0.006753438471199687   -0.010192279392970977   -0.001892461788418937
-0.001576870025775774   -0.0033051149794917764   -0.0009523223334709683
-0.003539344428137023   -0.0035873232303072597   -0.0009408205744760935
-0.006753438471199687   -0.010192279392970977   -0.001892461788418937
-0.003102569204438855   -0.009972553838399083   -0.0016859873624326899
-0.001576870025775774   -0.0033051149794917764   -0.0009523223334709683
-0.00307892082347015   -0.010025426566395984   -0.0015889246561544906
-0.003539344428137023   -0.0035873232303072597   -0.0009408205744760935
-0.0015418797609498638   -0.00334664487074228   -0.0008484614230396774
-0.00307892082347015   -0.010025426566395984   -0.0015889246561544906
-0.001576870025775774   -0.0033051149794917764   -0.0009523223334709683
-0.003539344428137023   -0.0035873232303072597   -0.0009408205744760935
-0.00307892082347015   -0.010025426566395984   -0.0015889246561544906
-0.00678032392906877   -0.010296674137224121   -0.001691636221705953
-0.006753438471199687   -0.010192279392970977   -0.001892461788418937
-0.003539344428137023   -0.0035873232303072597   -0.0009408205744760935
-0.00307892082347015   -0.010025426566395984   -0.0015889246561544906
-0.006753438471199687   -0.010192279392970977   -0.001892461788418937
-0.001576870025775774   -0.0033051149794917764   -0.0009523223334709683
-0.003539344428137023   -0.0035873232303072597   -0.0009408205744760935
-0.00678032392906877   -0.010296674137224121   -0.001691636221705953
-0.0015418797609498638   -0.00334664487074228   -0.0008484614230396774
-0.0035377118225247187   -0.0036093283574444575   -0.0007075170578144483
-0.00678032392906877   -0.010296674137224121   -0.001691636221705953
-0.00307892082347015   -0.010025426566395984   -0.0015889246561544906
-0.0015418797609498638   -0.00334664487074228   -0.0008484614230396774
-0.003043501590586115   -0.010024131774993096   -0.0015044066487410954
-0.0035377118225247187   -0.0036093283574444575   -0.0007075170578144483
-0.0015100517594577262   -0.0033292997501593487   -0.0007410644240465024
-0.003043501590586115   -0.010024131774993096   -0.0015044066487410954
-0.0015418797609498638   -0.00334664487074228   -0.0008484614230396774
-0.0035377118225247187   -0.0036093283574444575   -0.0007075170578144483
-0.003043501590586115   -0.010024131774993096   -0.0015044066487410954
-0.006760421927994509   -0.010350808094831817   -0.0015036394064417153
-0.00678032392906877   -0.010296674137224121   -0.001691636221705953
-0.0035377118225247187   -0.0036093283574444575   -0.0007075170578144483
-0.003043501590586115   -0.010024131774993096   -0.0015044066487410954
-0.00678032392906877   -0.010296674137224121   -0.001691636221705953
-0.0015418797609498638   -0.00334664487074228   -0.0008484614230396774
-0.0016393182623532993   -0.003196137646519659   -0.0010589449471463419
-0.0031292906040222084   -0.009863519885153556   -0.0017930466300584565
0.00021352209533901154   -0.003213791820827202   -0.0008464591433448791
-0.001576870025775774   -0.0033051149794917764   -0.0009523223334709683
-0.0031292906040222084   -0.009863519885153556   -0.0017930466300584565
0.00035772127296363143   -0.009868191840173148   -0.0015980380530028501
0.00021352209533901154   -0.003213791820827202   -0.0008464591433448791
0.0003906136314242936   -0.009919870872546706   -0.0015910002207117162
-0.001576870025775774   -0.0033051149794917764   -0.0009523223334709683
0.0002532890463708001   -0.0032703006552547427   -0.0008612707147210617
0.0003906136314242936   -0.009919870872546706   -0.0015910002207117162
0.00021352209533901154   -0.003213791820827202   -0.0008464591433448791
-0.001576870025775774   -0.0033051149794917764   -0.0009523223334709683
0.0003906136314242936   -0.009919870872546706   -0.0015910002207117162
-0.003102569204438855   -0.009972553838399083   -0.0016859873624326899
-0.0031292906040222084   -0.009863519885153556   -0.0017930466300584565
-0.001576870025775774   -0.0033051149794917764   -0.0009523223334709683
0.0003906136314242936   -0.009919870872546706   -0.0015910002207117162
-0.0031292906040222084   -0.009863519885153556   -0.0017930466300584565
0.00021352209533901154   -0.003213791820827202   -0.0008464591433448791
-0.001576870025775774   -0.0033051149794917764   -0.0009523223334709683
-0.003102569204438855   -0.009972553838399083   -0.0016859873624326899
0.0002532890463708001   -0.0032703006552547427   -0.0008612707147210617
-0.0015418797609498638   -0.00334664487074228   -0.0008484614230396774
-0.003102569204438855   -0.009972553838399083   -0.0016859873624326899
0.0003906136314242936   -0.009919870872546706   -0.0015910002207117162
0.0002532890463708001   -0.0032703006552547427   -0.0008612707147210617
0.0004126577168889778   -0.00991670615259088   -0.0015953093764243184
-0.0015418797609498638   -0.00334664487074228   -0.0008484614230396774
0.0002846489407772392   -0.0032656375119856874   -0.0008746303399264393
0.0004126577168889778   -0.00991670615259088   -0.0015953093764243184
0.0002532890463708001   -0.0032703006552547427   -0.0008612707147210617
-0.0015418797609498638   -0.00334664487074228   -0.0008484614230396774
0.0004126577168889778   -0.00991670615259088   -0.0015953093764243184
-0.00307892082347015   -0.010025426566395984   -0.0015889246561544906
-0.003102569204438855   -0.009972553838399083   -0.0016859873624326899
-0.0015418797609498638   -0.00334664487074228   -0.0008484614230396774
0.0004126577168889778   -0.00991670615259088   -0.0015953093764243184
-0.003102569204438855   -0.009972553838399083   -0.0016859873624326899
0.0002532890463708001   -0.0032703006552547427   -0.0008612707147210617
-0.0015418797609498638   -0.00334664487074228   -0.0008484614230396774
-0.00307892082347015   -0.010025426566395984   -0.0015889246561544906
0.0002846489407772392   -0.0032656375119856874   -0.0008746303399264393
-0.0015100517594577262   -0.0033292997501593487   -0.0007410644240465024
-0.00307892082347015   -0.010025426566395984   -0.0015889246561544906
0.0004126577168889778   -0.00991670615259088   -0.0015953093764243184
0.0002846489407772392   -0.0032656375119856874   -0.0008746303399264393
0.00043632830859087284   -0.009857022759294955   -0.0016111452887879296
-0.0015100517594577262   -0.0033292997501593487   -0.0007410644240465024
0.00032691089590652754   -0.0031947818772013656   -0.0008883373704115116
0.00043632830859087284   -0.009857022759294955   -0.0016111452887879296
0.0002846489407772392   -0.0032656375119856874   -0.0008746303399264393
-0.0015100517594577262   -0.0033292997501593487   -0.0007410644240465024
0.00043632830859087284   -0.009857022759294955   -0.0016111452887879296
-0.003043501590586115   -0.010024131774993096   -0.0015044066487410954
-0.00307892082347015   -0.010025426566395984   -0.0015889246561544906
-0.0015100517594577262   -0.0033292997501593487   -0.0007410644240465024
0.00043632830859087284   -0.009857022759294955   -0.0016111452887879296
-0.00307892082347015   -0.010025426566395984   -0.0015889246561544906
0.0002846489407772392   -0.0032656375119856874   -0.0008746303399264393
0.00021352209533901154   -0.003213791820827202   -0.0008464591433448791
0.00035772127296363143   -0.009868191840173148   -0.0015980380530028501
0.002224580380718164   -0.003370343516076255   -0.0007413193687466606
0.0002532890463708001   -0.0032703006552547427   -0.0008612707147210617
0.00035772127296363143   -0.009868191840173148   -0.0015980380530028501
0.004052824478830738   -0.010029148742327403   -0.0015070103573856916
0.002224580380718164   -0.003370343516076255   -0.0007413193687466606
0.004071296099547719   -0.010028727018845284   -0.0016032394075650741
0.0002532890463708001   -0.0032703006552547427   -0.0008612707147210617
0.002228248264945955   -0.003388354085637057   -0.0008839050566955896
0.004071296099547719   -0.010028727018845284   -0.0016032394075650741
0.002224580380718164   -0.003370343516076255   -0.0007413193687466606
0.0002532890463708001   -0.0032703006552547427   -0.0008612707147210617
0.004071296099547719   -0.010028727018845284   -0.0016032394075650741
0.0003906136314242936   -0.009919870872546706   -0.0015910002207117162
0.00035772127296363143   -0.009868191840173148   -0.0015980380530028501
0.0002532890463708001   -0.0032703006552547427   -0.0008612707147210617
0.004071296099547719   -0.010028727018845284   -0.0016032394075650741
0.00035772127296363143   -0.009868191840173148   -0.0015980380530028501
0.002224580380718164   -0.003370343516076255   -0.0007413193687466606
0.0002532890463708001   -0.0032703006552547427   -0.0008612707147210617
0.0003906136314242936   -0.009919870872546706   -0.0015910002207117162
0.002228248264945955   -0.003388354085637057   -0.0008839050566955896
0.0002846489407772392   -0.0032656375119856874   -0.0008746303399264393
0.0003906136314242936   -0.009919870872546706   -0.0015910002207117162
0.004071296099547719   -0.010028727018845284   -0.0016032394075650741
0.002228248264945955   -0.003388354085637057   -0.0008839050566955896
0.004052202537655152   -0.009974519619092435   -0.0017123065514696517
0.0002846489407772392   -0.0032656375119856874   -0.0008746303399264393
0.0022184569854158654   -0.0033399676068281412   -0.0010206677527339171
0.004052202537655152   -0.009974519619092435   -0.0017123065514696517
0.002228248264945955   -0.003388354085637057   -0.0008839050566955896
0.0002846489407772392   -0.0032656375119856874   -0.0008746303399264393
0.004052202537655152   -0.009974519619092435   -0.0017123065514696517
0.0004126577168889778   -0.00991670615259088   -0.0015953093764243184
0.0003906136314242936   -0.009919870872546706   -0.0015910002207117162
0.0002846489407772392   -0.0032656375119856874   -0.0008746303399264393
0.004052202537655152   -0.009974519619092435   -0.0017123065514696517
0.0003906136314242936   -0.009919870872546706   -0.0015910002207117162
0.002228248264945955   -0.003388354085637057   -0.0008839050566955896
0.0002846489407772392   -0.0032656375119856874   -0.0008746303399264393
0.0004126577168889778   -0.00991670615259088   -0.0015953093764243184
0.0022184569854158654   -0.0033399676068281412   -0.0010206677527339171
0.00032691089590652754   -0.0031947818772013656   -0.0008883373704115116
0.0004126577168889778   -0.00991670615259088   -0.0015953093764243184
0.004052202537655152   -0.009974519619092435   -0.0017123065514696517
0.0022184569854158654   -0.0033399676068281412   -0.0010206677527339171
0.004041159120562127   -0.009851693455389204   -0.0018301774416419983
0.00032691089590652754   -0.0031947818772013656   -0.0008883373704115116
0.002261183511961836   -0.003210348503480153   -0.0011548083876949354
0.004041159120562127   -0.009851693455389204   -0.0018301774416419983
0.0022184569854158654   -0.0033399676068281412   -0.0010206677527339171
0.00032691089590652754   -0.0031947818772013656   -0.0008883373704115116
0.004041159120562127   -0.009851693455389204   -0.0018301774416419983
0.00043632830859087284   -0.009857022759294955   -0.0016111452887879296
0.0004126577168889778   -0.00991670615259088   -0.0015953093764243184
0.00032691089590652754   -0.0031947818772013656   -0.0008883373704115116
0.004041159120562127   -0.009851693455389204   -0.0018301774416419983
0.0004126577168889778   -0.00991670615259088   -0.0015953093764243184
0.0022184569854158654   -0.0033399676068281412   -0.0010206677527339171
0.002224580380718164   -0.003370343516076255   -0.0007413193687466606
0.004052824478830738   -0.010029148742327403   -0.0015070103573856916
0.005020786195869943   -0.003767085174875314   -0.0006993413488720868
0.002228248264945955   -0.003388354085637057   -0.0008839050566955896
0.004052824478830738   -0.010029148742327403   -0.0015070103573856916
0.008511397772584865   -0.010328377036518014   -0.0014824245731637634
0.005020786195869943   -0.003767085174875314   -0.0006993413488720868
0.008337840053303689   -0.010300250439508848   -0.001698878723291526
0.002228248264945955   -0.003388354085637057   -0.0008839050566955896
0.004714954661692675   -0.003726009308174727   -0.0010225445359795537
0.008337840053303689   -0.010300250439508848   -0.001698878723291526
0.005020786195869943   -0.003767085174875314   -0.0006993413488720868
0.002228248264945955   -0.003388354085637057   -0.0008839050566955896
0.008337840053303689   -0.010300250439508848   -0.001698878723291526
0.004071296099547719   -0.010028727018845284   -0.0016032394075650741
0.004052824478830738   -0.010029148742327403   -0.0015070103573856916
0.002228248264945955   -0.003388354085637057   -0.0008839050566955896
0.008337840053303689   -0.010300250439508848   -0.001698878723291526
0.004052824478830738   -0.010029148742327403   -0.0015070103573856916
0.005020786195869943   -0.003767085174875314   -0.0006993413488720868
0.002228248264945955   -0.003388354085637057   -0.0008839050566955896
0.004071296099547719   -0.010028727018845284   -0.0016032394075650741
0.004714954661692675   -0.003726009308174727   -0.0010225445359795537
0.0022184569854158654   -0.0033399676068281412   -0.0010206677527339171
0.004071296099547719   -0.010028727018845284   -0.0016032394075650741
0.008337840053303689   -0.010300250439508848   -0.001698878723291526
0.004714954661692675   -0.003726009308174727   -0.0010225445359795537
0.008182768377417474   -0.010216667529207453   -0.0019423482494708402
0.0022184569854158654   -0.0033399676068281412   -0.0010206677527339171
0.004573811486716985   -0.0036485408168154777   -0.0012958365766789382
0.008182768377417474   -0.010216667529207453   -0.0019423482494708402
0.004714954661692675   -0.003726009308174727   -0.0010225445359795537
0.0022184569854158654   -0.0033399676068281412   -0.0010206677527339171
0.008182768377417474   -0.010216667529207453   -0.0019423482494708402
0.004052202537655152   -0.009974519619092435   -0.0017123065514696517
0.004071296099547719   -0.010028727018845284   -0.0016032394075650741
0.0022184569854158654   -0.0033399676068281412   -0.0010206677527339171
0.008182768377417474   -0.010216667529207453   -0.0019423482494708402
0.004071296099547719   -0.010028727018845284   -0.0016032394075650741
0.004714954661692675   -0.003726009308174727   -0.0010225445359795537
0.0022184569854158654   -0.0033399676068281412   -0.0010206677527339171
0.004052202537655152   -0.009974519619092435   -0.0017123065514696517
0.004573811486716985   -0.0036485408168154777   -0.0012958365766789382
0.002261183511961836   -0.003210348503480153   -0.0011548083876949354
0.004052202537655152   -0.009974519619092435   -0.0017123065514696517
0.008182768377417474   -0.010216667529207453   -0.0019423482494708402
0.004573811486716985   -0.0036485408168154777   -0.0012958365766789382
0.007950567626051836   -0.010030620567723901   -0.0021957687000875485
0.002261183511961836   -0.003210348503480153   -0.0011548083876949354
0.004363862348708929   -0.003450286238787373   -0.0015850000185975387
0.007950567626051836   -0.010030620567723901   -0.0021957687000875485
0.004573811486716985   -0.0036485408168154777   -0.0012958365766789382
0.002261183511961836   -0.003210348503480153   -0.0011548083876949354
0.007950567626051836   -0.010030620567723901   -0.0021957687000875485
0.004041159120562127   -0.009851693455389204   -0.0018301774416419983
0.004052202537655152   -0.009974519619092435   -0.0017123065514696517
0.002261183511961836   -0.003210348503480153   -0.0011548083876949354
0.007950567626051836   -0.010030620567723901   -0.0021957687000875485
0.004052202537655152   -0.009974519619092435   -0.0017123065514696517
0.004573811486716985   -0.0036485408168154777   -0.0012958365766789382
-0.01056800956865116   -0.010359413525258761   -0.0025531477520082907
-0.014481282327756948   -0.019430666269311656   -0.0029078817778061257
-0.006745201808141701   -0.010020990946668832   -0.002101428344440508
-0.010884990016690833   -0.010598400298485786   -0.002213779437634082
-0.014481282327756948   -0.019430666269311656   -0.0029078817778061257
-0.009310330347501455   -0.019171995940645097   -0.002541434644587235
-0.006745201808141701   -0.010020990946668832   -0.002101428344440508
-0.009331051583939366   -0.019319867539103586   -0.002379281692624779
-0.010884990016690833   -0.010598400298485786   -0.002213779437634082
-0.006753438471199687   -0.010192279392970977   -0.001892461788418937
-0.009331051583939366   -0.019319867539103586   -0.002379281692624779
-0.006745201808141701   -0.010020990946668832   -0.002101428344440508
-0.010884990016690833   -0.010598400298485786   -0.002213779437634082
-0.009331051583939366   -0.019319867539103586   -0.002379281692624779
-0.014739211533885613   -0.01963274046136332   -0.0026547286261177443
-0.014481282327756948   -0.019430666269311656   -0.0029078817778061257
-0.010884990016690833   -0.010598400298485786   -0.002213779437634082
-0.009331051583939366   -0.019319867539103586   -0.002379281692624779
-0.014481282327756948   -0.019430666269311656   -0.0029078817778061257
-0.006745201808141701   -0.010020990946668832   -0.002101428344440508
-0.010884990016690833   -0.010598400298485786   -0.002213779437634082
-0.014739211533885613   -0.01963274046136332   -0.0026547286261177443
-0.006753438471199687   -0.010192279392970977   -0.001892461788418937
-0.011105338535717733   -0.010733346713571033   -0.0018814560430903112
-0.014739211533885613   -0.01963274046136332   -0.0026547286261177443
-0.009331051583939366   -0.019319867539103586   -0.002379281692624779
-0.006753438471199687   -0.010192279392970977   -0.001892461788418937
-0.009355414943503237   -0.019422755062199638   -0.0022288529540049253
-0.011105338535717733   -0.010733346713571033   -0.0018814560430903112
-0.00678032392906877   -0.010296674137224121   -0.001691636221705953
-0.009355414943503237   -0.019422755062199638   -0.0022288529540049253
-0.006753438471199687   -0.010192279392970977   -0.001892461788418937
-0.011105338535717733   -0.010733346713571033   -0.0018814560430903112
-0.009355414943503237   -0.019422755062199638   -0.0022288529540049253
-0.014901954427216035   -0.019759434807185564   -0.002418762557500997
-0.014739211533885613   -0.01963274046136332   -0.0026547286261177443
-0.011105338535717733   -0.010733346713571033   -0.0018814560430903112
-0.009355414943503237   -0.019422755062199638   -0.0022288529540049253
-0.014739211533885613   -0.01963274046136332   -0.0026547286261177443
-0.006753438471199687   -0.010192279392970977   -0.001892461788418937
-0.011105338535717733   -0.010733346713571033   -0.0018814560430903112
-0.014901954427216035   -0.019759434807185564   -0.002418762557500997
-0.00678032392906877   -0.010296674137224121   -0.001691636221705953
-0.011365793978023437   -0.010811740604481467   -0.0015790652849814871
-0.014901954427216035   -0.019759434807185564   -0.002418762557500997
-0.009355414943503237   -0.019422755062199638   -0.0022288529540049253
-0.00678032392906877   -0.010296674137224121   -0.001691636221705953
-0.009338203188104485   -0.019490417829693255   -0.002087651367976335
-0.011365793978023437   -0.010811740604481467   -0.0015790652849814871
-0.006760421927994509   -0.010350808094831817   -0.0015036394064417153
-0.009338203188104485   -0.019490417829693255   -0.002087651367976335
-0.00678032392906877   -0.010296674137224121   -0.001691636221705953
-0.011365793978023437   -0.010811740604481467   -0.0015790652849814871
-0.009338203188104485   -0.019490417829693255   -0.002087651367976335
-0.015087123097993028   -0.01985050604714729   -0.002201590599618563
-0.014901954427216035   -0.019759434807185564   -0.002418762557500997
-0.011365793978023437   -0.010811740604481467   -0.0015790652849814871
-0.009338203188104485   -0.019490417829693255   -0.002087651367976335
-0.014901954427216035   -0.019759434807185564   -0.002418762557500997
-0.00678032392906877   -0.010296674137224121   -0.001691636221705953
-0.006745201808141701   -0.010020990946668832   -0.002101428344440508
-0.009310330347501455   -0.019171995940645097   -0.002541434644587235
-0.0031292906040222084   -0.009863519885153556   -0.0017930466300584565
-0.006753438471199687   -0.010192279392970977   -0.001892461788418937
-0.009310330347501455   -0.019171995940645097   -0.002541434644587235
-0.004434436758186223   -0.01904304560298282   -0.002286832920497666
-0.0031292906040222084   -0.009863519885153556   -0.0017930466300584565
-0.004423639723081554   -0.019137615908786137   -0.0021952180468373522
-0.006753438471199687   -0.010192279392970977   -0.001892461788418937
-0.003102569204438855   -0.009972553838399083   -0.0016859873624326899
-0.004423639723081554   -0.019137615908786137   -0.0021952180468373522
-0.0031292906040222084   -0.009863519885153556   -0.0017930466300584565
-0.006753438471199687   -0.010192279392970977   -0.001892461788418937
-0.004423639723081554   -0.019137615908786137   -0.0021952180468373522
-0.009331051583939366   -0.019319867539103586   -0.002379281692624779
-0.009310330347501455   -0.019171995940645097   -0.002541434644587235
-0.006753438471199687   -0.010192279392970977   -0.001892461788418937
-0.004423639723081554   -0.019137615908786137   -0.0021952180468373522
-0.009310330347501455   -0.019171995940645097   -0.002541434644587235
-0.0031292906040222084   -0.009863519885153556   -0.0017930466300584565
-0.006753438471199687   -0.010192279392970977   -0.001892461788418937
-0.009331051583939366   -0.019319867539103586   -0.002379281692624779
-0.003102569204438855   -0.009972553838399083   -0.0016859873624326899
-0.00678032392906877   -0.010296674137224121   -0.001691636221705953
-0.009331051583939366   -0.019319867539103586   -0.002379281692624779
-0.004423639723081554   -0.019137615908786137   -0.0021952180468373522
-0.003102569204438855   -0.009972553838399083   -0.0016859873624326899
-0.00441034294258954   -0.01919315910026647   -0.0021147690858988434
-0.00678032392906877   -0.010296674137224121   -0.001691636221705953
-0.00307892082347015   -0.010025426566395984   -0.0015889246561544906
-0.00441034294258954   -0.01919315910026647   -0.0021147690858988434
-0.003102569204438855   -0.009972553838399083   -0.0016859873624326899
-0.00678032392906877   -0.010296674137224121   -0.001691636221705953
-0.00441034294258954   -0.01919315910026647   -0.0021147690858988434
-0.009355414943503237   -0.019422755062199638   -0.0022288529540049253
-0.009331051583939366   -0.019319867539103586   -0.002379281692624779
-0.00678032392906877   -0.010296674137224121   -0.001691636221705953
-0.00441034294258954   -0.01919315910026647   -0.0021147690858988434
-0.009331051583939366   -0.019319867539103586   -0.002379281692624779
-0.003102569204438855   -0.009972553838399083   -0.0016859873624326899
-0.00678032392906877   -0.010296674137224121   -0.001691636221705953
-0.009355414943503237   -0.019422755062199638   -0.0022288529540049253
-0.00307892082347015   -0.010025426566395984   -0.0015889246561544906
-0.006760421927994509   -0.010350808094831817   -0.0015036394064417153
-0.009355414943503237   -0.019422755062199638   -0.0022288529540049253
-0.00441034294258954   -0.01919315910026647   -0.0021147690858988434
-0.00307892082347015   -0.010025426566395984   -0.0015889246561544906
-0.004388291702074664   -0.01921046928168366   -0.002045451959874097
-0.006760421927994509   -0.010350808094831817   -0.0015036394064417153
-0.003043501590586115   -0.010024131774993096   -0.0015044066487410954
-0.004388291702074664   -0.01921046928168366   -0.002045451959874097
-0.00307892082347015   -0.010025426566395984   -0.0015889246561544906
-0.006760421927994509   -0.010350808094831817   -0.0015036394064417153
-0.004388291702074664   -0.01921046928168366   -0.002045451959874097
-0.009338203188104485   -0.019490417829693255   -0.002087651367976335
-0.009355414943503237   -0.019422755062199638   -0.0022288529540049253
-0.006760421927994509   -0.010350808094831817   -0.0015036394064417153
-0.004388291702074664   -0.01921046928168366   -0.002045451959874097
-0.009355414943503237   -0.019422755062199638   -0.0022288529540049253
-0.00307892082347015   -0.010025426566395984   -0.0015889246561544906
-0.0031292906040222084   -0.009863519885153556   -0.0017930466300584565
-0.004434436758186223   -0.01904304560298282   -0.002286832920497666
0.00035772127296363143   -0.009868191840173148   -0.0015980380530028501
-0.003102569204438855   -0.009972553838399083   -0.0016859873624326899
-0.004434436758186223   -0.01904304560298282   -0.002286832920497666
0.00029838475984627   -0.019036186284796888   -0.0021289372760328433
0.00035772127296363143   -0.009868191840173148   -0.0015980380530028501
0.00031849078647487545   -0.01907829778836549   -0.002107480718045522
-0.003102569204438855   -0.009972553838399083   -0.0016859873624326899
0.0003906136314242936   -0.009919870872546706   -0.0015910002207117162
0.00031849078647487545   -0.01907829778836549   -0.002107480718045522
0.00035772127296363143   -0.009868191840173148   -0.0015980380530028501
-0.003102569204438855   -0.009972553838399083   -0.0016859873624326899
0.00031849078647487545   -0.01907829778836549   -0.002107480718045522
-0.004423639723081554   -0.019137615908786137   -0.0021952180468373522
-0.004434436758186223   -0.01904304560298282   -0.002286832920497666
-0.003102569204438855   -0.009972553838399083   -0.0016859873624326899
0.00031849078647487545   -0.01907829778836549   -0.002107480718045522
-0.004434436758186223   -0.01904304560298282   -0.002286832920497666
0.00035772127296363143   -0.009868191840173148   -0.0015980380530028501
-0.003102569204438855   -0.009972553838399083   -0.0016859873624326899
-0.004423639723081554   -0.019137615908786137   -0.0021952180468373522
0.0003906136314242936   -0.009919870872546706   -0.0015910002207117162
-0.00307892082347015   -0.010025426566395984   -0.0015889246561544906
-0.004423639723081554   -0.019137615908786137   -0.0021952180468373522
0.00031849078647487545   -0.01907829778836549   -0.002107480718045522
0.0003906136314242936   -0.009919870872546706   -0.0015910002207117162
0.0003312704665884967   -0.019081539393919076   -0.002096897426188456
-0.00307892082347015   -0.010025426566395984   -0.0015889246561544906
0.0004126577168889778   -0.00991670615259088   -0.0015953093764243184
0.0003312704665884967   -0.019081539393919076   -0.002096897426188456
0.0003906136314242936   -0.009919870872546706   -0.0015910002207117162
-0.00307892082347015   -0.010025426566395984   -0.0015889246561544906
0.0003312704665884967   -0.019081539393919076   -0.002096897426188456
-0.00441034294258954   -0.01919315910026647   -0.0021147690858988434
-0.004423639723081554   -0.019137615908786137   -0.0021952180468373522
-0.00307892082347015   -0.010025426566395984   -0.0015889246561544906
0.0003312704665884967   -0.019081539393919076   -0.002096897426188456
-0.004423639723081554   -0.019137615908786137   -0.0021952180468373522
0.0003906136314242936   -0.009919870872546706   -0.0015910002207117162
-0.00307892082347015   -0.010025426566395984   -0.0015889246561544906
-0.00441034294258954   -0.01919315910026647   -0.0021147690858988434
0.0004126577168889778   -0.00991670615259088   -0.0015953093764243184
-0.003043501590586115   -0.010024131774993096   -0.0015044066487410954
-0.00441034294258954   -0.01919315910026647   -0.0021147690858988434
0.0003312704665884967   -0.019081539393919076   -0.002096897426188456
0.0004126577168889778   -0.00991670615259088   -0.0015953093764243184
0.0003404260754103088   -0.019045331202249022   -0.002097849276052518
-0.003043501590586115   -0.010024131774993096   -0.0015044066487410954
0.00043632830859087284   -0.009857022759294955   -0.0016111452887879296
0.0003404260754103088   -0.019045331202249022   -0.002097849276052518
0.0004126577168889778   -0.00991670615259088   -0.0015953093764243184
-0.003043501590586115   -0.010024131774993096   -0.0015044066487410954
0.0003404260754103088   -0.019045331202249022   -0.002097849276052518
-0.004388291702074664   -0.01921046928168366   -0.002045451959874097
-0.00441034294258954   -0.01919315910026647   -0.0021147690858988434
-0.003043501590586115   -0.010024131774993096   -0.0015044066487410954
0.0003404260754103088   -0.019045331202249022   -0.002097849276052518
-0.00441034294258954   -0.01919315910026647   -0.0021147690858988434
0.0004126577168889778   -0.00991670615259088   -0.0015953093764243184
0.00035772127296363143   -0.009868191840173148   -0.0015980380530028501
0.00029838475984627   -0.019036186284796888   -0.0021289372760328433
0.004052824478830738   -0.010029148742327403   -0.0015070103573856916
0.0003906136314242936   -0.009919870872546706   -0.0015910002207117162
0.00029838475984627   -0.019036186284796888   -0.0021289372760328433
0.0052331221037175794   -0.019144163260806646   -0.002065041662996459
0.004052824478830738   -0.010029148742327403   -0.0015070103573856916
0.005250616069255771   -0.01913820137071049   -0.0021152027223173483
0.0003906136314242936   -0.009919870872546706   -0.0015910002207117162
0.004071296099547719   -0.010028727018845284   -0.0016032394075650741
0.005250616069255771   -0.01913820137071049   -0.0021152027223173483
0.004052824478830738   -0.010029148742327403   -0.0015070103573856916
0.0003906136314242936   -0.009919870872546706   -0.0015910002207117162
0.005250616069255771   -0.01913820137071049   -0.0021152027223173483
0.00031849078647487545   -0.01907829778836549   -0.002107480718045522
0.00029838475984627   -0.019036186284796888   -0.0021289372760328433
0.0003906136314242936   -0.009919870872546706   -0.0015910002207117162
0.005250616069255771   -0.01913820137071049   -0.0021152027223173483
0.00029838475984627   -0.019036186284796888   -0.0021289372760328433
0.004052824478830738   -0.010029148742327403   -0.0015070103573856916
0.0003906136314242936   -0.009919870872546706   -0.0015910002207117162
0.00031849078647487545   -0.01907829778836549   -0.002107480718045522
0.004071296099547719   -0.010028727018845284   -0.0016032394075650741
0.0004126577168889778   -0.00991670615259088   -0.0015953093764243184
0.00031849078647487545   -0.01907829778836549   -0.002107480718045522
0.005250616069255771   -0.01913820137071049   -0.0021152027223173483
0.004071296099547719   -0.010028727018845284   -0.0016032394075650741
0.005236995383624688   -0.019094194730383245   -0.002175438081788842
0.0004126577168889778   -0.00991670615259088   -0.0015953093764243184
0.004052202537655152   -0.009974519619092435   -0.0017123065514696517
0.005236995383624688   -0.019094194730383245   -0.002175438081788842
0.004071296099547719   -0.010028727018845284   -0.0016032394075650741
0.0004126577168889778   -0.00991670615259088   -0.0015953093764243184
0.005236995383624688   -0.019094194730383245   -0.002175438081788842
0.0003312704665884967   -0.019081539393919076   -0.002096897426188456
0.00031849078647487545   -0.01907829778836549   -0.002107480718045522
0.0004126577168889778   -0.00991670615259088   -0.0015953093764243184
0.005236995383624688   -0.019094194730383245   -0.002175438081788842
0.00031849078647487545   -0.01907829778836549   -0.002107480718045522
0.004071296099547719   -0.010028727018845284   -0.0016032394075650741
0.0004126577168889778   -0.00991670615259088   -0.0015953093764243184
0.0003312704665884967   -0.019081539393919076   -0.002096897426188456
0.004052202537655152   -0.009974519619092435   -0.0017123065514696517
0.00043632830859087284   -0.009857022759294955   -0.0016111452887879296
0.0003312704665884967   -0.019081539393919076   -0.002096897426188456
0.005236995383624688   -0.019094194730383245   -0.002175438081788842
0.004052202537655152   -0.009974519619092435   -0.0017123065514696517
0.005216773717624138   -0.019002732172274134   -0.002246940452667459
0.00043632830859087284   -0.009857022759294955   -0.0016111452887879296
0.004041159120562127   -0.009851693455389204   -0.0018301774416419983
0.005216773717624138   -0.019002732172274134   -0.002246940452667459
0.004052202537655152   -0.009974519619092435   -0.0017123065514696517
0.00043632830859087284   -0.009857022759294955   -0.0016111452887879296
0.005216773717624138   -0.019002732172274134   -0.002246940452667459
0.0003404260754103088   -0.019045331202249022   -0.002097849276052518
0.0003312704665884967   -0.019081539393919076   -0.002096897426188456
0.00043632830859087284   -0.009857022759294955   -0.0016111452887879296
0.005216773717624138   -0.019002732172274134   -0.002246940452667459
0.0003312704665884967   -0.019081539393919076   -0.002096897426188456
0.004052202537655152   -0.009974519619092435   -0.0017123065514696517
0.004052824478830738   -0.010029148742327403   -0.0015070103573856916
0.0052331221037175794   -0.019144163260806646   -0.002065041662996459
0.008511397772584865   -0.010328377036518014   -0.0014824245731637634
0.004071296099547719   -0.010028727018845284   -0.0016032394075650741
0.0052331221037175794   -0.019144163260806646   -0.002065041662996459
0.01085288205998443   -0.01934007095189163   -0.0020661425841474214
0.008511397772584865   -0.010328377036518014   -0.0014824245731637634
0.010758035957688502   -0.01930642442385229   -0.0021971664421092775
0.004071296099547719   -0.010028727018845284   -0.0016032394075650741
0.008337840053303689   -0.010300250439508848   -0.001698878723291526
0.010758035957688502   -0.01930642442385229   -0.0021971664421092775
0.008511397772584865   -0.010328377036518014   -0.0014824245731637634
0.004071296099547719   -0.010028727018845284   -0.0016032394075650741
0.010758035957688502   -0.01930642442385229   -0.0021971664421092775
0.005250616069255771   -0.01913820137071049   -0.0021152027223173483
0.0052331221037175794   -0.019144163260806646   -0.002065041662996459
0.004071296099547719   -0.010028727018845284   -0.0016032394075650741
0.010758035957688502   -0.01930642442385229   -0.0021971664421092775
0.0052331221037175794   -0.019144163260806646   -0.002065041662996459
0.008511397772584865   -0.010328377036518014   -0.0014824245731637634
0.004071296099547719   -0.010028727018845284   -0.0016032394075650741
0.005250616069255771   -0.01913820137071049   -0.0021152027223173483
0.008337840053303689   -0.010300250439508848   -0.001698878723291526
0.004052202537655152   -0.009974519619092435   -0.0017123065514696517
0.005250616069255771   -0.01913820137071049   -0.0021152027223173483
0.010758035957688502   -0.01930642442385229   -0.0021971664421092775
0.008337840053303689   -0.010300250439508848   -0.001698878723291526
0.010663420715296114   -0.019238653953464926   -0.0023463565652807328
0.004052202537655152   -0.009974519619092435   -0.0017123065514696517
0.008182768377417474   -0.010216667529207453   -0.0019423482494708402
0.010663420715296114   -0.019238653953464926   -0.0023463565652807328
0.008337840053303689   -0.010300250439508848   -0.001698878723291526
0.004052202537655152   -0.009974519619092435   -0.0017123065514696517
0.010663420715296114   -0.019238653953464926   -0.0023463565652807328
0.005236995383624688   -0.019094194730383245   -0.002175438081788842
0.005250616069255771   -0.01913820137071049   -0.0021152027223173483
0.004052202537655152   -0.009974519619092435   -0.0017123065514696517
0.010663420715296114   -0.019238653953464926   -0.0023463565652807328
0.005250616069255771   -0.01913820137071049   -0.0021152027223173483
0.008337840053303689   -0.010300250439508848   -0.001698878723291526
0.004052202537655152   -0.009974519619092435   -0.0017123065514696517
0.005236995383624688   -0.019094194730383245   -0.002175438081788842
0.008182768377417474   -0.010216667529207453   -0.0019423482494708402
0.004041159120562127   -0.009851693455389204   -0.0018301774416419983
0.005236995383624688   -0.019094194730383245   -0.002175438081788842
0.010663420715296114   -0.019238653953464926   -0.0023463565652807328
0.008182768377417474   -0.010216667529207453   -0.0019423482494708402
0.01049560850033989   -0.019096412027242764   -0.0025137321766211715
0.004041159120562127   -0.009851693455389204   -0.0018301774416419983
0.007950567626051836   -0.010030620567723901   -0.0021957687000875485
0.01049560850033989   -0.019096412027242764   -0.0025137321766211715
0.008182768377417474   -0.010216667529207453   -0.0019423482494708402
0.004041159120562127   -0.009851693455389204   -0.0018301774416419983
0.01049560850033989   -0.019096412027242764   -0.0025137321766211715
0.005216773717624138   -0.019002732172274134   -0.002246940452667459
0.005236995383624688   -0.019094194730383245   -0.002175438081788842
0.004041159120562127   -0.009851693455389204   -0.0018301774416419983
0.01049560850033989   -0.019096412027242764   -0.0025137321766211715
0.005236995383624688   -0.019094194730383245   -0.002175438081788842
0.008182768377417474   -0.010216667529207453   -0.0019423482494708402
-0.014481282327756948   -0.019430666269311656   -0.0029078817778061257
-0.017294669432360313   -0.030188521997798475   -0.0031009929350078874
-0.009310330347501455   -0.019171995940645097   -0.002541434644587235
-0.014739211533885613   -0.01963274046136332   -0.0026547286261177443
-0.017294669432360313   -0.030188521997798475   -0.0031009929350078874
-0.01122548721347859   -0.03002390083461854   -0.0028021550152796297
-0.009310330347501455   -0.019171995940645097   -0.002541434644587235
-0.011239246433542118   -0.030151125007838862   -0.002686069866379287
-0.014739211533885613   -0.01963274046136332   -0.0026547286261177443
-0.009331051583939366   -0.019319867539103586   -0.002379281692624779
-0.011239246433542118   -0.030151125007838862   -0.002686069866379287
-0.009310330347501455   -0.019171995940645097   -0.002541434644587235
-0.014739211533885613   -0.01963274046136332   -0.0026547286261177443
-0.011239246433542118   -0.030151125007838862   -0.002686069866379287
-0.01746856298298504   -0.030360627689701533   -0.0029328436067248957
-0.017294669432360313   -0.030188521997798475   -0.0031009929350078874
-0.014739211533885613   -0.01963274046136332   -0.0026547286261177443
-0.011239246433542118   -0.030151125007838862   -0.002686069866379287
-0.017294669432360313   -0.030188521997798475   -0.0031009929350078874
-0.009310330347501455   -0.019171995940645097   -0.002541434644587235
-0.014739211533885613   -0.01963274046136332   -0.0026547286261177443
-0.01746856298298504   -0.030360627689701533   -0.0029328436067248957
-0.009331051583939366   -0.019319867539103586   -0.002379281692624779
-0.014901954427216035   -0.019759434807185564   -0.002418762557500997
-0.01746856298298504   -0.030360627689701533   -0.0029328436067248957
-0.011239246433542118   -0.030151125007838862   -0.002686069866379287
-0.009331051583939366   -0.019319867539103586   -0.002379281692624779
-0.011249144737888924   -0.03025196947204028   -0.0025815482562655204
-0.014901954427216035   -0.019759434807185564   -0.002418762557500997
-0.009355414943503237   -0.019422755062199638   -0.0022288529540049253
-0.011249144737888924   -0.03025196947204028   -0.0025815482562655204
-0.009331051583939366   -0.019319867539103586   -0.002379281692624779
-0.014901954427216035   -0.019759434807185564   -0.002418762557500997
-0.011249144737888924   -0.03025196947204028   -0.0025815482562655204
-0.017568467710990493   -0.030482374890331166   -0.0027808188420158308
-0.01746856298298504   -0.030360627689701533   -0.0029328436067248957
-0.014901954427216035   -0.019759434807185564   -0.002418762557500997
-0.011249144737888924   -0.03025196947204028   -0.0025815482562655204
-0.01746856298298504   -0.030360627689701533   -0.0029328436067248957
-0.009331051583939366   -0.019319867539103586   -0.002379281692624779
-0.014901954427216035   -0.019759434807185564   -0.002418762557500997
-0.017568467710990493   -0.030482374890331166   -0.0027808188420158308
-0.009355414943503237   -0.019422755062199638   -0.0022288529540049253
-0.015087123097993028   -0.01985050604714729   -0.002201590599618563
-0.017568467710990493   -0.030482374890331166   -0.0027808188420158308
-0.011249144737888924   -0.03025196947204028   -0.0025815482562655204
-0.009355414943503237   -0.019422755062199638   -0.0022288529540049253
-0.011226130003015049   -0.030334795292444525   -0.0024870545965328204
-0.015087123097993028   -0.01985050604714729   -0.002201590599618563
-0.009338203188104485   -0.019490417829693255   -0.002087651367976335
-0.011226130003015049   -0.030334795292444525   -0.0024870545965328204
-0.009355414943503237   -0.019422755062199638   -0.0022288529540049253
-0.015087123097993028   -0.01985050604714729   -0.002201590599618563
-0.011226130003015049   -0.030334795292444525   -0.0024870545965328204
-0.017671395480311915   -0.030591472141573844   -0.002646833871901152
-0.017568467710990493   -0.030482374890331166   -0.0027808188420158308
-0.015087123097993028   -0.01985050604714729   -0.002201590599618563
-0.011226130003015049   -0.030334795292444525   -0.0024870545965328204
-0.017568467710990493   -0.030482374890331166   -0.0027808188420158308
-0.009355414943503237   -0.019422755062199638   -0.0022288529540049253
-0.009310330347501455   -0.019171995940645097   -0.002541434644587235
-0.01122548721347859   -0.03002390083461854   -0.0028021550152796297
-0.004434436758186223   -0.01904304560298282   -0.002286832920497666
-0.009331051583939366   -0.019319867539103586   -0.002379281692624779
-0.01122548721347859   -0.03002390083461854   -0.0028021550152796297
-0.005535576838379794   -0.02993883657451132   -0.0025952199336774628
-0.004434436758186223   -0.01904304560298282   -0.002286832920497666
-0.00552531016633701   -0.03001868404426301   -0.0025186042721821187
-0.009331051583939366   -0.019319867539103586   -0.002379281692624779
-0.004423639723081554   -0.019137615908786137   -0.0021952180468373522
-0.00552531016633701   -0.03001868404426301   -0.0025186042721821187
-0.004434436758186223   -0.01904304560298282   -0.002286832920497666
-0.009331051583939366   -0.019319867539103586   -0.002379281692624779
-0.00552531016633701   -0.03001868404426301   -0.0025186042721821187
-0.011239246433542118   -0.030151125007838862   -0.002686069866379287
-0.01122548721347859   -0.03002390083461854   -0.0028021550152796297
-0.009331051583939366   -0.019319867539103586   -0.002379281692624779
-0.00552531016633701   -0.03001868404426301   -0.0025186042721821187
-0.01122548721347859   -0.03002390083461854   -0.0028021550152796297
-0.004434436758186223   -0.01904304560298282   -0.002286832920497666
-0.009331051583939366   -0.019319867539103586   -0.002379281692624779
-0.011239246433542118   -0.030151125007838862   -0.002686069866379287
-0.004423639723081554   -0.019137615908786137   -0.0021952180468373522
-0.009355414943503237   -0.019422755062199638   -0.0022288529540049253
-0.011239246433542118   -0.030151125007838862   -0.002686069866379287
-0.00552531016633701   -0.03001868404426301   -0.0025186042721821187
-0.004423639723081554   -0.019137615908786137   -0.0021952180468373522
-0.005511190999104165   -0.030076427601810073   -0.0024533795555593675
-0.009355414943503237   -0.019422755062199638   -0.0022288529540049253
-0.00441034294258954   -0.01919315910026647   -0.0021147690858988434
-0.005511190999104165   -0.030076427601810073   -0.0024533795555593675
-0.004423639723081554   -0.019137615908786137   -0.0021952180468373522
-0.009355414943503237   -0.019422755062199638   -0.0022288529540049253
-0.005511190999104165   -0.030076427601810073   -0.0024533795555593675
-0.011249144737888924   -0.03025196947204028   -0.0025815482562655204
-0.011239246433542118   -0.030151125007838862   -0.002686069866379287
-0.009355414943503237   -0.019422755062199638   -0.0022288529540049253
-0.005511190999104165   -0.030076427601810073   -0.0024533795555593675
-0.011239246433542118   -0.030151125007838862   -0.002686069866379287
-0.004423639723081554   -0.019137615908786137   -0.0021952180468373522
-0.009355414943503237   -0.019422755062199638   -0.0022288529540049253
-0.011249144737888924   -0.03025196947204028   -0.0025815482562655204
-0.00441034294258954   -0.01919315910026647   -0.0021147690858988434
-0.009338203188104485   -0.019490417829693255   -0.002087651367976335
-0.011249144737888924   -0.03025196947204028   -0.0025815482562655204
-0.005511190999104165   -0.030076427601810073   -0.0024533795555593675
-0.00441034294258954   -0.01919315910026647   -0.0021147690858988434
-0.005490008823128186   -0.030112445506154835   -0.0023997336667880764
-0.009338203188104485   -0.019490417829693255   -0.002087651367976335
-0.004388291702074664   -0.01921046928168366   -0.002045451959874097
-0.005490008823128186   -0.030112445506154835   -0.0023997336667880764
-0.00441034294258954   -0.01919315910026647   -0.0021147690858988434
-0.009338203188104485   -0.019490417829693255   -0.002087651367976335
-0.005490008823128186   -0.030112445506154835   -0.0023997336667880764
-0.011226130003015049   -0.030334795292444525   -0.0024870545965328204
-0.011249144737888924   -0.03025196947204028   -0.0025815482562655204
-0.009338203188104485   -0.019490417829693255   -0.002087651367976335
-0.005490008823128186   -0.030112445506154835   -0.0023997336667880764
-0.011249144737888924   -0.03025196947204028   -0.0025815482562655204
-0.00441034294258954   -0.01919315910026647   -0.0021147690858988434
-0.004434436758186223   -0.01904304560298282   -0.002286832920497666
-0.005535576838379794   -0.02993883657451132   -0.0025952199336774628
0.00029838475984627   -0.019036186284796888   -0.0021289372760328433
-0.004423639723081554   -0.019137615908786137   -0.0021952180468373522
-0.005535576838379794   -0.02993883657451132   -0.0025952199336774628
-1.1885897664983638e-07   -0.02992421978218837   -0.002474660309215299
0.00029838475984627   -0.019036186284796888   -0.0021289372760328433
1.9428086685905796e-05   -0.029956442593550844   -0.0024378180149528883
-0.004423639723081554   -0.019137615908786137   -0.0021952180468373522
0.00031849078647487545   -0.01907829778836549   -0.002107480718045522
1.9428086685905796e-05   -0.029956442593550844   -0.0024378180149528883
0.00029838475984627   -0.019036186284796888   -0.0021289372760328433
-0.004423639723081554   -0.019137615908786137   -0.0021952180468373522
1.9428086685905796e-05   -0.029956442593550844   -0.0024378180149528883
-0.00552531016633701   -0.03001868404426301   -0.0025186042721821187
-0.005535576838379794   -0.02993883657451132   -0.0025952199336774628
-0.004423639723081554   -0.019137615908786137   -0.0021952180468373522
1.9428086685905796e-05   -0.029956442593550844   -0.0024378180149528883
-0.005535576838379794   -0.02993883657451132   -0.0025952199336774628
0.00029838475984627   -0.019036186284796888   -0.0021289372760328433
-0.004423639723081554   -0.019137615908786137   -0.0021952180468373522
-0.00552531016633701   -0.03001868404426301   -0.0025186042721821187
0.00031849078647487545   -0.01907829778836549   -0.002107480718045522
-0.00441034294258954   -0.01919315910026647   -0.0021147690858988434
-0.00552531016633701   -0.03001868404426301   -0.0025186042721821187
1.9428086685905796e-05   -0.029956442593550844   -0.0024378180149528883
0.00031849078647487545   -0.01907829778836549   -0.002107480718045522
3.3270218592907696e-05   -0.029966409386764294   -0.0024122214431050062
-0.00441034294258954   -0.01919315910026647   -0.0021147690858988434
0.0003312704665884967   -0.019081539393919076   -0.002096897426188456
3.3270218592907696e-05   -0.029966409386764294   -0.0024122214431050062
0.00031849078647487545   -0.01907829778836549   -0.002107480718045522
-0.00441034294258954   -0.01919315910026647   -0.0021147690858988434
3.3270218592907696e-05   -0.029966409386764294   -0.0024122214431050062
-0.005511190999104165   -0.030076427601810073   -0.0024533795555593675
-0.00552531016633701   -0.03001868404426301   -0.0025186042721821187
-0.00441034294258954   -0.01919315910026647   -0.0021147690858988434
3.3270218592907696e-05   -0.029966409386764294   -0.0024122214431050062
-0.00552531016633701   -0.03001868404426301   -0.0025186042721821187
0.00031849078647487545   -0.01907829778836549   -0.002107480718045522
-0.00441034294258954   -0.01919315910026647   -0.0021147690858988434
-0.005511190999104165   -0.030076427601810073   -0.0024533795555593675
0.0003312704665884967   -0.019081539393919076   -0.002096897426188456
-0.004388291702074664   -0.01921046928168366   -0.002045451959874097
-0.005511190999104165   -0.030076427601810073   -0.0024533795555593675
3.3270218592907696e-05   -0.029966409386764294   -0.0024122214431050062
0.0003312704665884967   -0.019081539393919076   -0.002096897426188456
4.196105160991163e-05   -0.02995381519237339   -0.002398368961024168
-0.004388291702074664   -0.01921046928168366   -0.002045451959874097
0.0003404260754103088   -0.019045331202249022   -0.002097849276052518
4.196105160991163e-05   -0.02995381519237339   -0.002398368961024168
0.0003312704665884967   -0.019081539393919076   -0.002096897426188456
-0.004388291702074664   -0.01921046928168366   -0.002045451959874097
4.196105160991163e-05   -0.02995381519237339   -0.002398368961024168
-0.005490008823128186   -0.030112445506154835   -0.0023997336667880764
-0.005511190999104165   -0.030076427601810073   -0.0024533795555593675
-0.004388291702074664   -0.01921046928168366   -0.002045451959874097
4.196105160991163e-05   -0.02995381519237339   -0.002398368961024168
-0.005511190999104165   -0.030076427601810073   -0.0024533795555593675
0.0003312704665884967   -0.019081539393919076   -0.002096897426188456
0.00029838475984627   -0.019036186284796888   -0.0021289372760328433
-1.1885897664983638e-07   -0.02992421978218837   -0.002474660309215299
0.0052331221037175794   -0.019144163260806646   -0.002065041662996459
0.00031849078647487545   -0.01907829778836549   -0.002107480718045522
-1.1885897664983638e-07   -0.02992421978218837   -0.002474660309215299
0.005725678295581293   -0.02997403830266466   -0.0024399808227502486
0.0052331221037175794   -0.019144163260806646   -0.002065041662996459
0.005749634962366177   -0.029961412731902833   -0.002443752116045729
0.00031849078647487545   -0.01907829778836549   -0.002107480718045522
0.005250616069255771   -0.01913820137071049   -0.0021152027223173483
0.005749634962366177   -0.029961412731902833   -0.002443752116045729
0.0052331221037175794   -0.019144163260806646   -0.002065041662996459
0.00031849078647487545   -0.01907829778836549   -0.002107480718045522
0.005749634962366177   -0.029961412731902833   -0.002443752116045729
1.9428086685905796e-05   -0.029956442593550844   -0.0024378180149528883
-1.1885897664983638e-07   -0.02992421978218837   -0.002474660309215299
0.00031849078647487545   -0.01907829778836549   -0.002107480718045522
0.005749634962366177   -0.029961412731902833   -0.002443752116045729
-1.1885897664983638e-07   -0.02992421978218837   -0.002474660309215299
0.0052331221037175794   -0.019144163260806646   -0.002065041662996459
0.00031849078647487545   -0.01907829778836549   -0.002107480718045522
1.9428086685905796e-05   -0.029956442593550844   -0.0024378180149528883
0.005250616069255771   -0.01913820137071049   -0.0021152027223173483
0.0003312704665884967   -0.019081539393919076   -0.002096897426188456
1.9428086685905796e-05   -0.029956442593550844   -0.0024378180149528883
0.005749634962366177   -0.029961412731902833   -0.002443752116045729
0.005250616069255771   -0.01913820137071049   -0.0021152027223173483
0.005751220088380781   -0.029928225207184005   -0.002458164386082745
0.0003312704665884967   -0.019081539393919076   -0.002096897426188456
0.005236995383624688   -0.019094194730383245   -0.002175438081788842
0.005751220088380781   -0.029928225207184005   -0.002458164386082745
0.005250616069255771   -0.01913820137071049   -0.0021152027223173483
0.0003312704665884967   -0.019081539393919076   -0.002096897426188456
0.005751220088380781   -0.029928225207184005   -0.002458164386082745
3.3270218592907696e-05   -0.029966409386764294   -0.0024122214431050062
1.9428086685905796e-05   -0.029956442593550844   -0.0024378180149528883
0.0003312704665884967   -0.019081539393919076   -0.002096897426188456
0.005751220088380781   -0.029928225207184005   -0.002458164386082745
1.9428086685905796e-05   -0.029956442593550844   -0.0024378180149528883
0.005250616069255771   -0.01913820137071049   -0.0021152027223173483
0.0003312704665884967   -0.019081539393919076   -0.002096897426188456
3.3270218592907696e-05   -0.029966409386764294   -0.0024122214431050062
0.005236995383624688   -0.019094194730383245   -0.002175438081788842
0.0003404260754103088   -0.019045331202249022   -0.002097849276052518
3.3270218592907696e-05   -0.029966409386764294   -0.0024122214431050062
0.005751220088380781   -0.029928225207184005   -0.002458164386082745
0.005236995383624688   -0.019094194730383245   -0.002175438081788842
0.005738433877290736   -0.02986616049814007   -0.0024836220311266434
0.0003404260754103088   -0.019045331202249022   -0.002097849276052518
0.005216773717624138   -0.019002732172274134   -0.002246940452667459
0.005738433877290736   -0.02986616049814007   -0.0024836220311266434
0.005236995383624688   -0.019094194730383245   -0.002175438081788842
0.0003404260754103088   -0.019045331202249022   -0.002097849276052518
0.005738433877290736   -0.02986616049814007   -0.0024836220311266434
4.196105160991163e-05   -0.02995381519237339   -0.002398368961024168
3.3270218592907696e-05   -0.029966409386764294   -0.0024122214431050062
0.0003404260754103088   -0.019045331202249022   -0.002097849276052518
0.005738433877290736   -0.02986616049814007   -0.0024836220311266434
3.3270218592907696e-05   -0.029966409386764294   -0.0024122214431050062
0.005236995383624688   -0.019094194730383245   -0.002175438081788842
0.0052331221037175794   -0.019144163260806646   -0.002065041662996459
0.005725678295581293   -0.02997403830266466   -0.0024399808227502486
0.01085288205998443   -0.01934007095189163   -0.0020661425841474214
0.005250616069255771   -0.01913820137071049   -0.0021152027223173483
0.005725678295581293   -0.02997403830266466   -0.0024399808227502486
0.012048393440790435   -0.03006563634839977   -0.002472383464716697
0.01085288205998443   -0.01934007095189163   -0.0020661425841474214
0.01203690529464874   -0.03002264603826598   -0.002520005160875825
0.005250616069255771   -0.01913820137071049   -0.0021152027223173483
0.010758035957688502   -0.01930642442385229   -0.0021971664421092775
0.01203690529464874   -0.03002264603826598   -0.002520005160875825
0.01085288205998443   -0.01934007095189163   -0.0020661425841474214
0.005250616069255771   -0.01913820137071049   -0.0021152027223173483
0.01203690529464874   -0.03002264603826598   -0.002520005160875825
0.005749634962366177   -0.029961412731902833   -0.002443752116045729
0.005725678295581293   -0.02997403830266466   -0.0024399808227502486
0.005250616069255771   -0.01913820137071049   -0.0021152027223173483
0.01203690529464874   -0.03002264603826598   -0.002520005160875825
0.005725678295581293   -0.02997403830266466   -0.0024399808227502486
0.01085288205998443   -0.01934007095189163   -0.0020661425841474214
0.005250616069255771   -0.01913820137071049   -0.0021152027223173483
0.005749634962366177   -0.029961412731902833   -0.002443752116045729
0.010758035957688502   -0.01930642442385229   -0.0021971664421092775
0.005236995383624688   -0.019094194730383245   -0.002175438081788842
0.005749634962366177   -0.029961412731902833   -0.002443752116045729
0.01203690529464874   -0.03002264603826598   -0.002520005160875825
0.010758035957688502   -0.01930642442385229   -0.0021971664421092775
0.012006436841737505   -0.02996848493437163   -0.002584889385426204
0.005236995383624688   -0.019094194730383245   -0.002175438081788842
0.010663420715296114   -0.019238653953464926   -0.0023463565652807328
0.012006436841737505   -0.02996848493437163   -0.002584889385426204
0.010758035957688502   -0.01930642442385229   -0.0021971664421092775
0.005236995383624688   -0.019094194730383245   -0.002175438081788842
0.012006436841737505   -0.02996848493437163   -0.002584889385426204
0.005751220088380781   -0.029928225207184005   -0.002458164386082745
0.005749634962366177   -0.029961412731902833   -0.002443752116045729
0.005236995383624688   -0.019094194730383245   -0.002175438081788842
0.012006436841737505   -0.02996848493437163   -0.002584889385426204
0.005749634962366177   -0.029961412731902833   -0.002443752116045729
0.010758035957688502   -0.01930642442385229   -0.0021971664421092775
0.005236995383624688   -0.019094194730383245   -0.002175438081788842
0.005751220088380781   -0.029928225207184005   -0.002458164386082745
0.010663420715296114   -0.019238653953464926   -0.0023463565652807328
0.005216773717624138   -0.019002732172274134   -0.002246940452667459
0.005751220088380781   -0.029928225207184005   -0.002458164386082745
0.012006436841737505   -0.02996848493437163   -0.002584889385426204
0.010663420715296114   -0.019238653953464926   -0.0023463565652807328
0.011923850801799446   -0.02986516896220511   -0.0026669110028684365
0.005216773717624138   -0.019002732172274134   -0.002246940452667459
0.01049560850033989   -0.019096412027242764   -0.0025137321766211715
0.011923850801799446   -0.02986516896220511   -0.0026669110028684365
0.010663420715296114   -0.019238653953464926   -0.0023463565652807328
0.005216773717624138   -0.019002732172274134   -0.002246940452667459
0.011923850801799446   -0.02986516896220511   -0.0026669110028684365
0.005738433877290736   -0.02986616049814007   -0.0024836220311266434
0.005751220088380781   -0.029928225207184005   -0.002458164386082745
0.005216773717624138   -0.019002732172274134   -0.002246940452667459
0.011923850801799446   -0.02986516896220511   -0.0026669110028684365
0.005751220088380781   -0.029928225207184005   -0.002458164386082745
0.010663420715296114   -0.019238653953464926   -0.0023463565652807328
-0.017294669432360313   -0.030188521997798475   -0.0031009929350078874
-0.018998696337767157   -0.041900114488376314   -0.0031575768537805997
-0.01122548721347859   -0.03002390083461854   -0.0028021550152796297
-0.01746856298298504   -0.030360627689701533   -0.0029328436067248957
-0.018998696337767157   -0.041900114488376314   -0.0031575768537805997
-0.012483199184963928   -0.04183299168275655   -0.0029194874004670546
-0.01122548721347859   -0.03002390083461854   -0.0028021550152796297
-0.012478431999830808   -0.04194153122397118   -0.002848273422024886
-0.01746856298298504   -0.030360627689701533   -0.0029328436067248957
-0.011239246433542118   -0.030151125007838862   -0.002686069866379287
-0.012478431999830808   -0.04194153122397118   -0.002848273422024886
-0.01122548721347859   -0.03002390083461854   -0.0028021550152796297
-0.01746856298298504   -0.030360627689701533   -0.0029328436067248957
-0.012478431999830808   -0.04194153122397118   -0.002848273422024886
-0.019080060366121625   -0.042046010949557025   -0.0030708244487669617
-0.018998696337767157   -0.041900114488376314   -0.0031575768537805997
-0.01746856298298504   -0.030360627689701533   -0.0029328436067248957
-0.012478431999830808   -0.04194153122397118   -0.002848273422024886
-0.018998696337767157   -0.041900114488376314   -0.0031575768537805997
-0.01122548721347859   -0.03002390083461854   -0.0028021550152796297
-0.01746856298298504   -0.030360627689701533   -0.0029328436067248957
-0.019080060366121625   -0.042046010949557025   -0.0030708244487669617
-0.011239246433542118   -0.030151125007838862   -0.002686069866379287
-0.017568467710990493   -0.030482374890331166   -0.0027808188420158308
-0.019080060366121625   -0.042046010949557025   -0.0030708244487669617
-0.012478431999830808   -0.04194153122397118   -0.002848273422024886
-0.011239246433542118   -0.030151125007838862   -0.002686069866379287
-0.012461897379903542   -0.04204164318162817   -0.002788883720559448
-0.017568467710990493   -0.030482374890331166   -0.0027808188420158308
-0.011249144737888924   -0.03025196947204028   -0.0025815482562655204
-0.012461897379903542   -0.04204164318162817   -0.002788883720559448
-0.011239246433542118   -0.030151125007838862   -0.002686069866379287
-0.017568467710990493   -0.030482374890331166   -0.0027808188420158308
-0.012461897379903542   -0.04204164318162817   -0.002788883720559448
-0.01910613263117127   -0.04216498842021714   -0.0030010915484777203
-0.019080060366121625   -0.042046010949557025   -0.0030708244487669617
-0.017568467710990493   -0.030482374890331166   -0.0027808188420158308
-0.012461897379903542   -0.04204164318162817   -0.002788883720559448
-0.019080060366121625   -0.042046010949557025   -0.0030708244487669617
-0.011239246433542118   -0.030151125007838862   -0.002686069866379287
-0.017568467710990493   -0.030482374890331166   -0.0027808188420158308
-0.01910613263117127   -0.04216498842021714   -0.0030010915484777203
-0.011249144737888924   -0.03025196947204028   -0.0025815482562655204
-0.017671395480311915   -0.030591472141573844   -0.002646833871901152
-0.01910613263117127   -0.04216498842021714   -0.0030010915484777203
-0.012461897379903542   -0.04204164318162817   -0.002788883720559448
-0.011249144737888924   -0.03025196947204028   -0.0025815482562655204
-0.012420851815735715   -0.04214095719849977   -0.0027404910937485426
-0.017671395480311915   -0.030591472141573844   -0.002646833871901152
-0.011226130003015049   -0.030334795292444525   -0.0024870545965328204
-0.012420851815735715   -0.04214095719849977   -0.0027404910937485426
-0.011249144737888924   -0.03025196947204028   -0.0025815482562655204
-0.017671395480311915   -0.030591472141573844   -0.002646833871901152
-0.012420851815735715   -0.04214095719849977   -0.0027404910937485426
-0.01911503926035768   -0.042294181802011145   -0.002949838444670883
-0.01910613263117127   -0.04216498842021714   -0.0030010915484777203
-0.017671395480311915   -0.030591472141573844   -0.002646833871901152
-0.012420851815735715   -0.04214095719849977   -0.0027404910937485426
-0.01910613263117127   -0.04216498842021714   -0.0030010915484777203
-0.011249144737888924   -0.03025196947204028   -0.0025815482562655204
-0.01122548721347859   -0.03002390083461854   -0.0028021550152796297
-0.012483199184963928   -0.04183299168275655   -0.0029194874004670546
-0.005535576838379794   -0.02993883657451132   -0.0025952199336774628
-0.011239246433542118   -0.030151125007838862   -0.002686069866379287
-0.012483199184963928   -0.04183299168275655   -0.0029194874004670546
-0.0064307124046873295   -0.0417945043305066   -0.0027573919620492277
-0.005535576838379794   -0.02993883657451132   -0.0025952199336774628
-0.006408296309626581   -0.04186021331487024   -0.0026953310798333275
-0.011239246433542118   -0.030151125007838862   -0.002686069866379287
-0.00552531016633701   -0.03001868404426301   -0.0025186042721821187
-0.006408296309626581   -0.04186021331487024   -0.0026953310798333275
-0.005535576838379794   -0.02993883657451132   -0.0025952199336774628
-0.011239246433542118   -0.030151125007838862   -0.002686069866379287
-0.006408296309626581   -0.04186021331487024   -0.0026953310798333275
-0.012478431999830808   -0.04194153122397118   -0.002848273422024886
-0.012483199184963928   -0.04183299168275655   -0.0029194874004670546
-0.011239246433542118   -0.030151125007838862   -0.002686069866379287
-0.006408296309626581   -0.04186021331487024   -0.0026953310798333275
-0.012483199184963928   -0.04183299168275655   -0.0029194874004670546
-0.005535576838379794   -0.02993883657451132   -0.0025952199336774628
-0.011239246433542118   -0.030151125007838862   -0.002686069866379287
-0.012478431999830808   -0.04194153122397118   -0.002848273422024886
-0.00552531016633701   -0.03001868404426301   -0.0025186042721821187
-0.011249144737888924   -0.03025196947204028   -0.0025815482562655204
-0.012478431999830808   -0.04194153122397118   -0.002848273422024886
-0.006408296309626581   -0.04186021331487024   -0.0026953310798333275
-0.00552531016633701   -0.03001868404426301   -0.0025186042721821187
-0.006380761812352681   -0.04192050721248845   -0.002645105012912921
-0.011249144737888924   -0.03025196947204028   -0.0025815482562655204
-0.005511190999104165   -0.030076427601810073   -0.0024533795555593675
-0.006380761812352681   -0.04192050721248845   -0.002645105012912921
-0.00552531016633701   -0.03001868404426301   -0.0025186042721821187
-0.011249144737888924   -0.03025196947204028   -0.0025815482562655204
-0.006380761812352681   -0.04192050721248845   -0.002645105012912921
-0.012461897379903542   -0.04204164318162817   -0.002788883720559448
-0.012478431999830808   -0.04194153122397118   -0.002848273422024886
-0.011249144737888924   -0.03025196947204028   -0.0025815482562655204
-0.006380761812352681   -0.04192050721248845   -0.002645105012912921
-0.012478431999830808   -0.04194153122397118   -0.002848273422024886
-0.00552531016633701   -0.03001868404426301   -0.0025186042721821187
-0.011249144737888924   -0.03025196947204028   -0.0025815482562655204
-0.012461897379903542   -0.04204164318162817   -0.002788883720559448
-0.005511190999104165   -0.030076427601810073   -0.0024533795555593675
-0.011226130003015049   -0.030334795292444525   -0.0024870545965328204
-0.012461897379903542   -0.04204164318162817   -0.002788883720559448
-0.006380761812352681   -0.04192050721248845   -0.002645105012912921
-0.005511190999104165   -0.030076427601810073   -0.0024533795555593675
-0.006347641749410121   -0.04197558398898257   -0.0026069974991722662
-0.011226130003015049   -0.030334795292444525   -0.0024870545965328204
-0.005490008823128186   -0.030112445506154835   -0.0023997336667880764
-0.006347641749410121   -0.04197558398898257   -0.0026069974991722662
-0.005511190999104165   -0.030076427601810073   -0.0024533795555593675
-0.011226130003015049   -0.030334795292444525   -0.0024870545965328204
-0.006347641749410121   -0.04197558398898257   -0.0026069974991722662
-0.012420851815735715   -0.04214095719849977   -0.0027404910937485426
-0.012461897379903542   -0.04204164318162817   -0.002788883720559448
-0.011226130003015049   -0.030334795292444525   -0.0024870545965328204
-0.006347641749410121   -0.04197558398898257   -0.0026069974991722662
-0.012461897379903542   -0.04204164318162817   -0.002788883720559448
-0.005511190999104165   -0.030076427601810073   -0.0024533795555593675
-0.005535576838379794   -0.02993883657451132   -0.0025952199336774628
-0.0064307124046873295   -0.0417945043305066   -0.0027573919620492277
-1.1885897664983638e-07   -0.02992421978218837   -0.002474660309215299
-0.00552531016633701   -0.03001868404426301   -0.0025186042721821187
-0.0064307124046873295   -0.0417945043305066   -0.0027573919620492277
-0.0005419921149513674   -0.041772478914451676   -0.0026735085598407274
-1.1885897664983638e-07   -0.02992421978218837   -0.002474660309215299
-0.0005106001680637684   -0.04179457276020947   -0.0026212191325227347
-0.00552531016633701   -0.03001868404426301   -0.0025186042721821187
1.9428086685905796e-05   -0.029956442593550844   -0.0024378180149528883
-0.0005106001680637684   -0.04179457276020947   -0.0026212191325227347
-1.1885897664983638e-07   -0.02992421978218837   -0.002474660309215299
-0.00552531016633701   -0.03001868404426301   -0.0025186042721821187
-0.0005106001680637684   -0.04179457276020947   -0.0026212191325227347
-0.006408296309626581   -0.04186021331487024   -0.0026953310798333275
-0.0064307124046873295   -0.0417945043305066   -0.0027573919620492277
-0.00552531016633701   -0.03001868404426301   -0.0025186042721821187
-0.0005106001680637684   -0.04179457276020947   -0.0026212191325227347
-0.0064307124046873295   -0.0417945043305066   -0.0027573919620492277
-1.1885897664983638e-07   -0.02992421978218837   -0.002474660309215299
-0.00552531016633701   -0.03001868404426301   -0.0025186042721821187
-0.006408296309626581   -0.04186021331487024   -0.0026953310798333275
1.9428086685905796e-05   -0.029956442593550844   -0.0024378180149528883
-0.005511190999104165   -0.030076427601810073   -0.0024533795555593675
-0.006408296309626581   -0.04186021331487024   -0.0026953310798333275
-0.0005106001680637684   -0.04179457276020947   -0.0026212191325227347
1.9428086685905796e-05   -0.029956442593550844   -0.0024378180149528883
-0.0004834393409242049   -0.04181086903826783   -0.0025806617700788194
-0.005511190999104165   -0.030076427601810073   -0.0024533795555593675
3.3270218592907696e-05   -0.029966409386764294   -0.0024122214431050062
-0.0004834393409242049   -0.04181086903826783   -0.0025806617700788194
1.9428086685905796e-05   -0.029956442593550844   -0.0024378180149528883
-0.005511190999104165   -0.030076427601810073   -0.0024533795555593675
-0.0004834393409242049   -0.04181086903826783   -0.0025806617700788194
-0.006380761812352681   -0.04192050721248845   -0.002645105012912921
-0.006408296309626581   -0.04186021331487024   -0.0026953310798333275
-0.005511190999104165   -0.030076427601810073   -0.0024533795555593675
-0.0004834393409242049   -0.04181086903826783   -0.0025806617700788194
-0.006408296309626581   -0.04186021331487024   -0.0026953310798333275
1.9428086685905796e-05   -0.029956442593550844   -0.0024378180149528883
-0.005511190999104165   -0.030076427601810073   -0.0024533795555593675
-0.006380761812352681   -0.04192050721248845   -0.002645105012912921
3.3270218592907696e-05   -0.029966409386764294   -0.0024122214431050062
-0.005490008823128186   -0.030112445506154835   -0.0023997336667880764
-0.006380761812352681   -0.04192050721248845   -0.002645105012912921
-0.0004834393409242049   -0.04181086903826783   -0.0025806617700788194
3.3270218592907696e-05   -0.029966409386764294   -0.0024122214431050062
-0.00046278042182058805   -0.041821284655892944   -0.002552264628586851
-0.005490008823128186   -0.030112445506154835   -0.0023997336667880764
4.196105160991163e-05   -0.02995381519237339   -0.002398368961024168
-0.00046278042182058805   -0.041821284655892944   -0.002552264628586851
3.3270218592907696e-05   -0.029966409386764294   -0.0024122214431050062
-0.005490008823128186   -0.030112445506154835   -0.0023997336667880764
-0.00046278042182058805   -0.041821284655892944   -0.002552264628586851
-0.006347641749410121   -0.04197558398898257   -0.0026069974991722662
-0.006380761812352681   -0.04192050721248845   -0.002645105012912921
-0.005490008823128186   -0.030112445506154835   -0.0023997336667880764
-0.00046278042182058805   -0.041821284655892944   -0.002552264628586851
-0.006380761812352681   -0.04192050721248845   -0.002645105012912921
3.3270218592907696e-05   -0.029966409386764294   -0.0024122214431050062
-1.1885897664983638e-07   -0.02992421978218837   -0.002474660309215299
-0.0005419921149513674   -0.041772478914451676   -0.0026735085598407274
0.005725678295581293   -0.02997403830266466   -0.0024399808227502486
1.9428086685905796e-05   -0.029956442593550844   -0.0024378180149528883
-0.0005419921149513674   -0.041772478914451676   -0.0026735085598407274
0.005526497557398333   -0.04176312237454   -0.0026685669861103586
0.005725678295581293   -0.02997403830266466   -0.0024399808227502486
0.005568133643948352   -0.04174297445474081   -0.0026265399220257936
1.9428086685905796e-05   -0.029956442593550844   -0.0024378180149528883
0.005749634962366177   -0.029961412731902833   -0.002443752116045729
0.005568133643948352   -0.04174297445474081   -0.0026265399220257936
0.005725678295581293   -0.02997403830266466   -0.0024399808227502486
1.9428086685905796e-05   -0.029956442593550844   -0.0024378180149528883
0.005568133643948352   -0.04174297445474081   -0.0026265399220257936
-0.0005106001680637684   -0.04179457276020947   -0.0026212191325227347
-0.0005419921149513674   -0.041772478914451676   -0.0026735085598407274
1.9428086685905796e-05   -0.029956442593550844   -0.0024378180149528883
0.005568133643948352   -0.04174297445474081   -0.0026265399220257936
-0.0005419921149513674   -0.041772478914451676   -0.0026735085598407274
0.005725678295581293   -0.02997403830266466   -0.0024399808227502486
1.9428086685905796e-05   -0.029956442593550844   -0.0024378180149528883
-0.0005106001680637684   -0.04179457276020947   -0.0026212191325227347
0.005749634962366177   -0.029961412731902833   -0.002443752116045729
3.3270218592907696e-05   -0.029966409386764294   -0.0024122214431050062
-0.0005106001680637684   -0.04179457276020947   -0.0026212191325227347
0.005568133643948352   -0.04174297445474081   -0.0026265399220257936
0.005749634962366177   -0.029961412731902833   -0.002443752116045729
0.005595937423207301   -0.04171945758442496   -0.0025959092024132615
3.3270218592907696e-05   -0.029966409386764294   -0.0024122214431050062
0.005751220088380781   -0.029928225207184005   -0.002458164386082745
0.005595937423207301   -0.04171945758442496   -0.0025959092024132615
0.005749634962366177   -0.029961412731902833   -0.002443752116045729
3.3270218592907696e-05   -0.029966409386764294   -0.0024122214431050062
0.005595937423207301   -0.04171945758442496   -0.0025959092024132615
-0.0004834393409242049   -0.04181086903826783   -0.0025806617700788194
-0.0005106001680637684   -0.04179457276020947   -0.0026212191325227347
3.3270218592907696e-05   -0.029966409386764294   -0.0024122214431050062
0.005595937423207301   -0.04171945758442496   -0.0025959092024132615
-0.0005106001680637684   -0.04179457276020947   -0.0026212191325227347
0.005749634962366177   -0.029961412731902833   -0.002443752116045729
3.3270218592907696e-05   -0.029966409386764294   -0.0024122214431050062
-0.0004834393409242049   -0.04181086903826783   -0.0025806617700788194
0.005751220088380781   -0.029928225207184005   -0.002458164386082745
4.196105160991163e-05   -0.02995381519237339   -0.002398368961024168
-0.0004834393409242049   -0.04181086903826783   -0.0025806617700788194
0.005595937423207301   -0.04171945758442496   -0.0025959092024132615
0.005751220088380781   -0.029928225207184005   -0.002458164386082745
0.005601462168180345   -0.041684846674388217   -0.0025764407207012866
4.196105160991163e-05   -0.02995381519237339   -0.002398368961024168
0.005738433877290736   -0.02986616049814007   -0.0024836220311266434
0.005601462168180345   -0.041684846674388217   -0.0025764407207012866
0.005751220088380781   -0.029928225207184005   -0.002458164386082745
4.196105160991163e-05   -0.02995381519237339   -0.002398368961024168
0.005601462168180345   -0.041684846674388217   -0.0025764407207012866
-0.00046278042182058805   -0.041821284655892944   -0.002552264628586851
-0.0004834393409242049   -0.04181086903826783   -0.0025806617700788194
4.196105160991163e-05   -0.02995381519237339   -0.002398368961024168
0.005601462168180345   -0.041684846674388217   -0.0025764407207012866
-0.0004834393409242049   -0.04181086903826783   -0.0025806617700788194
0.005751220088380781   -0.029928225207184005   -0.002458164386082745
0.005725678295581293   -0.02997403830266466   -0.0024399808227502486
0.005526497557398333   -0.04176312237454   -0.0026685669861103586
0.012048393440790435   -0.03006563634839977   -0.002472383464716697
0.005749634962366177   -0.029961412731902833   -0.002443752116045729
0.005526497557398333   -0.04176312237454   -0.0026685669861103586
0.012103080014839519   -0.04175021270190408   -0.0027346226119026886
0.012048393440790435   -0.03006563634839977   -0.002472383464716697
0.012184681315478485   -0.04169668574280248   -0.0027002472655779505
0.005749634962366177   -0.029961412731902833   -0.002443752116045729
0.01203690529464874   -0.03002264603826598   -0.002520005160875825
0.012184681315478485   -0.04169668574280248   -0.0027002472655779505
0.012048393440790435   -0.03006563634839977   -0.002472383464716697
0.005749634962366177   -0.029961412731902833   -0.002443752116045729
0.012184681315478485   -0.04169668574280248   -0.0027002472655779505
0.005568133643948352   -0.04174297445474081   -0.0026265399220257936
0.005526497557398333   -0.04176312237454   -0.0026685669861103586
0.005749634962366177   -0.029961412731902833   -0.002443752116045729
0.012184681315478485   -0.04169668574280248   -0.0027002472655779505
0.005526497557398333   -0.04176312237454   -0.0026685669861103586
0.012048393440790435   -0.03006563634839977   -0.002472383464716697
0.005749634962366177   -0.029961412731902833   -0.002443752116045729
0.005568133643948352   -0.04174297445474081   -0.0026265399220257936
0.01203690529464874   -0.03002264603826598   -0.002520005160875825
0.005751220088380781   -0.029928225207184005   -0.002458164386082745
0.005568133643948352   -0.04174297445474081   -0.0026265399220257936
0.012184681315478485   -0.04169668574280248   -0.0027002472655779505
0.01203690529464874   -0.03002264603826598   -0.002520005160875825
0.01222771143631895   -0.0416543920227524   -0.002683185932070064
0.005751220088380781   -0.029928225207184005   -0.002458164386082745
0.012006436841737505   -0.02996848493437163   -0.002584889385426204
0.01222771143631895   -0.0416543920227524   -0.002683185932070064
0.01203690529464874   -0.03002264603826598   -0.002520005160875825
0.005751220088380781   -0.029928225207184005   -0.002458164386082745
0.01222771143631895   -0.0416543920227524   -0.002683185932070064
0.005595937423207301   -0.04171945758442496   -0.0025959092024132615
0.005568133643948352   -0.04174297445474081   -0.0026265399220257936
0.005751220088380781   -0.029928225207184005   -0.002458164386082745
0.01222771143631895   -0.0416543920227524   -0.002683185932070064
0.005568133643948352   -0.04174297445474081   -0.0026265399220257936
0.01203690529464874   -0.03002264603826598   -0.002520005160875825
0.005751220088380781   -0.029928225207184005   -0.002458164386082745
0.005595937423207301   -0.04171945758442496   -0.0025959092024132615
0.012006436841737505   -0.02996848493437163   -0.002584889385426204
0.005738433877290736   -0.02986616049814007   -0.0024836220311266434
0.005595937423207301   -0.04171945758442496   -0.0025959092024132615
0.01222771143631895   -0.0416543920227524   -0.002683185932070064
0.012006436841737505   -0.02996848493437163   -0.002584889385426204
0.01223783779207629   -0.04158646153296655   -0.0026837335451011103
0.005738433877290736   -0.02986616049814007   -0.0024836220311266434
0.011923850801799446   -0.02986516896220511   -0.0026669110028684365
0.01223783779207629   -0.04158646153296655   -0.0026837335451011103
0.012006436841737505   -0.02996848493437163   -0.002584889385426204
0.005738433877290736   -0.02986616049814007   -0.0024836220311266434
0.01223783779207629   -0.04158646153296655   -0.0026837335451011103
0.005601462168180345   -0.041684846674388217   -0.0025764407207012866
0.005595937423207301   -0.04171945758442496   -0.0025959092024132615
0.005738433877290736   -0.02986616049814007   -0.0024836220311266434
0.01223783779207629   -0.04158646153296655   -0.0026837335451011103
0.005595937423207301   -0.04171945758442496   -0.0025959092024132615
0.012006436841737505   -0.02996848493437163   -0.002584889385426204
-0.018998696337767157   -0.041900114488376314   -0.0031575768537805997
-0.019593311208062892   -0.05382403085255644   -0.003104055388460168
-0.012483199184963928   -0.04183299168275655   -0.0029194874004670546
-0.019080060366121625   -0.042046010949557025   -0.0030708244487669617
-0.019593311208062892   -0.05382403085255644   -0.003104055388460168
-0.013084876140135964   -0.053855164290716885   -0.002927964857102565
-0.012483199184963928   -0.04183299168275655   -0.0029194874004670546
-0.013049917797553531   -0.053944636652517274   -0.002900949532813626
-0.019080060366121625   -0.042046010949557025   -0.0030708244487669617
-0.012478431999830808   -0.04194153122397118   -0.002848273422024886
-0.013049917797553531   -0.053944636652517274   -0.002900949532813626
-0.012483199184963928   -0.04183299168275655   -0.0029194874004670546
-0.019080060366121625   -0.042046010949557025   -0.0030708244487669617
-0.013049917797553531   -0.053944636652517274   -0.002900949532813626
-0.019570961801035305   -0.05394373447265837   -0.0030983792339329503
-0.019593311208062892   -0.05382403085255644   -0.003104055388460168
-0.019080060366121625   -0.042046010949557025   -0.0030708244487669617
-0.013049917797553531   -0.053944636652517274   -0.002900949532813626
-0.019593311208062892   -0.05382403085255644   -0.003104055388460168
-0.012483199184963928   -0.04183299168275655   -0.0029194874004670546
-0.019080060366121625   -0.042046010949557025   -0.0030708244487669617
-0.019570961801035305   -0.05394373447265837   -0.0030983792339329503
-0.012478431999830808   -0.04194153122397118   -0.002848273422024886
-0.01910613263117127   -0.04216498842021714   -0.0030010915484777203
-0.019570961801035305   -0.05394373447265837   -0.0030983792339329503
-0.013049917797553531   -0.053944636652517274   -0.002900949532813626
-0.012478431999830808   -0.04194153122397118   -0.002848273422024886
-0.012995309989390814   -0.05404374777839757   -0.0028861264679093277
-0.01910613263117127   -0.04216498842021714   -0.0030010915484777203
-0.012461897379903542   -0.04204164318162817   -0.002788883720559448
-0.012995309989390814   -0.05404374777839757   -0.0028861264679093277
-0.012478431999830808   -0.04194153122397118   -0.002848273422024886
-0.01910613263117127   -0.04216498842021714   -0.0030010915484777203
-0.012995309989390814   -0.05404374777839757   -0.0028861264679093277
-0.019511237049206823   -0.05405993654001701   -0.0031109235311786634
-0.019570961801035305   -0.05394373447265837   -0.0030983792339329503
-0.01910613263117127   -0.04216498842021714   -0.0030010915484777203
-0.012995309989390814   -0.05404374777839757   -0.0028861264679093277
-0.019570961801035305   -0.05394373447265837   -0.0030983792339329503
-0.012478431999830808   -0.04194153122397118   -0.002848273422024886
-0.01910613263117127   -0.04216498842021714   -0.0030010915484777203
-0.019511237049206823   -0.05405993654001701   -0.0031109235311786634
-0.012461897379903542   -0.04204164318162817   -0.002788883720559448
-0.01911503926035768   -0.042294181802011145   -0.002949838444670883
-0.019511237049206823   -0.05405993654001701   -0.0031109235311786634
-0.012995309989390814   -0.05404374777839757   -0.0028861264679093277
-0.012461897379903542   -0.04204164318162817   -0.002788883720559448
-0.01292454271729757   -0.054159320545990076   -0.0028832994435203257
-0.01911503926035768   -0.042294181802011145   -0.002949838444670883
-0.012420851815735715   -0.04214095719849977   -0.0027404910937485426
-0.01292454271729757   -0.054159320545990076   -0.0028832994435203257
-0.012461897379903542   -0.04204164318162817   -0.002788883720559448
-0.01911503926035768   -0.042294181802011145   -0.002949838444670883
-0.01292454271729757   -0.054159320545990076   -0.0028832994435203257
-0.01941421196040388   -0.054209599702423436   -0.003142607529984811
-0.019511237049206823   -0.05405993654001701   -0.0031109235311786634
-0.01911503926035768   -0.042294181802011145   -0.002949838444670883
-0.01292454271729757   -0.054159320545990076   -0.0028832994435203257
-0.019511237049206823   -0.05405993654001701   -0.0031109235311786634
-0.012461897379903542   -0.04204164318162817   -0.002788883720559448
-0.012483199184963928   -0.04183299168275655   -0.0029194874004670546
-0.013084876140135964   -0.053855164290716885   -0.002927964857102565
-0.0064307124046873295   -0.0417945043305066   -0.0027573919620492277
-0.012478431999830808   -0.04194153122397118   -0.002848273422024886
-0.013084876140135964   -0.053855164290716885   -0.002927964857102565
-0.007123246323102778   -0.05386194279404462   -0.0028109173897114706
-0.0064307124046873295   -0.0417945043305066   -0.0027573919620492277
-0.007076416358861563   -0.05391327780096062   -0.0027629898323758835
-0.012478431999830808   -0.04194153122397118   -0.002848273422024886
-0.006408296309626581   -0.04186021331487024   -0.0026953310798333275
-0.007076416358861563   -0.05391327780096062   -0.0027629898323758835
-0.0064307124046873295   -0.0417945043305066   -0.0027573919620492277
-0.012478431999830808   -0.04194153122397118   -0.002848273422024886
-0.007076416358861563   -0.05391327780096062   -0.0027629898323758835
-0.013049917797553531   -0.053944636652517274   -0.002900949532813626
-0.013084876140135964   -0.053855164290716885   -0.002927964857102565
-0.012478431999830808   -0.04194153122397118   -0.002848273422024886
-0.007076416358861563   -0.05391327780096062   -0.0027629898323758835
-0.013084876140135964   -0.053855164290716885   -0.002927964857102565
-0.0064307124046873295   -0.0417945043305066   -0.0027573919620492277
-0.012478431999830808   -0.04194153122397118   -0.002848273422024886
-0.013049917797553531   -0.053944636652517274   -0.002900949532813626
-0.006408296309626581   -0.04186021331487024   -0.0026953310798333275
-0.012461897379903542   -0.04204164318162817   -0.002788883720559448
-0.013049917797553531   -0.053944636652517274   -0.002900949532813626
-0.007076416358861563   -0.05391327780096062   -0.0027629898323758835
-0.006408296309626581   -0.04186021331487024   -0.0026953310798333275
-0.007023492099217801   -0.05397567808289274   -0.002727301214828722
-0.012461897379903542   -0.04204164318162817   -0.002788883720559448
-0.006380761812352681   -0.04192050721248845   -0.002645105012912921
-0.007023492099217801   -0.05397567808289274   -0.002727301214828722
-0.006408296309626581   -0.04186021331487024   -0.0026953310798333275
-0.012461897379903542   -0.04204164318162817   -0.002788883720559448
-0.007023492099217801   -0.05397567808289274   -0.002727301214828722
-0.012995309989390814   -0.05404374777839757   -0.0028861264679093277
-0.013049917797553531   -0.053944636652517274   -0.002900949532813626
-0.012461897379903542   -0.04204164318162817   -0.002788883720559448
-0.007023492099217801   -0.05397567808289274   -0.002727301214828722
-0.013049917797553531   -0.053944636652517274   -0.002900949532813626
-0.006408296309626581   -0.04186021331487024   -0.0026953310798333275
-0.012461897379903542   -0.04204164318162817   -0.002788883720559448
-0.012995309989390814   -0.05404374777839757   -0.0028861264679093277
-0.006380761812352681   -0.04192050721248845   -0.002645105012912921
-0.012420851815735715   -0.04214095719849977   -0.0027404910937485426
-0.012995309989390814   -0.05404374777839757   -0.0028861264679093277
-0.007023492099217801   -0.05397567808289274   -0.002727301214828722
-0.006380761812352681   -0.04192050721248845   -0.002645105012912921
-0.006966452478105387   -0.05404933813500595   -0.0027042476916552646
-0.012420851815735715   -0.04214095719849977   -0.0027404910937485426
-0.006347641749410121   -0.04197558398898257   -0.0026069974991722662
-0.006966452478105387   -0.05404933813500595   -0.0027042476916552646
-0.006380761812352681   -0.04192050721248845   -0.002645105012912921
-0.012420851815735715   -0.04214095719849977   -0.0027404910937485426
-0.006966452478105387   -0.05404933813500595   -0.0027042476916552646
-0.01292454271729757   -0.054159320545990076   -0.0028832994435203257
-0.012995309989390814   -0.05404374777839757   -0.0028861264679093277
-0.012420851815735715   -0.04214095719849977   -0.0027404910937485426
-0.006966452478105387   -0.05404933813500595   -0.0027042476916552646
-0.012995309989390814   -0.05404374777839757   -0.0028861264679093277
-0.006380761812352681   -0.04192050721248845   -0.002645105012912921
-0.0064307124046873295   -0.0417945043305066   -0.0027573919620492277
-0.007123246323102778   -0.05386194279404462   -0.0028109173897114706
-0.0005419921149513674   -0.041772478914451676   -0.0026735085598407274
-0.006408296309626581   -0.04186021331487024   -0.0026953310798333275
-0.007123246323102778   -0.05386194279404462   -0.0028109173897114706
-0.0013302970056760623   -0.05383036370683761   -0.0027630233498259563
-0.0005419921149513674   -0.041772478914451676   -0.0026735085598407274
-0.001274907341312424   -0.05384228953172326   -0.002695224143530191
-0.006408296309626581   -0.04186021331487024   -0.0026953310798333275
-0.0005106001680637684   -0.04179457276020947   -0.0026212191325227347
-0.001274907341312424   -0.05384228953172326   -0.002695224143530191
-0.0005419921149513674   -0.041772478914451676   -0.0026735085598407274
-0.006408296309626581   -0.04186021331487024   -0.0026953310798333275
-0.001274907341312424   -0.05384228953172326   -0.002695224143530191
-0.007076416358861563   -0.05391327780096062   -0.0027629898323758835
-0.007123246323102778   -0.05386194279404462   -0.0028109173897114706
-0.006408296309626581   -0.04186021331487024   -0.0026953310798333275
-0.001274907341312424   -0.05384228953172326   -0.002695224143530191
-0.007123246323102778   -0.05386194279404462   -0.0028109173897114706
-0.0005419921149513674   -0.041772478914451676   -0.0026735085598407274
-0.006408296309626581   -0.04186021331487024   -0.0026953310798333275
-0.007076416358861563   -0.05391327780096062   -0.0027629898323758835
-0.0005106001680637684   -0.04179457276020947   -0.0026212191325227347
-0.006380761812352681   -0.04192050721248845   -0.002645105012912921
-0.007076416358861563   -0.05391327780096062   -0.0027629898323758835
-0.001274907341312424   -0.05384228953172326   -0.002695224143530191
-0.0005106001680637684   -0.04179457276020947   -0.0026212191325227347
-0.0012225133173322876   -0.05386441287755852   -0.0026395767537588477
-0.006380761812352681   -0.04192050721248845   -0.002645105012912921
-0.0004834393409242049   -0.04181086903826783   -0.0025806617700788194
-0.0012225133173322876   -0.05386441287755852   -0.0026395767537588477
-0.0005106001680637684   -0.04179457276020947   -0.0026212191325227347
-0.006380761812352681   -0.04192050721248845   -0.002645105012912921
-0.0012225133173322876   -0.05386441287755852   -0.0026395767537588477
-0.007023492099217801   -0.05397567808289274   -0.002727301214828722
-0.007076416358861563   -0.05391327780096062   -0.0027629898323758835
-0.006380761812352681   -0.04192050721248845   -0.002645105012912921
-0.0012225133173322876   -0.05386441287755852   -0.0026395767537588477
-0.007076416358861563   -0.05391327780096062   -0.0027629898323758835
-0.0005106001680637684   -0.04179457276020947   -0.0026212191325227347
-0.006380761812352681   -0.04192050721248845   -0.002645105012912921
-0.007023492099217801   -0.05397567808289274   -0.002727301214828722
-0.0004834393409242049   -0.04181086903826783   -0.0025806617700788194
-0.006347641749410121   -0.04197558398898257   -0.0026069974991722662
-0.007023492099217801   -0.05397567808289274   -0.002727301214828722
-0.0012225133173322876   -0.05386441287755852   -0.0026395767537588477
-0.0004834393409242049   -0.04181086903826783   -0.0025806617700788194
-0.001178054248652284   -0.05389723926671726   -0.002596505895981355
-0.006347641749410121   -0.04197558398898257   -0.0026069974991722662
-0.00046278042182058805   -0.041821284655892944   -0.002552264628586851
-0.001178054248652284   -0.05389723926671726   -0.002596505895981355
-0.0004834393409242049   -0.04181086903826783   -0.0025806617700788194
-0.006347641749410121   -0.04197558398898257   -0.0026069974991722662
-0.001178054248652284   -0.05389723926671726   -0.002596505895981355
-0.006966452478105387   -0.05404933813500595   -0.0027042476916552646
-0.007023492099217801   -0.05397567808289274   -0.002727301214828722
-0.006347641749410121   -0.04197558398898257   -0.0026069974991722662
-0.001178054248652284   -0.05389723926671726   -0.002596505895981355
-0.007023492099217801   -0.05397567808289274   -0.002727301214828722
-0.0004834393409242049   -0.04181086903826783   -0.0025806617700788194
-0.0005419921149513674   -0.041772478914451676   -0.0026735085598407274
-0.0013302970056760623   -0.05383036370683761   -0.0027630233498259563
0.005526497557398333   -0.04176312237454   -0.0026685669861103586
-0.0005106001680637684   -0.04179457276020947   -0.0026212191325227347
-0.0013302970056760623   -0.05383036370683761   -0.0027630233498259563
0.004637132159526293   -0.05376015624167149   -0.0027865636212320456
0.005526497557398333   -0.04176312237454   -0.0026685669861103586
0.004707791426182924   -0.053732544564497664   -0.0026992473445947435
-0.0005106001680637684   -0.04179457276020947   -0.0026212191325227347
0.005568133643948352   -0.04174297445474081   -0.0026265399220257936
0.004707791426182924   -0.053732544564497664   -0.0026992473445947435
0.005526497557398333   -0.04176312237454   -0.0026685669861103586
-0.0005106001680637684   -0.04179457276020947   -0.0026212191325227347
0.004707791426182924   -0.053732544564497664   -0.0026992473445947435
-0.001274907341312424   -0.05384228953172326   -0.002695224143530191
-0.0013302970056760623   -0.05383036370683761   -0.0027630233498259563
-0.0005106001680637684   -0.04179457276020947   -0.0026212191325227347
0.004707791426182924   -0.053732544564497664   -0.0026992473445947435
-0.0013302970056760623   -0.05383036370683761   -0.0027630233498259563
0.005526497557398333   -0.04176312237454   -0.0026685669861103586
-0.0005106001680637684   -0.04179457276020947   -0.0026212191325227347
-0.001274907341312424   -0.05384228953172326   -0.002695224143530191
0.005568133643948352   -0.04174297445474081   -0.0026265399220257936
-0.0004834393409242049   -0.04181086903826783   -0.0025806617700788194
-0.001274907341312424   -0.05384228953172326   -0.002695224143530191
0.004707791426182924   -0.053732544564497664   -0.0026992473445947435
0.005568133643948352   -0.04174297445474081   -0.0026265399220257936
0.004773071113111054   -0.05371818816516194   -0.002624046863439802
-0.0004834393409242049   -0.04181086903826783   -0.0025806617700788194
0.005595937423207301   -0.04171945758442496   -0.0025959092024132615
0.004773071113111054   -0.05371818816516194   -0.002624046863439802
0.005568133643948352   -0.04174297445474081   -0.0026265399220257936
-0.0004834393409242049   -0.04181086903826783   -0.0025806617700788194
0.004773071113111054   -0.05371818816516194   -0.002624046863439802
-0.0012225133173322876   -0.05386441287755852   -0.0026395767537588477
-0.001274907341312424   -0.05384228953172326   -0.002695224143530191
-0.0004834393409242049   -0.04181086903826783   -0.0025806617700788194
0.004773071113111054   -0.05371818816516194   -0.002624046863439802
-0.001274907341312424   -0.05384228953172326   -0.002695224143530191
0.005568133643948352   -0.04174297445474081   -0.0026265399220257936
-0.0004834393409242049   -0.04181086903826783   -0.0025806617700788194
-0.0012225133173322876   -0.05386441287755852   -0.0026395767537588477
0.005595937423207301   -0.04171945758442496   -0.0025959092024132615
-0.00046278042182058805   -0.041821284655892944   -0.002552264628586851
-0.0012225133173322876   -0.05386441287755852   -0.0026395767537588477
0.004773071113111054   -0.05371818816516194   -0.002624046863439802
0.005595937423207301   -0.04171945758442496   -0.0025959092024132615
0.004808044522377168   -0.053710122869293005   -0.0025601712091679277
-0.00046278042182058805   -0.041821284655892944   -0.002552264628586851
0.005601462168180345   -0.041684846674388217   -0.0025764407207012866
0.004808044522377168   -0.053710122869293005   -0.0025601712091679277
0.005595937423207301   -0.04171945758442496   -0.0025959092024132615
-0.00046278042182058805   -0.041821284655892944   -0.002552264628586851
0.004808044522377168   -0.053710122869293005   -0.0025601712091679277
-0.001178054248652284   -0.05389723926671726   -0.002596505895981355
-0.0012225133173322876   -0.05386441287755852   -0.0026395767537588477
-0.00046278042182058805   -0.041821284655892944   -0.002552264628586851
0.004808044522377168   -0.053710122869293005   -0.0025601712091679277
-0.0012225133173322876   -0.05386441287755852   -0.0026395767537588477
0.005595937423207301   -0.04171945758442496   -0.0025959092024132615
0.005526497557398333   -0.04176312237454   -0.0026685669861103586
0.004637132159526293   -0.05376015624167149   -0.0027865636212320456
0.012103080014839519   -0.04175021270190408   -0.0027346226119026886
0.005568133643948352   -0.04174297445474081   -0.0026265399220257936
0.004637132159526293   -0.05376015624167149   -0.0027865636212320456
0.011026542741692834   -0.053642212934072724   -0.002885258133165196
0.012103080014839519   -0.04175021270190408   -0.0027346226119026886
0.011211028212815251   -0.05357876474353832   -0.002770673763045967
0.005568133643948352   -0.04174297445474081   -0.0026265399220257936
0.012184681315478485   -0.04169668574280248   -0.0027002472655779505
0.011211028212815251   -0.05357876474353832   -0.002770673763045967
0.012103080014839519   -0.04175021270190408   -0.0027346226119026886
0.005568133643948352   -0.04174297445474081   -0.0026265399220257936
0.011211028212815251   -0.05357876474353832   -0.002770673763045967
0.004707791426182924   -0.053732544564497664   -0.0026992473445947435
0.004637132159526293   -0.05376015624167149   -0.0027865636212320456
0.005568133643948352   -0.04174297445474081   -0.0026265399220257936
0.011211028212815251   -0.05357876474353832   -0.002770673763045967
0.004637132159526293   -0.05376015624167149   -0.0027865636212320456
0.012103080014839519   -0.04175021270190408   -0.0027346226119026886
0.005568133643948352   -0.04174297445474081   -0.0026265399220257936
0.004707791426182924   -0.053732544564497664   -0.0026992473445947435
0.012184681315478485   -0.04169668574280248   -0.0027002472655779505
0.005595937423207301   -0.04171945758442496   -0.0025959092024132615
0.004707791426182924   -0.053732544564497664   -0.0026992473445947435
0.011211028212815251   -0.05357876474353832   -0.002770673763045967
0.012184681315478485   -0.04169668574280248   -0.0027002472655779505
0.011337740234505653   -0.053547999114473874   -0.0026733417545205065
0.005595937423207301   -0.04171945758442496   -0.0025959092024132615
0.01222771143631895   -0.0416543920227524   -0.002683185932070064
0.011337740234505653   -0.053547999114473874   -0.0026733417545205065
0.012184681315478485   -0.04169668574280248   -0.0027002472655779505
0.005595937423207301   -0.04171945758442496   -0.0025959092024132615
0.011337740234505653   -0.053547999114473874   -0.0026733417545205065
0.004773071113111054   -0.05371818816516194   -0.002624046863439802
0.004707791426182924   -0.053732544564497664   -0.0026992473445947435
0.005595937423207301   -0.04171945758442496   -0.0025959092024132615
0.011337740234505653   -0.053547999114473874   -0.0026733417545205065
0.004707791426182924   -0.053732544564497664   -0.0026992473445947435
0.012184681315478485   -0.04169668574280248   -0.0027002472655779505
0.005595937423207301   -0.04171945758442496   -0.0025959092024132615
0.004773071113111054   -0.05371818816516194   -0.002624046863439802
0.01222771143631895   -0.0416543920227524   -0.002683185932070064
0.005601462168180345   -0.041684846674388217   -0.0025764407207012866
0.004773071113111054   -0.05371818816516194   -0.002624046863439802
0.011337740234505653   -0.053547999114473874   -0.0026733417545205065
0.01222771143631895   -0.0416543920227524   -0.002683185932070064
0.011450180793062825   -0.05351448518127265   -0.0025939777815884185
0.005601462168180345   -0.041684846674388217   -0.0025764407207012866
0.01223783779207629   -0.04158646153296655   -0.0026837335451011103
0.011450180793062825   -0.05351448518127265   -0.0025939777815884185
0.01222771143631895   -0.0416543920227524   -0.002683185932070064
0.005601462168180345   -0.041684846674388217   -0.0025764407207012866
0.011450180793062825   -0.05351448518127265   -0.0025939777815884185
0.004808044522377168   -0.053710122869293005   -0.0025601712091679277
0.004773071113111054   -0.05371818816516194   -0.002624046863439802
0.005601462168180345   -0.041684846674388217   -0.0025764407207012866
0.011450180793062825   -0.05351448518127265   -0.0025939777815884185
0.004773071113111054   -0.05371818816516194   -0.002624046863439802
0.01222771143631895   -0.0416543920227524   -0.002683185932070064
-0.019593311208062892   -0.05382403085255644   -0.003104055388460168
-0.01906899541225806   -0.06521139699937278   -0.002967619809717037
-0.013084876140135964   -0.053855164290716885   -0.002927964857102565
-0.019570961801035305   -0.05394373447265837   -0.0030983792339329503
-0.01906899541225806   -0.06521139699937278   -0.002967619809717037
-0.013031250657282487   -0.0653425893298095   -0.0028615233847271034
-0.013084876140135964   -0.053855164290716885   -0.002927964857102565
-0.012954888179321626   -0.06540939778722259   -0.002877546083972968
-0.019570961801035305   -0.05394373447265837   -0.0030983792339329503
-0.013049917797553531   -0.053944636652517274   -0.002900949532813626
-0.012954888179321626   -0.06540939778722259   -0.002877546083972968
-0.013084876140135964   -0.053855164290716885   -0.002927964857102565
-0.019570961801035305   -0.05394373447265837   -0.0030983792339329503
-0.012954888179321626   -0.06540939778722259   -0.002877546083972968
-0.018931156521681255   -0.06530159968493335   -0.003043218220431981
-0.01906899541225806   -0.06521139699937278   -0.002967619809717037
-0.019570961801035305   -0.05394373447265837   -0.0030983792339329503
-0.012954888179321626   -0.06540939778722259   -0.002877546083972968
-0.01906899541225806   -0.06521139699937278   -0.002967619809717037
-0.013084876140135964   -0.053855164290716885   -0.002927964857102565
-0.019570961801035305   -0.05394373447265837   -0.0030983792339329503
-0.018931156521681255   -0.06530159968493335   -0.003043218220431981
-0.013049917797553531   -0.053944636652517274   -0.002900949532813626
-0.019511237049206823   -0.05405993654001701   -0.0031109235311786634
-0.018931156521681255   -0.06530159968493335   -0.003043218220431981
-0.012954888179321626   -0.06540939778722259   -0.002877546083972968
-0.013049917797553531   -0.053944636652517274   -0.002900949532813626
-0.012851481518736593   -0.0655044827475123   -0.002906074561316499
-0.019511237049206823   -0.05405993654001701   -0.0031109235311786634
-0.012995309989390814   -0.05404374777839757   -0.0028861264679093277
-0.012851481518736593   -0.0655044827475123   -0.002906074561316499
-0.013049917797553531   -0.053944636652517274   -0.002900949532813626
-0.019511237049206823   -0.05405993654001701   -0.0031109235311786634
-0.012851481518736593   -0.0655044827475123   -0.002906074561316499
-0.018773780790494323   -0.06541226868192414   -0.0031384855907666672
-0.018931156521681255   -0.06530159968493335   -0.003043218220431981
-0.019511237049206823   -0.05405993654001701   -0.0031109235311786634
-0.012851481518736593   -0.0655044827475123   -0.002906074561316499
-0.018931156521681255   -0.06530159968493335   -0.003043218220431981
-0.013049917797553531   -0.053944636652517274   -0.002900949532813626
-0.019511237049206823   -0.05405993654001701   -0.0031109235311786634
-0.018773780790494323   -0.06541226868192414   -0.0031384855907666672
-0.012995309989390814   -0.05404374777839757   -0.0028861264679093277
-0.01941421196040388   -0.054209599702423436   -0.003142607529984811
-0.018773780790494323   -0.06541226868192414   -0.0031384855907666672
-0.012851481518736593   -0.0655044827475123   -0.002906074561316499
-0.012995309989390814   -0.05404374777839757   -0.0028861264679093277
-0.012740518402601523   -0.06563364309559518   -0.002947479004440617
-0.01941421196040388   -0.054209599702423436   -0.003142607529984811
-0.01292454271729757   -0.054159320545990076   -0.0028832994435203257
-0.012740518402601523   -0.06563364309559518   -0.002947479004440617
-0.012995309989390814   -0.05404374777839757   -0.0028861264679093277
-0.01941421196040388   -0.054209599702423436   -0.003142607529984811
-0.012740518402601523   -0.06563364309559518   -0.002947479004440617
-0.018559455126467356   -0.06558070909511103   -0.00325378281009163
-0.018773780790494323   -0.06541226868192414   -0.0031384855907666672
-0.01941421196040388   -0.054209599702423436   -0.003142607529984811
-0.012740518402601523   -0.06563364309559518   -0.002947479004440617
-0.018773780790494323   -0.06541226868192414   -0.0031384855907666672
-0.012995309989390814   -0.05404374777839757   -0.0028861264679093277
-0.013084876140135964   -0.053855164290716885   -0.002927964857102565
-0.013031250657282487   -0.0653425893298095   -0.0028615233847271034
-0.007123246323102778   -0.05386194279404462   -0.0028109173897114706
-0.013049917797553531   -0.053944636652517274   -0.002900949532813626
-0.013031250657282487   -0.0653425893298095   -0.0028615233847271034
-0.007619302714258049   -0.06539453375795647   -0.0027936086452856703
-0.007123246323102778   -0.05386194279404462   -0.0028109173897114706
-0.007536135719706568   -0.06542928176716088   -0.002758712498058485
-0.013049917797553531   -0.053944636652517274   -0.002900949532813626
-0.007076416358861563   -0.05391327780096062   -0.0027629898323758835
-0.007536135719706568   -0.06542928176716088   -0.002758712498058485
-0.007123246323102778   -0.05386194279404462   -0.0028109173897114706
-0.013049917797553531   -0.053944636652517274   -0.002900949532813626
-0.007536135719706568   -0.06542928176716088   -0.002758712498058485
-0.012954888179321626   -0.06540939778722259   -0.002877546083972968
-0.013031250657282487   -0.0653425893298095   -0.0028615233847271034
-0.013049917797553531   -0.053944636652517274   -0.002900949532813626
-0.007536135719706568   -0.06542928176716088   -0.002758712498058485
-0.013031250657282487   -0.0653425893298095   -0.0028615233847271034
-0.007123246323102778   -0.05386194279404462   -0.0028109173897114706
-0.013049917797553531   -0.053944636652517274   -0.002900949532813626
-0.012954888179321626   -0.06540939778722259   -0.002877546083972968
-0.007076416358861563   -0.05391327780096062   -0.0027629898323758835
-0.012995309989390814   -0.05404374777839757   -0.0028861264679093277
-0.012954888179321626   -0.06540939778722259   -0.002877546083972968
-0.007536135719706568   -0.06542928176716088   -0.002758712498058485
-0.007076416358861563   -0.05391327780096062   -0.0027629898323758835
-0.0074466679531569385   -0.0654912198993313   -0.0027361700175850714
-0.012995309989390814   -0.05404374777839757   -0.0028861264679093277
-0.007023492099217801   -0.05397567808289274   -0.002727301214828722
-0.0074466679531569385   -0.0654912198993313   -0.0027361700175850714
-0.007076416358861563   -0.05391327780096062   -0.0027629898323758835
-0.012995309989390814   -0.05404374777839757   -0.0028861264679093277
-0.0074466679531569385   -0.0654912198993313   -0.0027361700175850714
-0.012851481518736593   -0.0655044827475123   -0.002906074561316499
-0.012954888179321626   -0.06540939778722259   -0.002877546083972968
-0.012995309989390814   -0.05404374777839757   -0.0028861264679093277
-0.0074466679531569385   -0.0654912198993313   -0.0027361700175850714
-0.012954888179321626   -0.06540939778722259   -0.002877546083972968
-0.007076416358861563   -0.05391327780096062   -0.0027629898323758835
-0.012995309989390814   -0.05404374777839757   -0.0028861264679093277
-0.012851481518736593   -0.0655044827475123   -0.002906074561316499
-0.007023492099217801   -0.05397567808289274   -0.002727301214828722
-0.01292454271729757   -0.054159320545990076   -0.0028832994435203257
-0.012851481518736593   -0.0655044827475123   -0.002906074561316499
-0.0074466679531569385   -0.0654912198993313   -0.0027361700175850714
-0.007023492099217801   -0.05397567808289274   -0.002727301214828722
-0.007354705487832051   -0.06558113271775415   -0.0027265845629711126
-0.01292454271729757   -0.054159320545990076   -0.0028832994435203257
-0.006966452478105387   -0.05404933813500595   -0.0027042476916552646
-0.007354705487832051   -0.06558113271775415   -0.0027265845629711126
-0.007023492099217801   -0.05397567808289274   -0.002727301214828722
-0.01292454271729757   -0.054159320545990076   -0.0028832994435203257
-0.007354705487832051   -0.06558113271775415   -0.0027265845629711126
-0.012740518402601523   -0.06563364309559518   -0.002947479004440617
-0.012851481518736593   -0.0655044827475123   -0.002906074561316499
-0.01292454271729757   -0.054159320545990076   -0.0028832994435203257
-0.007354705487832051   -0.06558113271775415   -0.0027265845629711126
-0.012851481518736593   -0.0655044827475123   -0.002906074561316499
-0.007023492099217801   -0.05397567808289274   -0.002727301214828722
-0.007123246323102778   -0.05386194279404462   -0.0028109173897114706
-0.007619302714258049   -0.06539453375795647   -0.0027936086452856703
-0.0013302970056760623   -0.05383036370683761   -0.0027630233498259563
-0.007076416358861563   -0.05391327780096062   -0.0027629898323758835
-0.007619302714258049   -0.06539453375795647   -0.0027936086452856703
-0.002371295942417496   -0.0653547228043301   -0.002782308567146578
-0.0013302970056760623   -0.05383036370683761   -0.0027630233498259563
-0.002279307021973919   -0.06535555894113466   -0.002698240149114
-0.007076416358861563   -0.05391327780096062   -0.0027629898323758835
-0.001274907341312424   -0.05384228953172326   -0.002695224143530191
-0.002279307021973919   -0.06535555894113466   -0.002698240149114
-0.0013302970056760623   -0.05383036370683761   -0.0027630233498259563
-0.007076416358861563   -0.05391327780096062   -0.0027629898323758835
-0.002279307021973919   -0.06535555894113466   -0.002698240149114
-0.007536135719706568   -0.06542928176716088   -0.002758712498058485
-0.007619302714258049   -0.06539453375795647   -0.0027936086452856703
-0.007076416358861563   -0.05391327780096062   -0.0027629898323758835
-0.002279307021973919   -0.06535555894113466   -0.002698240149114
-0.007619302714258049   -0.06539453375795647   -0.0027936086452856703
-0.0013302970056760623   -0.05383036370683761   -0.0027630233498259563
-0.007076416358861563   -0.05391327780096062   -0.0027629898323758835
-0.007536135719706568   -0.06542928176716088   -0.002758712498058485
-0.001274907341312424   -0.05384228953172326   -0.002695224143530191
-0.007023492099217801   -0.05397567808289274   -0.002727301214828722
-0.007536135719706568   -0.06542928176716088   -0.002758712498058485
-0.002279307021973919   -0.06535555894113466   -0.002698240149114
-0.001274907341312424   -0.05384228953172326   -0.002695224143530191
-0.0021897313768639145   -0.06538158977107876   -0.0026265554190569207
-0.007023492099217801   -0.05397567808289274   -0.002727301214828722
-0.0012225133173322876   -0.05386441287755852   -0.0026395767537588477
-0.0021897313768639145   -0.06538158977107876   -0.0026265554190569207
-0.001274907341312424   -0.05384228953172326   -0.002695224143530191
-0.007023492099217801   -0.05397567808289274   -0.002727301214828722
-0.0021897313768639145   -0.06538158977107876   -0.0026265554190569207
-0.0074466679531569385   -0.0654912198993313   -0.0027361700175850714
-0.007536135719706568   -0.06542928176716088   -0.002758712498058485
-0.007023492099217801   -0.05397567808289274   -0.002727301214828722
-0.0021897313768639145   -0.06538158977107876   -0.0026265554190569207
-0.007536135719706568   -0.06542928176716088   -0.002758712498058485
-0.001274907341312424   -0.05384228953172326   -0.002695224143530191
-0.007023492099217801   -0.05397567808289274   -0.002727301214828722
-0.0074466679531569385   -0.0654912198993313   -0.0027361700175850714
-0.0012225133173322876   -0.05386441287755852   -0.0026395767537588477
-0.006966452478105387   -0.05404933813500595   -0.0027042476916552646
-0.0074466679531569385   -0.0654912198993313   -0.0027361700175850714
-0.0021897313768639145   -0.06538158977107876   -0.0026265554190569207
-0.0012225133173322876   -0.05386441287755852   -0.0026395767537588477
-0.0021098163352135106   -0.06543497509232674   -0.0025676851327460855
-0.006966452478105387   -0.05404933813500595   -0.0027042476916552646
-0.001178054248652284   -0.05389723926671726   -0.002596505895981355
-0.0021098163352135106   -0.06543497509232674   -0.0025676851327460855
-0.0012225133173322876   -0.05386441287755852   -0.0026395767537588477
-0.006966452478105387   -0.05404933813500595   -0.0027042476916552646
-0.0021098163352135106   -0.06543497509232674   -0.0025676851327460855
-0.007354705487832051   -0.06558113271775415   -0.0027265845629711126
-0.0074466679531569385   -0.0654912198993313   -0.0027361700175850714
-0.006966452478105387   -0.05404933813500595   -0.0027042476916552646
-0.0021098163352135106   -0.06543497509232674   -0.0025676851327460855
-0.0074466679531569385   -0.0654912198993313   -0.0027361700175850714
-0.0012225133173322876   -0.05386441287755852   -0.0026395767537588477
-0.0013302970056760623   -0.05383036370683761   -0.0027630233498259563
-0.002371295942417496   -0.0653547228043301   -0.002782308567146578
0.004637132159526293   -0.05376015624167149   -0.0027865636212320456
-0.001274907341312424   -0.05384228953172326   -0.002695224143530191
-0.002371295942417496   -0.0653547228043301   -0.002782308567146578
0.0030578036313161226   -0.0652258771857682   -0.0028320684791668643
0.004637132159526293   -0.05376015624167149   -0.0027865636212320456
0.003170271265786906   -0.06519051638890792   -0.002699294286540313
-0.001274907341312424   -0.05384228953172326   -0.002695224143530191
0.004707791426182924   -0.053732544564497664   -0.0026992473445947435
0.003170271265786906   -0.06519051638890792   -0.002699294286540313
0.004637132159526293   -0.05376015624167149   -0.0027865636212320456
-0.001274907341312424   -0.05384228953172326   -0.002695224143530191
0.003170271265786906   -0.06519051638890792   -0.002699294286540313
-0.002279307021973919   -0.06535555894113466   -0.002698240149114
-0.002371295942417496   -0.0653547228043301   -0.002782308567146578
-0.001274907341312424   -0.05384228953172326   -0.002695224143530191
0.003170271265786906   -0.06519051638890792   -0.002699294286540313
-0.002371295942417496   -0.0653547228043301   -0.002782308567146578
0.004637132159526293   -0.05376015624167149   -0.0027865636212320456
-0.001274907341312424   -0.05384228953172326   -0.002695224143530191
-0.002279307021973919   -0.06535555894113466   -0.002698240149114
0.004707791426182924   -0.053732544564497664   -0.0026992473445947435
-0.0012225133173322876   -0.05386441287755852   -0.0026395767537588477
-0.002279307021973919   -0.06535555894113466   -0.002698240149114
0.003170271265786906   -0.06519051638890792   -0.002699294286540313
0.004707791426182924   -0.053732544564497664   -0.0026992473445947435
0.00328558066767346   -0.06518393794770828   -0.002579697836857723
-0.0012225133173322876   -0.05386441287755852   -0.0026395767537588477
0.004773071113111054   -0.05371818816516194   -0.002624046863439802
0.00328558066767346   -0.06518393794770828   -0.002579697836857723
0.004707791426182924   -0.053732544564497664   -0.0026992473445947435
-0.0012225133173322876   -0.05386441287755852   -0.0026395767537588477
0.00328558066767346   -0.06518393794770828   -0.002579697836857723
-0.0021897313768639145   -0.06538158977107876   -0.0026265554190569207
-0.002279307021973919   -0.06535555894113466   -0.002698240149114
-0.0012225133173322876   -0.05386441287755852   -0.0026395767537588477
0.00328558066767346   -0.06518393794770828   -0.002579697836857723
-0.002279307021973919   -0.06535555894113466   -0.002698240149114
0.004707791426182924   -0.053732544564497664   -0.0026992473445947435
-0.0012225133173322876   -0.05386441287755852   -0.0026395767537588477
-0.0021897313768639145   -0.06538158977107876   -0.0026265554190569207
0.004773071113111054   -0.05371818816516194   -0.002624046863439802
-0.001178054248652284   -0.05389723926671726   -0.002596505895981355
-0.0021897313768639145   -0.06538158977107876   -0.0026265554190569207
0.00328558066767346   -0.06518393794770828   -0.002579697836857723
0.004773071113111054   -0.05371818816516194   -0.002624046863439802
0.003362242294098257   -0.06520082832262127   -0.0024715416527876593
-0.001178054248652284   -0.05389723926671726   -0.002596505895981355
0.004808044522377168   -0.053710122869293005   -0.0025601712091679277
0.003362242294098257   -0.06520082832262127   -0.0024715416527876593
0.004773071113111054   -0.05371818816516194   -0.002624046863439802
-0.001178054248652284   -0.05389723926671726   -0.002596505895981355
0.003362242294098257   -0.06520082832262127   -0.0024715416527876593
-0.0021098163352135106   -0.06543497509232674   -0.0025676851327460855
-0.0021897313768639145   -0.06538158977107876   -0.0026265554190569207
-0.001178054248652284   -0.05389723926671726   -0.002596505895981355
0.003362242294098257   -0.06520082832262127   -0.0024715416527876593
-0.0021897313768639145   -0.06538158977107876   -0.0026265554190569207
0.004773071113111054   -0.05371818816516194   -0.002624046863439802
0.004637132159526293   -0.05376015624167149   -0.0027865636212320456
0.0030578036313161226   -0.0652258771857682   -0.0028320684791668643
0.011026542741692834   -0.053642212934072724   -0.002885258133165196
0.004707791426182924   -0.053732544564497664   -0.0026992473445947435
0.0030578036313161226   -0.0652258771857682   -0.0028320684791668643
0.008833820165617881   -0.06500437462049935   -0.002960629922413636
0.011026542741692834   -0.053642212934072724   -0.002885258133165196
0.009133028446316421   -0.06493144195437847   -0.0027674524764438797
0.004707791426182924   -0.053732544564497664   -0.0026992473445947435
0.011211028212815251   -0.05357876474353832   -0.002770673763045967
0.009133028446316421   -0.06493144195437847   -0.0027674524764438797
0.011026542741692834   -0.053642212934072724   -0.002885258133165196
0.004707791426182924   -0.053732544564497664   -0.0026992473445947435
0.009133028446316421   -0.06493144195437847   -0.0027674524764438797
0.003170271265786906   -0.06519051638890792   -0.002699294286540313
0.0030578036313161226   -0.0652258771857682   -0.0028320684791668643
0.004707791426182924   -0.053732544564497664   -0.0026992473445947435
0.009133028446316421   -0.06493144195437847   -0.0027674524764438797
0.0030578036313161226   -0.0652258771857682   -0.0028320684791668643
0.011026542741692834   -0.053642212934072724   -0.002885258133165196
0.004707791426182924   -0.053732544564497664   -0.0026992473445947435
0.003170271265786906   -0.06519051638890792   -0.002699294286540313
0.011211028212815251   -0.05357876474353832   -0.002770673763045967
0.004773071113111054   -0.05371818816516194   -0.002624046863439802
0.003170271265786906   -0.06519051638890792   -0.002699294286540313
0.009133028446316421   -0.06493144195437847   -0.0027674524764438797
0.011211028212815251   -0.05357876474353832   -0.002770673763045967
0.009354561003815275   -0.06491140379302215   -0.002591797686137498
0.004773071113111054   -0.05371818816516194   -0.002624046863439802
0.011337740234505653   -0.053547999114473874   -0.0026733417545205065
0.009354561003815275   -0.06491140379302215   -0.002591797686137498
0.011211028212815251   -0.05357876474353832   -0.002770673763045967
0.004773071113111054   -0.05371818816516194   -0.002624046863439802
0.009354561003815275   -0.06491140379302215   -0.002591797686137498
0.00328558066767346   -0.06518393794770828   -0.002579697836857723
0.003170271265786906   -0.06519051638890792   -0.002699294286540313
0.004773071113111054   -0.05371818816516194   -0.002624046863439802
0.009354561003815275   -0.06491140379302215   -0.002591797686137498
0.003170271265786906   -0.06519051638890792   -0.002699294286540313
0.011211028212815251   -0.05357876474353832   -0.002770673763045967
0.004773071113111054   -0.05371818816516194   -0.002624046863439802
0.00328558066767346   -0.06518393794770828   -0.002579697836857723
0.011337740234505653   -0.053547999114473874   -0.0026733417545205065
0.004808044522377168   -0.053710122869293005   -0.0025601712091679277
0.00328558066767346   -0.06518393794770828   -0.002579697836857723
0.009354561003815275   -0.06491140379302215   -0.002591797686137498
0.011337740234505653   -0.053547999114473874   -0.0026733417545205065
0.009579100326287095   -0.06491120057824673   -0.002434462572338906
0.004808044522377168   -0.053710122869293005   -0.0025601712091679277
0.011450180793062825   -0.05351448518127265   -0.0025939777815884185
0.009579100326287095   -0.06491120057824673   -0.002434462572338906
0.011337740234505653   -0.053547999114473874   -0.0026733417545205065
0.004808044522377168   -0.053710122869293005   -0.0025601712091679277
0.009579100326287095   -0.06491120057824673   -0.002434462572338906
0.003362242294098257   -0.06520082832262127   -0.0024715416527876593
0.00328558066767346   -0.06518393794770828   -0.002579697836857723
0.004808044522377168   -0.053710122869293005   -0.0025601712091679277
0.009579100326287095   -0.06491120057824673   -0.002434462572338906
0.00328558066767346   -0.06518393794770828   -0.002579697836857723
0.011337740234505653   -0.053547999114473874   -0.0026733417545205065
-0.01906899541225806   -0.06521139699937278   -0.002967619809717037
-0.01740259373909461   -0.07528846568716745   -0.002767299308517197
-0.013031250657282487   -0.0653425893298095   -0.0028615233847271034
-0.018931156521681255   -0.06530159968493335   -0.003043218220431981
-0.01740259373909461   -0.07528846568716745   -0.002767299308517197
-0.01232078384511122   -0.07552524560055966   -0.0027501638590271393
-0.013031250657282487   -0.0653425893298095   -0.0028615233847271034
-0.012193911405106292   -0.07555949999350751   -0.00280613918713525
-0.018931156521681255   -0.06530159968493335   -0.003043218220431981
-0.012954888179321626   -0.06540939778722259   -0.002877546083972968
-0.012193911405106292   -0.07555949999350751   -0.00280613918713525
-0.013031250657282487   -0.0653425893298095   -0.0028615233847271034
-0.018931156521681255   -0.06530159968493335   -0.003043218220431981
-0.012193911405106292   -0.07555949999350751   -0.00280613918713525
-0.017138415674103843   -0.07533930818721508   -0.0029239674502774936
-0.01740259373909461   -0.07528846568716745   -0.002767299308517197
-0.018931156521681255   -0.06530159968493335   -0.003043218220431981
-0.012193911405106292   -0.07555949999350751   -0.00280613918713525
-0.01740259373909461   -0.07528846568716745   -0.002767299308517197
-0.013031250657282487   -0.0653425893298095   -0.0028615233847271034
-0.018931156521681255   -0.06530159968493335   -0.003043218220431981
-0.017138415674103843   -0.07533930818721508   -0.0029239674502774936
-0.012954888179321626   -0.06540939778722259   -0.002877546083972968
-0.018773780790494323   -0.06541226868192414   -0.0031384855907666672
-0.017138415674103843   -0.07533930818721508   -0.0029239674502774936
-0.012193911405106292   -0.07555949999350751   -0.00280613918713525
-0.012954888179321626   -0.06540939778722259   -0.002877546083972968
-0.012034559679657534   -0.07564153149544206   -0.0028748107130138877
-0.018773780790494323   -0.06541226868192414   -0.0031384855907666672
-0.012851481518736593   -0.0655044827475123   -0.002906074561316499
-0.012034559679657534   -0.07564153149544206   -0.0028748107130138877
-0.012954888179321626   -0.06540939778722259   -0.002877546083972968
-0.018773780790494323   -0.06541226868192414   -0.0031384855907666672
-0.012034559679657534   -0.07564153149544206   -0.0028748107130138877
-0.01687487100012089   -0.07543557635426566   -0.003101309266534168
-0.017138415674103843   -0.07533930818721508   -0.0029239674502774936
-0.018773780790494323   -0.06541226868192414   -0.0031384855907666672
-0.012034559679657534   -0.07564153149544206   -0.0028748107130138877
-0.017138415674103843   -0.07533930818721508   -0.0029239674502774936
-0.012954888179321626   -0.06540939778722259   -0.002877546083972968
-0.018773780790494323   -0.06541226868192414   -0.0031384855907666672
-0.01687487100012089   -0.07543557635426566   -0.003101309266534168
-0.012851481518736593   -0.0655044827475123   -0.002906074561316499
-0.018559455126467356   -0.06558070909511103   -0.00325378281009163
-0.01687487100012089   -0.07543557635426566   -0.003101309266534168
-0.012034559679657534   -0.07564153149544206   -0.0028748107130138877
-0.012851481518736593   -0.0655044827475123   -0.002906074561316499
-0.011877323110472982   -0.07577599872340977   -0.002956059343929163
-0.018559455126467356   -0.06558070909511103   -0.00325378281009163
-0.012740518402601523   -0.06563364309559518   -0.002947479004440617
-0.011877323110472982   -0.07577599872340977   -0.002956059343929163
-0.012851481518736593   -0.0655044827475123   -0.002906074561316499
-0.018559455126467356   -0.06558070909511103   -0.00325378281009163
-0.011877323110472982   -0.07577599872340977   -0.002956059343929163
-0.01653727657262488   -0.07561508748031917   -0.0032989407697302372
-0.01687487100012089   -0.07543557635426566   -0.003101309266534168
-0.018559455126467356   -0.06558070909511103   -0.00325378281009163
-0.011877323110472982   -0.07577599872340977   -0.002956059343929163
-0.01687487100012089   -0.07543557635426566   -0.003101309266534168
-0.012851481518736593   -0.0655044827475123   -0.002906074561316499
-0.013031250657282487   -0.0653425893298095   -0.0028615233847271034
-0.01232078384511122   -0.07552524560055966   -0.0027501638590271393
-0.007619302714258049   -0.06539453375795647   -0.0027936086452856703
-0.012954888179321626   -0.06540939778722259   -0.002877546083972968
-0.01232078384511122   -0.07552524560055966   -0.0027501638590271393
-0.00792103768741879   -0.07563623198458307   -0.002743341991396946
-0.007619302714258049   -0.06539453375795647   -0.0027936086452856703
-0.00779085447122373   -0.07564747651375257   -0.002718311652703927
-0.012954888179321626   -0.06540939778722259   -0.002877546083972968
-0.007536135719706568   -0.06542928176716088   -0.002758712498058485
-0.00779085447122373   -0.07564747651375257   -0.002718311652703927
-0.007619302714258049   -0.06539453375795647   -0.0027936086452856703
-0.012954888179321626   -0.06540939778722259   -0.002877546083972968
-0.00779085447122373   -0.07564747651375257   -0.002718311652703927
-0.012193911405106292   -0.07555949999350751   -0.00280613918713525
-0.01232078384511122   -0.07552524560055966   -0.0027501638590271393
-0.012954888179321626   -0.06540939778722259   -0.002877546083972968
-0.00779085447122373   -0.07564747651375257   -0.002718311652703927
-0.01232078384511122   -0.07552524560055966   -0.0027501638590271393
-0.007619302714258049   -0.06539453375795647   -0.0027936086452856703
-0.012954888179321626   -0.06540939778722259   -0.002877546083972968
-0.012193911405106292   -0.07555949999350751   -0.00280613918713525
-0.007536135719706568   -0.06542928176716088   -0.002758712498058485
-0.012851481518736593   -0.0655044827475123   -0.002906074561316499
-0.012193911405106292   -0.07555949999350751   -0.00280613918713525
-0.00779085447122373   -0.07564747651375257   -0.002718311652703927
-0.007536135719706568   -0.06542928176716088   -0.002758712498058485
-0.007656495169000808   -0.07570137878781007   -0.002705601691922316
-0.012851481518736593   -0.0655044827475123   -0.002906074561316499
-0.0074466679531569385   -0.0654912198993313   -0.0027361700175850714
-0.007656495169000808   -0.07570137878781007   -0.002705601691922316
-0.007536135719706568   -0.06542928176716088   -0.002758712498058485
-0.012851481518736593   -0.0655044827475123   -0.002906074561316499
-0.007656495169000808   -0.07570137878781007   -0.002705601691922316
-0.012034559679657534   -0.07564153149544206   -0.0028748107130138877
-0.012193911405106292   -0.07555949999350751   -0.00280613918713525
-0.012851481518736593   -0.0655044827475123   -0.002906074561316499
-0.007656495169000808   -0.07570137878781007   -0.002705601691922316
-0.012193911405106292   -0.07555949999350751   -0.00280613918713525
-0.007536135719706568   -0.06542928176716088   -0.002758712498058485
-0.012851481518736593   -0.0655044827475123   -0.002906074561316499
-0.012034559679657534   -0.07564153149544206   -0.0028748107130138877
-0.0074466679531569385   -0.0654912198993313   -0.0027361700175850714
-0.012740518402601523   -0.06563364309559518   -0.002947479004440617
-0.012034559679657534   -0.07564153149544206   -0.0028748107130138877
-0.007656495169000808   -0.07570137878781007   -0.002705601691922316
-0.0074466679531569385   -0.0654912198993313   -0.0027361700175850714
-0.0075223584952187235   -0.07580045948831152   -0.0027050519253224914
-0.012740518402601523   -0.06563364309559518   -0.002947479004440617
-0.007354705487832051   -0.06558113271775415   -0.0027265845629711126
-0.0075223584952187235   -0.07580045948831152   -0.0027050519253224914
-0.0074466679531569385   -0.0654912198993313   -0.0027361700175850714
-0.012740518402601523   -0.06563364309559518   -0.002947479004440617
-0.0075223584952187235   -0.07580045948831152   -0.0027050519253224914
-0.011877323110472982   -0.07577599872340977   -0.002956059343929163
-0.012034559679657534   -0.07564153149544206   -0.0028748107130138877
-0.012740518402601523   -0.06563364309559518   -0.002947479004440617
-0.0075223584952187235   -0.07580045948831152   -0.0027050519253224914
-0.012034559679657534   -0.07564153149544206   -0.0028748107130138877
-0.0074466679531569385   -0.0654912198993313   -0.0027361700175850714
-0.007619302714258049   -0.06539453375795647   -0.0027936086452856703
-0.00792103768741879   -0.07563623198458307   -0.002743341991396946
-0.002371295942417496   -0.0653547228043301   -0.002782308567146578
-0.007536135719706568   -0.06542928176716088   -0.002758712498058485
-0.00792103768741879   -0.07563623198458307   -0.002743341991396946
-0.003667405268319075   -0.07561622969698659   -0.0027748458284053324
-0.002371295942417496   -0.0653547228043301   -0.002782308567146578
-0.0035248077771118077   -0.07560163751484045   -0.0026716535414673184
-0.007536135719706568   -0.06542928176716088   -0.002758712498058485
-0.002279307021973919   -0.06535555894113466   -0.002698240149114
-0.0035248077771118077   -0.07560163751484045   -0.0026716535414673184
-0.002371295942417496   -0.0653547228043301   -0.002782308567146578
-0.007536135719706568   -0.06542928176716088   -0.002758712498058485
-0.0035248077771118077   -0.07560163751484045   -0.0026716535414673184
-0.00779085447122373   -0.07564747651375257   -0.002718311652703927
-0.00792103768741879   -0.07563623198458307   -0.002743341991396946
-0.007536135719706568   -0.06542928176716088   -0.002758712498058485
-0.0035248077771118077   -0.07560163751484045   -0.0026716535414673184
-0.00792103768741879   -0.07563623198458307   -0.002743341991396946
-0.002371295942417496   -0.0653547228043301   -0.002782308567146578
-0.007536135719706568   -0.06542928176716088   -0.002758712498058485
-0.00779085447122373   -0.07564747651375257   -0.002718311652703927
-0.002279307021973919   -0.06535555894113466   -0.002698240149114
-0.0074466679531569385   -0.0654912198993313   -0.0027361700175850714
-0.00779085447122373   -0.07564747651375257   -0.002718311652703927
-0.0035248077771118077   -0.07560163751484045   -0.0026716535414673184
-0.002279307021973919   -0.06535555894113466   -0.002698240149114
-0.0033864234897711233   -0.0756256103523925   -0.002581593879258535
-0.0074466679531569385   -0.0654912198993313   -0.0027361700175850714
-0.0021897313768639145   -0.06538158977107876   -0.0026265554190569207
-0.0033864234897711233   -0.0756256103523925   -0.002581593879258535
-0.002279307021973919   -0.06535555894113466   -0.002698240149114
-0.0074466679531569385   -0.0654912198993313   -0.0027361700175850714
-0.0033864234897711233   -0.0756256103523925   -0.002581593879258535
-0.007656495169000808   -0.07570137878781007   -0.002705601691922316
-0.00779085447122373   -0.07564747651375257   -0.002718311652703927
-0.0074466679531569385   -0.0654912198993313   -0.0027361700175850714
-0.0033864234897711233   -0.0756256103523925   -0.002581593879258535
-0.00779085447122373   -0.07564747651375257   -0.002718311652703927
-0.002279307021973919   -0.06535555894113466   -0.002698240149114
-0.0074466679531569385   -0.0654912198993313   -0.0027361700175850714
-0.007656495169000808   -0.07570137878781007   -0.002705601691922316
-0.0021897313768639145   -0.06538158977107876   -0.0026265554190569207
-0.007354705487832051   -0.06558113271775415   -0.0027265845629711126
-0.007656495169000808   -0.07570137878781007   -0.002705601691922316
-0.0033864234897711233   -0.0756256103523925   -0.002581593879258535
-0.0021897313768639145   -0.06538158977107876   -0.0026265554190569207
-0.003261405908219806   -0.07569375807740296   -0.0025035283892563586
-0.007354705487832051   -0.06558113271775415   -0.0027265845629711126
-0.0021098163352135106   -0.06543497509232674   -0.0025676851327460855
-0.003261405908219806   -0.07569375807740296   -0.0025035283892563586
-0.0021897313768639145   -0.06538158977107876   -0.0026265554190569207
-0.007354705487832051   -0.06558113271775415   -0.0027265845629711126
-0.003261405908219806   -0.07569375807740296   -0.0025035283892563586
-0.0075223584952187235   -0.07580045948831152   -0.0027050519253224914
-0.007656495169000808   -0.07570137878781007   -0.002705601691922316
-0.007354705487832051   -0.06558113271775415   -0.0027265845629711126
-0.003261405908219806   -0.07569375807740296   -0.0025035283892563586
-0.007656495169000808   -0.07570137878781007   -0.002705601691922316
-0.0021897313768639145   -0.06538158977107876   -0.0026265554190569207
-0.002371295942417496   -0.0653547228043301   -0.002782308567146578
-0.003667405268319075   -0.07561622969698659   -0.0027748458284053324
0.0030578036313161226   -0.0652258771857682   -0.0028320684791668643
-0.002279307021973919   -0.06535555894113466   -0.002698240149114
-0.003667405268319075   -0.07561622969698659   -0.0027748458284053324
0.0007859262813685808   -0.0754605557239987   -0.0028516145226267667
0.0030578036313161226   -0.0652258771857682   -0.0028320684791668643
0.0009593813576806596   -0.07541314124956307   -0.0026705330318502404
-0.002279307021973919   -0.06535555894113466   -0.002698240149114
0.003170271265786906   -0.06519051638890792   -0.002699294286540313
0.0009593813576806596   -0.07541314124956307   -0.0026705330318502404
0.0030578036313161226   -0.0652258771857682   -0.0028320684791668643
-0.002279307021973919   -0.06535555894113466   -0.002698240149114
0.0009593813576806596   -0.07541314124956307   -0.0026705330318502404
-0.0035248077771118077   -0.07560163751484045   -0.0026716535414673184
-0.003667405268319075   -0.07561622969698659   -0.0027748458284053324
-0.002279307021973919   -0.06535555894113466   -0.002698240149114
0.0009593813576806596   -0.07541314124956307   -0.0026705330318502404
-0.003667405268319075   -0.07561622969698659   -0.0027748458284053324
0.0030578036313161226   -0.0652258771857682   -0.0028320684791668643
-0.002279307021973919   -0.06535555894113466   -0.002698240149114
-0.0035248077771118077   -0.07560163751484045   -0.0026716535414673184
0.003170271265786906   -0.06519051638890792   -0.002699294286540313
-0.0021897313768639145   -0.06538158977107876   -0.0026265554190569207
-0.0035248077771118077   -0.07560163751484045   -0.0026716535414673184
0.0009593813576806596   -0.07541314124956307   -0.0026705330318502404
0.003170271265786906   -0.06519051638890792   -0.002699294286540313
0.0011421503658273213   -0.07540884566155746   -0.002506100889540963
-0.0021897313768639145   -0.06538158977107876   -0.0026265554190569207
0.00328558066767346   -0.06518393794770828   -0.002579697836857723
0.0011421503658273213   -0.07540884566155746   -0.002506100889540963
0.003170271265786906   -0.06519051638890792   -0.002699294286540313
-0.0021897313768639145   -0.06538158977107876   -0.0026265554190569207
0.0011421503658273213   -0.07540884566155746   -0.002506100889540963
-0.0033864234897711233   -0.0756256103523925   -0.002581593879258535
-0.0035248077771118077   -0.07560163751484045   -0.0026716535414673184
-0.0021897313768639145   -0.06538158977107876   -0.0026265554190569207
0.0011421503658273213   -0.07540884566155746   -0.002506100889540963
-0.0035248077771118077   -0.07560163751484045   -0.0026716535414673184
0.003170271265786906   -0.06519051638890792   -0.002699294286540313
-0.0021897313768639145   -0.06538158977107876   -0.0026265554190569207
-0.0033864234897711233   -0.0756256103523925   -0.002581593879258535
0.00328558066767346   -0.06518393794770828   -0.002579697836857723
-0.0021098163352135106   -0.06543497509232674   -0.0025676851327460855
-0.0033864234897711233   -0.0756256103523925   -0.002581593879258535
0.0011421503658273213   -0.07540884566155746   -0.002506100889540963
0.00328558066767346   -0.06518393794770828   -0.002579697836857723
0.0012758220335445122   -0.07544571065984686   -0.002353133701370392
-0.0021098163352135106   -0.06543497509232674   -0.0025676851327460855
0.003362242294098257   -0.06520082832262127   -0.0024715416527876593
0.0012758220335445122   -0.07544571065984686   -0.002353133701370392
0.00328558066767346   -0.06518393794770828   -0.002579697836857723
-0.0021098163352135106   -0.06543497509232674   -0.0025676851327460855
0.0012758220335445122   -0.07544571065984686   -0.002353133701370392
-0.003261405908219806   -0.07569375807740296   -0.0025035283892563586
-0.0033864234897711233   -0.0756256103523925   -0.002581593879258535
-0.0021098163352135106   -0.06543497509232674   -0.0025676851327460855
0.0012758220335445122   -0.07544571065984686   -0.002353133701370392
-0.0033864234897711233   -0.0756256103523925   -0.002581593879258535
0.00328558066767346   -0.06518393794770828   -0.002579697836857723
0.0030578036313161226   -0.0652258771857682   -0.0028320684791668643
0.0007859262813685808   -0.0754605557239987   -0.0028516145226267667
0.008833820165617881   -0.06500437462049935   -0.002960629922413636
0.003170271265786906   -0.06519051638890792   -0.002699294286540313
0.0007859262813685808   -0.0754605557239987   -0.0028516145226267667
0.005534404440245047   -0.07515443809150811   -0.003015877388828417
0.008833820165617881   -0.06500437462049935   -0.002960629922413636
0.005973513838221981   -0.07506341521724699   -0.0027387495993825943
0.003170271265786906   -0.06519051638890792   -0.002699294286540313
0.009133028446316421   -0.06493144195437847   -0.0027674524764438797
0.005973513838221981   -0.07506341521724699   -0.0027387495993825943
0.008833820165617881   -0.06500437462049935   -0.002960629922413636
0.003170271265786906   -0.06519051638890792   -0.002699294286540313
0.005973513838221981   -0.07506341521724699   -0.0027387495993825943
0.0009593813576806596   -0.07541314124956307   -0.0026705330318502404
0.0007859262813685808   -0.0754605557239987   -0.0028516145226267667
0.003170271265786906   -0.06519051638890792   -0.002699294286540313
0.005973513838221981   -0.07506341521724699   -0.0027387495993825943
0.0007859262813685808   -0.0754605557239987   -0.0028516145226267667
0.008833820165617881   -0.06500437462049935   -0.002960629922413636
0.003170271265786906   -0.06519051638890792   -0.002699294286540313
0.0009593813576806596   -0.07541314124956307   -0.0026705330318502404
0.009133028446316421   -0.06493144195437847   -0.0027674524764438797
0.00328558066767346   -0.06518393794770828   -0.002579697836857723
0.0009593813576806596   -0.07541314124956307   -0.0026705330318502404
0.005973513838221981   -0.07506341521724699   -0.0027387495993825943
0.009133028446316421   -0.06493144195437847   -0.0027674524764438797
0.0063101734102724285   -0.07504765485528203   -0.002482267675801131
0.00328558066767346   -0.06518393794770828   -0.002579697836857723
0.009354561003815275   -0.06491140379302215   -0.002591797686137498
0.0063101734102724285   -0.07504765485528203   -0.002482267675801131
0.009133028446316421   -0.06493144195437847   -0.0027674524764438797
0.00328558066767346   -0.06518393794770828   -0.002579697836857723
0.0063101734102724285   -0.07504765485528203   -0.002482267675801131
0.0011421503658273213   -0.07540884566155746   -0.002506100889540963
0.0009593813576806596   -0.07541314124956307   -0.0026705330318502404
0.00328558066767346   -0.06518393794770828   -0.002579697836857723
0.0063101734102724285   -0.07504765485528203   -0.002482267675801131
0.0009593813576806596   -0.07541314124956307   -0.0026705330318502404
0.009133028446316421   -0.06493144195437847   -0.0027674524764438797
0.00328558066767346   -0.06518393794770828   -0.002579697836857723
0.0011421503658273213   -0.07540884566155746   -0.002506100889540963
0.009354561003815275   -0.06491140379302215   -0.002591797686137498
0.003362242294098257   -0.06520082832262127   -0.0024715416527876593
0.0011421503658273213   -0.07540884566155746   -0.002506100889540963
0.0063101734102724285   -0.07504765485528203   -0.002482267675801131
0.009354561003815275   -0.06491140379302215   -0.002591797686137498
0.0066588706454770216   -0.0750746139210172   -0.0022485288661816356
0.003362242294098257   -0.06520082832262127   -0.0024715416527876593
0.009579100326287095   -0.06491120057824673   -0.002434462572338906
0.0066588706454770216   -0.0750746139210172   -0.0022485288661816356
0.009354561003815275   -0.06491140379302215   -0.002591797686137498
0.003362242294098257   -0.06520082832262127   -0.0024715416527876593
0.0066588706454770216   -0.0750746139210172   -0.0022485288661816356
0.0012758220335445122   -0.07544571065984686   -0.002353133701370392
0.0011421503658273213   -0.07540884566155746   -0.002506100889540963
0.003362242294098257   -0.06520082832262127   -0.0024715416527876593
0.0066588706454770216   -0.0750746139210172   -0.0022485288661816356
0.0011421503658273213   -0.07540884566155746   -0.002506100889540963
0.009354561003815275   -0.06491140379302215   -0.002591797686137498
-0.01740259373909461   -0.07528846568716745   -0.002767299308517197
-0.014573193982718616   -0.08319886206689939   -0.0025106074390075115
-0.01232078384511122   -0.07552524560055966   -0.0027501638590271393
-0.017138415674103843   -0.07533930818721508   -0.0029239674502774936
-0.014573193982718616   -0.08319886206689939   -0.0025106074390075115
-0.010956881787008134   -0.08354961482687999   -0.0026158406148588903
-0.01232078384511122   -0.07552524560055966   -0.0027501638590271393
-0.010774021063004286   -0.08353150341775764   -0.0027019921189012403
-0.017138415674103843   -0.07533930818721508   -0.0029239674502774936
-0.012193911405106292   -0.07555949999350751   -0.00280613918713525
-0.010774021063004286   -0.08353150341775764   -0.0027019921189012403
-0.01232078384511122   -0.07552524560055966   -0.0027501638590271393
-0.017138415674103843   -0.07533930818721508   -0.0029239674502774936
-0.010774021063004286   -0.08353150341775764   -0.0027019921189012403
-0.014179184422334472   -0.08318895983349492   -0.002742901161135754
-0.014573193982718616   -0.08319886206689939   -0.0025106074390075115
-0.017138415674103843   -0.07533930818721508   -0.0029239674502774936
-0.010774021063004286   -0.08353150341775764   -0.0027019921189012403
-0.014573193982718616   -0.08319886206689939   -0.0025106074390075115
-0.01232078384511122   -0.07552524560055966   -0.0027501638590271393
-0.017138415674103843   -0.07533930818721508   -0.0029239674502774936
-0.014179184422334472   -0.08318895983349492   -0.002742901161135754
-0.012193911405106292   -0.07555949999350751   -0.00280613918713525
-0.01687487100012089   -0.07543557635426566   -0.003101309266534168
-0.014179184422334472   -0.08318895983349492   -0.002742901161135754
-0.010774021063004286   -0.08353150341775764   -0.0027019921189012403
-0.012193911405106292   -0.07555949999350751   -0.00280613918713525
-0.01055897717778022   -0.08358190998759493   -0.002801120513247018
-0.01687487100012089   -0.07543557635426566   -0.003101309266534168
-0.012034559679657534   -0.07564153149544206   -0.0028748107130138877
-0.01055897717778022   -0.08358190998759493   -0.002801120513247018
-0.012193911405106292   -0.07555949999350751   -0.00280613918713525
-0.01687487100012089   -0.07543557635426566   -0.003101309266534168
-0.01055897717778022   -0.08358190998759493   -0.002801120513247018
-0.013815961228646414   -0.08325125253213053   -0.0029934688192310927
-0.014179184422334472   -0.08318895983349492   -0.002742901161135754
-0.01687487100012089   -0.07543557635426566   -0.003101309266534168
-0.01055897717778022   -0.08358190998759493   -0.002801120513247018
-0.014179184422334472   -0.08318895983349492   -0.002742901161135754
-0.012193911405106292   -0.07555949999350751   -0.00280613918713525
-0.01687487100012089   -0.07543557635426566   -0.003101309266534168
-0.013815961228646414   -0.08325125253213053   -0.0029934688192310927
-0.012034559679657534   -0.07564153149544206   -0.0028748107130138877
-0.01653727657262488   -0.07561508748031917   -0.0032989407697302372
-0.013815961228646414   -0.08325125253213053   -0.0029934688192310927
-0.01055897717778022   -0.08358190998759493   -0.002801120513247018
-0.012034559679657534   -0.07564153149544206   -0.0028748107130138877
-0.010363888591494912   -0.08370197862728014   -0.0029123951893706883
-0.01653727657262488   -0.07561508748031917   -0.0032989407697302372
-0.011877323110472982   -0.07577599872340977   -0.002956059343929163
-0.010363888591494912   -0.08370197862728014   -0.0029123951893706883
-0.012034559679657534   -0.07564153149544206   -0.0028748107130138877
-0.01653727657262488   -0.07561508748031917   -0.0032989407697302372
-0.010363888591494912   -0.08370197862728014   -0.0029123951893706883
-0.013372971741316643   -0.08341770448654202   -0.0032612305465488296
-0.013815961228646414   -0.08325125253213053   -0.0029934688192310927
-0.01653727657262488   -0.07561508748031917   -0.0032989407697302372
-0.010363888591494912   -0.08370197862728014   -0.0029123951893706883
-0.013815961228646414   -0.08325125253213053   -0.0029934688192310927
-0.012034559679657534   -0.07564153149544206   -0.0028748107130138877
-0.01232078384511122   -0.07552524560055966   -0.0027501638590271393
-0.010956881787008134   -0.08354961482687999   -0.0026158406148588903
-0.00792103768741879   -0.07563623198458307   -0.002743341991396946
-0.012193911405106292   -0.07555949999350751   -0.00280613918713525
-0.010956881787008134   -0.08354961482687999   -0.0026158406148588903
-0.008002883152463943   -0.08377717783829088   -0.002698188403954964
-0.00792103768741879   -0.07563623198458307   -0.002743341991396946
-0.00781521294932072   -0.08374820842829728   -0.0026718299029621813
-0.012193911405106292   -0.07555949999350751   -0.00280613918713525
-0.00779085447122373   -0.07564747651375257   -0.002718311652703927
-0.00781521294932072   -0.08374820842829728   -0.0026718299029621813
-0.00792103768741879   -0.07563623198458307   -0.002743341991396946
-0.012193911405106292   -0.07555949999350751   -0.00280613918713525
-0.00781521294932072   -0.08374820842829728   -0.0026718299029621813
-0.010774021063004286   -0.08353150341775764   -0.0027019921189012403
-0.010956881787008134   -0.08354961482687999   -0.0026158406148588903
-0.012193911405106292   -0.07555949999350751   -0.00280613918713525
-0.00781521294932072   -0.08374820842829728   -0.0026718299029621813
-0.010956881787008134   -0.08354961482687999   -0.0026158406148588903
-0.00792103768741879   -0.07563623198458307   -0.002743341991396946
-0.012193911405106292   -0.07555949999350751   -0.00280613918713525
-0.010774021063004286   -0.08353150341775764   -0.0027019921189012403
-0.00779085447122373   -0.07564747651375257   -0.002718311652703927
-0.012034559679657534   -0.07564153149544206   -0.0028748107130138877
-0.010774021063004286   -0.08353150341775764   -0.0027019921189012403
-0.00781521294932072   -0.08374820842829728   -0.0026718299029621813
-0.00779085447122373   -0.07564747651375257   -0.002718311652703927
-0.007630199528353895   -0.08377837307570266   -0.002658073458850318
-0.012034559679657534   -0.07564153149544206   -0.0028748107130138877
-0.007656495169000808   -0.07570137878781007   -0.002705601691922316
-0.007630199528353895   -0.08377837307570266   -0.002658073458850318
-0.00779085447122373   -0.07564747651375257   -0.002718311652703927
-0.012034559679657534   -0.07564153149544206   -0.0028748107130138877
-0.007630199528353895   -0.08377837307570266   -0.002658073458850318
-0.01055897717778022   -0.08358190998759493   -0.002801120513247018
-0.010774021063004286   -0.08353150341775764   -0.0027019921189012403
-0.012034559679657534   -0.07564153149544206   -0.0028748107130138877
-0.007630199528353895   -0.08377837307570266   -0.002658073458850318
-0.010774021063004286   -0.08353150341775764   -0.0027019921189012403
-0.00779085447122373   -0.07564747651375257   -0.002718311652703927
-0.012034559679657534   -0.07564153149544206   -0.0028748107130138877
-0.01055897717778022   -0.08358190998759493   -0.002801120513247018
-0.007656495169000808   -0.07570137878781007   -0.002705601691922316
-0.011877323110472982   -0.07577599872340977   -0.002956059343929163
-0.01055897717778022   -0.08358190998759493   -0.002801120513247018
-0.007630199528353895   -0.08377837307570266   -0.002658073458850318
-0.007656495169000808   -0.07570137878781007   -0.002705601691922316
-0.007459983398133566   -0.0838696441162017   -0.0026595620568525442
-0.011877323110472982   -0.07577599872340977   -0.002956059343929163
-0.0075223584952187235   -0.07580045948831152   -0.0027050519253224914
-0.007459983398133566   -0.0838696441162017   -0.0026595620568525442
-0.007656495169000808   -0.07570137878781007   -0.002705601691922316
-0.011877323110472982   -0.07577599872340977   -0.002956059343929163
-0.007459983398133566   -0.0838696441162017   -0.0026595620568525442
-0.010363888591494912   -0.08370197862728014   -0.0029123951893706883
-0.01055897717778022   -0.08358190998759493   -0.002801120513247018
-0.011877323110472982   -0.07577599872340977   -0.002956059343929163
-0.007459983398133566   -0.0838696441162017   -0.0026595620568525442
-0.01055897717778022   -0.08358190998759493   -0.002801120513247018
-0.007656495169000808   -0.07570137878781007   -0.002705601691922316
-0.00792103768741879   -0.07563623198458307   -0.002743341991396946
-0.008002883152463943   -0.08377717783829088   -0.002698188403954964
-0.003667405268319075   -0.07561622969698659   -0.0027748458284053324
-0.00779085447122373   -0.07564747651375257   -0.002718311652703927
-0.008002883152463943   -0.08377717783829088   -0.002698188403954964
-0.005173639137006871   -0.08389707892584712   -0.0027954237221879666
-0.003667405268319075   -0.07561622969698659   -0.0027748458284053324
-0.004962073854497469   -0.08385532750001562   -0.002662974362772506
-0.00779085447122373   -0.07564747651375257   -0.002718311652703927
-0.0035248077771118077   -0.07560163751484045   -0.0026716535414673184
-0.004962073854497469   -0.08385532750001562   -0.002662974362772506
-0.003667405268319075   -0.07561622969698659   -0.0027748458284053324
-0.00779085447122373   -0.07564747651375257   -0.002718311652703927
-0.004962073854497469   -0.08385532750001562   -0.002662974362772506
-0.00781521294932072   -0.08374820842829728   -0.0026718299029621813
-0.008002883152463943   -0.08377717783829088   -0.002698188403954964
-0.00779085447122373   -0.07564747651375257   -0.002718311652703927
-0.004962073854497469   -0.08385532750001562   -0.002662974362772506
-0.008002883152463943   -0.08377717783829088   -0.002698188403954964
-0.003667405268319075   -0.07561622969698659   -0.0027748458284053324
-0.00779085447122373   -0.07564747651375257   -0.002718311652703927
-0.00781521294932072   -0.08374820842829728   -0.0026718299029621813
-0.0035248077771118077   -0.07560163751484045   -0.0026716535414673184
-0.007656495169000808   -0.07570137878781007   -0.002705601691922316
-0.00781521294932072   -0.08374820842829728   -0.0026718299029621813
-0.004962073854497469   -0.08385532750001562   -0.002662974362772506
-0.0035248077771118077   -0.07560163751484045   -0.0026716535414673184
-0.004760414440463807   -0.08386555510894499   -0.002541656192401441
-0.007656495169000808   -0.07570137878781007   -0.002705601691922316
-0.0033864234897711233   -0.0756256103523925   -0.002581593879258535
-0.004760414440463807   -0.08386555510894499   -0.002541656192401441
-0.0035248077771118077   -0.07560163751484045   -0.0026716535414673184
-0.007656495169000808   -0.07570137878781007   -0.002705601691922316
-0.004760414440463807   -0.08386555510894499   -0.002541656192401441
-0.007630199528353895   -0.08377837307570266   -0.002658073458850318
-0.00781521294932072   -0.08374820842829728   -0.0026718299029621813
-0.007656495169000808   -0.07570137878781007   -0.002705601691922316
-0.004760414440463807   -0.08386555510894499   -0.002541656192401441
-0.00781521294932072   -0.08374820842829728   -0.0026718299029621813
-0.0035248077771118077   -0.07560163751484045   -0.0026716535414673184
-0.007656495169000808   -0.07570137878781007   -0.002705601691922316
-0.007630199528353895   -0.08377837307570266   -0.002658073458850318
-0.0033864234897711233   -0.0756256103523925   -0.002581593879258535
-0.0075223584952187235   -0.07580045948831152   -0.0027050519253224914
-0.007630199528353895   -0.08377837307570266   -0.002658073458850318
-0.004760414440463807   -0.08386555510894499   -0.002541656192401441
-0.0033864234897711233   -0.0756256103523925   -0.002581593879258535
-0.004592727870773987   -0.0839379254708829   -0.002438443243406041
-0.0075223584952187235   -0.07580045948831152   -0.0027050519253224914
-0.003261405908219806   -0.07569375807740296   -0.0025035283892563586
-0.004592727870773987   -0.0839379254708829   -0.002438443243406041
-0.0033864234897711233   -0.0756256103523925   -0.002581593879258535
-0.0075223584952187235   -0.07580045948831152   -0.0027050519253224914
-0.004592727870773987   -0.0839379254708829   -0.002438443243406041
-0.007459983398133566   -0.0838696441162017   -0.0026595620568525442
-0.007630199528353895   -0.08377837307570266   -0.002658073458850318
-0.0075223584952187235   -0.07580045948831152   -0.0027050519253224914
-0.004592727870773987   -0.0839379254708829   -0.002438443243406041
-0.007630199528353895   -0.08377837307570266   -0.002658073458850318
-0.0033864234897711233   -0.0756256103523925   -0.002581593879258535
-0.003667405268319075   -0.07561622969698659   -0.0027748458284053324
-0.005173639137006871   -0.08389707892584712   -0.0027954237221879666
0.0007859262813685808   -0.0754605557239987   -0.0028516145226267667
-0.0035248077771118077   -0.07560163751484045   -0.0026716535414673184
-0.005173639137006871   -0.08389707892584712   -0.0027954237221879666
-0.0021644662453520255   -0.08386752195026857   -0.002909896902490686
0.0007859262813685808   -0.0754605557239987   -0.0028516145226267667
-0.0018928349669960086   -0.08380208030804291   -0.0026759722396991893
-0.0035248077771118077   -0.07560163751484045   -0.0026716535414673184
0.0009593813576806596   -0.07541314124956307   -0.0026705330318502404
-0.0018928349669960086   -0.08380208030804291   -0.0026759722396991893
0.0007859262813685808   -0.0754605557239987   -0.0028516145226267667
-0.0035248077771118077   -0.07560163751484045   -0.0026716535414673184
-0.0018928349669960086   -0.08380208030804291   -0.0026759722396991893
-0.004962073854497469   -0.08385532750001562   -0.002662974362772506
-0.005173639137006871   -0.08389707892584712   -0.0027954237221879666
-0.0035248077771118077   -0.07560163751484045   -0.0026716535414673184
-0.0018928349669960086   -0.08380208030804291   -0.0026759722396991893
-0.005173639137006871   -0.08389707892584712   -0.0027954237221879666
0.0007859262813685808   -0.0754605557239987   -0.0028516145226267667
-0.0035248077771118077   -0.07560163751484045   -0.0026716535414673184
-0.004962073854497469   -0.08385532750001562   -0.002662974362772506
0.0009593813576806596   -0.07541314124956307   -0.0026705330318502404
-0.0033864234897711233   -0.0756256103523925   -0.002581593879258535
-0.004962073854497469   -0.08385532750001562   -0.002662974362772506
-0.0018928349669960086   -0.08380208030804291   -0.0026759722396991893
0.0009593813576806596   -0.07541314124956307   -0.0026705330318502404
-0.0016151900092611863   -0.0837904938013829   -0.002453960337418089
-0.0033864234897711233   -0.0756256103523925   -0.002581593879258535
0.0011421503658273213   -0.07540884566155746   -0.002506100889540963
-0.0016151900092611863   -0.0837904938013829   -0.002453960337418089
0.0009593813576806596   -0.07541314124956307   -0.0026705330318502404
-0.0033864234897711233   -0.0756256103523925   -0.002581593879258535
-0.0016151900092611863   -0.0837904938013829   -0.002453960337418089
-0.004760414440463807   -0.08386555510894499   -0.002541656192401441
-0.004962073854497469   -0.08385532750001562   -0.002662974362772506
-0.0033864234897711233   -0.0756256103523925   -0.002581593879258535
-0.0016151900092611863   -0.0837904938013829   -0.002453960337418089
-0.004962073854497469   -0.08385532750001562   -0.002662974362772506
0.0009593813576806596   -0.07541314124956307   -0.0026705330318502404
-0.0033864234897711233   -0.0756256103523925   -0.002581593879258535
-0.004760414440463807   -0.08386555510894499   -0.002541656192401441
0.0011421503658273213   -0.07540884566155746   -0.002506100889540963
-0.003261405908219806   -0.07569375807740296   -0.0025035283892563586
-0.004760414440463807   -0.08386555510894499   -0.002541656192401441
-0.0016151900092611863   -0.0837904938013829   -0.002453960337418089
0.0011421503658273213   -0.07540884566155746   -0.002506100889540963
-0.0014095040823145035   -0.08384439934426981   -0.002252360243184333
-0.003261405908219806   -0.07569375807740296   -0.0025035283892563586
0.0012758220335445122   -0.07544571065984686   -0.002353133701370392
-0.0014095040823145035   -0.08384439934426981   -0.002252360243184333
0.0011421503658273213   -0.07540884566155746   -0.002506100889540963
-0.003261405908219806   -0.07569375807740296   -0.0025035283892563586
-0.0014095040823145035   -0.08384439934426981   -0.002252360243184333
-0.004592727870773987   -0.0839379254708829   -0.002438443243406041
-0.004760414440463807   -0.08386555510894499   -0.002541656192401441
-0.003261405908219806   -0.07569375807740296   -0.0025035283892563586
-0.0014095040823145035   -0.08384439934426981   -0.002252360243184333
-0.004760414440463807   -0.08386555510894499   -0.002541656192401441
0.0011421503658273213   -0.07540884566155746   -0.002506100889540963
0.0007859262813685808   -0.0754605557239987   -0.0028516145226267667
-0.0021644662453520255   -0.08386752195026857   -0.002909896902490686
0.005534404440245047   -0.07515443809150811   -0.003015877388828417
0.0009593813576806596   -0.07541314124956307   -0.0026705330318502404
-0.0021644662453520255   -0.08386752195026857   -0.002909896902490686
0.0010754345144809946   -0.08357869247740463   -0.003144710437878605
0.005534404440245047   -0.07515443809150811   -0.003015877388828417
0.0017079793282251652   -0.08343621435470211   -0.0027620213003794435
0.0009593813576806596   -0.07541314124956307   -0.0026705330318502404
0.005973513838221981   -0.07506341521724699   -0.0027387495993825943
0.0017079793282251652   -0.08343621435470211   -0.0027620213003794435
0.005534404440245047   -0.07515443809150811   -0.003015877388828417
0.0009593813576806596   -0.07541314124956307   -0.0026705330318502404
0.0017079793282251652   -0.08343621435470211   -0.0027620213003794435
-0.0018928349669960086   -0.08380208030804291   -0.0026759722396991893
-0.0021644662453520255   -0.08386752195026857   -0.002909896902490686
0.0009593813576806596   -0.07541314124956307   -0.0026705330318502404
0.0017079793282251652   -0.08343621435470211   -0.0027620213003794435
-0.0021644662453520255   -0.08386752195026857   -0.002909896902490686
0.005534404440245047   -0.07515443809150811   -0.003015877388828417
0.0009593813576806596   -0.07541314124956307   -0.0026705330318502404
-0.0018928349669960086   -0.08380208030804291   -0.0026759722396991893
0.005973513838221981   -0.07506341521724699   -0.0027387495993825943
0.0011421503658273213   -0.07540884566155746   -0.002506100889540963
-0.0018928349669960086   -0.08380208030804291   -0.0026759722396991893
0.0017079793282251652   -0.08343621435470211   -0.0027620213003794435
0.005973513838221981   -0.07506341521724699   -0.0027387495993825943
0.0022051094413650754   -0.0834073250403561   -0.0024027444179429043
0.0011421503658273213   -0.07540884566155746   -0.002506100889540963
0.0063101734102724285   -0.07504765485528203   -0.002482267675801131
0.0022051094413650754   -0.0834073250403561   -0.0024027444179429043
0.005973513838221981   -0.07506341521724699   -0.0027387495993825943
0.0011421503658273213   -0.07540884566155746   -0.002506100889540963
0.0022051094413650754   -0.0834073250403561   -0.0024027444179429043
-0.0016151900092611863   -0.0837904938013829   -0.002453960337418089
-0.0018928349669960086   -0.08380208030804291   -0.0026759722396991893
0.0011421503658273213   -0.07540884566155746   -0.002506100889540963
0.0022051094413650754   -0.0834073250403561   -0.0024027444179429043
-0.0018928349669960086   -0.08380208030804291   -0.0026759722396991893
0.005973513838221981   -0.07506341521724699   -0.0027387495993825943
0.0011421503658273213   -0.07540884566155746   -0.002506100889540963
-0.0016151900092611863   -0.0837904938013829   -0.002453960337418089
0.0063101734102724285   -0.07504765485528203   -0.002482267675801131
0.0012758220335445122   -0.07544571065984686   -0.002353133701370392
-0.0016151900092611863   -0.0837904938013829   -0.002453960337418089
0.0022051094413650754   -0.0834073250403561   -0.0024027444179429043
0.0063101734102724285   -0.07504765485528203   -0.002482267675801131
0.002721597159623713   -0.0834314457499736   -0.0020746787210042346
0.0012758220335445122   -0.07544571065984686   -0.002353133701370392
0.0066588706454770216   -0.0750746139210172   -0.0022485288661816356
0.002721597159623713   -0.0834314457499736   -0.0020746787210042346
0.0063101734102724285   -0.07504765485528203   -0.002482267675801131
0.0012758220335445122   -0.07544571065984686   -0.002353133701370392
0.002721597159623713   -0.0834314457499736   -0.0020746787210042346
-0.0014095040823145035   -0.08384439934426981   -0.002252360243184333
-0.0016151900092611863   -0.0837904938013829   -0.002453960337418089
0.0012758220335445122   -0.07544571065984686   -0.002353133701370392
0.002721597159623713   -0.0834314457499736   -0.0020746787210042346
-0.0016151900092611863   -0.0837904938013829   -0.002453960337418089
0.0063101734102724285   -0.07504765485528203   -0.002482267675801131
-0.014573193982718616   -0.08319886206689939   -0.0025106074390075115
-0.010682296005992888   -0.08789998878510591   -0.0022091932394617464
-0.010956881787008134   -0.08354961482687999   -0.0026158406148588903
-0.014179184422334472   -0.08318895983349492   -0.002742901161135754
-0.010682296005992888   -0.08789998878510591   -0.0022091932394617464
-0.009000675361629617   -0.0883436910764897   -0.002475971735787667
-0.010956881787008134   -0.08354961482687999   -0.0026158406148588903
-0.00876988274286986   -0.0882559125239637   -0.002567602656321553
-0.014179184422334472   -0.08318895983349492   -0.002742901161135754
-0.010774021063004286   -0.08353150341775764   -0.0027019921189012403
-0.00876988274286986   -0.0882559125239637   -0.002567602656321553
-0.010956881787008134   -0.08354961482687999   -0.0026158406148588903
-0.014179184422334472   -0.08318895983349492   -0.002742901161135754
-0.00876988274286986   -0.0882559125239637   -0.002567602656321553
-0.010191153540946022   -0.0878011113759496   -0.0024879082921602253
-0.010682296005992888   -0.08789998878510591   -0.0022091932394617464
-0.014179184422334472   -0.08318895983349492   -0.002742901161135754
-0.00876988274286986   -0.0882559125239637   -0.002567602656321553
-0.010682296005992888   -0.08789998878510591   -0.0022091932394617464
-0.010956881787008134   -0.08354961482687999   -0.0026158406148588903
-0.014179184422334472   -0.08318895983349492   -0.002742901161135754
-0.010191153540946022   -0.0878011113759496   -0.0024879082921602253
-0.010774021063004286   -0.08353150341775764   -0.0027019921189012403
-0.013815961228646414   -0.08325125253213053   -0.0029934688192310927
-0.010191153540946022   -0.0878011113759496   -0.0024879082921602253
-0.00876988274286986   -0.0882559125239637   -0.002567602656321553
-0.010774021063004286   -0.08353150341775764   -0.0027019921189012403
-0.00851432139191956   -0.08826011203987952   -0.0026601598338162964
-0.013815961228646414   -0.08325125253213053   -0.0029934688192310927
-0.01055897717778022   -0.08358190998759493   -0.002801120513247018
-0.00851432139191956   -0.08826011203987952   -0.0026601598338162964
-0.010774021063004286   -0.08353150341775764   -0.0027019921189012403
-0.013815961228646414   -0.08325125253213053   -0.0029934688192310927
-0.00851432139191956   -0.08826011203987952   -0.0026601598338162964
-0.009767382298674089   -0.08780941520257005   -0.0027655377247178723
-0.010191153540946022   -0.0878011113759496   -0.0024879082921602253
-0.013815961228646414   -0.08325125253213053   -0.0029934688192310927
-0.00851432139191956   -0.08826011203987952   -0.0026601598338162964
-0.010191153540946022   -0.0878011113759496   -0.0024879082921602253
-0.010774021063004286   -0.08353150341775764   -0.0027019921189012403
-0.013815961228646414   -0.08325125253213053   -0.0029934688192310927
-0.009767382298674089   -0.08780941520257005   -0.0027655377247178723
-0.01055897717778022   -0.08358190998759493   -0.002801120513247018
-0.013372971741316643   -0.08341770448654202   -0.0032612305465488296
-0.009767382298674089   -0.08780941520257005   -0.0027655377247178723
-0.00851432139191956   -0.08826011203987952   -0.0026601598338162964
-0.01055897717778022   -0.08358190998759493   -0.002801120513247018
-0.008276881383986688   -0.08835671030758944   -0.0027540311277112033
-0.013372971741316643   -0.08341770448654202   -0.0032612305465488296
-0.010363888591494912   -0.08370197862728014   -0.0029123951893706883
-0.008276881383986688   -0.08835671030758944   -0.0027540311277112033
-0.01055897717778022   -0.08358190998759493   -0.002801120513247018
-0.013372971741316643   -0.08341770448654202   -0.0032612305465488296
-0.008276881383986688   -0.08835671030758944   -0.0027540311277112033
-0.00926477545277329   -0.087931039861734   -0.0030491510718786458
-0.009767382298674089   -0.08780941520257005   -0.0027655377247178723
-0.013372971741316643   -0.08341770448654202   -0.0032612305465488296
-0.008276881383986688   -0.08835671030758944   -0.0027540311277112033
-0.009767382298674089   -0.08780941520257005   -0.0027655377247178723
-0.01055897717778022   -0.08358190998759493   -0.002801120513247018
-0.010956881787008134   -0.08354961482687999   -0.0026158406148588903
-0.009000675361629617   -0.0883436910764897   -0.002475971735787667
-0.008002883152463943   -0.08377717783829088   -0.002698188403954964
-0.010774021063004286   -0.08353150341775764   -0.0027019921189012403
-0.009000675361629617   -0.0883436910764897   -0.002475971735787667
-0.007769669289213879   -0.08878947457301946   -0.002711784601612484
-0.008002883152463943   -0.08377717783829088   -0.002698188403954964
-0.007526121537997373   -0.0886994361650491   -0.002647446941143616
-0.010774021063004286   -0.08353150341775764   -0.0027019921189012403
-0.00781521294932072   -0.08374820842829728   -0.0026718299029621813
-0.007526121537997373   -0.0886994361650491   -0.002647446941143616
-0.008002883152463943   -0.08377717783829088   -0.002698188403954964
-0.010774021063004286   -0.08353150341775764   -0.0027019921189012403
-0.007526121537997373   -0.0886994361650491   -0.002647446941143616
-0.00876988274286986   -0.0882559125239637   -0.002567602656321553
-0.009000675361629617   -0.0883436910764897   -0.002475971735787667
-0.010774021063004286   -0.08353150341775764   -0.0027019921189012403
-0.007526121537997373   -0.0886994361650491   -0.002647446941143616
-0.009000675361629617   -0.0883436910764897   -0.002475971735787667
-0.008002883152463943   -0.08377717783829088   -0.002698188403954964
-0.010774021063004286   -0.08353150341775764   -0.0027019921189012403
-0.00876988274286986   -0.0882559125239637   -0.002567602656321553
-0.00781521294932072   -0.08374820842829728   -0.0026718299029621813
-0.01055897717778022   -0.08358190998759493   -0.002801120513247018
-0.00876988274286986   -0.0882559125239637   -0.002567602656321553
-0.007526121537997373   -0.0886994361650491   -0.002647446941143616
-0.00781521294932072   -0.08374820842829728   -0.0026718299029621813
-0.007290667768502349   -0.08869771861932922   -0.002582306009502963
-0.01055897717778022   -0.08358190998759493   -0.002801120513247018
-0.007630199528353895   -0.08377837307570266   -0.002658073458850318
-0.007290667768502349   -0.08869771861932922   -0.002582306009502963
-0.00781521294932072   -0.08374820842829728   -0.0026718299029621813
-0.01055897717778022   -0.08358190998759493   -0.002801120513247018
-0.007290667768502349   -0.08869771861932922   -0.002582306009502963
-0.00851432139191956   -0.08826011203987952   -0.0026601598338162964
-0.00876988274286986   -0.0882559125239637   -0.002567602656321553
-0.01055897717778022   -0.08358190998759493   -0.002801120513247018
-0.007290667768502349   -0.08869771861932922   -0.002582306009502963
-0.00876988274286986   -0.0882559125239637   -0.002567602656321553
-0.00781521294932072   -0.08374820842829728   -0.0026718299029621813
-0.01055897717778022   -0.08358190998759493   -0.002801120513247018
-0.00851432139191956   -0.08826011203987952   -0.0026601598338162964
-0.007630199528353895   -0.08377837307570266   -0.002658073458850318
-0.010363888591494912   -0.08370197862728014   -0.0029123951893706883
-0.00851432139191956   -0.08826011203987952   -0.0026601598338162964
-0.007290667768502349   -0.08869771861932922   -0.002582306009502963
-0.007630199528353895   -0.08377837307570266   -0.002658073458850318
-0.007045181771395383   -0.08878247192832356   -0.002519729854793123
-0.010363888591494912   -0.08370197862728014   -0.0029123951893706883
-0.007459983398133566   -0.0838696441162017   -0.0026595620568525442
-0.007045181771395383   -0.08878247192832356   -0.002519729854793123
-0.007630199528353895   -0.08377837307570266   -0.002658073458850318
-0.010363888591494912   -0.08370197862728014   -0.0029123951893706883
-0.007045181771395383   -0.08878247192832356   -0.002519729854793123
-0.008276881383986688   -0.08835671030758944   -0.0027540311277112033
-0.00851432139191956   -0.08826011203987952   -0.0026601598338162964
-0.010363888591494912   -0.08370197862728014   -0.0029123951893706883
-0.007045181771395383   -0.08878247192832356   -0.002519729854793123
-0.00851432139191956   -0.08826011203987952   -0.0026601598338162964
-0.007630199528353895   -0.08377837307570266   -0.002658073458850318
-0.008002883152463943   -0.08377717783829088   -0.002698188403954964
-0.007769669289213879   -0.08878947457301946   -0.002711784601612484
-0.005173639137006871   -0.08389707892584712   -0.0027954237221879666
-0.00781521294932072   -0.08374820842829728   -0.0026718299029621813
-0.007769669289213879   -0.08878947457301946   -0.002711784601612484
-0.006645648571443225   -0.08932793908005   -0.002971398494865466
-0.005173639137006871   -0.08389707892584712   -0.0027954237221879666
-0.006347055320751158   -0.08924985305741895   -0.0027423331785825776
-0.00781521294932072   -0.08374820842829728   -0.0026718299029621813
-0.004962073854497469   -0.08385532750001562   -0.002662974362772506
-0.006347055320751158   -0.08924985305741895   -0.0027423331785825776
-0.005173639137006871   -0.08389707892584712   -0.0027954237221879666
-0.00781521294932072   -0.08374820842829728   -0.0026718299029621813
-0.006347055320751158   -0.08924985305741895   -0.0027423331785825776
-0.007526121537997373   -0.0886994361650491   -0.002647446941143616
-0.007769669289213879   -0.08878947457301946   -0.002711784601612484
-0.00781521294932072   -0.08374820842829728   -0.0026718299029621813
-0.006347055320751158   -0.08924985305741895   -0.0027423331785825776
-0.007769669289213879   -0.08878947457301946   -0.002711784601612484
-0.005173639137006871   -0.08389707892584712   -0.0027954237221879666
-0.00781521294932072   -0.08374820842829728   -0.0026718299029621813
-0.007526121537997373   -0.0886994361650491   -0.002647446941143616
-0.004962073854497469   -0.08385532750001562   -0.002662974362772506
-0.007630199528353895   -0.08377837307570266   -0.002658073458850318
-0.007526121537997373   -0.0886994361650491   -0.002647446941143616
-0.006347055320751158   -0.08924985305741895   -0.0027423331785825776
-0.004962073854497469   -0.08385532750001562   -0.002662974362772506
-0.006070415723119117   -0.08924561373860898   -0.002514061973267052
-0.007630199528353895   -0.08377837307570266   -0.002658073458850318
-0.004760414440463807   -0.08386555510894499   -0.002541656192401441
-0.006070415723119117   -0.08924561373860898   -0.002514061973267052
-0.004962073854497469   -0.08385532750001562   -0.002662974362772506
-0.007630199528353895   -0.08377837307570266   -0.002658073458850318
-0.006070415723119117   -0.08924561373860898   -0.002514061973267052
-0.007290667768502349   -0.08869771861932922   -0.002582306009502963
-0.007526121537997373   -0.0886994361650491   -0.002647446941143616
-0.007630199528353895   -0.08377837307570266   -0.002658073458850318
-0.006070415723119117   -0.08924561373860898   -0.002514061973267052
-0.007526121537997373   -0.0886994361650491   -0.002647446941143616
-0.004962073854497469   -0.08385532750001562   -0.002662974362772506
-0.007630199528353895   -0.08377837307570266   -0.002658073458850318
-0.007290667768502349   -0.08869771861932922   -0.002582306009502963
-0.004760414440463807   -0.08386555510894499   -0.002541656192401441
-0.007459983398133566   -0.0838696441162017   -0.0026595620568525442
-0.007290667768502349   -0.08869771861932922   -0.002582306009502963
-0.006070415723119117   -0.08924561373860898   -0.002514061973267052
-0.004760414440463807   -0.08386555510894499   -0.002541656192401441
-0.005773369439953426   -0.08931121723363472   -0.0022852480788392924
-0.007459983398133566   -0.0838696441162017   -0.0026595620568525442
-0.004592727870773987   -0.0839379254708829   -0.002438443243406041
-0.005773369439953426   -0.08931121723363472   -0.0022852480788392924
-0.004760414440463807   -0.08386555510894499   -0.002541656192401441
-0.007459983398133566   -0.0838696441162017   -0.0026595620568525442
-0.005773369439953426   -0.08931121723363472   -0.0022852480788392924
-0.007045181771395383   -0.08878247192832356   -0.002519729854793123
-0.007290667768502349   -0.08869771861932922   -0.002582306009502963
-0.007459983398133566   -0.0838696441162017   -0.0026595620568525442
-0.005773369439953426   -0.08931121723363472   -0.0022852480788392924
-0.007290667768502349   -0.08869771861932922   -0.002582306009502963
-0.004760414440463807   -0.08386555510894499   -0.002541656192401441
-0.005173639137006871   -0.08389707892584712   -0.0027954237221879666
-0.006645648571443225   -0.08932793908005   -0.002971398494865466
-0.0021644662453520255   -0.08386752195026857   -0.002909896902490686
-0.004962073854497469   -0.08385532750001562   -0.002662974362772506
-0.006645648571443225   -0.08932793908005   -0.002971398494865466
-0.005539416043878285   -0.09   -0.003170575889545052
-0.0021644662453520255   -0.08386752195026857   -0.002909896902490686
-0.005163939394446583   -0.09   -0.002822878276206567
-0.004962073854497469   -0.08385532750001562   -0.002662974362772506
-0.0018928349669960086   -0.08380208030804291   -0.0026759722396991893
-0.005163939394446583   -0.09   -0.002822878276206567
-0.0021644662453520255   -0.08386752195026857   -0.002909896902490686
-0.004962073854497469   -0.08385532750001562   -0.002662974362772506
-0.005163939394446583   -0.09   -0.002822878276206567
-0.006347055320751158   -0.08924985305741895   -0.0027423331785825776
-0.006645648571443225   -0.08932793908005   -0.002971398494865466
-0.004962073854497469   -0.08385532750001562   -0.002662974362772506
-0.005163939394446583   -0.09   -0.002822878276206567
-0.006645648571443225   -0.08932793908005   -0.002971398494865466
-0.0021644662453520255   -0.08386752195026857   -0.002909896902490686
-0.004962073854497469   -0.08385532750001562   -0.002662974362772506
-0.006347055320751158   -0.08924985305741895   -0.0027423331785825776
-0.0018928349669960086   -0.08380208030804291   -0.0026759722396991893
-0.004760414440463807   -0.08386555510894499   -0.002541656192401441
-0.006347055320751158   -0.08924985305741895   -0.0027423331785825776
-0.005163939394446583   -0.09   -0.002822878276206567
-0.0018928349669960086   -0.08380208030804291   -0.0026759722396991893
-0.004786739362685946   -0.09   -0.002471055169967719
-0.004760414440463807   -0.08386555510894499   -0.002541656192401441
-0.0016151900092611863   -0.0837904938013829   -0.002453960337418089
-0.004786739362685946   -0.09   -0.002471055169967719
-0.0018928349669960086   -0.08380208030804291   -0.0026759722396991893
-0.004760414440463807   -0.08386555510894499   -0.002541656192401441
-0.004786739362685946   -0.09   -0.002471055169967719
-0.006070415723119117   -0.08924561373860898   -0.002514061973267052
-0.006347055320751158   -0.08924985305741895   -0.0027423331785825776
-0.004760414440463807   -0.08386555510894499   -0.002541656192401441
-0.004786739362685946   -0.09   -0.002471055169967719
-0.006347055320751158   -0.08924985305741895   -0.0027423331785825776
-0.0018928349669960086   -0.08380208030804291   -0.0026759722396991893
-0.004760414440463807   -0.08386555510894499   -0.002541656192401441
-0.006070415723119117   -0.08924561373860898   -0.002514061973267052
-0.0016151900092611863   -0.0837904938013829   -0.002453960337418089
-0.004592727870773987   -0.0839379254708829   -0.002438443243406041
-0.006070415723119117   -0.08924561373860898   -0.002514061973267052
-0.004786739362685946   -0.09   -0.002471055169967719
-0.0016151900092611863   -0.0837904938013829   -0.002453960337418089
-0.00441794052019281   -0.09   -0.0021238780332543073
-0.004592727870773987   -0.0839379254708829   -0.002438443243406041
-0.0014095040823145035   -0.08384439934426981   -0.002252360243184333
-0.00441794052019281   -0.09   -0.0021238780332543073
-0.0016151900092611863   -0.0837904938013829   -0.002453960337418089
-0.004592727870773987   -0.0839379254708829   -0.002438443243406041
-0.00441794052019281   -0.09   -0.0021238780332543073
-0.005773369439953426   -0.08931121723363472   -0.0022852480788392924
-0.006070415723119117   -0.08924561373860898   -0.002514061973267052
-0.004592727870773987   -0.0839379254708829   -0.002438443243406041
-0.00441794052019281   -0.09   -0.0021238780332543073
-0.006070415723119117   -0.08924561373860898   -0.002514061973267052
-0.0016151900092611863   -0.0837904938013829   -0.002453960337418089
-0.0021644662453520255   -0.08386752195026857   -0.002909896902490686
-0.005539416043878285   -0.09   -0.003170575889545052
0.0010754345144809946   -0.08357869247740463   -0.003144710437878605
-0.0018928349669960086   -0.08380208030804291   -0.0026759722396991893
-0.005539416043878285   -0.09   -0.003170575889545052
-0.004737644481367882   -0.09   -0.0034118014340123685
0.0010754345144809946   -0.08357869247740463   -0.003144710437878605
-0.0039530790229591   -0.09   -0.002908901192113522
-0.0018928349669960086   -0.08380208030804291   -0.0026759722396991893
0.0017079793282251652   -0.08343621435470211   -0.0027620213003794435
-0.0039530790229591   -0.09   -0.002908901192113522
0.0010754345144809946   -0.08357869247740463   -0.003144710437878605
-0.0018928349669960086   -0.08380208030804291   -0.0026759722396991893
-0.0039530790229591   -0.09   -0.002908901192113522
-0.005163939394446583   -0.09   -0.002822878276206567
-0.005539416043878285   -0.09   -0.003170575889545052
-0.0018928349669960086   -0.08380208030804291   -0.0026759722396991893
-0.0039530790229591   -0.09   -0.002908901192113522
-0.005539416043878285   -0.09   -0.003170575889545052
0.0010754345144809946   -0.08357869247740463   -0.003144710437878605
-0.0018928349669960086   -0.08380208030804291   -0.0026759722396991893
-0.005163939394446583   -0.09   -0.002822878276206567
0.0017079793282251652   -0.08343621435470211   -0.0027620213003794435
-0.0016151900092611863   -0.0837904938013829   -0.002453960337418089
-0.005163939394446583   -0.09   -0.002822878276206567
-0.0039530790229591   -0.09   -0.002908901192113522
0.0017079793282251652   -0.08343621435470211   -0.0027620213003794435
-0.003327394558716877   -0.09   -0.002427807853365819
-0.0016151900092611863   -0.0837904938013829   -0.002453960337418089
0.0022051094413650754   -0.0834073250403561   -0.0024027444179429043
-0.003327394558716877   -0.09   -0.002427807853365819
0.0017079793282251652   -0.08343621435470211   -0.0027620213003794435
-0.0016151900092611863   -0.0837904938013829   -0.002453960337418089
-0.003327394558716877   -0.09   -0.002427807853365819
-0.004786739362685946   -0.09   -0.002471055169967719
-0.005163939394446583   -0.09   -0.002822878276206567
-0.0016151900092611863   -0.0837904938013829   -0.002453960337418089
-0.003327394558716877   -0.09   -0.002427807853365819
-0.005163939394446583   -0.09   -0.002822878276206567
0.0017079793282251652   -0.08343621435470211   -0.0027620213003794435
-0.0016151900092611863   -0.0837904938013829   -0.002453960337418089
-0.004786739362685946   -0.09   -0.002471055169967719
0.0022051094413650754   -0.0834073250403561   -0.0024027444179429043
-0.0014095040823145035   -0.08384439934426981   -0.002252360243184333
-0.004786739362685946   -0.09   -0.002471055169967719
-0.003327394558716877   -0.09   -0.002427807853365819
0.0022051094413650754   -0.0834073250403561   -0.0024027444179429043
-0.0025544632669192084   -0.09   -0.0019283845713866205
-0.0014095040823145035   -0.08384439934426981   -0.002252360243184333
0.002721597159623713   -0.0834314457499736   -0.0020746787210042346
-0.0025544632669192084   -0.09   -0.0019283845713866205
0.0022051094413650754   -0.0834073250403561   -0.0024027444179429043
-0.0014095040823145035   -0.08384439934426981   -0.002252360243184333
-0.0025544632669192084   -0.09   -0.0019283845713866205
-0.00441794052019281   -0.09   -0.0021238780332543073
-0.004786739362685946   -0.09   -0.002471055169967719
-0.0014095040823145035   -0.08384439934426981   -0.002252360243184333
-0.0025544632669192084   -0.09   -0.0019283845713866205
-0.004786739362685946   -0.09   -0.002471055169967719
0.0022051094413650754   -0.0834073250403561   -0.0024027444179429043
-0.010682296005992888   -0.08789998878510591   -0.0022091932394617464
-0.006377609582994382   -0.08813252776410697   -0.0018907768140134459
-0.009000675361629617   -0.0883436910764897   -0.002475971735787667
-0.010191153540946022   -0.0878011113759496   -0.0024879082921602253
-0.006377609582994382   -0.08813252776410697   -0.0018907768140134459
-0.00676683834292482   -0.08847424429780638   -0.002234261640470983
-0.009000675361629617   -0.0883436910764897   -0.002475971735787667
-0.006592329051569355   -0.08835439564374899   -0.0023593541790041476
-0.010191153540946022   -0.0878011113759496   -0.0024879082921602253
-0.00876988274286986   -0.0882559125239637   -0.002567602656321553
-0.006592329051569355   -0.08835439564374899   -0.0023593541790041476
-0.009000675361629617   -0.0883436910764897   -0.002475971735787667
-0.010191153540946022   -0.0878011113759496   -0.0024879082921602253
-0.006592329051569355   -0.08835439564374899   -0.0023593541790041476
-0.005932625494258053   -0.0879786551354548   -0.0021835992667545447
-0.006377609582994382   -0.08813252776410697   -0.0018907768140134459
-0.010191153540946022   -0.0878011113759496   -0.0024879082921602253
-0.006592329051569355   -0.08835439564374899   -0.0023593541790041476
-0.006377609582994382   -0.08813252776410697   -0.0018907768140134459
-0.009000675361629617   -0.0883436910764897   -0.002475971735787667
-0.010191153540946022   -0.0878011113759496   -0.0024879082921602253
-0.005932625494258053   -0.0879786551354548   -0.0021835992667545447
-0.00876988274286986   -0.0882559125239637   -0.002567602656321553
-0.009767382298674089   -0.08780941520257005   -0.0027655377247178723
-0.005932625494258053   -0.0879786551354548   -0.0021835992667545447
-0.006592329051569355   -0.08835439564374899   -0.0023593541790041476
-0.00876988274286986   -0.0882559125239637   -0.002567602656321553
-0.006387675071560965   -0.08831001135212162   -0.002474740536274198
-0.009767382298674089   -0.08780941520257005   -0.0027655377247178723
-0.00851432139191956   -0.08826011203987952   -0.0026601598338162964
-0.006387675071560965   -0.08831001135212162   -0.002474740536274198
-0.00876988274286986   -0.0882559125239637   -0.002567602656321553
-0.009767382298674089   -0.08780941520257005   -0.0027655377247178723
-0.006387675071560965   -0.08831001135212162   -0.002474740536274198
-0.005562207437114872   -0.08793112633042585   -0.002464375613060905
-0.005932625494258053   -0.0879786551354548   -0.0021835992667545447
-0.009767382298674089   -0.08780941520257005   -0.0027655377247178723
-0.006387675071560965   -0.08831001135212162   -0.002474740536274198
-0.005932625494258053   -0.0879786551354548   -0.0021835992667545447
-0.00876988274286986   -0.0882559125239637   -0.002567602656321553
-0.009767382298674089   -0.08780941520257005   -0.0027655377247178723
-0.005562207437114872   -0.08793112633042585   -0.002464375613060905
-0.00851432139191956   -0.08826011203987952   -0.0026601598338162964
-0.00926477545277329   -0.087931039861734   -0.0030491510718786458
-0.005562207437114872   -0.08793112633042585   -0.002464375613060905
-0.006387675071560965   -0.08831001135212162   -0.002474740536274198
-0.00851432139191956   -0.08826011203987952   -0.0026601598338162964
-0.006212339168115301   -0.08834172652951292   -0.00257981456840438
-0.00926477545277329   -0.087931039861734   -0.0030491510718786458
-0.008276881383986688   -0.08835671030758944   -0.0027540311277112033
-0.006212339168115301   -0.08834172652951292   -0.00257981456840438
-0.00851432139191956   -0.08826011203987952   -0.0026601598338162964
-0.00926477545277329   -0.087931039861734   -0.0030491510718786458
-0.006212339168115301   -0.08834172652951292   -0.00257981456840438
-0.0051431928282311724   -0.08797070054252829   -0.0027318528626645044
-0.005562207437114872   -0.08793112633042585   -0.002464375613060905
-0.00926477545277329   -0.087931039861734   -0.0030491510718786458
-0.006212339168115301   -0.08834172652951292   -0.00257981456840438
-0.005562207437114872   -0.08793112633042585   -0.002464375613060905
-0.00851432139191956   -0.08826011203987952   -0.0026601598338162964
-0.009000675361629617   -0.0883436910764897   -0.002475971735787667
-0.00676683834292482   -0.08847424429780638   -0.002234261640470983
-0.007769669289213879   -0.08878947457301946   -0.002711784601612484
-0.00876988274286986   -0.0882559125239637   -0.002567602656321553
-0.00676683834292482   -0.08847424429780638   -0.002234261640470983
-0.007292673464542845   -0.08868575394855814   -0.0025089325505317198
-0.007769669289213879   -0.08878947457301946   -0.002711784601612484
-0.007138203618640915   -0.08857874651301136   -0.002512243480530127
-0.00876988274286986   -0.0882559125239637   -0.002567602656321553
-0.007526121537997373   -0.0886994361650491   -0.002647446941143616
-0.007138203618640915   -0.08857874651301136   -0.002512243480530127
-0.007769669289213879   -0.08878947457301946   -0.002711784601612484
-0.00876988274286986   -0.0882559125239637   -0.002567602656321553
-0.007138203618640915   -0.08857874651301136   -0.002512243480530127
-0.006592329051569355   -0.08835439564374899   -0.0023593541790041476
-0.00676683834292482   -0.08847424429780638   -0.002234261640470983
-0.00876988274286986   -0.0882559125239637   -0.002567602656321553
-0.007138203618640915   -0.08857874651301136   -0.002512243480530127
-0.00676683834292482   -0.08847424429780638   -0.002234261640470983
-0.007769669289213879   -0.08878947457301946   -0.002711784601612484
-0.00876988274286986   -0.0882559125239637   -0.002567602656321553
-0.006592329051569355   -0.08835439564374899   -0.0023593541790041476
-0.007526121537997373   -0.0886994361650491   -0.002647446941143616
-0.00851432139191956   -0.08826011203987952   -0.0026601598338162964
-0.006592329051569355   -0.08835439564374899   -0.0023593541790041476
-0.007138203618640915   -0.08857874651301136   -0.002512243480530127
-0.007526121537997373   -0.0886994361650491   -0.002647446941143616
-0.0069662594424931374   -0.08854008997851803   -0.0025029702501104555
-0.00851432139191956   -0.08826011203987952   -0.0026601598338162964
-0.007290667768502349   -0.08869771861932922   -0.002582306009502963
-0.0069662594424931374   -0.08854008997851803   -0.0025029702501104555
-0.007526121537997373   -0.0886994361650491   -0.002647446941143616
-0.00851432139191956   -0.08826011203987952   -0.0026601598338162964
-0.0069662594424931374   -0.08854008997851803   -0.0025029702501104555
-0.006387675071560965   -0.08831001135212162   -0.002474740536274198
-0.006592329051569355   -0.08835439564374899   -0.0023593541790041476
-0.00851432139191956   -0.08826011203987952   -0.0026601598338162964
-0.0069662594424931374   -0.08854008997851803   -0.0025029702501104555
-0.006592329051569355   -0.08835439564374899   -0.0023593541790041476
-0.007526121537997373   -0.0886994361650491   -0.002647446941143616
-0.00851432139191956   -0.08826011203987952   -0.0026601598338162964
-0.006387675071560965   -0.08831001135212162   -0.002474740536274198
-0.007290667768502349   -0.08869771861932922   -0.002582306009502963
-0.008276881383986688   -0.08835671030758944   -0.0027540311277112033
-0.006387675071560965   -0.08831001135212162   -0.002474740536274198
-0.0069662594424931374   -0.08854008997851803   -0.0025029702501104555
-0.007290667768502349   -0.08869771861932922   -0.002582306009502963
-0.006791427037583313   -0.08856664869404186   -0.0024838229302384857
-0.008276881383986688   -0.08835671030758944   -0.0027540311277112033
-0.007045181771395383   -0.08878247192832356   -0.002519729854793123
-0.006791427037583313   -0.08856664869404186   -0.0024838229302384857
-0.007290667768502349   -0.08869771861932922   -0.002582306009502963
-0.008276881383986688   -0.08835671030758944   -0.0027540311277112033
-0.006791427037583313   -0.08856664869404186   -0.0024838229302384857
-0.006212339168115301   -0.08834172652951292   -0.00257981456840438
-0.006387675071560965   -0.08831001135212162   -0.002474740536274198
-0.008276881383986688   -0.08835671030758944   -0.0027540311277112033
-0.006791427037583313   -0.08856664869404186   -0.0024838229302384857
-0.006387675071560965   -0.08831001135212162   -0.002474740536274198
-0.007290667768502349   -0.08869771861932922   -0.002582306009502963
-0.007769669289213879   -0.08878947457301946   -0.002711784601612484
-0.007292673464542845   -0.08868575394855814   -0.0025089325505317198
-0.006645648571443225   -0.08932793908005   -0.002971398494865466
-0.007526121537997373   -0.0886994361650491   -0.002647446941143616
-0.007292673464542845   -0.08868575394855814   -0.0025089325505317198
-0.007856236077215263   -0.0887750315786001   -0.0027792324048723374
-0.006645648571443225   -0.08932793908005   -0.002971398494865466
-0.007696223532674214   -0.08867302953675625   -0.002665445934631221
-0.007526121537997373   -0.0886994361650491   -0.002647446941143616
-0.006347055320751158   -0.08924985305741895   -0.0027423331785825776
-0.007696223532674214   -0.08867302953675625   -0.002665445934631221
-0.006645648571443225   -0.08932793908005   -0.002971398494865466
-0.007526121537997373   -0.0886994361650491   -0.002647446941143616
-0.007696223532674214   -0.08867302953675625   -0.002665445934631221
-0.007138203618640915   -0.08857874651301136   -0.002512243480530127
-0.007292673464542845   -0.08868575394855814   -0.0025089325505317198
-0.007526121537997373   -0.0886994361650491   -0.002647446941143616
-0.007696223532674214   -0.08867302953675625   -0.002665445934631221
-0.007292673464542845   -0.08868575394855814   -0.0025089325505317198
-0.006645648571443225   -0.08932793908005   -0.002971398494865466
-0.007526121537997373   -0.0886994361650491   -0.002647446941143616
-0.007138203618640915   -0.08857874651301136   -0.002512243480530127
-0.006347055320751158   -0.08924985305741895   -0.0027423331785825776
-0.007290667768502349   -0.08869771861932922   -0.002582306009502963
-0.007138203618640915   -0.08857874651301136   -0.002512243480530127
-0.007696223532674214   -0.08867302953675625   -0.002665445934631221
-0.006347055320751158   -0.08924985305741895   -0.0027423331785825776
-0.007504264329168687   -0.08864049890621047   -0.002536334119762195
-0.007290667768502349   -0.08869771861932922   -0.002582306009502963
-0.006070415723119117   -0.08924561373860898   -0.002514061973267052
-0.007504264329168687   -0.08864049890621047   -0.002536334119762195
-0.006347055320751158   -0.08924985305741895   -0.0027423331785825776
-0.007290667768502349   -0.08869771861932922   -0.002582306009502963
-0.007504264329168687   -0.08864049890621047   -0.002536334119762195
-0.0069662594424931374   -0.08854008997851803   -0.0025029702501104555
-0.007138203618640915   -0.08857874651301136   -0.002512243480530127
-0.007290667768502349   -0.08869771861932922   -0.002582306009502963
-0.007504264329168687   -0.08864049890621047   -0.002536334119762195
-0.007138203618640915   -0.08857874651301136   -0.002512243480530127
-0.006347055320751158   -0.08924985305741895   -0.0027423331785825776
-0.007290667768502349   -0.08869771861932922   -0.002582306009502963
-0.0069662594424931374   -0.08854008997851803   -0.0025029702501104555
-0.006070415723119117   -0.08924561373860898   -0.002514061973267052
-0.007045181771395383   -0.08878247192832356   -0.002519729854793123
-0.0069662594424931374   -0.08854008997851803   -0.0025029702501104555
-0.007504264329168687   -0.08864049890621047   -0.002536334119762195
-0.006070415723119117   -0.08924561373860898   -0.002514061973267052
-0.0073068390143594284   -0.08866649099574382   -0.0023987970531697475
-0.007045181771395383   -0.08878247192832356   -0.002519729854793123
-0.005773369439953426   -0.08931121723363472   -0.0022852480788392924
-0.0073068390143594284   -0.08866649099574382   -0.0023987970531697475
-0.006070415723119117   -0.08924561373860898   -0.002514061973267052
-0.007045181771395383   -0.08878247192832356   -0.002519729854793123
-0.0073068390143594284   -0.08866649099574382   -0.0023987970531697475
-0.006791427037583313   -0.08856664869404186   -0.0024838229302384857
-0.0069662594424931374   -0.08854008997851803   -0.0025029702501104555
-0.007045181771395383   -0.08878247192832356   -0.002519729854793123
-0.0073068390143594284   -0.08866649099574382   -0.0023987970531697475
-0.0069662594424931374   -0.08854008997851803   -0.0025029702501104555
-0.006070415723119117   -0.08924561373860898   -0.002514061973267052
-0.006645648571443225   -0.08932793908005   -0.002971398494865466
-0.007856236077215263   -0.0887750315786001   -0.0027792324048723374
-0.005539416043878285   -0.09   -0.003170575889545052
-0.006347055320751158   -0.08924985305741895   -0.0027423331785825776
-0.007856236077215263   -0.0887750315786001   -0.0027792324048723374
-0.008672335338727081   -0.08867998881944529   -0.0030359387470488765
-0.005539416043878285   -0.09   -0.003170575889545052
-0.008463311495378791   -0.08858374890992754   -0.0028106901538406627
-0.006347055320751158   -0.08924985305741895   -0.0027423331785825776
-0.005163939394446583   -0.09   -0.002822878276206567
-0.008463311495378791   -0.08858374890992754   -0.0028106901538406627
-0.005539416043878285   -0.09   -0.003170575889545052
-0.006347055320751158   -0.08924985305741895   -0.0027423331785825776
-0.008463311495378791   -0.08858374890992754   -0.0028106901538406627
-0.007696223532674214   -0.08867302953675625   -0.002665445934631221
-0.007856236077215263   -0.0887750315786001   -0.0027792324048723374
-0.006347055320751158   -0.08924985305741895   -0.0027423331785825776
-0.008463311495378791   -0.08858374890992754   -0.0028106901538406627
-0.007856236077215263   -0.0887750315786001   -0.0027792324048723374
-0.005539416043878285   -0.09   -0.003170575889545052
-0.006347055320751158   -0.08924985305741895   -0.0027423331785825776
-0.007696223532674214   -0.08867302953675625   -0.002665445934631221
-0.005163939394446583   -0.09   -0.002822878276206567
-0.006070415723119117   -0.08924561373860898   -0.002514061973267052
-0.007696223532674214   -0.08867302953675625   -0.002665445934631221
-0.008463311495378791   -0.08858374890992754   -0.0028106901538406627
-0.005163939394446583   -0.09   -0.002822878276206567
-0.00818758171118506   -0.08856177910309539   -0.0025683865038644855
-0.006070415723119117   -0.08924561373860898   -0.002514061973267052
-0.004786739362685946   -0.09   -0.002471055169967719
-0.00818758171118506   -0.08856177910309539   -0.0025683865038644855
-0.005163939394446583   -0.09   -0.002822878276206567
-0.006070415723119117   -0.08924561373860898   -0.002514061973267052
-0.00818758171118506   -0.08856177910309539   -0.0025683865038644855
-0.007504264329168687   -0.08864049890621047   -0.002536334119762195
-0.007696223532674214   -0.08867302953675625   -0.002665445934631221
-0.006070415723119117   -0.08924561373860898   -0.002514061973267052
-0.00818758171118506   -0.08856177910309539   -0.0025683865038644855
-0.007696223532674214   -0.08867302953675625   -0.002665445934631221
-0.005163939394446583   -0.09   -0.002822878276206567
-0.006070415723119117   -0.08924561373860898   -0.002514061973267052
-0.007504264329168687   -0.08864049890621047   -0.002536334119762195
-0.004786739362685946   -0.09   -0.002471055169967719
-0.005773369439953426   -0.08931121723363472   -0.0022852480788392924
-0.007504264329168687   -0.08864049890621047   -0.002536334119762195
-0.00818758171118506   -0.08856177910309539   -0.0025683865038644855
-0.004786739362685946   -0.09   -0.002471055169967719
-0.007928094664050788   -0.08859972048743407   -0.002316703498216181
-0.005773369439953426   -0.08931121723363472   -0.0022852480788392924
-0.00441794052019281   -0.09   -0.0021238780332543073
-0.007928094664050788   -0.08859972048743407   -0.002316703498216181
-0.004786739362685946   -0.09   -0.002471055169967719
-0.005773369439953426   -0.08931121723363472   -0.0022852480788392924
-0.007928094664050788   -0.08859972048743407   -0.002316703498216181
-0.0073068390143594284   -0.08866649099574382   -0.0023987970531697475
-0.007504264329168687   -0.08864049890621047   -0.002536334119762195
-0.005773369439953426   -0.08931121723363472   -0.0022852480788392924
-0.007928094664050788   -0.08859972048743407   -0.002316703498216181
-0.007504264329168687   -0.08864049890621047   -0.002536334119762195
-0.004786739362685946   -0.09   -0.002471055169967719
-0.005539416043878285   -0.09   -0.003170575889545052
-0.008672335338727081   -0.08867998881944529   -0.0030359387470488765
-0.004737644481367882   -0.09   -0.0034118014340123685
-0.005163939394446583   -0.09   -0.002822878276206567
-0.008672335338727081   -0.08867998881944529   -0.0030359387470488765
-0.010257259425554303   -0.08824587779199197   -0.003307934631859771
-0.004737644481367882   -0.09   -0.0034118014340123685
-0.009702396809560077   -0.08816486585537439   -0.002938368404063932
-0.005163939394446583   -0.09   -0.002822878276206567
-0.0039530790229591   -0.09   -0.002908901192113522
-0.009702396809560077   -0.08816486585537439   -0.002938368404063932
-0.004737644481367882   -0.09   -0.0034118014340123685
-0.005163939394446583   -0.09   -0.002822878276206567
-0.009702396809560077   -0.08816486585537439   -0.002938368404063932
-0.008463311495378791   -0.08858374890992754   -0.0028106901538406627
-0.008672335338727081   -0.08867998881944529   -0.0030359387470488765
-0.005163939394446583   -0.09   -0.002822878276206567
-0.009702396809560077   -0.08816486585537439   -0.002938368404063932
-0.008672335338727081   -0.08867998881944529   -0.0030359387470488765
-0.004737644481367882   -0.09   -0.0034118014340123685
-0.005163939394446583   -0.09   -0.002822878276206567
-0.008463311495378791   -0.08858374890992754   -0.0028106901538406627
-0.0039530790229591   -0.09   -0.002908901192113522
-0.004786739362685946   -0.09   -0.002471055169967719
-0.008463311495378791   -0.08858374890992754   -0.0028106901538406627
-0.009702396809560077   -0.08816486585537439   -0.002938368404063932
-0.0039530790229591   -0.09   -0.002908901192113522
-0.009192416112576453   -0.08815367671137998   -0.002543820233657823
-0.004786739362685946   -0.09   -0.002471055169967719
-0.003327394558716877   -0.09   -0.002427807853365819
-0.009192416112576453   -0.08815367671137998   -0.002543820233657823
-0.0039530790229591   -0.09   -0.002908901192113522
-0.004786739362685946   -0.09   -0.002471055169967719
-0.009192416112576453   -0.08815367671137998   -0.002543820233657823
-0.00818758171118506   -0.08856177910309539   -0.0025683865038644855
-0.008463311495378791   -0.08858374890992754   -0.0028106901538406627
-0.004786739362685946   -0.09   -0.002471055169967719
-0.009192416112576453   -0.08815367671137998   -0.002543820233657823
-0.008463311495378791   -0.08858374890992754   -0.0028106901538406627
-0.0039530790229591   -0.09   -0.002908901192113522
-0.004786739362685946   -0.09   -0.002471055169967719
-0.00818758171118506   -0.08856177910309539   -0.0025683865038644855
-0.003327394558716877   -0.09   -0.002427807853365819
-0.00441794052019281   -0.09   -0.0021238780332543073
-0.00818758171118506   -0.08856177910309539   -0.0025683865038644855
-0.009192416112576453   -0.08815367671137998   -0.002543820233657823
-0.003327394558716877   -0.09   -0.002427807853365819
-0.0085483973409915   -0.08826002456262959   -0.002131115689387276
-0.00441794052019281   -0.09   -0.0021238780332543073
-0.0025544632669192084   -0.09   -0.0019283845713866205
-0.0085483973409915   -0.08826002456262959   -0.002131115689387276
-0.003327394558716877   -0.09   -0.002427807853365819
-0.00441794052019281   -0.09   -0.0021238780332543073
-0.0085483973409915   -0.08826002456262959   -0.002131115689387276
-0.007928094664050788   -0.08859972048743407   -0.002316703498216181
-0.00818758171118506   -0.08856177910309539   -0.0025683865038644855
-0.00441794052019281   -0.09   -0.0021238780332543073
-0.0085483973409915   -0.08826002456262959   -0.002131115689387276
-0.00818758171118506   -0.08856177910309539   -0.0025683865038644855
-0.003327394558716877   -0.09   -0.002427807853365819
-0.006377609582994382   -0.08813252776410697   -0.0018907768140134459
-0.0025927993108127456   -0.0847955398008535   -0.0016340401428238138
-0.00676683834292482   -0.08847424429780638   -0.002234261640470983
-0.005932625494258053   -0.0879786551354548   -0.0021835992667545447
-0.0025927993108127456   -0.0847955398008535   -0.0016340401428238138
-0.004852346590216603   -0.08505310633617959   -0.0019988254878089084
-0.00676683834292482   -0.08847424429780638   -0.002234261640470983
-0.004728441619540136   -0.08490809910615899   -0.0021103077559199773
-0.005932625494258053   -0.0879786551354548   -0.0021835992667545447
-0.006592329051569355   -0.08835439564374899   -0.0023593541790041476
-0.004728441619540136   -0.08490809910615899   -0.0021103077559199773
-0.00676683834292482   -0.08847424429780638   -0.002234261640470983
-0.005932625494258053   -0.0879786551354548   -0.0021835992667545447
-0.004728441619540136   -0.08490809910615899   -0.0021103077559199773
-0.002238197737767052   -0.08461613519970111   -0.0018869845683256931
-0.0025927993108127456   -0.0847955398008535   -0.0016340401428238138
-0.005932625494258053   -0.0879786551354548   -0.0021835992667545447
-0.004728441619540136   -0.08490809910615899   -0.0021103077559199773
-0.0025927993108127456   -0.0847955398008535   -0.0016340401428238138
-0.00676683834292482   -0.08847424429780638   -0.002234261640470983
-0.005932625494258053   -0.0879786551354548   -0.0021835992667545447
-0.002238197737767052   -0.08461613519970111   -0.0018869845683256931
-0.006592329051569355   -0.08835439564374899   -0.0023593541790041476
-0.005562207437114872   -0.08793112633042585   -0.002464375613060905
-0.002238197737767052   -0.08461613519970111   -0.0018869845683256931
-0.004728441619540136   -0.08490809910615899   -0.0021103077559199773
-0.006592329051569355   -0.08835439564374899   -0.0023593541790041476
-0.004588995962265748   -0.08482758960621264   -0.002211713885138966
-0.005562207437114872   -0.08793112633042585   -0.002464375613060905
-0.006387675071560965   -0.08831001135212162   -0.002474740536274198
-0.004588995962265748   -0.08482758960621264   -0.002211713885138966
-0.006592329051569355   -0.08835439564374899   -0.0023593541790041476
-0.005562207437114872   -0.08793112633042585   -0.002464375613060905
-0.004588995962265748   -0.08482758960621264   -0.002211713885138966
-0.0019591729341858943   -0.08453050244881062   -0.002124991939902839
-0.002238197737767052   -0.08461613519970111   -0.0018869845683256931
-0.005562207437114872   -0.08793112633042585   -0.002464375613060905
-0.004588995962265748   -0.08482758960621264   -0.002211713885138966
-0.002238197737767052   -0.08461613519970111   -0.0018869845683256931
-0.006592329051569355   -0.08835439564374899   -0.0023593541790041476
-0.005562207437114872   -0.08793112633042585   -0.002464375613060905
-0.0019591729341858943   -0.08453050244881062   -0.002124991939902839
-0.006387675071560965   -0.08831001135212162   -0.002474740536274198
-0.0051431928282311724   -0.08797070054252829   -0.0027318528626645044
-0.0019591729341858943   -0.08453050244881062   -0.002124991939902839
-0.004588995962265748   -0.08482758960621264   -0.002211713885138966
-0.006387675071560965   -0.08831001135212162   -0.002474740536274198
-0.004482069006980084   -0.08480933081372098   -0.0023033641609805254
-0.0051431928282311724   -0.08797070054252829   -0.0027318528626645044
-0.006212339168115301   -0.08834172652951292   -0.00257981456840438
-0.004482069006980084   -0.08480933081372098   -0.0023033641609805254
-0.006387675071560965   -0.08831001135212162   -0.002474740536274198
-0.0051431928282311724   -0.08797070054252829   -0.0027318528626645044
-0.004482069006980084   -0.08480933081372098   -0.0023033641609805254
-0.0016545580116672724   -0.08451407649402759   -0.002347428767932269
-0.0019591729341858943   -0.08453050244881062   -0.002124991939902839
-0.0051431928282311724   -0.08797070054252829   -0.0027318528626645044
-0.004482069006980084   -0.08480933081372098   -0.0023033641609805254
-0.0019591729341858943   -0.08453050244881062   -0.002124991939902839
-0.006387675071560965   -0.08831001135212162   -0.002474740536274198
-0.00676683834292482   -0.08847424429780638   -0.002234261640470983
-0.004852346590216603   -0.08505310633617959   -0.0019988254878089084
-0.007292673464542845   -0.08868575394855814   -0.0025089325505317198
-0.006592329051569355   -0.08835439564374899   -0.0023593541790041476
-0.004852346590216603   -0.08505310633617959   -0.0019988254878089084
-0.007082074846275394   -0.08514404144562358   -0.0022964423129969145
-0.007292673464542845   -0.08868575394855814   -0.0025089325505317198
-0.006977866361899897   -0.08501752814931827   -0.0023026238174301008
-0.006592329051569355   -0.08835439564374899   -0.0023593541790041476
-0.007138203618640915   -0.08857874651301136   -0.002512243480530127
-0.006977866361899897   -0.08501752814931827   -0.0023026238174301008
-0.007292673464542845   -0.08868575394855814   -0.0025089325505317198
-0.006592329051569355   -0.08835439564374899   -0.0023593541790041476
-0.006977866361899897   -0.08501752814931827   -0.0023026238174301008
-0.004728441619540136   -0.08490809910615899   -0.0021103077559199773
-0.004852346590216603   -0.08505310633617959   -0.0019988254878089084
-0.006592329051569355   -0.08835439564374899   -0.0023593541790041476
-0.006977866361899897   -0.08501752814931827   -0.0023026238174301008
-0.004852346590216603   -0.08505310633617959   -0.0019988254878089084
-0.007292673464542845   -0.08868575394855814   -0.0025089325505317198
-0.006592329051569355   -0.08835439564374899   -0.0023593541790041476
-0.004728441619540136   -0.08490809910615899   -0.0021103077559199773
-0.007138203618640915   -0.08857874651301136   -0.002512243480530127
-0.006387675071560965   -0.08831001135212162   -0.002474740536274198
-0.004728441619540136   -0.08490809910615899   -0.0021103077559199773
-0.006977866361899897   -0.08501752814931827   -0.0023026238174301008
-0.007138203618640915   -0.08857874651301136   -0.002512243480530127
-0.006870091251258543   -0.08494915916609029   -0.0022994743511661653
-0.006387675071560965   -0.08831001135212162   -0.002474740536274198
-0.0069662594424931374   -0.08854008997851803   -0.0025029702501104555
-0.006870091251258543   -0.08494915916609029   -0.0022994743511661653
-0.007138203618640915   -0.08857874651301136   -0.002512243480530127
-0.006387675071560965   -0.08831001135212162   -0.002474740536274198
-0.006870091251258543   -0.08494915916609029   -0.0022994743511661653
-0.004588995962265748   -0.08482758960621264   -0.002211713885138966
-0.004728441619540136   -0.08490809910615899   -0.0021103077559199773
-0.006387675071560965   -0.08831001135212162   -0.002474740536274198
-0.006870091251258543   -0.08494915916609029   -0.0022994743511661653
-0.004728441619540136   -0.08490809910615899   -0.0021103077559199773
-0.007138203618640915   -0.08857874651301136   -0.002512243480530127
-0.006387675071560965   -0.08831001135212162   -0.002474740536274198
-0.004588995962265748   -0.08482758960621264   -0.002211713885138966
-0.0069662594424931374   -0.08854008997851803   -0.0025029702501104555
-0.006212339168115301   -0.08834172652951292   -0.00257981456840438
-0.004588995962265748   -0.08482758960621264   -0.002211713885138966
-0.006870091251258543   -0.08494915916609029   -0.0022994743511661653
-0.0069662594424931374   -0.08854008997851803   -0.0025029702501104555
-0.006766146577157177   -0.08493612086107372   -0.002286903196851236
-0.006212339168115301   -0.08834172652951292   -0.00257981456840438
-0.006791427037583313   -0.08856664869404186   -0.0024838229302384857
-0.006766146577157177   -0.08493612086107372   -0.002286903196851236
-0.0069662594424931374   -0.08854008997851803   -0.0025029702501104555
-0.006212339168115301   -0.08834172652951292   -0.00257981456840438
-0.006766146577157177   -0.08493612086107372   -0.002286903196851236
-0.004482069006980084   -0.08480933081372098   -0.0023033641609805254
-0.004588995962265748   -0.08482758960621264   -0.002211713885138966
-0.006212339168115301   -0.08834172652951292   -0.00257981456840438
-0.006766146577157177   -0.08493612086107372   -0.002286903196851236
-0.004588995962265748   -0.08482758960621264   -0.002211713885138966
-0.0069662594424931374   -0.08854008997851803   -0.0025029702501104555
-0.007292673464542845   -0.08868575394855814   -0.0025089325505317198
-0.007082074846275394   -0.08514404144562358   -0.0022964423129969145
-0.007856236077215263   -0.0887750315786001   -0.0027792324048723374
-0.007138203618640915   -0.08857874651301136   -0.002512243480530127
-0.007082074846275394   -0.08514404144562358   -0.0022964423129969145
-0.009296269651333082   -0.08506333994545816   -0.0025749633375431063
-0.007856236077215263   -0.0887750315786001   -0.0027792324048723374
-0.009192884138711607   -0.08495099726526442   -0.0024801829638238884
-0.007138203618640915   -0.08857874651301136   -0.002512243480530127
-0.007696223532674214   -0.08867302953675625   -0.002665445934631221
-0.009192884138711607   -0.08495099726526442   -0.0024801829638238884
-0.007856236077215263   -0.0887750315786001   -0.0027792324048723374
-0.007138203618640915   -0.08857874651301136   -0.002512243480530127
-0.009192884138711607   -0.08495099726526442   -0.0024801829638238884
-0.006977866361899897   -0.08501752814931827   -0.0023026238174301008
-0.007082074846275394   -0.08514404144562358   -0.0022964423129969145
-0.007138203618640915   -0.08857874651301136   -0.002512243480530127
-0.009192884138711607   -0.08495099726526442   -0.0024801829638238884
-0.007082074846275394   -0.08514404144562358   -0.0022964423129969145
-0.007856236077215263   -0.0887750315786001   -0.0027792324048723374
-0.007138203618640915   -0.08857874651301136   -0.002512243480530127
-0.006977866361899897   -0.08501752814931827   -0.0023026238174301008
-0.007696223532674214   -0.08867302953675625   -0.002665445934631221
-0.0069662594424931374   -0.08854008997851803   -0.0025029702501104555
-0.006977866361899897   -0.08501752814931827   -0.0023026238174301008
-0.009192884138711607   -0.08495099726526442   -0.0024801829638238884
-0.007696223532674214   -0.08867302953675625   -0.002665445934631221
-0.009076861145479656   -0.08489581963129389   -0.0023762083208735078
-0.0069662594424931374   -0.08854008997851803   -0.0025029702501104555
-0.007504264329168687   -0.08864049890621047   -0.002536334119762195
-0.009076861145479656   -0.08489581963129389   -0.0023762083208735078
-0.007696223532674214   -0.08867302953675625   -0.002665445934631221
-0.0069662594424931374   -0.08854008997851803   -0.0025029702501104555
-0.009076861145479656   -0.08489581963129389   -0.0023762083208735078
-0.006870091251258543   -0.08494915916609029   -0.0022994743511661653
-0.006977866361899897   -0.08501752814931827   -0.0023026238174301008
-0.0069662594424931374   -0.08854008997851803   -0.0025029702501104555
-0.009076861145479656   -0.08489581963129389   -0.0023762083208735078
-0.006977866361899897   -0.08501752814931827   -0.0023026238174301008
-0.007696223532674214   -0.08867302953675625   -0.002665445934631221
-0.0069662594424931374   -0.08854008997851803   -0.0025029702501104555
-0.006870091251258543   -0.08494915916609029   -0.0022994743511661653
-0.007504264329168687   -0.08864049890621047   -0.002536334119762195
-0.006791427037583313   -0.08856664869404186   -0.0024838229302384857
-0.006870091251258543   -0.08494915916609029   -0.0022994743511661653
-0.009076861145479656   -0.08489581963129389   -0.0023762083208735078
-0.007504264329168687   -0.08864049890621047   -0.002536334119762195
-0.008960340870248419   -0.08489228686465522   -0.0022619189481489876
-0.006791427037583313   -0.08856664869404186   -0.0024838229302384857
-0.0073068390143594284   -0.08866649099574382   -0.0023987970531697475
-0.008960340870248419   -0.08489228686465522   -0.0022619189481489876
-0.007504264329168687   -0.08864049890621047   -0.002536334119762195
-0.006791427037583313   -0.08856664869404186   -0.0024838229302384857
-0.008960340870248419   -0.08489228686465522   -0.0022619189481489876
-0.006766146577157177   -0.08493612086107372   -0.002286903196851236
-0.006870091251258543   -0.08494915916609029   -0.0022994743511661653
-0.006791427037583313   -0.08856664869404186   -0.0024838229302384857
-0.008960340870248419   -0.08489228686465522   -0.0022619189481489876
-0.006870091251258543   -0.08494915916609029   -0.0022994743511661653
-0.007504264329168687   -0.08864049890621047   -0.002536334119762195
-0.007856236077215263   -0.0887750315786001   -0.0027792324048723374
-0.009296269651333082   -0.08506333994545816   -0.0025749633375431063
-0.008672335338727081   -0.08867998881944529   -0.0030359387470488765
-0.007696223532674214   -0.08867302953675625   -0.002665445934631221
-0.009296269651333082   -0.08506333994545816   -0.0025749633375431063
-0.01172922659293684   -0.08480028885740751   -0.0028307288860040646
-0.008672335338727081   -0.08867998881944529   -0.0030359387470488765
-0.011602715999660704   -0.08470216114971434   -0.002637253398871807
-0.007696223532674214   -0.08867302953675625   -0.002665445934631221
-0.008463311495378791   -0.08858374890992754   -0.0028106901538406627
-0.011602715999660704   -0.08470216114971434   -0.002637253398871807
-0.008672335338727081   -0.08867998881944529   -0.0030359387470488765
-0.007696223532674214   -0.08867302953675625   -0.002665445934631221
-0.011602715999660704   -0.08470216114971434   -0.002637253398871807
-0.009192884138711607   -0.08495099726526442   -0.0024801829638238884
-0.009296269651333082   -0.08506333994545816   -0.0025749633375431063
-0.007696223532674214   -0.08867302953675625   -0.002665445934631221
-0.011602715999660704   -0.08470216114971434   -0.002637253398871807
-0.009296269651333082   -0.08506333994545816   -0.0025749633375431063
-0.008672335338727081   -0.08867998881944529   -0.0030359387470488765
-0.007696223532674214   -0.08867302953675625   -0.002665445934631221
-0.009192884138711607   -0.08495099726526442   -0.0024801829638238884
-0.008463311495378791   -0.08858374890992754   -0.0028106901538406627
-0.007504264329168687   -0.08864049890621047   -0.002536334119762195
-0.009192884138711607   -0.08495099726526442   -0.0024801829638238884
-0.011602715999660704   -0.08470216114971434   -0.002637253398871807
-0.008463311495378791   -0.08858374890992754   -0.0028106901538406627
-0.01142809292495884   -0.08466012218159971   -0.0024352537255908557
-0.007504264329168687   -0.08864049890621047   -0.002536334119762195
-0.00818758171118506   -0.08856177910309539   -0.0025683865038644855
-0.01142809292495884   -0.08466012218159971   -0.0024352537255908557
-0.008463311495378791   -0.08858374890992754   -0.0028106901538406627
-0.007504264329168687   -0.08864049890621047   -0.002536334119762195
-0.01142809292495884   -0.08466012218159971   -0.0024352537255908557
-0.009076861145479656   -0.08489581963129389   -0.0023762083208735078
-0.009192884138711607   -0.08495099726526442   -0.0024801829638238884
-0.007504264329168687   -0.08864049890621047   -0.002536334119762195
-0.01142809292495884   -0.08466012218159971   -0.0024352537255908557
-0.009192884138711607   -0.08495099726526442   -0.0024801829638238884
-0.008463311495378791   -0.08858374890992754   -0.0028106901538406627
-0.007504264329168687   -0.08864049890621047   -0.002536334119762195
-0.009076861145479656   -0.08489581963129389   -0.0023762083208735078
-0.00818758171118506   -0.08856177910309539   -0.0025683865038644855
-0.0073068390143594284   -0.08866649099574382   -0.0023987970531697475
-0.009076861145479656   -0.08489581963129389   -0.0023762083208735078
-0.01142809292495884   -0.08466012218159971   -0.0024352537255908557
-0.00818758171118506   -0.08856177910309539   -0.0025683865038644855
-0.011275600585211543   -0.08467424266799668   -0.002219088846863364
-0.0073068390143594284   -0.08866649099574382   -0.0023987970531697475
-0.007928094664050788   -0.08859972048743407   -0.002316703498216181
-0.011275600585211543   -0.08467424266799668   -0.002219088846863364
-0.00818758171118506   -0.08856177910309539   -0.0025683865038644855
-0.0073068390143594284   -0.08866649099574382   -0.0023987970531697475
-0.011275600585211543   -0.08467424266799668   -0.002219088846863364
-0.008960340870248419   -0.08489228686465522   -0.0022619189481489876
-0.009076861145479656   -0.08489581963129389   -0.0023762083208735078
-0.0073068390143594284   -0.08866649099574382   -0.0023987970531697475
-0.011275600585211543   -0.08467424266799668   -0.002219088846863364
-0.009076861145479656   -0.08489581963129389   -0.0023762083208735078
-0.00818758171118506   -0.08856177910309539   -0.0025683865038644855
-0.008672335338727081   -0.08867998881944529   -0.0030359387470488765
-0.01172922659293684   -0.08480028885740751   -0.0028307288860040646
-0.010257259425554303   -0.08824587779199197   -0.003307934631859771
-0.008463311495378791   -0.08858374890992754   -0.0028106901538406627
-0.01172922659293684   -0.08480028885740751   -0.0028307288860040646
-0.014862357792203532   -0.08437248288890985   -0.0030760006914070824
-0.010257259425554303   -0.08824587779199197   -0.003307934631859771
-0.014455592962708352   -0.08426618908443939   -0.0027705589003134833
-0.008463311495378791   -0.08858374890992754   -0.0028106901538406627
-0.009702396809560077   -0.08816486585537439   -0.002938368404063932
-0.014455592962708352   -0.08426618908443939   -0.0027705589003134833
-0.010257259425554303   -0.08824587779199197   -0.003307934631859771
-0.008463311495378791   -0.08858374890992754   -0.0028106901538406627
-0.014455592962708352   -0.08426618908443939   -0.0027705589003134833
-0.011602715999660704   -0.08470216114971434   -0.002637253398871807
-0.01172922659293684   -0.08480028885740751   -0.0028307288860040646
-0.008463311495378791   -0.08858374890992754   -0.0028106901538406627
-0.014455592962708352   -0.08426618908443939   -0.0027705589003134833
-0.01172922659293684   -0.08480028885740751   -0.0028307288860040646
-0.010257259425554303   -0.08824587779199197   -0.003307934631859771
-0.008463311495378791   -0.08858374890992754   -0.0028106901538406627
-0.011602715999660704   -0.08470216114971434   -0.002637253398871807
-0.009702396809560077   -0.08816486585537439   -0.002938368404063932
-0.00818758171118506   -0.08856177910309539   -0.0025683865038644855
-0.011602715999660704   -0.08470216114971434   -0.002637253398871807
-0.014455592962708352   -0.08426618908443939   -0.0027705589003134833
-0.009702396809560077   -0.08816486585537439   -0.002938368404063932
-0.014090845978871286   -0.08422730430209698   -0.002447251790212803
-0.00818758171118506   -0.08856177910309539   -0.0025683865038644855
-0.009192416112576453   -0.08815367671137998   -0.002543820233657823
-0.014090845978871286   -0.08422730430209698   -0.002447251790212803
-0.009702396809560077   -0.08816486585537439   -0.002938368404063932
-0.00818758171118506   -0.08856177910309539   -0.0025683865038644855
-0.014090845978871286   -0.08422730430209698   -0.002447251790212803
-0.01142809292495884   -0.08466012218159971   -0.0024352537255908557
-0.011602715999660704   -0.08470216114971434   -0.002637253398871807
-0.00818758171118506   -0.08856177910309539   -0.0025683865038644855
-0.014090845978871286   -0.08422730430209698   -0.002447251790212803
-0.011602715999660704   -0.08470216114971434   -0.002637253398871807
-0.009702396809560077   -0.08816486585537439   -0.002938368404063932
-0.00818758171118506   -0.08856177910309539   -0.0025683865038644855
-0.01142809292495884   -0.08466012218159971   -0.0024352537255908557
-0.009192416112576453   -0.08815367671137998   -0.002543820233657823
-0.007928094664050788   -0.08859972048743407   -0.002316703498216181
-0.01142809292495884   -0.08466012218159971   -0.0024352537255908557
-0.014090845978871286   -0.08422730430209698   -0.002447251790212803
-0.009192416112576453   -0.08815367671137998   -0.002543820233657823
-0.013618097613205055   -0.08427584487697017   -0.002109157002062085
-0.007928094664050788   -0.08859972048743407   -0.002316703498216181
-0.0085483973409915   -0.08826002456262959   -0.002131115689387276
-0.013618097613205055   -0.08427584487697017   -0.002109157002062085
-0.009192416112576453   -0.08815367671137998   -0.002543820233657823
-0.007928094664050788   -0.08859972048743407   -0.002316703498216181
-0.013618097613205055   -0.08427584487697017   -0.002109157002062085
-0.011275600585211543   -0.08467424266799668   -0.002219088846863364
-0.01142809292495884   -0.08466012218159971   -0.0024352537255908557
-0.007928094664050788   -0.08859972048743407   -0.002316703498216181
-0.013618097613205055   -0.08427584487697017   -0.002109157002062085
-0.01142809292495884   -0.08466012218159971   -0.0024352537255908557
-0.009192416112576453   -0.08815367671137998   -0.002543820233657823
-0.0025927993108127456   -0.0847955398008535   -0.0016340401428238138
0.00047522685028423786   -0.0786609056925365   -0.0013519314817195109
-0.004852346590216603   -0.08505310633617959   -0.0019988254878089084
-0.002238197737767052   -0.08461613519970111   -0.0018869845683256931
0.00047522685028423786   -0.0786609056925365   -0.0013519314817195109
-0.003333147339419473   -0.07884962310310877   -0.0017100093899438734
-0.004852346590216603   -0.08505310633617959   -0.0019988254878089084
-0.0032675298631250453   -0.0786976679009686   -0.0017983899886379025
-0.002238197737767052   -0.08461613519970111   -0.0018869845683256931
-0.004728441619540136   -0.08490809910615899   -0.0021103077559199773
-0.0032675298631250453   -0.0786976679009686   -0.0017983899886379025
-0.004852346590216603   -0.08505310633617959   -0.0019988254878089084
-0.002238197737767052   -0.08461613519970111   -0.0018869845683256931
-0.0032675298631250453   -0.0786976679009686   -0.0017983899886379025
0.0007226196270893562   -0.07847866450637637   -0.0015531930895978754
0.00047522685028423786   -0.0786609056925365   -0.0013519314817195109
-0.002238197737767052   -0.08461613519970111   -0.0018869845683256931
-0.0032675298631250453   -0.0786976679009686   -0.0017983899886379025
0.00047522685028423786   -0.0786609056925365   -0.0013519314817195109
-0.004852346590216603   -0.08505310633617959   -0.0019988254878089084
-0.002238197737767052   -0.08461613519970111   -0.0018869845683256931
0.0007226196270893562   -0.07847866450637637   -0.0015531930895978754
-0.004728441619540136   -0.08490809910615899   -0.0021103077559199773
-0.0019591729341858943   -0.08453050244881062   -0.002124991939902839
0.0007226196270893562   -0.07847866450637637   -0.0015531930895978754
-0.0032675298631250453   -0.0786976679009686   -0.0017983899886379025
-0.004728441619540136   -0.08490809910615899   -0.0021103077559199773
-0.003192845454055628   -0.0785982688150995   -0.0018764487430146892
-0.0019591729341858943   -0.08453050244881062   -0.002124991939902839
-0.004588995962265748   -0.08482758960621264   -0.002211713885138966
-0.003192845454055628   -0.0785982688150995   -0.0018764487430146892
-0.004728441619540136   -0.08490809910615899   -0.0021103077559199773
-0.0019591729341858943   -0.08453050244881062   -0.002124991939902839
-0.003192845454055628   -0.0785982688150995   -0.0018764487430146892
0.0009045786869333121   -0.07837317365894171   -0.0017400077345779026
0.0007226196270893562   -0.07847866450637637   -0.0015531930895978754
-0.0019591729341858943   -0.08453050244881062   -0.002124991939902839
-0.003192845454055628   -0.0785982688150995   -0.0018764487430146892
0.0007226196270893562   -0.07847866450637637   -0.0015531930895978754
-0.004728441619540136   -0.08490809910615899   -0.0021103077559199773
-0.0019591729341858943   -0.08453050244881062   -0.002124991939902839
0.0009045786869333121   -0.07837317365894171   -0.0017400077345779026
-0.004588995962265748   -0.08482758960621264   -0.002211713885138966
-0.0016545580116672724   -0.08451407649402759   -0.002347428767932269
0.0009045786869333121   -0.07837317365894171   -0.0017400077345779026
-0.003192845454055628   -0.0785982688150995   -0.0018764487430146892
-0.004588995962265748   -0.08482758960621264   -0.002211713885138966
-0.0031481990755603006   -0.07854848988905214   -0.001945204515003544
-0.0016545580116672724   -0.08451407649402759   -0.002347428767932269
-0.004482069006980084   -0.08480933081372098   -0.0023033641609805254
-0.0031481990755603006   -0.07854848988905214   -0.001945204515003544
-0.004588995962265748   -0.08482758960621264   -0.002211713885138966
-0.0016545580116672724   -0.08451407649402759   -0.002347428767932269
-0.0031481990755603006   -0.07854848988905214   -0.001945204515003544
0.0010992729107192531   -0.0783208944312439   -0.001912303142996231
0.0009045786869333121   -0.07837317365894171   -0.0017400077345779026
-0.0016545580116672724   -0.08451407649402759   -0.002347428767932269
-0.0031481990755603006   -0.07854848988905214   -0.001945204515003544
0.0009045786869333121   -0.07837317365894171   -0.0017400077345779026
-0.004588995962265748   -0.08482758960621264   -0.002211713885138966
-0.004852346590216603   -0.08505310633617959   -0.0019988254878089084
-0.003333147339419473   -0.07884962310310877   -0.0017100093899438734
-0.007082074846275394   -0.08514404144562358   -0.0022964423129969145
-0.004728441619540136   -0.08490809910615899   -0.0021103077559199773
-0.003333147339419473   -0.07884962310310877   -0.0017100093899438734
-0.007016671740023007   -0.07888570391621885   -0.002005167502467362
-0.007082074846275394   -0.08514404144562358   -0.0022964423129969145
-0.0069684098661931095   -0.07875523367258683   -0.0020074723583849248
-0.004728441619540136   -0.08490809910615899   -0.0021103077559199773
-0.006977866361899897   -0.08501752814931827   -0.0023026238174301008
-0.0069684098661931095   -0.07875523367258683   -0.0020074723583849248
-0.007082074846275394   -0.08514404144562358   -0.0022964423129969145
-0.004728441619540136   -0.08490809910615899   -0.0021103077559199773
-0.0069684098661931095   -0.07875523367258683   -0.0020074723583849248
-0.0032675298631250453   -0.0786976679009686   -0.0017983899886379025
-0.003333147339419473   -0.07884962310310877   -0.0017100093899438734
-0.004728441619540136   -0.08490809910615899   -0.0021103077559199773
-0.0069684098661931095   -0.07875523367258683   -0.0020074723583849248
-0.003333147339419473   -0.07884962310310877   -0.0017100093899438734
-0.007082074846275394   -0.08514404144562358   -0.0022964423129969145
-0.004728441619540136   -0.08490809910615899   -0.0021103077559199773
-0.0032675298631250453   -0.0786976679009686   -0.0017983899886379025
-0.006977866361899897   -0.08501752814931827   -0.0023026238174301008
-0.004588995962265748   -0.08482758960621264   -0.002211713885138966
-0.0032675298631250453   -0.0786976679009686   -0.0017983899886379025
-0.0069684098661931095   -0.07875523367258683   -0.0020074723583849248
-0.006977866361899897   -0.08501752814931827   -0.0023026238174301008
-0.0069187871272841225   -0.0786718065638147   -0.001999889597630313
-0.004588995962265748   -0.08482758960621264   -0.002211713885138966
-0.006870091251258543   -0.08494915916609029   -0.0022994743511661653
-0.0069187871272841225   -0.0786718065638147   -0.001999889597630313
-0.006977866361899897   -0.08501752814931827   -0.0023026238174301008
-0.004588995962265748   -0.08482758960621264   -0.002211713885138966
-0.0069187871272841225   -0.0786718065638147   -0.001999889597630313
-0.003192845454055628   -0.0785982688150995   -0.0018764487430146892
-0.0032675298631250453   -0.0786976679009686   -0.0017983899886379025
-0.004588995962265748   -0.08482758960621264   -0.002211713885138966
-0.0069187871272841225   -0.0786718065638147   -0.001999889597630313
-0.0032675298631250453   -0.0786976679009686   -0.0017983899886379025
-0.006977866361899897   -0.08501752814931827   -0.0023026238174301008
-0.004588995962265748   -0.08482758960621264   -0.002211713885138966
-0.003192845454055628   -0.0785982688150995   -0.0018764487430146892
-0.006870091251258543   -0.08494915916609029   -0.0022994743511661653
-0.004482069006980084   -0.08480933081372098   -0.0023033641609805254
-0.003192845454055628   -0.0785982688150995   -0.0018764487430146892
-0.0069187871272841225   -0.0786718065638147   -0.001999889597630313
-0.006870091251258543   -0.08494915916609029   -0.0022994743511661653
-0.00687538292790023   -0.07863464149885592   -0.0019830749104122556
-0.004482069006980084   -0.08480933081372098   -0.0023033641609805254
-0.006766146577157177   -0.08493612086107372   -0.002286903196851236
-0.00687538292790023   -0.07863464149885592   -0.0019830749104122556
-0.006870091251258543   -0.08494915916609029   -0.0022994743511661653
-0.004482069006980084   -0.08480933081372098   -0.0023033641609805254
-0.00687538292790023   -0.07863464149885592   -0.0019830749104122556
-0.0031481990755603006   -0.07854848988905214   -0.001945204515003544
-0.003192845454055628   -0.0785982688150995   -0.0018764487430146892
-0.004482069006980084   -0.08480933081372098   -0.0023033641609805254
-0.00687538292790023   -0.07863464149885592   -0.0019830749104122556
-0.003192845454055628   -0.0785982688150995   -0.0018764487430146892
-0.006870091251258543   -0.08494915916609029   -0.0022994743511661653
-0.007082074846275394   -0.08514404144562358   -0.0022964423129969145
-0.007016671740023007   -0.07888570391621885   -0.002005167502467362
-0.009296269651333082   -0.08506333994545816   -0.0025749633375431063
-0.006977866361899897   -0.08501752814931827   -0.0023026238174301008
-0.007016671740023007   -0.07888570391621885   -0.002005167502467362
-0.010642146731615   -0.07876846813469363   -0.0022716090048136442
-0.009296269651333082   -0.08506333994545816   -0.0025749633375431063
-0.01059721226548616   -0.07865588974560178   -0.002189915845857753
-0.006977866361899897   -0.08501752814931827   -0.0023026238174301008
-0.009192884138711607   -0.08495099726526442   -0.0024801829638238884
-0.01059721226548616   -0.07865588974560178   -0.002189915845857753
-0.009296269651333082   -0.08506333994545816   -0.0025749633375431063
-0.006977866361899897   -0.08501752814931827   -0.0023026238174301008
-0.01059721226548616   -0.07865588974560178   -0.002189915845857753
-0.0069684098661931095   -0.07875523367258683   -0.0020074723583849248
-0.007016671740023007   -0.07888570391621885   -0.002005167502467362
-0.006977866361899897   -0.08501752814931827   -0.0023026238174301008
-0.01059721226548616   -0.07865588974560178   -0.002189915845857753
-0.007016671740023007   -0.07888570391621885   -0.002005167502467362
-0.009296269651333082   -0.08506333994545816   -0.0025749633375431063
-0.006977866361899897   -0.08501752814931827   -0.0023026238174301008
-0.0069684098661931095   -0.07875523367258683   -0.0020074723583849248
-0.009192884138711607   -0.08495099726526442   -0.0024801829638238884
-0.006870091251258543   -0.08494915916609029   -0.0022994743511661653
-0.0069684098661931095   -0.07875523367258683   -0.0020074723583849248
-0.01059721226548616   -0.07865588974560178   -0.002189915845857753
-0.009192884138711607   -0.08495099726526442   -0.0024801829638238884
-0.010542917979138195   -0.07858983623194891   -0.0020985481157884327
-0.006870091251258543   -0.08494915916609029   -0.0022994743511661653
-0.009076861145479656   -0.08489581963129389   -0.0023762083208735078
-0.010542917979138195   -0.07858983623194891   -0.0020985481157884327
-0.009192884138711607   -0.08495099726526442   -0.0024801829638238884
-0.006870091251258543   -0.08494915916609029   -0.0022994743511661653
-0.010542917979138195   -0.07858983623194891   -0.0020985481157884327
-0.0069187871272841225   -0.0786718065638147   -0.001999889597630313
-0.0069684098661931095   -0.07875523367258683   -0.0020074723583849248
-0.006870091251258543   -0.08494915916609029   -0.0022994743511661653
-0.010542917979138195   -0.07858983623194891   -0.0020985481157884327
-0.0069684098661931095   -0.07875523367258683   -0.0020074723583849248
-0.009192884138711607   -0.08495099726526442   -0.0024801829638238884
-0.006870091251258543   -0.08494915916609029   -0.0022994743511661653
-0.0069187871272841225   -0.0786718065638147   -0.001999889597630313
-0.009076861145479656   -0.08489581963129389   -0.0023762083208735078
-0.006766146577157177   -0.08493612086107372   -0.002286903196851236
-0.0069187871272841225   -0.0786718065638147   -0.001999889597630313
-0.010542917979138195   -0.07858983623194891   -0.0020985481157884327
-0.009076861145479656   -0.08489581963129389   -0.0023762083208735078
-0.01049009991788208   -0.07856813660171386   -0.0019978041023247244
-0.006766146577157177   -0.08493612086107372   -0.002286903196851236
-0.008960340870248419   -0.08489228686465522   -0.0022619189481489876
-0.01049009991788208   -0.07856813660171386   -0.0019978041023247244
-0.009076861145479656   -0.08489581963129389   -0.0023762083208735078
-0.006766146577157177   -0.08493612086107372   -0.002286903196851236
-0.01049009991788208   -0.07856813660171386   -0.0019978041023247244
-0.00687538292790023   -0.07863464149885592   -0.0019830749104122556
-0.0069187871272841225   -0.0786718065638147   -0.001999889597630313
-0.006766146577157177   -0.08493612086107372   -0.002286903196851236
-0.01049009991788208   -0.07856813660171386   -0.0019978041023247244
-0.0069187871272841225   -0.0786718065638147   -0.001999889597630313
-0.009076861145479656   -0.08489581963129389   -0.0023762083208735078
-0.009296269651333082   -0.08506333994545816   -0.0025749633375431063
-0.010642146731615   -0.07876846813469363   -0.0022716090048136442
-0.01172922659293684   -0.08480028885740751   -0.0028307288860040646
-0.009192884138711607   -0.08495099726526442   -0.0024801829638238884
-0.010642146731615   -0.07876846813469363   -0.0022716090048136442
-0.014441701289501787   -0.07850209094736592   -0.0025082840881597572
-0.01172922659293684   -0.08480028885740751   -0.0028307288860040646
-0.014383051398221845   -0.07840661041272981   -0.002342494886075214
-0.009192884138711607   -0.08495099726526442   -0.0024801829638238884
-0.011602715999660704   -0.08470216114971434   -0.002637253398871807
-0.014383051398221845   -0.07840661041272981   -0.002342494886075214
-0.01172922659293684   -0.08480028885740751   -0.0028307288860040646
-0.009192884138711607   -0.08495099726526442   -0.0024801829638238884
-0.014383051398221845   -0.07840661041272981   -0.002342494886075214
-0.01059721226548616   -0.07865588974560178   -0.002189915845857753
-0.010642146731615   -0.07876846813469363   -0.0022716090048136442
-0.009192884138711607   -0.08495099726526442   -0.0024801829638238884
-0.014383051398221845   -0.07840661041272981   -0.002342494886075214
-0.010642146731615   -0.07876846813469363   -0.0022716090048136442
-0.01172922659293684   -0.08480028885740751   -0.0028307288860040646
-0.009192884138711607   -0.08495099726526442   -0.0024801829638238884
-0.01059721226548616   -0.07865588974560178   -0.002189915845857753
-0.011602715999660704   -0.08470216114971434   -0.002637253398871807
-0.009076861145479656   -0.08489581963129389   -0.0023762083208735078
-0.01059721226548616   -0.07865588974560178   -0.002189915845857753
-0.014383051398221845   -0.07840661041272981   -0.002342494886075214
-0.011602715999660704   -0.08470216114971434   -0.002637253398871807
-0.014283650588662489   -0.07835630845555772   -0.0021685154971316477
-0.009076861145479656   -0.08489581963129389   -0.0023762083208735078
-0.01142809292495884   -0.08466012218159971   -0.0024352537255908557
-0.014283650588662489   -0.07835630845555772   -0.0021685154971316477
-0.011602715999660704   -0.08470216114971434   -0.002637253398871807
-0.009076861145479656   -0.08489581963129389   -0.0023762083208735078
-0.014283650588662489   -0.07835630845555772   -0.0021685154971316477
-0.010542917979138195   -0.07858983623194891   -0.0020985481157884327
-0.01059721226548616   -0.07865588974560178   -0.002189915845857753
-0.009076861145479656   -0.08489581963129389   -0.0023762083208735078
-0.014283650588662489   -0.07835630845555772   -0.0021685154971316477
-0.01059721226548616   -0.07865588974560178   -0.002189915845857753
-0.011602715999660704   -0.08470216114971434   -0.002637253398871807
-0.009076861145479656   -0.08489581963129389   -0.0023762083208735078
-0.010542917979138195   -0.07858983623194891   -0.0020985481157884327
-0.01142809292495884   -0.08466012218159971   -0.0024352537255908557
-0.008960340870248419   -0.08489228686465522   -0.0022619189481489876
-0.010542917979138195   -0.07858983623194891   -0.0020985481157884327
-0.014283650588662489   -0.07835630845555772   -0.0021685154971316477
-0.01142809292495884   -0.08466012218159971   -0.0024352537255908557
-0.014202855010801978   -0.07835383538878807   -0.0019837969678404527
-0.008960340870248419   -0.08489228686465522   -0.0022619189481489876
-0.011275600585211543   -0.08467424266799668   -0.002219088846863364
-0.014202855010801978   -0.07835383538878807   -0.0019837969678404527
-0.01142809292495884   -0.08466012218159971   -0.0024352537255908557
-0.008960340870248419   -0.08489228686465522   -0.0022619189481489876
-0.014202855010801978   -0.07835383538878807   -0.0019837969678404527
-0.01049009991788208   -0.07856813660171386   -0.0019978041023247244
-0.010542917979138195   -0.07858983623194891   -0.0020985481157884327
-0.008960340870248419   -0.08489228686465522   -0.0022619189481489876
-0.014202855010801978   -0.07835383538878807   -0.0019837969678404527
-0.010542917979138195   -0.07858983623194891   -0.0020985481157884327
-0.01142809292495884   -0.08466012218159971   -0.0024352537255908557
-0.01172922659293684   -0.08480028885740751   -0.0028307288860040646
-0.014441701289501787   -0.07850209094736592   -0.0025082840881597572
-0.014862357792203532   -0.08437248288890985   -0.0030760006914070824
-0.011602715999660704   -0.08470216114971434   -0.002637253398871807
-0.014441701289501787   -0.07850209094736592   -0.0025082840881597572
-0.018872960211812628   -0.07811869844503894   -0.0027287990534004447
-0.014862357792203532   -0.08437248288890985   -0.0030760006914070824
-0.018573055664852445   -0.07801919283594372   -0.0024693337419314605
-0.011602715999660704   -0.08470216114971434   -0.002637253398871807
-0.014455592962708352   -0.08426618908443939   -0.0027705589003134833
-0.018573055664852445   -0.07801919283594372   -0.0024693337419314605
-0.014862357792203532   -0.08437248288890985   -0.0030760006914070824
-0.011602715999660704   -0.08470216114971434   -0.002637253398871807
-0.018573055664852445   -0.07801919283594372   -0.0024693337419314605
-0.014383051398221845   -0.07840661041272981   -0.002342494886075214
-0.014441701289501787   -0.07850209094736592   -0.0025082840881597572
-0.011602715999660704   -0.08470216114971434   -0.002637253398871807
-0.018573055664852445   -0.07801919283594372   -0.0024693337419314605
-0.014441701289501787   -0.07850209094736592   -0.0025082840881597572
-0.014862357792203532   -0.08437248288890985   -0.0030760006914070824
-0.011602715999660704   -0.08470216114971434   -0.002637253398871807
-0.014383051398221845   -0.07840661041272981   -0.002342494886075214
-0.014455592962708352   -0.08426618908443939   -0.0027705589003134833
-0.01142809292495884   -0.08466012218159971   -0.0024352537255908557
-0.014383051398221845   -0.07840661041272981   -0.002342494886075214
-0.018573055664852445   -0.07801919283594372   -0.0024693337419314605
-0.014455592962708352   -0.08426618908443939   -0.0027705589003134833
-0.01831266883129443   -0.07797316648845526   -0.0021963712701864872
-0.01142809292495884   -0.08466012218159971   -0.0024352537255908557
-0.014090845978871286   -0.08422730430209698   -0.002447251790212803
-0.01831266883129443   -0.07797316648845526   -0.0021963712701864872
-0.014455592962708352   -0.08426618908443939   -0.0027705589003134833
-0.01142809292495884   -0.08466012218159971   -0.0024352537255908557
-0.01831266883129443   -0.07797316648845526   -0.0021963712701864872
-0.014283650588662489   -0.07835630845555772   -0.0021685154971316477
-0.014383051398221845   -0.07840661041272981   -0.002342494886075214
-0.01142809292495884   -0.08466012218159971   -0.0024352537255908557
-0.01831266883129443   -0.07797316648845526   -0.0021963712701864872
-0.014383051398221845   -0.07840661041272981   -0.002342494886075214
-0.014455592962708352   -0.08426618908443939   -0.0027705589003134833
-0.01142809292495884   -0.08466012218159971   -0.0024352537255908557
-0.014283650588662489   -0.07835630845555772   -0.0021685154971316477
-0.014090845978871286   -0.08422730430209698   -0.002447251790212803
-0.011275600585211543   -0.08467424266799668   -0.002219088846863364
-0.014283650588662489   -0.07835630845555772   -0.0021685154971316477
-0.01831266883129443   -0.07797316648845526   -0.0021963712701864872
-0.014090845978871286   -0.08422730430209698   -0.002447251790212803
-0.017961817245344708   -0.07800026623648396   -0.0019116523125243558
-0.011275600585211543   -0.08467424266799668   -0.002219088846863364
-0.013618097613205055   -0.08427584487697017   -0.002109157002062085
-0.017961817245344708   -0.07800026623648396   -0.0019116523125243558
-0.014090845978871286   -0.08422730430209698   -0.002447251790212803
-0.011275600585211543   -0.08467424266799668   -0.002219088846863364
-0.017961817245344708   -0.07800026623648396   -0.0019116523125243558
-0.014202855010801978   -0.07835383538878807   -0.0019837969678404527
-0.014283650588662489   -0.07835630845555772   -0.0021685154971316477
-0.011275600585211543   -0.08467424266799668   -0.002219088846863364
-0.017961817245344708   -0.07800026623648396   -0.0019116523125243558
-0.014283650588662489   -0.07835630845555772   -0.0021685154971316477
-0.014090845978871286   -0.08422730430209698   -0.002447251790212803
0.00047522685028423786   -0.0786609056925365   -0.0013519314817195109
0.0028026797760844903   -0.07033707818089399   -0.001030319353374856
-0.003333147339419473   -0.07884962310310877   -0.0017100093899438734
0.0007226196270893562   -0.07847866450637637   -0.0015531930895978754
0.0028026797760844903   -0.07033707818089399   -0.001030319353374856
-0.0022372936039509036   -0.07046167712905275   -0.0013720811067183846
-0.003333147339419473   -0.07884962310310877   -0.0017100093899438734
-0.0022237205606147645   -0.07031053816149531   -0.0014332875449496523
0.0007226196270893562   -0.07847866450637637   -0.0015531930895978754
-0.0032675298631250453   -0.0786976679009686   -0.0017983899886379025
-0.0022237205606147645   -0.07031053816149531   -0.0014332875449496523
-0.003333147339419473   -0.07884962310310877   -0.0017100093899438734
0.0007226196270893562   -0.07847866450637637   -0.0015531930895978754
-0.0022237205606147645   -0.07031053816149531   -0.0014332875449496523
0.0029493895362665804   -0.0701592634643095   -0.0011790380495543948
0.0028026797760844903   -0.07033707818089399   -0.001030319353374856
0.0007226196270893562   -0.07847866450637637   -0.0015531930895978754
-0.0022237205606147645   -0.07031053816149531   -0.0014332875449496523
0.0028026797760844903   -0.07033707818089399   -0.001030319353374856
-0.003333147339419473   -0.07884962310310877   -0.0017100093899438734
0.0007226196270893562   -0.07847866450637637   -0.0015531930895978754
0.0029493895362665804   -0.0701592634643095   -0.0011790380495543948
-0.0032675298631250453   -0.0786976679009686   -0.0017983899886379025
0.0009045786869333121   -0.07837317365894171   -0.0017400077345779026
0.0029493895362665804   -0.0701592634643095   -0.0011790380495543948
-0.0022237205606147645   -0.07031053816149531   -0.0014332875449496523
-0.0032675298631250453   -0.0786976679009686   -0.0017983899886379025
-0.002206468124392651   -0.07020082615585502   -0.0014850682289201216
0.0009045786869333121   -0.07837317365894171   -0.0017400077345779026
-0.003192845454055628   -0.0785982688150995   -0.0018764487430146892
-0.002206468124392651   -0.07020082615585502   -0.0014850682289201216
-0.0032675298631250453   -0.0786976679009686   -0.0017983899886379025
0.0009045786869333121   -0.07837317365894171   -0.0017400077345779026
-0.002206468124392651   -0.07020082615585502   -0.0014850682289201216
0.0030431263136828745   -0.07004241823253202   -0.001314438313506783
0.0029493895362665804   -0.0701592634643095   -0.0011790380495543948
0.0009045786869333121   -0.07837317365894171   -0.0017400077345779026
-0.002206468124392651   -0.07020082615585502   -0.0014850682289201216
0.0029493895362665804   -0.0701592634643095   -0.0011790380495543948
-0.0032675298631250453   -0.0786976679009686   -0.0017983899886379025
0.0009045786869333121   -0.07837317365894171   -0.0017400077345779026
0.0030431263136828745   -0.07004241823253202   -0.001314438313506783
-0.003192845454055628   -0.0785982688150995   -0.0018764487430146892
0.0010992729107192531   -0.0783208944312439   -0.001912303142996231
0.0030431263136828745   -0.07004241823253202   -0.001314438313506783
-0.002206468124392651   -0.07020082615585502   -0.0014850682289201216
-0.003192845454055628   -0.0785982688150995   -0.0018764487430146892
-0.0022148454514014163   -0.0701290384928806   -0.0015281109785629532
0.0010992729107192531   -0.0783208944312439   -0.001912303142996231
-0.0031481990755603006   -0.07854848988905214   -0.001945204515003544
-0.0022148454514014163   -0.0701290384928806   -0.0015281109785629532
-0.003192845454055628   -0.0785982688150995   -0.0018764487430146892
0.0010992729107192531   -0.0783208944312439   -0.001912303142996231
-0.0022148454514014163   -0.0701290384928806   -0.0015281109785629532
0.003139273205761041   -0.06996393248313004   -0.0014367979184949564
0.0030431263136828745   -0.07004241823253202   -0.001314438313506783
0.0010992729107192531   -0.0783208944312439   -0.001912303142996231
-0.0022148454514014163   -0.0701290384928806   -0.0015281109785629532
0.0030431263136828745   -0.07004241823253202   -0.001314438313506783
-0.003192845454055628   -0.0785982688150995   -0.0018764487430146892
-0.003333147339419473   -0.07884962310310877   -0.0017100093899438734
-0.0022372936039509036   -0.07046167712905275   -0.0013720811067183846
-0.007016671740023007   -0.07888570391621885   -0.002005167502467362
-0.0032675298631250453   -0.0786976679009686   -0.0017983899886379025
-0.0022372936039509036   -0.07046167712905275   -0.0013720811067183846
-0.007086633039549475   -0.07046225183973999   -0.001654092613511452
-0.007016671740023007   -0.07888570391621885   -0.002005167502467362
-0.007087293252093646   -0.07033432828426511   -0.0016483197524436808
-0.0032675298631250453   -0.0786976679009686   -0.0017983899886379025
-0.0069684098661931095   -0.07875523367258683   -0.0020074723583849248
-0.007087293252093646   -0.07033432828426511   -0.0016483197524436808
-0.007016671740023007   -0.07888570391621885   -0.002005167502467362
-0.0032675298631250453   -0.0786976679009686   -0.0017983899886379025
-0.007087293252093646   -0.07033432828426511   -0.0016483197524436808
-0.0022237205606147645   -0.07031053816149531   -0.0014332875449496523
-0.0022372936039509036   -0.07046167712905275   -0.0013720811067183846
-0.0032675298631250453   -0.0786976679009686   -0.0017983899886379025
-0.007087293252093646   -0.07033432828426511   -0.0016483197524436808
-0.0022372936039509036   -0.07046167712905275   -0.0013720811067183846
-0.007016671740023007   -0.07888570391621885   -0.002005167502467362
-0.0032675298631250453   -0.0786976679009686   -0.0017983899886379025
-0.0022237205606147645   -0.07031053816149531   -0.0014332875449496523
-0.0069684098661931095   -0.07875523367258683   -0.0020074723583849248
-0.003192845454055628   -0.0785982688150995   -0.0018764487430146892
-0.0022237205606147645   -0.07031053816149531   -0.0014332875449496523
-0.007087293252093646   -0.07033432828426511   -0.0016483197524436808
-0.0069684098661931095   -0.07875523367258683   -0.0020074723583849248
-0.0070876306307899395   -0.07024292792971534   -0.0016331597558910443
-0.003192845454055628   -0.0785982688150995   -0.0018764487430146892
-0.0069187871272841225   -0.0786718065638147   -0.001999889597630313
-0.0070876306307899395   -0.07024292792971534   -0.0016331597558910443
-0.0069684098661931095   -0.07875523367258683   -0.0020074723583849248
-0.003192845454055628   -0.0785982688150995   -0.0018764487430146892
-0.0070876306307899395   -0.07024292792971534   -0.0016331597558910443
-0.002206468124392651   -0.07020082615585502   -0.0014850682289201216
-0.0022237205606147645   -0.07031053816149531   -0.0014332875449496523
-0.003192845454055628   -0.0785982688150995   -0.0018764487430146892
-0.0070876306307899395   -0.07024292792971534   -0.0016331597558910443
-0.0022237205606147645   -0.07031053816149531   -0.0014332875449496523
-0.0069684098661931095   -0.07875523367258683   -0.0020074723583849248
-0.003192845454055628   -0.0785982688150995   -0.0018764487430146892
-0.002206468124392651   -0.07020082615585502   -0.0014850682289201216
-0.0069187871272841225   -0.0786718065638147   -0.001999889597630313
-0.0031481990755603006   -0.07854848988905214   -0.001945204515003544
-0.002206468124392651   -0.07020082615585502   -0.0014850682289201216
-0.0070876306307899395   -0.07024292792971534   -0.0016331597558910443
-0.0069187871272841225   -0.0786718065638147   -0.001999889597630313
-0.007094455850190832   -0.07018811451701638   -0.0016090970976304505
-0.0031481990755603006   -0.07854848988905214   -0.001945204515003544
-0.00687538292790023   -0.07863464149885592   -0.0019830749104122556
-0.007094455850190832   -0.07018811451701638   -0.0016090970976304505
-0.0069187871272841225   -0.0786718065638147   -0.001999889597630313
-0.0031481990755603006   -0.07854848988905214   -0.001945204515003544
-0.007094455850190832   -0.07018811451701638   -0.0016090970976304505
-0.0022148454514014163   -0.0701290384928806   -0.0015281109785629532
-0.002206468124392651   -0.07020082615585502   -0.0014850682289201216
-0.0031481990755603006   -0.07854848988905214   -0.001945204515003544
-0.007094455850190832   -0.07018811451701638   -0.0016090970976304505
-0.002206468124392651   -0.07020082615585502   -0.0014850682289201216
-0.0069187871272841225   -0.0786718065638147   -0.001999889597630313
-0.007016671740023007   -0.07888570391621885   -0.002005167502467362
-0.007086633039549475   -0.07046225183973999   -0.001654092613511452
-0.010642146731615   -0.07876846813469363   -0.0022716090048136442
-0.0069684098661931095   -0.07875523367258683   -0.0020074723583849248
-0.007086633039549475   -0.07046225183973999   -0.001654092613511452
-0.011853466637831555   -0.07034160823355903   -0.0019011741749886625
-0.010642146731615   -0.07876846813469363   -0.0022716090048136442
-0.011857710704040111   -0.07023409731915113   -0.0018292281601565799
-0.0069684098661931095   -0.07875523367258683   -0.0020074723583849248
-0.01059721226548616   -0.07865588974560178   -0.002189915845857753
-0.011857710704040111   -0.07023409731915113   -0.0018292281601565799
-0.010642146731615   -0.07876846813469363   -0.0022716090048136442
-0.0069684098661931095   -0.07875523367258683   -0.0020074723583849248
-0.011857710704040111   -0.07023409731915113   -0.0018292281601565799
-0.007087293252093646   -0.07033432828426511   -0.0016483197524436808
-0.007086633039549475   -0.07046225183973999   -0.001654092613511452
-0.0069684098661931095   -0.07875523367258683   -0.0020074723583849248
-0.011857710704040111   -0.07023409731915113   -0.0018292281601565799
-0.007086633039549475   -0.07046225183973999   -0.001654092613511452
-0.010642146731615   -0.07876846813469363   -0.0022716090048136442
-0.0069684098661931095   -0.07875523367258683   -0.0020074723583849248
-0.007087293252093646   -0.07033432828426511   -0.0016483197524436808
-0.01059721226548616   -0.07865588974560178   -0.002189915845857753
-0.0069187871272841225   -0.0786718065638147   -0.001999889597630313
-0.007087293252093646   -0.07033432828426511   -0.0016483197524436808
-0.011857710704040111   -0.07023409731915113   -0.0018292281601565799
-0.01059721226548616   -0.07865588974560178   -0.002189915845857753
-0.011853826790542123   -0.07016278626982185   -0.001748075877617317
-0.0069187871272841225   -0.0786718065638147   -0.001999889597630313
-0.010542917979138195   -0.07858983623194891   -0.0020985481157884327
-0.011853826790542123   -0.07016278626982185   -0.001748075877617317
-0.01059721226548616   -0.07865588974560178   -0.002189915845857753
-0.0069187871272841225   -0.0786718065638147   -0.001999889597630313
-0.011853826790542123   -0.07016278626982185   -0.001748075877617317
-0.0070876306307899395   -0.07024292792971534   -0.0016331597558910443
-0.007087293252093646   -0.07033432828426511   -0.0016483197524436808
-0.0069187871272841225   -0.0786718065638147   -0.001999889597630313
-0.011853826790542123   -0.07016278626982185   -0.001748075877617317
-0.007087293252093646   -0.07033432828426511   -0.0016483197524436808
-0.01059721226548616   -0.07865588974560178   -0.002189915845857753
-0.0069187871272841225   -0.0786718065638147   -0.001999889597630313
-0.0070876306307899395   -0.07024292792971534   -0.0016331597558910443
-0.010542917979138195   -0.07858983623194891   -0.0020985481157884327
-0.00687538292790023   -0.07863464149885592   -0.0019830749104122556
-0.0070876306307899395   -0.07024292792971534   -0.0016331597558910443
-0.011853826790542123   -0.07016278626982185   -0.001748075877617317
-0.010542917979138195   -0.07858983623194891   -0.0020985481157884327
-0.011851402476035403   -0.0701270369851497   -0.0016579864244144911
-0.00687538292790023   -0.07863464149885592   -0.0019830749104122556
-0.01049009991788208   -0.07856813660171386   -0.0019978041023247244
-0.011851402476035403   -0.0701270369851497   -0.0016579864244144911
-0.010542917979138195   -0.07858983623194891   -0.0020985481157884327
-0.00687538292790023   -0.07863464149885592   -0.0019830749104122556
-0.011851402476035403   -0.0701270369851497   -0.0016579864244144911
-0.007094455850190832   -0.07018811451701638   -0.0016090970976304505
-0.0070876306307899395   -0.07024292792971534   -0.0016331597558910443
-0.00687538292790023   -0.07863464149885592   -0.0019830749104122556
-0.011851402476035403   -0.0701270369851497   -0.0016579864244144911
-0.0070876306307899395   -0.07024292792971534   -0.0016331597558910443
-0.010542917979138195   -0.07858983623194891   -0.0020985481157884327
-0.010642146731615   -0.07876846813469363   -0.0022716090048136442
-0.011853466637831555   -0.07034160823355903   -0.0019011741749886625
-0.014441701289501787   -0.07850209094736592   -0.0025082840881597572
-0.01059721226548616   -0.07865588974560178   -0.002189915845857753
-0.011853466637831555   -0.07034160823355903   -0.0019011741749886625
-0.016768973902022387   -0.07010433198937571   -0.0021137674451228152
-0.014441701289501787   -0.07850209094736592   -0.0025082840881597572
-0.016763235256016525   -0.07001638231054433   -0.001974868492242949
-0.01059721226548616   -0.07865588974560178   -0.002189915845857753
-0.014383051398221845   -0.07840661041272981   -0.002342494886075214
-0.016763235256016525   -0.07001638231054433   -0.001974868492242949
-0.014441701289501787   -0.07850209094736592   -0.0025082840881597572
-0.01059721226548616   -0.07865588974560178   -0.002189915845857753
-0.016763235256016525   -0.07001638231054433   -0.001974868492242949
-0.011857710704040111   -0.07023409731915113   -0.0018292281601565799
-0.011853466637831555   -0.07034160823355903   -0.0019011741749886625
-0.01059721226548616   -0.07865588974560178   -0.002189915845857753
-0.016763235256016525   -0.07001638231054433   -0.001974868492242949
-0.011853466637831555   -0.07034160823355903   -0.0019011741749886625
-0.014441701289501787   -0.07850209094736592   -0.0025082840881597572
-0.01059721226548616   -0.07865588974560178   -0.002189915845857753
-0.011857710704040111   -0.07023409731915113   -0.0018292281601565799
-0.014383051398221845   -0.07840661041272981   -0.002342494886075214
-0.010542917979138195   -0.07858983623194891   -0.0020985481157884327
-0.011857710704040111   -0.07023409731915113   -0.0018292281601565799
-0.016763235256016525   -0.07001638231054433   -0.001974868492242949
-0.014383051398221845   -0.07840661041272981   -0.002342494886075214
-0.01672209127060884   -0.06996328601032896   -0.0018281501468046513
-0.010542917979138195   -0.07858983623194891   -0.0020985481157884327
-0.014283650588662489   -0.07835630845555772   -0.0021685154971316477
-0.01672209127060884   -0.06996328601032896   -0.0018281501468046513
-0.014383051398221845   -0.07840661041272981   -0.002342494886075214
-0.010542917979138195   -0.07858983623194891   -0.0020985481157884327
-0.01672209127060884   -0.06996328601032896   -0.0018281501468046513
-0.011853826790542123   -0.07016278626982185   -0.001748075877617317
-0.011857710704040111   -0.07023409731915113   -0.0018292281601565799
-0.010542917979138195   -0.07858983623194891   -0.0020985481157884327
-0.01672209127060884   -0.06996328601032896   -0.0018281501468046513
-0.011857710704040111   -0.07023409731915113   -0.0018292281601565799
-0.014383051398221845   -0.07840661041272981   -0.002342494886075214
-0.010542917979138195   -0.07858983623194891   -0.0020985481157884327
-0.011853826790542123   -0.07016278626982185   -0.001748075877617317
-0.014283650588662489   -0.07835630845555772   -0.0021685154971316477
-0.01049009991788208   -0.07856813660171386   -0.0019978041023247244
-0.011853826790542123   -0.07016278626982185   -0.001748075877617317
-0.01672209127060884   -0.06996328601032896   -0.0018281501468046513
-0.014283650588662489   -0.07835630845555772   -0.0021685154971316477
-0.016694574759982834   -0.06994873739509917   -0.0016717779020119607
-0.01049009991788208   -0.07856813660171386   -0.0019978041023247244
-0.014202855010801978   -0.07835383538878807   -0.0019837969678404527
-0.016694574759982834   -0.06994873739509917   -0.0016717779020119607
-0.014283650588662489   -0.07835630845555772   -0.0021685154971316477
-0.01049009991788208   -0.07856813660171386   -0.0019978041023247244
-0.016694574759982834   -0.06994873739509917   -0.0016717779020119607
-0.011851402476035403   -0.0701270369851497   -0.0016579864244144911
-0.011853826790542123   -0.07016278626982185   -0.001748075877617317
-0.01049009991788208   -0.07856813660171386   -0.0019978041023247244
-0.016694574759982834   -0.06994873739509917   -0.0016717779020119607
-0.011853826790542123   -0.07016278626982185   -0.001748075877617317
-0.014283650588662489   -0.07835630845555772   -0.0021685154971316477
-0.014441701289501787   -0.07850209094736592   -0.0025082840881597572
-0.016768973902022387   -0.07010433198937571   -0.0021137674451228152
-0.018872960211812628   -0.07811869844503894   -0.0027287990534004447
-0.014383051398221845   -0.07840661041272981   -0.002342494886075214
-0.016768973902022387   -0.07010433198937571   -0.0021137674451228152
-0.02225948394628229   -0.06977748056695668   -0.0023053785997760663
-0.018872960211812628   -0.07811869844503894   -0.0027287990534004447
-0.02205464714268046   -0.06969121073142008   -0.0020929463591095533
-0.014383051398221845   -0.07840661041272981   -0.002342494886075214
-0.018573055664852445   -0.07801919283594372   -0.0024693337419314605
-0.02205464714268046   -0.06969121073142008   -0.0020929463591095533
-0.018872960211812628   -0.07811869844503894   -0.0027287990534004447
-0.014383051398221845   -0.07840661041272981   -0.002342494886075214
-0.02205464714268046   -0.06969121073142008   -0.0020929463591095533
-0.016763235256016525   -0.07001638231054433   -0.001974868492242949
-0.016768973902022387   -0.07010433198937571   -0.0021137674451228152
-0.014383051398221845   -0.07840661041272981   -0.002342494886075214
-0.02205464714268046   -0.06969121073142008   -0.0020929463591095533
-0.016768973902022387   -0.07010433198937571   -0.0021137674451228152
-0.018872960211812628   -0.07811869844503894   -0.0027287990534004447
-0.014383051398221845   -0.07840661041272981   -0.002342494886075214
-0.016763235256016525   -0.07001638231054433   -0.001974868492242949
-0.018573055664852445   -0.07801919283594372   -0.0024693337419314605
-0.014283650588662489   -0.07835630845555772   -0.0021685154971316477
-0.016763235256016525   -0.07001638231054433   -0.001974868492242949
-0.02205464714268046   -0.06969121073142008   -0.0020929463591095533
-0.018573055664852445   -0.07801919283594372   -0.0024693337419314605
-0.021879401257596152   -0.06964475595203443   -0.001867377330958815
-0.014283650588662489   -0.07835630845555772   -0.0021685154971316477
-0.01831266883129443   -0.07797316648845526   -0.0021963712701864872
-0.021879401257596152   -0.06964475595203443   -0.001867377330958815
-0.018573055664852445   -0.07801919283594372   -0.0024693337419314605
-0.014283650588662489   -0.07835630845555772   -0.0021685154971316477
-0.021879401257596152   -0.06964475595203443   -0.001867377330958815
-0.01672209127060884   -0.06996328601032896   -0.0018281501468046513
-0.016763235256016525   -0.07001638231054433   -0.001974868492242949
-0.014283650588662489   -0.07835630845555772   -0.0021685154971316477
-0.021879401257596152   -0.06964475595203443   -0.001867377330958815
-0.016763235256016525   -0.07001638231054433   -0.001974868492242949
-0.018573055664852445   -0.07801919283594372   -0.0024693337419314605
-0.014283650588662489   -0.07835630845555772   -0.0021685154971316477
-0.01672209127060884   -0.06996328601032896   -0.0018281501468046513
-0.01831266883129443   -0.07797316648845526   -0.0021963712701864872
-0.014202855010801978   -0.07835383538878807   -0.0019837969678404527
-0.01672209127060884   -0.06996328601032896   -0.0018281501468046513
-0.021879401257596152   -0.06964475595203443   -0.001867377330958815
-0.01831266883129443   -0.07797316648845526   -0.0021963712701864872
-0.021626401796332354   -0.06965946790099954   -0.00163046931835616
-0.014202855010801978   -0.07835383538878807   -0.0019837969678404527
-0.017961817245344708   -0.07800026623648396   -0.0019116523125243558
-0.021626401796332354   -0.06965946790099954   -0.00163046931835616
-0.01831266883129443   -0.07797316648845526   -0.0021963712701864872
-0.014202855010801978   -0.07835383538878807   -0.0019837969678404527
-0.021626401796332354   -0.06965946790099954   -0.00163046931835616
-0.016694574759982834   -0.06994873739509917   -0.0016717779020119607
-0.01672209127060884   -0.06996328601032896   -0.0018281501468046513
-0.014202855010801978   -0.07835383538878807   -0.0019837969678404527
-0.021626401796332354   -0.06965946790099954   -0.00163046931835616
-0.01672209127060884   -0.06996328601032896   -0.0018281501468046513
-0.01831266883129443   -0.07797316648845526   -0.0021963712701864872
0.0028026797760844903   -0.07033707818089399   -0.001030319353374856
0.004404670777039179   -0.06032913795124648   -0.0006862493890727728
-0.0022372936039509036   -0.07046167712905275   -0.0013720811067183846
0.0029493895362665804   -0.0701592634643095   -0.0011790380495543948
0.004404670777039179   -0.06032913795124648   -0.0006862493890727728
-0.001572662740733456   -0.06039025289557761   -0.001007802431891359
-0.0022372936039509036   -0.07046167712905275   -0.0013720811067183846
-0.0016009278160541583   -0.060242785668768305   -0.0010407191530214667
0.0029493895362665804   -0.0701592634643095   -0.0011790380495543948
-0.0022237205606147645   -0.07031053816149531   -0.0014332875449496523
-0.0016009278160541583   -0.060242785668768305   -0.0010407191530214667
-0.0022372936039509036   -0.07046167712905275   -0.0013720811067183846
0.0029493895362665804   -0.0701592634643095   -0.0011790380495543948
-0.0016009278160541583   -0.060242785668768305   -0.0010407191530214667
0.00446235030513244   -0.06015782694485967   -0.0007835455688243656
0.004404670777039179   -0.06032913795124648   -0.0006862493890727728
0.0029493895362665804   -0.0701592634643095   -0.0011790380495543948
-0.0016009278160541583   -0.060242785668768305   -0.0010407191530214667
0.004404670777039179   -0.06032913795124648   -0.0006862493890727728
-0.0022372936039509036   -0.07046167712905275   -0.0013720811067183846
0.0029493895362665804   -0.0701592634643095   -0.0011790380495543948
0.00446235030513244   -0.06015782694485967   -0.0007835455688243656
-0.0022237205606147645   -0.07031053816149531   -0.0014332875449496523
0.0030431263136828745   -0.07004241823253202   -0.001314438313506783
0.00446235030513244   -0.06015782694485967   -0.0007835455688243656
-0.0016009278160541583   -0.060242785668768305   -0.0010407191530214667
-0.0022237205606147645   -0.07031053816149531   -0.0014332875449496523
-0.0016306514616373608   -0.06012598902756489   -0.001065228808398009
0.0030431263136828745   -0.07004241823253202   -0.001314438313506783
-0.002206468124392651   -0.07020082615585502   -0.0014850682289201216
-0.0016306514616373608   -0.06012598902756489   -0.001065228808398009
-0.0022237205606147645   -0.07031053816149531   -0.0014332875449496523
0.0030431263136828745   -0.07004241823253202   -0.001314438313506783
-0.0016306514616373608   -0.06012598902756489   -0.001065228808398009
0.004479675304128527   -0.06003281268680697   -0.0008684406262787108
0.00446235030513244   -0.06015782694485967   -0.0007835455688243656
0.0030431263136828745   -0.07004241823253202   -0.001314438313506783
-0.0016306514616373608   -0.06012598902756489   -0.001065228808398009
0.00446235030513244   -0.06015782694485967   -0.0007835455688243656
-0.0022237205606147645   -0.07031053816149531   -0.0014332875449496523
0.0030431263136828745   -0.07004241823253202   -0.001314438313506783
0.004479675304128527   -0.06003281268680697   -0.0008684406262787108
-0.002206468124392651   -0.07020082615585502   -0.0014850682289201216
0.003139273205761041   -0.06996393248313004   -0.0014367979184949564
0.004479675304128527   -0.06003281268680697   -0.0008684406262787108
-0.0016306514616373608   -0.06012598902756489   -0.001065228808398009
-0.002206468124392651   -0.07020082615585502   -0.0014850682289201216
-0.0016811319671374584   -0.0600362050664263   -0.0010816160792444488
0.003139273205761041   -0.06996393248313004   -0.0014367979184949564
-0.0022148454514014163   -0.0701290384928806   -0.0015281109785629532
-0.0016811319671374584   -0.0600362050664263   -0.0010816160792444488
-0.002206468124392651   -0.07020082615585502   -0.0014850682289201216
0.003139273205761041   -0.06996393248313004   -0.0014367979184949564
-0.0016811319671374584   -0.0600362050664263   -0.0010816160792444488
0.004489179907872395   -0.059932135408487124   -0.0009415204930786437
0.004479675304128527   -0.06003281268680697   -0.0008684406262787108
0.003139273205761041   -0.06996393248313004   -0.0014367979184949564
-0.0016811319671374584   -0.0600362050664263   -0.0010816160792444488
0.004479675304128527   -0.06003281268680697   -0.0008684406262787108
-0.002206468124392651   -0.07020082615585502   -0.0014850682289201216
-0.0022372936039509036   -0.07046167712905275   -0.0013720811067183846
-0.001572662740733456   -0.06039025289557761   -0.001007802431891359
-0.007086633039549475   -0.07046225183973999   -0.001654092613511452
-0.0022237205606147645   -0.07031053816149531   -0.0014332875449496523
-0.001572662740733456   -0.06039025289557761   -0.001007802431891359
-0.007301741633905249   -0.06035862401051718   -0.00127277166076466
-0.007086633039549475   -0.07046225183973999   -0.001654092613511452
-0.007340839030246749   -0.0602353119697104   -0.0012573191587466545
-0.0022237205606147645   -0.07031053816149531   -0.0014332875449496523
-0.007087293252093646   -0.07033432828426511   -0.0016483197524436808
-0.007340839030246749   -0.0602353119697104   -0.0012573191587466545
-0.007086633039549475   -0.07046225183973999   -0.001654092613511452
-0.0022237205606147645   -0.07031053816149531   -0.0014332875449496523
-0.007340839030246749   -0.0602353119697104   -0.0012573191587466545
-0.0016009278160541583   -0.060242785668768305   -0.0010407191530214667
-0.001572662740733456   -0.06039025289557761   -0.001007802431891359
-0.0022237205606147645   -0.07031053816149531   -0.0014332875449496523
-0.007340839030246749   -0.0602353119697104   -0.0012573191587466545
-0.001572662740733456   -0.06039025289557761   -0.001007802431891359
-0.007086633039549475   -0.07046225183973999   -0.001654092613511452
-0.0022237205606147645   -0.07031053816149531   -0.0014332875449496523
-0.0016009278160541583   -0.060242785668768305   -0.0010407191530214667
-0.007087293252093646   -0.07033432828426511   -0.0016483197524436808
-0.002206468124392651   -0.07020082615585502   -0.0014850682289201216
-0.0016009278160541583   -0.060242785668768305   -0.0010407191530214667
-0.007340839030246749   -0.0602353119697104   -0.0012573191587466545
-0.007087293252093646   -0.07033432828426511   -0.0016483197524436808
-0.0073804723720789925   -0.06013829287337487   -0.001233213652212343
-0.002206468124392651   -0.07020082615585502   -0.0014850682289201216
-0.0070876306307899395   -0.07024292792971534   -0.0016331597558910443
-0.0073804723720789925   -0.06013829287337487   -0.001233213652212343
-0.007087293252093646   -0.07033432828426511   -0.0016483197524436808
-0.002206468124392651   -0.07020082615585502   -0.0014850682289201216
-0.0073804723720789925   -0.06013829287337487   -0.001233213652212343
-0.0016306514616373608   -0.06012598902756489   -0.001065228808398009
-0.0016009278160541583   -0.060242785668768305   -0.0010407191530214667
-0.002206468124392651   -0.07020082615585502   -0.0014850682289201216
-0.0073804723720789925   -0.06013829287337487   -0.001233213652212343
-0.0016009278160541583   -0.060242785668768305   -0.0010407191530214667
-0.007087293252093646   -0.07033432828426511   -0.0016483197524436808
-0.002206468124392651   -0.07020082615585502   -0.0014850682289201216
-0.0016306514616373608   -0.06012598902756489   -0.001065228808398009
-0.0070876306307899395   -0.07024292792971534   -0.0016331597558910443
-0.0022148454514014163   -0.0701290384928806   -0.0015281109785629532
-0.0016306514616373608   -0.06012598902756489   -0.001065228808398009
-0.0073804723720789925   -0.06013829287337487   -0.001233213652212343
-0.0070876306307899395   -0.07024292792971534   -0.0016331597558910443
-0.007426260922852082   -0.06006801419349404   -0.0012008699557881045
-0.0022148454514014163   -0.0701290384928806   -0.0015281109785629532
-0.007094455850190832   -0.07018811451701638   -0.0016090970976304505
-0.007426260922852082   -0.06006801419349404   -0.0012008699557881045
-0.0070876306307899395   -0.07024292792971534   -0.0016331597558910443
-0.0022148454514014163   -0.0701290384928806   -0.0015281109785629532
-0.007426260922852082   -0.06006801419349404   -0.0012008699557881045
-0.0016811319671374584   -0.0600362050664263   -0.0010816160792444488
-0.0016306514616373608   -0.06012598902756489   -0.001065228808398009
-0.0022148454514014163   -0.0701290384928806   -0.0015281109785629532
-0.007426260922852082   -0.06006801419349404   -0.0012008699557881045
-0.0016306514616373608   -0.06012598902756489   -0.001065228808398009
-0.0070876306307899395   -0.07024292792971534   -0.0016331597558910443
-0.007086633039549475   -0.07046225183973999   -0.001654092613511452
-0.007301741633905249   -0.06035862401051718   -0.00127277166076466
-0.011853466637831555   -0.07034160823355903   -0.0019011741749886625
-0.007087293252093646   -0.07033432828426511   -0.0016483197524436808
-0.007301741633905249   -0.06035862401051718   -0.00127277166076466
-0.0129338733238655   -0.060239941694515096   -0.0014995769748258683
-0.011853466637831555   -0.07034160823355903   -0.0019011741749886625
-0.012976031649290287   -0.06013859290224676   -0.001435984414582897
-0.007087293252093646   -0.07033432828426511   -0.0016483197524436808
-0.011857710704040111   -0.07023409731915113   -0.0018292281601565799
-0.012976031649290287   -0.06013859290224676   -0.001435984414582897
-0.011853466637831555   -0.07034160823355903   -0.0019011741749886625
-0.007087293252093646   -0.07033432828426511   -0.0016483197524436808
-0.012976031649290287   -0.06013859290224676   -0.001435984414582897
-0.007340839030246749   -0.0602353119697104   -0.0012573191587466545
-0.007301741633905249   -0.06035862401051718   -0.00127277166076466
-0.007087293252093646   -0.07033432828426511   -0.0016483197524436808
-0.012976031649290287   -0.06013859290224676   -0.001435984414582897
-0.007301741633905249   -0.06035862401051718   -0.00127277166076466
-0.011853466637831555   -0.07034160823355903   -0.0019011741749886625
-0.007087293252093646   -0.07033432828426511   -0.0016483197524436808
-0.007340839030246749   -0.0602353119697104   -0.0012573191587466545
-0.011857710704040111   -0.07023409731915113   -0.0018292281601565799
-0.0070876306307899395   -0.07024292792971534   -0.0016331597558910443
-0.007340839030246749   -0.0602353119697104   -0.0012573191587466545
-0.012976031649290287   -0.06013859290224676   -0.001435984414582897
-0.011857710704040111   -0.07023409731915113   -0.0018292281601565799
-0.013010976874100187   -0.06006328554377023   -0.0013638907497402328
-0.0070876306307899395   -0.07024292792971534   -0.0016331597558910443
-0.011853826790542123   -0.07016278626982185   -0.001748075877617317
-0.013010976874100187   -0.06006328554377023   -0.0013638907497402328
-0.011857710704040111   -0.07023409731915113   -0.0018292281601565799
-0.0070876306307899395   -0.07024292792971534   -0.0016331597558910443
-0.013010976874100187   -0.06006328554377023   -0.0013638907497402328
-0.0073804723720789925   -0.06013829287337487   -0.001233213652212343
-0.007340839030246749   -0.0602353119697104   -0.0012573191587466545
-0.0070876306307899395   -0.07024292792971534   -0.0016331597558910443
-0.013010976874100187   -0.06006328554377023   -0.0013638907497402328
-0.007340839030246749   -0.0602353119697104   -0.0012573191587466545
-0.011857710704040111   -0.07023409731915113   -0.0018292281601565799
-0.0070876306307899395   -0.07024292792971534   -0.0016331597558910443
-0.0073804723720789925   -0.06013829287337487   -0.001233213652212343
-0.011853826790542123   -0.07016278626982185   -0.001748075877617317
-0.007094455850190832   -0.07018811451701638   -0.0016090970976304505
-0.0073804723720789925   -0.06013829287337487   -0.001233213652212343
-0.013010976874100187   -0.06006328554377023   -0.0013638907497402328
-0.011853826790542123   -0.07016278626982185   -0.001748075877617317
-0.01304693267985321   -0.0600139114016283   -0.0012835470220605
-0.007094455850190832   -0.07018811451701638   -0.0016090970976304505
-0.011851402476035403   -0.0701270369851497   -0.0016579864244144911
-0.01304693267985321   -0.0600139114016283   -0.0012835470220605
-0.011853826790542123   -0.07016278626982185   -0.001748075877617317
-0.007094455850190832   -0.07018811451701638   -0.0016090970976304505
-0.01304693267985321   -0.0600139114016283   -0.0012835470220605
-0.007426260922852082   -0.06006801419349404   -0.0012008699557881045
-0.0073804723720789925   -0.06013829287337487   -0.001233213652212343
-0.007094455850190832   -0.07018811451701638   -0.0016090970976304505
-0.01304693267985321   -0.0600139114016283   -0.0012835470220605
-0.0073804723720789925   -0.06013829287337487   -0.001233213652212343
-0.011853826790542123   -0.07016278626982185   -0.001748075877617317
-0.011853466637831555   -0.07034160823355903   -0.0019011741749886625
-0.0129338733238655   -0.060239941694515096   -0.0014995769748258683
-0.016768973902022387   -0.07010433198937571   -0.0021137674451228152
-0.011857710704040111   -0.07023409731915113   -0.0018292281601565799
-0.0129338733238655   -0.060239941694515096   -0.0014995769748258683
-0.018699978473534426   -0.060036581093743484   -0.0016890625267314415
-0.016768973902022387   -0.07010433198937571   -0.0021137674451228152
-0.018734900694284976   -0.05995669796383103   -0.0015766768555858374
-0.011857710704040111   -0.07023409731915113   -0.0018292281601565799
-0.016763235256016525   -0.07001638231054433   -0.001974868492242949
-0.018734900694284976   -0.05995669796383103   -0.0015766768555858374
-0.016768973902022387   -0.07010433198937571   -0.0021137674451228152
-0.011857710704040111   -0.07023409731915113   -0.0018292281601565799
-0.018734900694284976   -0.05995669796383103   -0.0015766768555858374
-0.012976031649290287   -0.06013859290224676   -0.001435984414582897
-0.0129338733238655   -0.060239941694515096   -0.0014995769748258683
-0.011857710704040111   -0.07023409731915113   -0.0018292281601565799
-0.018734900694284976   -0.05995669796383103   -0.0015766768555858374
-0.0129338733238655   -0.060239941694515096   -0.0014995769748258683
-0.016768973902022387   -0.07010433198937571   -0.0021137674451228152
-0.011857710704040111   -0.07023409731915113   -0.0018292281601565799
-0.012976031649290287   -0.06013859290224676   -0.001435984414582897
-0.016763235256016525   -0.07001638231054433   -0.001974868492242949
-0.011853826790542123   -0.07016278626982185   -0.001748075877617317
-0.012976031649290287   -0.06013859290224676   -0.001435984414582897
-0.018734900694284976   -0.05995669796383103   -0.0015766768555858374
-0.016763235256016525   -0.07001638231054433   -0.001974868492242949
-0.018739525932675274   -0.059901241899041585   -0.0014569668145032486
-0.011853826790542123   -0.07016278626982185   -0.001748075877617317
-0.01672209127060884   -0.06996328601032896   -0.0018281501468046513
-0.018739525932675274   -0.059901241899041585   -0.0014569668145032486
-0.016763235256016525   -0.07001638231054433   -0.001974868492242949
-0.011853826790542123   -0.07016278626982185   -0.001748075877617317
-0.018739525932675274   -0.059901241899041585   -0.0014569668145032486
-0.013010976874100187   -0.06006328554377023   -0.0013638907497402328
-0.012976031649290287   -0.06013859290224676   -0.001435984414582897
-0.011853826790542123   -0.07016278626982185   -0.001748075877617317
-0.018739525932675274   -0.059901241899041585   -0.0014569668145032486
-0.012976031649290287   -0.06013859290224676   -0.001435984414582897
-0.016763235256016525   -0.07001638231054433   -0.001974868492242949
-0.011853826790542123   -0.07016278626982185   -0.001748075877617317
-0.013010976874100187   -0.06006328554377023   -0.0013638907497402328
-0.01672209127060884   -0.06996328601032896   -0.0018281501468046513
-0.011851402476035403   -0.0701270369851497   -0.0016579864244144911
-0.013010976874100187   -0.06006328554377023   -0.0013638907497402328
-0.018739525932675274   -0.059901241899041585   -0.0014569668145032486
-0.01672209127060884   -0.06996328601032896   -0.0018281501468046513
-0.0187527157634951   -0.05987404825732162   -0.0013283824248703068
-0.011851402476035403   -0.0701270369851497   -0.0016579864244144911
-0.016694574759982834   -0.06994873739509917   -0.0016717779020119607
-0.0187527157634951   -0.05987404825732162   -0.0013283824248703068
-0.01672209127060884   -0.06996328601032896   -0.0018281501468046513
-0.011851402476035403   -0.0701270369851497   -0.0016579864244144911
-0.0187527157634951   -0.05987404825732162   -0.0013283824248703068
-0.01304693267985321   -0.0600139114016283   -0.0012835470220605
-0.013010976874100187   -0.06006328554377023   -0.0013638907497402328
-0.011851402476035403   -0.0701270369851497   -0.0016579864244144911
-0.0187527157634951   -0.05987404825732162   -0.0013283824248703068
-0.013010976874100187   -0.06006328554377023   -0.0013638907497402328
-0.01672209127060884   -0.06996328601032896   -0.0018281501468046513
-0.016768973902022387   -0.07010433198937571   -0.0021137674451228152
-0.018699978473534426   -0.060036581093743484   -0.0016890625267314415
-0.02225948394628229   -0.06977748056695668   -0.0023053785997760663
-0.016763235256016525   -0.07001638231054433   -0.001974868492242949
-0.018699978473534426   -0.060036581093743484   -0.0016890625267314415
-0.02498756230244889   -0.05976999295646521   -0.0018509192354273496
-0.02225948394628229   -0.06977748056695668   -0.0023053785997760663
-0.024867705843489553   -0.05969702470129769   -0.0016869925869373867
-0.016763235256016525   -0.07001638231054433   -0.001974868492242949
-0.02205464714268046   -0.06969121073142008   -0.0020929463591095533
-0.024867705843489553   -0.05969702470129769   -0.0016869925869373867
-0.02225948394628229   -0.06977748056695668   -0.0023053785997760663
-0.016763235256016525   -0.07001638231054433   -0.001974868492242949
-0.024867705843489553   -0.05969702470129769   -0.0016869925869373867
-0.018734900694284976   -0.05995669796383103   -0.0015766768555858374
-0.018699978473534426   -0.060036581093743484   -0.0016890625267314415
-0.016763235256016525   -0.07001638231054433   -0.001974868492242949
-0.024867705843489553   -0.05969702470129769   -0.0016869925869373867
-0.018699978473534426   -0.060036581093743484   -0.0016890625267314415
-0.02225948394628229   -0.06977748056695668   -0.0023053785997760663
-0.016763235256016525   -0.07001638231054433   -0.001974868492242949
-0.018734900694284976   -0.05995669796383103   -0.0015766768555858374
-0.02205464714268046   -0.06969121073142008   -0.0020929463591095533
-0.01672209127060884   -0.06996328601032896   -0.0018281501468046513
-0.018734900694284976   -0.05995669796383103   -0.0015766768555858374
-0.024867705843489553   -0.05969702470129769   -0.0016869925869373867
-0.02205464714268046   -0.06969121073142008   -0.0020929463591095533
-0.024766627734186093   -0.059649981816176596   -0.0015102815835056794
-0.01672209127060884   -0.06996328601032896   -0.0018281501468046513
-0.021879401257596152   -0.06964475595203443   -0.001867377330958815
-0.024766627734186093   -0.059649981816176596   -0.0015102815835056794
-0.02205464714268046   -0.06969121073142008   -0.0020929463591095533
-0.01672209127060884   -0.06996328601032896   -0.0018281501468046513
-0.024766627734186093   -0.059649981816176596   -0.0015102815835056794
-0.018739525932675274   -0.059901241899041585   -0.0014569668145032486
-0.018734900694284976   -0.05995669796383103   -0.0015766768555858374
-0.01672209127060884   -0.06996328601032896   -0.0018281501468046513
-0.024766627734186093   -0.059649981816176596   -0.0015102815835056794
-0.018734900694284976   -0.05995669796383103   -0.0015766768555858374
-0.02205464714268046   -0.06969121073142008   -0.0020929463591095533
-0.01672209127060884   -0.06996328601032896   -0.0018281501468046513
-0.018739525932675274   -0.059901241899041585   -0.0014569668145032486
-0.021879401257596152   -0.06964475595203443   -0.001867377330958815
-0.016694574759982834   -0.06994873739509917   -0.0016717779020119607
-0.018739525932675274   -0.059901241899041585   -0.0014569668145032486
-0.024766627734186093   -0.059649981816176596   -0.0015102815835056794
-0.021879401257596152   -0.06964475595203443   -0.001867377330958815
-0.024599683601219082   -0.05965099027594337   -0.0013223788387301122
-0.016694574759982834   -0.06994873739509917   -0.0016717779020119607
-0.021626401796332354   -0.06965946790099954   -0.00163046931835616
-0.024599683601219082   -0.05965099027594337   -0.0013223788387301122
-0.021879401257596152   -0.06964475595203443   -0.001867377330958815
-0.016694574759982834   -0.06994873739509917   -0.0016717779020119607
-0.024599683601219082   -0.05965099027594337   -0.0013223788387301122
-0.0187527157634951   -0.05987404825732162   -0.0013283824248703068
-0.018739525932675274   -0.059901241899041585   -0.0014569668145032486
-0.016694574759982834   -0.06994873739509917   -0.0016717779020119607
-0.024599683601219082   -0.05965099027594337   -0.0013223788387301122
-0.018739525932675274   -0.059901241899041585   -0.0014569668145032486
-0.021879401257596152   -0.06964475595203443   -0.001867377330958815
0.004404670777039179   -0.06032913795124648   -0.0006862493890727728
0.005292515457045089   -0.0491027511282522   -0.0003492586532376252
-0.001572662740733456   -0.06039025289557761   -0.001007802431891359
0.00446235030513244   -0.06015782694485967   -0.0007835455688243656
0.005292515457045089   -0.0491027511282522   -0.0003492586532376252
-0.0013412126746340182   -0.04910108527414351   -0.0006474989909880733
-0.001572662740733456   -0.06039025289557761   -0.001007802431891359
-0.0014007426626623186   -0.04895842020569863   -0.0006517915956753562
0.00446235030513244   -0.06015782694485967   -0.0007835455688243656
-0.0016009278160541583   -0.060242785668768305   -0.0010407191530214667
-0.0014007426626623186   -0.04895842020569863   -0.0006517915956753562
-0.001572662740733456   -0.06039025289557761   -0.001007802431891359
0.00446235030513244   -0.06015782694485967   -0.0007835455688243656
-0.0014007426626623186   -0.04895842020569863   -0.0006517915956753562
0.0052729352013380325   -0.048938730882290525   -0.00039575188629624724
0.005292515457045089   -0.0491027511282522   -0.0003492586532376252
0.00446235030513244   -0.06015782694485967   -0.0007835455688243656
-0.0014007426626623186   -0.04895842020569863   -0.0006517915956753562
0.005292515457045089   -0.0491027511282522   -0.0003492586532376252
-0.001572662740733456   -0.06039025289557761   -0.001007802431891359
0.00446235030513244   -0.06015782694485967   -0.0007835455688243656
0.0052729352013380325   -0.048938730882290525   -0.00039575188629624724
-0.0016009278160541583   -0.060242785668768305   -0.0010407191530214667
0.004479675304128527   -0.06003281268680697   -0.0008684406262787108
0.0052729352013380325   -0.048938730882290525   -0.00039575188629624724
-0.0014007426626623186   -0.04895842020569863   -0.0006517915956753562
-0.0016009278160541583   -0.060242785668768305   -0.0010407191530214667
-0.0014668875698387633   -0.04883549346086919   -0.0006486370080184201
0.004479675304128527   -0.06003281268680697   -0.0008684406262787108
-0.0016306514616373608   -0.06012598902756489   -0.001065228808398009
-0.0014668875698387633   -0.04883549346086919   -0.0006486370080184201
-0.0016009278160541583   -0.060242785668768305   -0.0010407191530214667
0.004479675304128527   -0.06003281268680697   -0.0008684406262787108
-0.0014668875698387633   -0.04883549346086919   -0.0006486370080184201
0.0052248631734389045   -0.04880658287814667   -0.0004303086399454097
0.0052729352013380325   -0.048938730882290525   -0.00039575188629624724
0.004479675304128527   -0.06003281268680697   -0.0008684406262787108
-0.0014668875698387633   -0.04883549346086919   -0.0006486370080184201
0.0052729352013380325   -0.048938730882290525   -0.00039575188629624724
-0.0016009278160541583   -0.060242785668768305   -0.0010407191530214667
0.004479675304128527   -0.06003281268680697   -0.0008684406262787108
0.0052248631734389045   -0.04880658287814667   -0.0004303086399454097
-0.0016306514616373608   -0.06012598902756489   -0.001065228808398009
0.004489179907872395   -0.059932135408487124   -0.0009415204930786437
0.0052248631734389045   -0.04880658287814667   -0.0004303086399454097
-0.0014668875698387633   -0.04883549346086919   -0.0006486370080184201
-0.0016306514616373608   -0.06012598902756489   -0.001065228808398009
-0.001548915908422292   -0.04872913143371955   -0.000637741636532579
0.004489179907872395   -0.059932135408487124   -0.0009415204930786437
-0.0016811319671374584   -0.0600362050664263   -0.0010816160792444488
-0.001548915908422292   -0.04872913143371955   -0.000637741636532579
-0.0016306514616373608   -0.06012598902756489   -0.001065228808398009
0.004489179907872395   -0.059932135408487124   -0.0009415204930786437
-0.001548915908422292   -0.04872913143371955   -0.000637741636532579
0.005157813694437009   -0.048684834770775134   -0.00045376242538738804
0.0052248631734389045   -0.04880658287814667   -0.0004303086399454097
0.004489179907872395   -0.059932135408487124   -0.0009415204930786437
-0.001548915908422292   -0.04872913143371955   -0.000637741636532579
0.0052248631734389045   -0.04880658287814667   -0.0004303086399454097
-0.0016306514616373608   -0.06012598902756489   -0.001065228808398009
-0.001572662740733456   -0.06039025289557761   -0.001007802431891359
-0.0013412126746340182   -0.04910108527414351   -0.0006474989909880733
-0.007301741633905249   -0.06035862401051718   -0.00127277166076466
-0.0016009278160541583   -0.060242785668768305   -0.0010407191530214667
-0.0013412126746340182   -0.04910108527414351   -0.0006474989909880733
-0.00766841493346507   -0.04904105747146977   -0.0008938483898651594
-0.007301741633905249   -0.06035862401051718   -0.00127277166076466
-0.0077349691089146294   -0.04892254219802618   -0.0008679186931105125
-0.0016009278160541583   -0.060242785668768305   -0.0010407191530214667
-0.007340839030246749   -0.0602353119697104   -0.0012573191587466545
-0.0077349691089146294   -0.04892254219802618   -0.0008679186931105125
-0.007301741633905249   -0.06035862401051718   -0.00127277166076466
-0.0016009278160541583   -0.060242785668768305   -0.0010407191530214667
-0.0077349691089146294   -0.04892254219802618   -0.0008679186931105125
-0.0014007426626623186   -0.04895842020569863   -0.0006517915956753562
-0.0013412126746340182   -0.04910108527414351   -0.0006474989909880733
-0.0016009278160541583   -0.060242785668768305   -0.0010407191530214667
-0.0077349691089146294   -0.04892254219802618   -0.0008679186931105125
-0.0013412126746340182   -0.04910108527414351   -0.0006474989909880733
-0.007301741633905249   -0.06035862401051718   -0.00127277166076466
-0.0016009278160541583   -0.060242785668768305   -0.0010407191530214667
-0.0014007426626623186   -0.04895842020569863   -0.0006517915956753562
-0.007340839030246749   -0.0602353119697104   -0.0012573191587466545
-0.0016306514616373608   -0.06012598902756489   -0.001065228808398009
-0.0014007426626623186   -0.04895842020569863   -0.0006517915956753562
-0.0077349691089146294   -0.04892254219802618   -0.0008679186931105125
-0.007340839030246749   -0.0602353119697104   -0.0012573191587466545
-0.007802857350024814   -0.04882009581394364   -0.0008342336040960891
-0.0016306514616373608   -0.06012598902756489   -0.001065228808398009
-0.0073804723720789925   -0.06013829287337487   -0.001233213652212343
-0.007802857350024814   -0.04882009581394364   -0.0008342336040960891
-0.007340839030246749   -0.0602353119697104   -0.0012573191587466545
-0.0016306514616373608   -0.06012598902756489   -0.001065228808398009
-0.007802857350024814   -0.04882009581394364   -0.0008342336040960891
-0.0014668875698387633   -0.04883549346086919   -0.0006486370080184201
-0.0014007426626623186   -0.04895842020569863   -0.0006517915956753562
-0.0016306514616373608   -0.06012598902756489   -0.001065228808398009
-0.007802857350024814   -0.04882009581394364   -0.0008342336040960891
-0.0014007426626623186   -0.04895842020569863   -0.0006517915956753562
-0.007340839030246749   -0.0602353119697104   -0.0012573191587466545
-0.0016306514616373608   -0.06012598902756489   -0.001065228808398009
-0.0014668875698387633   -0.04883549346086919   -0.0006486370080184201
-0.0073804723720789925   -0.06013829287337487   -0.001233213652212343
-0.0016811319671374584   -0.0600362050664263   -0.0010816160792444488
-0.0014668875698387633   -0.04883549346086919   -0.0006486370080184201
-0.007802857350024814   -0.04882009581394364   -0.0008342336040960891
-0.0073804723720789925   -0.06013829287337487   -0.001233213652212343
-0.007876475090276419   -0.04873467957795458   -0.000793154438195105
-0.0016811319671374584   -0.0600362050664263   -0.0010816160792444488
-0.007426260922852082   -0.06006801419349404   -0.0012008699557881045
-0.007876475090276419   -0.04873467957795458   -0.000793154438195105
-0.0073804723720789925   -0.06013829287337487   -0.001233213652212343
-0.0016811319671374584   -0.0600362050664263   -0.0010816160792444488
-0.007876475090276419   -0.04873467957795458   -0.000793154438195105
-0.001548915908422292   -0.04872913143371955   -0.000637741636532579
-0.0014668875698387633   -0.04883549346086919   -0.0006486370080184201
-0.0016811319671374584   -0.0600362050664263   -0.0010816160792444488
-0.007876475090276419   -0.04873467957795458   -0.000793154438195105
-0.0014668875698387633   -0.04883549346086919   -0.0006486370080184201
-0.0073804723720789925   -0.06013829287337487   -0.001233213652212343
-0.007301741633905249   -0.06035862401051718   -0.00127277166076466
-0.00766841493346507   -0.04904105747146977   -0.0008938483898651594
-0.0129338733238655   -0.060239941694515096   -0.0014995769748258683
-0.007340839030246749   -0.0602353119697104   -0.0012573191587466545
-0.00766841493346507   -0.04904105747146977   -0.0008938483898651594
-0.01388862358987073   -0.048929221753831104   -0.0011017945288686545
-0.0129338733238655   -0.060239941694515096   -0.0014995769748258683
-0.013957118561429095   -0.04883298463889547   -0.0010456901561061937
-0.007340839030246749   -0.0602353119697104   -0.0012573191587466545
-0.012976031649290287   -0.06013859290224676   -0.001435984414582897
-0.013957118561429095   -0.04883298463889547   -0.0010456901561061937
-0.0129338733238655   -0.060239941694515096   -0.0014995769748258683
-0.007340839030246749   -0.0602353119697104   -0.0012573191587466545
-0.013957118561429095   -0.04883298463889547   -0.0010456901561061937
-0.0077349691089146294   -0.04892254219802618   -0.0008679186931105125
-0.00766841493346507   -0.04904105747146977   -0.0008938483898651594
-0.007340839030246749   -0.0602353119697104   -0.0012573191587466545
-0.013957118561429095   -0.04883298463889547   -0.0010456901561061937
-0.00766841493346507   -0.04904105747146977   -0.0008938483898651594
-0.0129338733238655   -0.060239941694515096   -0.0014995769748258683
-0.007340839030246749   -0.0602353119697104   -0.0012573191587466545
-0.0077349691089146294   -0.04892254219802618   -0.0008679186931105125
-0.012976031649290287   -0.06013859290224676   -0.001435984414582897
-0.0073804723720789925   -0.06013829287337487   -0.001233213652212343
-0.0077349691089146294   -0.04892254219802618   -0.0008679186931105125
-0.013957118561429095   -0.04883298463889547   -0.0010456901561061937
-0.012976031649290287   -0.06013859290224676   -0.001435984414582897
-0.014019266980367122   -0.048752702747432125   -0.0009820103930701439
-0.0073804723720789925   -0.06013829287337487   -0.001233213652212343
-0.013010976874100187   -0.06006328554377023   -0.0013638907497402328
-0.014019266980367122   -0.048752702747432125   -0.0009820103930701439
-0.012976031649290287   -0.06013859290224676   -0.001435984414582897
-0.0073804723720789925   -0.06013829287337487   -0.001233213652212343
-0.014019266980367122   -0.048752702747432125   -0.0009820103930701439
-0.007802857350024814   -0.04882009581394364   -0.0008342336040960891
-0.0077349691089146294   -0.04892254219802618   -0.0008679186931105125
-0.0073804723720789925   -0.06013829287337487   -0.001233213652212343
-0.014019266980367122   -0.048752702747432125   -0.0009820103930701439
-0.0077349691089146294   -0.04892254219802618   -0.0008679186931105125
-0.012976031649290287   -0.06013859290224676   -0.001435984414582897
-0.0073804723720789925   -0.06013829287337487   -0.001233213652212343
-0.007802857350024814   -0.04882009581394364   -0.0008342336040960891
-0.013010976874100187   -0.06006328554377023   -0.0013638907497402328
-0.007426260922852082   -0.06006801419349404   -0.0012008699557881045
-0.007802857350024814   -0.04882009581394364   -0.0008342336040960891
-0.014019266980367122   -0.048752702747432125   -0.0009820103930701439
-0.013010976874100187   -0.06006328554377023   -0.0013638907497402328
-0.014082003187244332   -0.048688513305113104   -0.0009110449798082948
-0.007426260922852082   -0.06006801419349404   -0.0012008699557881045
-0.01304693267985321   -0.0600139114016283   -0.0012835470220605
-0.014082003187244332   -0.048688513305113104   -0.0009110449798082948
-0.013010976874100187   -0.06006328554377023   -0.0013638907497402328
-0.007426260922852082   -0.06006801419349404   -0.0012008699557881045
-0.014082003187244332   -0.048688513305113104   -0.0009110449798082948
-0.007876475090276419   -0.04873467957795458   -0.000793154438195105
-0.007802857350024814   -0.04882009581394364   -0.0008342336040960891
-0.007426260922852082   -0.06006801419349404   -0.0012008699557881045
-0.014082003187244332   -0.048688513305113104   -0.0009110449798082948
-0.007802857350024814   -0.04882009581394364   -0.0008342336040960891
-0.013010976874100187   -0.06006328554377023   -0.0013638907497402328
-0.0129338733238655   -0.060239941694515096   -0.0014995769748258683
-0.01388862358987073   -0.048929221753831104   -0.0011017945288686545
-0.018699978473534426   -0.060036581093743484   -0.0016890625267314415
-0.012976031649290287   -0.06013859290224676   -0.001435984414582897
-0.01388862358987073   -0.048929221753831104   -0.0011017945288686545
-0.020231979419884173   -0.04876319566145253   -0.0012717907773555808
-0.018699978473534426   -0.060036581093743484   -0.0016890625267314415
-0.02029559911985534   -0.048689432380077224   -0.0011852822925453388
-0.012976031649290287   -0.06013859290224676   -0.001435984414582897
-0.018734900694284976   -0.05995669796383103   -0.0015766768555858374
-0.02029559911985534   -0.048689432380077224   -0.0011852822925453388
-0.018699978473534426   -0.060036581093743484   -0.0016890625267314415
-0.012976031649290287   -0.06013859290224676   -0.001435984414582897
-0.02029559911985534   -0.048689432380077224   -0.0011852822925453388
-0.013957118561429095   -0.04883298463889547   -0.0010456901561061937
-0.01388862358987073   -0.048929221753831104   -0.0011017945288686545
-0.012976031649290287   -0.06013859290224676   -0.001435984414582897
-0.02029559911985534   -0.048689432380077224   -0.0011852822925453388
-0.01388862358987073   -0.048929221753831104   -0.0011017945288686545
-0.018699978473534426   -0.060036581093743484   -0.0016890625267314415
-0.012976031649290287   -0.06013859290224676   -0.001435984414582897
-0.013957118561429095   -0.04883298463889547   -0.0010456901561061937
-0.018734900694284976   -0.05995669796383103   -0.0015766768555858374
-0.013010976874100187   -0.06006328554377023   -0.0013638907497402328
-0.013957118561429095   -0.04883298463889547   -0.0010456901561061937
-0.02029559911985534   -0.048689432380077224   -0.0011852822925453388
-0.018734900694284976   -0.05995669796383103   -0.0015766768555858374
-0.02033422101439443   -0.04862957279772705   -0.0010922226306278198
-0.013010976874100187   -0.06006328554377023   -0.0013638907497402328
-0.018739525932675274   -0.059901241899041585   -0.0014569668145032486
-0.02033422101439443   -0.04862957279772705   -0.0010922226306278198
-0.018734900694284976   -0.05995669796383103   -0.0015766768555858374
-0.013010976874100187   -0.06006328554377023   -0.0013638907497402328
-0.02033422101439443   -0.04862957279772705   -0.0010922226306278198
-0.014019266980367122   -0.048752702747432125   -0.0009820103930701439
-0.013957118561429095   -0.04883298463889547   -0.0010456901561061937
-0.013010976874100187   -0.06006328554377023   -0.0013638907497402328
-0.02033422101439443   -0.04862957279772705   -0.0010922226306278198
-0.013957118561429095   -0.04883298463889547   -0.0010456901561061937
-0.018734900694284976   -0.05995669796383103   -0.0015766768555858374
-0.013010976874100187   -0.06006328554377023   -0.0013638907497402328
-0.014019266980367122   -0.048752702747432125   -0.0009820103930701439
-0.018739525932675274   -0.059901241899041585   -0.0014569668145032486
-0.01304693267985321   -0.0600139114016283   -0.0012835470220605
-0.014019266980367122   -0.048752702747432125   -0.0009820103930701439
-0.02033422101439443   -0.04862957279772705   -0.0010922226306278198
-0.018739525932675274   -0.059901241899041585   -0.0014569668145032486
-0.020376597765326084   -0.04858719713287479   -0.0009912562925510234
-0.01304693267985321   -0.0600139114016283   -0.0012835470220605
-0.0187527157634951   -0.05987404825732162   -0.0013283824248703068
-0.020376597765326084   -0.04858719713287479   -0.0009912562925510234
-0.018739525932675274   -0.059901241899041585   -0.0014569668145032486
-0.01304693267985321   -0.0600139114016283   -0.0012835470220605
-0.020376597765326084   -0.04858719713287479   -0.0009912562925510234
-0.014082003187244332   -0.048688513305113104   -0.0009110449798082948
-0.014019266980367122   -0.048752702747432125   -0.0009820103930701439
-0.01304693267985321   -0.0600139114016283   -0.0012835470220605
-0.020376597765326084   -0.04858719713287479   -0.0009912562925510234
-0.014019266980367122   -0.048752702747432125   -0.0009820103930701439
-0.018739525932675274   -0.059901241899041585   -0.0014569668145032486
-0.018699978473534426   -0.060036581093743484   -0.0016890625267314415
-0.020231979419884173   -0.04876319566145253   -0.0012717907773555808
-0.02498756230244889   -0.05976999295646521   -0.0018509192354273496
-0.018734900694284976   -0.05995669796383103   -0.0015766768555858374
-0.020231979419884173   -0.04876319566145253   -0.0012717907773555808
-0.0270396078317927   -0.04855910033477842   -0.0014070252921354264
-0.02498756230244889   -0.05976999295646521   -0.0018509192354273496
-0.026993295933391045   -0.04849687494627729   -0.0012918708319563808
-0.018734900694284976   -0.05995669796383103   -0.0015766768555858374
-0.024867705843489553   -0.05969702470129769   -0.0016869925869373867
-0.026993295933391045   -0.04849687494627729   -0.0012918708319563808
-0.02498756230244889   -0.05976999295646521   -0.0018509192354273496
-0.018734900694284976   -0.05995669796383103   -0.0015766768555858374
-0.026993295933391045   -0.04849687494627729   -0.0012918708319563808
-0.02029559911985534   -0.048689432380077224   -0.0011852822925453388
-0.020231979419884173   -0.04876319566145253   -0.0012717907773555808
-0.018734900694284976   -0.05995669796383103   -0.0015766768555858374
-0.026993295933391045   -0.04849687494627729   -0.0012918708319563808
-0.020231979419884173   -0.04876319566145253   -0.0012717907773555808
-0.02498756230244889   -0.05976999295646521   -0.0018509192354273496
-0.018734900694284976   -0.05995669796383103   -0.0015766768555858374
-0.02029559911985534   -0.048689432380077224   -0.0011852822925453388
-0.024867705843489553   -0.05969702470129769   -0.0016869925869373867
-0.018739525932675274   -0.059901241899041585   -0.0014569668145032486
-0.02029559911985534   -0.048689432380077224   -0.0011852822925453388
-0.026993295933391045   -0.04849687494627729   -0.0012918708319563808
-0.024867705843489553   -0.05969702470129769   -0.0016869925869373867
-0.026955562561530973   -0.0484466343100114   -0.0011646956649376383
-0.018739525932675274   -0.059901241899041585   -0.0014569668145032486
-0.024766627734186093   -0.059649981816176596   -0.0015102815835056794
-0.026955562561530973   -0.0484466343100114   -0.0011646956649376383
-0.024867705843489553   -0.05969702470129769   -0.0016869925869373867
-0.018739525932675274   -0.059901241899041585   -0.0014569668145032486
-0.026955562561530973   -0.0484466343100114   -0.0011646956649376383
-0.02033422101439443   -0.04862957279772705   -0.0010922226306278198
-0.02029559911985534   -0.048689432380077224   -0.0011852822925453388
-0.018739525932675274   -0.059901241899041585   -0.0014569668145032486
-0.026955562561530973   -0.0484466343100114   -0.0011646956649376383
-0.02029559911985534   -0.048689432380077224   -0.0011852822925453388
-0.024867705843489553   -0.05969702470129769   -0.0016869925869373867
-0.018739525932675274   -0.059901241899041585   -0.0014569668145032486
-0.02033422101439443   -0.04862957279772705   -0.0010922226306278198
-0.024766627734186093   -0.059649981816176596   -0.0015102815835056794
-0.0187527157634951   -0.05987404825732162   -0.0013283824248703068
-0.02033422101439443   -0.04862957279772705   -0.0010922226306278198
-0.026955562561530973   -0.0484466343100114   -0.0011646956649376383
-0.024766627734186093   -0.059649981816176596   -0.0015102815835056794
-0.02686445848230665   -0.04843038664433602   -0.0010268714886863752
-0.0187527157634951   -0.05987404825732162   -0.0013283824248703068
-0.024599683601219082   -0.05965099027594337   -0.0013223788387301122
-0.02686445848230665   -0.04843038664433602   -0.0010268714886863752
-0.024766627734186093   -0.059649981816176596   -0.0015102815835056794
-0.0187527157634951   -0.05987404825732162   -0.0013283824248703068
-0.02686445848230665   -0.04843038664433602   -0.0010268714886863752
-0.020376597765326084   -0.04858719713287479   -0.0009912562925510234
-0.02033422101439443   -0.04862957279772705   -0.0010922226306278198
-0.0187527157634951   -0.05987404825732162   -0.0013283824248703068
-0.02686445848230665   -0.04843038664433602   -0.0010268714886863752
-0.02033422101439443   -0.04862957279772705   -0.0010922226306278198
-0.024766627734186093   -0.059649981816176596   -0.0015102815835056794
0.005292515457045089   -0.0491027511282522   -0.0003492586532376252
0.005467124622426557   -0.03710427353624041   -5.40647191051931e-05
-0.0013412126746340182   -0.04910108527414351   -0.0006474989909880733
0.0052729352013380325   -0.048938730882290525   -0.00039575188629624724
0.005467124622426557   -0.03710427353624041   -5.40647191051931e-05
-0.0015412154898811758   -0.03704238173309948   -0.0003223214874374565
-0.0013412126746340182   -0.04910108527414351   -0.0006474989909880733
-0.0016228374395472344   -0.036905804283887865   -0.0002980246212101818
0.0052729352013380325   -0.048938730882290525   -0.00039575188629624724
-0.0014007426626623186   -0.04895842020569863   -0.0006517915956753562
-0.0016228374395472344   -0.036905804283887865   -0.0002980246212101818
-0.0013412126746340182   -0.04910108527414351   -0.0006474989909880733
0.0052729352013380325   -0.048938730882290525   -0.00039575188629624724
-0.0016228374395472344   -0.036905804283887865   -0.0002980246212101818
0.005380268128451553   -0.0369477764942551   -4.8910898522057563e-05
0.005467124622426557   -0.03710427353624041   -5.40647191051931e-05
0.0052729352013380325   -0.048938730882290525   -0.00039575188629624724
-0.0016228374395472344   -0.036905804283887865   -0.0002980246212101818
0.005467124622426557   -0.03710427353624041   -5.40647191051931e-05
-0.0013412126746340182   -0.04910108527414351   -0.0006474989909880733
0.0052729352013380325   -0.048938730882290525   -0.00039575188629624724
0.005380268128451553   -0.0369477764942551   -4.8910898522057563e-05
-0.0014007426626623186   -0.04895842020569863   -0.0006517915956753562
0.0052248631734389045   -0.04880658287814667   -0.0004303086399454097
0.005380268128451553   -0.0369477764942551   -4.8910898522057563e-05
-0.0016228374395472344   -0.036905804283887865   -0.0002980246212101818
-0.0014007426626623186   -0.04895842020569863   -0.0006517915956753562
-0.001716264455082757   -0.03677680293709533   -0.0002669819405359724
0.0052248631734389045   -0.04880658287814667   -0.0004303086399454097
-0.0014668875698387633   -0.04883549346086919   -0.0006486370080184201
-0.001716264455082757   -0.03677680293709533   -0.0002669819405359724
-0.0014007426626623186   -0.04895842020569863   -0.0006517915956753562
0.0052248631734389045   -0.04880658287814667   -0.0004303086399454097
-0.001716264455082757   -0.03677680293709533   -0.0002669819405359724
0.00527383979218024   -0.03680779025282514   -2.9968774462710815e-05
0.005380268128451553   -0.0369477764942551   -4.8910898522057563e-05
0.0052248631734389045   -0.04880658287814667   -0.0004303086399454097
-0.001716264455082757   -0.03677680293709533   -0.0002669819405359724
0.005380268128451553   -0.0369477764942551   -4.8910898522057563e-05
-0.0014007426626623186   -0.04895842020569863   -0.0006517915956753562
0.0052248631734389045   -0.04880658287814667   -0.0004303086399454097
0.00527383979218024   -0.03680779025282514   -2.9968774462710815e-05
-0.0014668875698387633   -0.04883549346086919   -0.0006486370080184201
0.005157813694437009   -0.048684834770775134   -0.00045376242538738804
0.00527383979218024   -0.03680779025282514   -2.9968774462710815e-05
-0.001716264455082757   -0.03677680293709533   -0.0002669819405359724
-0.0014668875698387633   -0.04883549346086919   -0.0006486370080184201
-0.0018210796680804297   -0.0366536171276367   -0.00022750151187458424
0.005157813694437009   -0.048684834770775134   -0.00045376242538738804
-0.001548915908422292   -0.04872913143371955   -0.000637741636532579
-0.0018210796680804297   -0.0366536171276367   -0.00022750151187458424
-0.0014668875698387633   -0.04883549346086919   -0.0006486370080184201
0.005157813694437009   -0.048684834770775134   -0.00045376242538738804
-0.0018210796680804297   -0.0366536171276367   -0.00022750151187458424
0.005133596078397416   -0.036661286689006915   2.1362427173687937e-06
0.00527383979218024   -0.03680779025282514   -2.9968774462710815e-05
0.005157813694437009   -0.048684834770775134   -0.00045376242538738804
-0.0018210796680804297   -0.0366536171276367   -0.00022750151187458424
0.00527383979218024   -0.03680779025282514   -2.9968774462710815e-05
-0.0014668875698387633   -0.04883549346086919   -0.0006486370080184201
-0.0013412126746340182   -0.04910108527414351   -0.0006474989909880733
-0.0015412154898811758   -0.03704238173309948   -0.0003223214874374565
-0.00766841493346507   -0.04904105747146977   -0.0008938483898651594
-0.0014007426626623186   -0.04895842020569863   -0.0006517915956753562
-0.0015412154898811758   -0.03704238173309948   -0.0003223214874374565
-0.008182038346939582   -0.03697050939189776   -0.0005495536411199036
-0.00766841493346507   -0.04904105747146977   -0.0008938483898651594
-0.008265235346142904   -0.03685618775257931   -0.0005124963297048861
-0.0014007426626623186   -0.04895842020569863   -0.0006517915956753562
-0.0077349691089146294   -0.04892254219802618   -0.0008679186931105125
-0.008265235346142904   -0.03685618775257931   -0.0005124963297048861
-0.00766841493346507   -0.04904105747146977   -0.0008938483898651594
-0.0014007426626623186   -0.04895842020569863   -0.0006517915956753562
-0.008265235346142904   -0.03685618775257931   -0.0005124963297048861
-0.0016228374395472344   -0.036905804283887865   -0.0002980246212101818
-0.0015412154898811758   -0.03704238173309948   -0.0003223214874374565
-0.0014007426626623186   -0.04895842020569863   -0.0006517915956753562
-0.008265235346142904   -0.03685618775257931   -0.0005124963297048861
-0.0015412154898811758   -0.03704238173309948   -0.0003223214874374565
-0.00766841493346507   -0.04904105747146977   -0.0008938483898651594
-0.0014007426626623186   -0.04895842020569863   -0.0006517915956753562
-0.0016228374395472344   -0.036905804283887865   -0.0002980246212101818
-0.0077349691089146294   -0.04892254219802618   -0.0008679186931105125
-0.0014668875698387633   -0.04883549346086919   -0.0006486370080184201
-0.0016228374395472344   -0.036905804283887865   -0.0002980246212101818
-0.008265235346142904   -0.03685618775257931   -0.0005124963297048861
-0.0077349691089146294   -0.04892254219802618   -0.0008679186931105125
-0.008350287144321341   -0.03674774897175598   -0.00046901443193476965
-0.0014668875698387633   -0.04883549346086919   -0.0006486370080184201
-0.007802857350024814   -0.04882009581394364   -0.0008342336040960891
-0.008350287144321341   -0.03674774897175598   -0.00046901443193476965
-0.0077349691089146294   -0.04892254219802618   -0.0008679186931105125
-0.0014668875698387633   -0.04883549346086919   -0.0006486370080184201
-0.008350287144321341   -0.03674774897175598   -0.00046901443193476965
-0.001716264455082757   -0.03677680293709533   -0.0002669819405359724
-0.0016228374395472344   -0.036905804283887865   -0.0002980246212101818
-0.0014668875698387633   -0.04883549346086919   -0.0006486370080184201
-0.008350287144321341   -0.03674774897175598   -0.00046901443193476965
-0.0016228374395472344   -0.036905804283887865   -0.0002980246212101818
-0.0077349691089146294   -0.04892254219802618   -0.0008679186931105125
-0.0014668875698387633   -0.04883549346086919   -0.0006486370080184201
-0.001716264455082757   -0.03677680293709533   -0.0002669819405359724
-0.007802857350024814   -0.04882009581394364   -0.0008342336040960891
-0.001548915908422292   -0.04872913143371955   -0.000637741636532579
-0.001716264455082757   -0.03677680293709533   -0.0002669819405359724
-0.008350287144321341   -0.03674774897175598   -0.00046901443193476965
-0.007802857350024814   -0.04882009581394364   -0.0008342336040960891
-0.00844073460089471   -0.036646859825838256   -0.00041903538722516806
-0.001548915908422292   -0.04872913143371955   -0.000637741636532579
-0.007876475090276419   -0.04873467957795458   -0.000793154438195105
-0.00844073460089471   -0.036646859825838256   -0.00041903538722516806
-0.007802857350024814   -0.04882009581394364   -0.0008342336040960891
-0.001548915908422292   -0.04872913143371955   -0.000637741636532579
-0.00844073460089471   -0.036646859825838256   -0.00041903538722516806
-0.0018210796680804297   -0.0366536171276367   -0.00022750151187458424
-0.001716264455082757   -0.03677680293709533   -0.0002669819405359724
-0.001548915908422292   -0.04872913143371955   -0.000637741636532579
-0.00844073460089471   -0.036646859825838256   -0.00041903538722516806
-0.001716264455082757   -0.03677680293709533   -0.0002669819405359724
-0.007802857350024814   -0.04882009581394364   -0.0008342336040960891
-0.00766841493346507   -0.04904105747146977   -0.0008938483898651594
-0.008182038346939582   -0.03697050939189776   -0.0005495536411199036
-0.01388862358987073   -0.048929221753831104   -0.0011017945288686545
-0.0077349691089146294   -0.04892254219802618   -0.0008679186931105125
-0.008182038346939582   -0.03697050939189776   -0.0005495536411199036
-0.014714964001654977   -0.03688444176339685   -0.000742653053214732
-0.01388862358987073   -0.048929221753831104   -0.0011017945288686545
-0.014797532720963947   -0.03679075910445348   -0.000692833927154858
-0.0077349691089146294   -0.04892254219802618   -0.0008679186931105125
-0.013957118561429095   -0.04883298463889547   -0.0010456901561061937
-0.014797532720963947   -0.03679075910445348   -0.000692833927154858
-0.01388862358987073   -0.048929221753831104   -0.0011017945288686545
-0.0077349691089146294   -0.04892254219802618   -0.0008679186931105125
-0.014797532720963947   -0.03679075910445348   -0.000692833927154858
-0.008265235346142904   -0.03685618775257931   -0.0005124963297048861
-0.008182038346939582   -0.03697050939189776   -0.0005495536411199036
-0.0077349691089146294   -0.04892254219802618   -0.0008679186931105125
-0.014797532720963947   -0.03679075910445348   -0.000692833927154858
-0.008182038346939582   -0.03697050939189776   -0.0005495536411199036
-0.01388862358987073   -0.048929221753831104   -0.0011017945288686545
-0.0077349691089146294   -0.04892254219802618   -0.0008679186931105125
-0.008265235346142904   -0.03685618775257931   -0.0005124963297048861
-0.013957118561429095   -0.04883298463889547   -0.0010456901561061937
-0.007802857350024814   -0.04882009581394364   -0.0008342336040960891
-0.008265235346142904   -0.03685618775257931   -0.0005124963297048861
-0.014797532720963947   -0.03679075910445348   -0.000692833927154858
-0.013957118561429095   -0.04883298463889547   -0.0010456901561061937
-0.014874766694342687   -0.036703298219374327   -0.0006368100710477607
-0.007802857350024814   -0.04882009581394364   -0.0008342336040960891
-0.014019266980367122   -0.048752702747432125   -0.0009820103930701439
-0.014874766694342687   -0.036703298219374327   -0.0006368100710477607
-0.013957118561429095   -0.04883298463889547   -0.0010456901561061937
-0.007802857350024814   -0.04882009581394364   -0.0008342336040960891
-0.014874766694342687   -0.036703298219374327   -0.0006368100710477607
-0.008350287144321341   -0.03674774897175598   -0.00046901443193476965
-0.008265235346142904   -0.03685618775257931   -0.0005124963297048861
-0.007802857350024814   -0.04882009581394364   -0.0008342336040960891
-0.014874766694342687   -0.036703298219374327   -0.0006368100710477607
-0.008265235346142904   -0.03685618775257931   -0.0005124963297048861
-0.013957118561429095   -0.04883298463889547   -0.0010456901561061937
-0.007802857350024814   -0.04882009581394364   -0.0008342336040960891
-0.008350287144321341   -0.03674774897175598   -0.00046901443193476965
-0.014019266980367122   -0.048752702747432125   -0.0009820103930701439
-0.007876475090276419   -0.04873467957795458   -0.000793154438195105
-0.008350287144321341   -0.03674774897175598   -0.00046901443193476965
-0.014874766694342687   -0.036703298219374327   -0.0006368100710477607
-0.014019266980367122   -0.048752702747432125   -0.0009820103930701439
-0.01495227668640738   -0.036622303380995806   -0.0005748897443463016
-0.007876475090276419   -0.04873467957795458   -0.000793154438195105
-0.014082003187244332   -0.048688513305113104   -0.0009110449798082948
-0.01495227668640738   -0.036622303380995806   -0.0005748897443463016
-0.014019266980367122   -0.048752702747432125   -0.0009820103930701439
-0.007876475090276419   -0.04873467957795458   -0.000793154438195105
-0.01495227668640738   -0.036622303380995806   -0.0005748897443463016
-0.00844073460089471   -0.036646859825838256   -0.00041903538722516806
-0.008350287144321341   -0.03674774897175598   -0.00046901443193476965
-0.007876475090276419   -0.04873467957795458   -0.000793154438195105
-0.01495227668640738   -0.036622303380995806   -0.0005748897443463016
-0.008350287144321341   -0.03674774897175598   -0.00046901443193476965
-0.014019266980367122   -0.048752702747432125   -0.0009820103930701439
-0.01388862358987073   -0.048929221753831104   -0.0011017945288686545
-0.014714964001654977   -0.03688444176339685   -0.000742653053214732
-0.020231979419884173   -0.04876319566145253   -0.0012717907773555808
-0.013957118561429095   -0.04883298463889547   -0.0010456901561061937
-0.014714964001654977   -0.03688444176339685   -0.000742653053214732
-0.021365807821683576   -0.03676816548689897   -0.0008999714105373357
-0.020231979419884173   -0.04876319566145253   -0.0012717907773555808
-0.021444887389658194   -0.036696198550245605   -0.0008375416260263209
-0.013957118561429095   -0.04883298463889547   -0.0010456901561061937
-0.02029559911985534   -0.048689432380077224   -0.0011852822925453388
-0.021444887389658194   -0.036696198550245605   -0.0008375416260263209
-0.020231979419884173   -0.04876319566145253   -0.0012717907773555808
-0.013957118561429095   -0.04883298463889547   -0.0010456901561061937
-0.021444887389658194   -0.036696198550245605   -0.0008375416260263209
-0.014797532720963947   -0.03679075910445348   -0.000692833927154858
-0.014714964001654977   -0.03688444176339685   -0.000742653053214732
-0.013957118561429095   -0.04883298463889547   -0.0010456901561061937
-0.021444887389658194   -0.036696198550245605   -0.0008375416260263209
-0.014714964001654977   -0.03688444176339685   -0.000742653053214732
-0.020231979419884173   -0.04876319566145253   -0.0012717907773555808
-0.013957118561429095   -0.04883298463889547   -0.0010456901561061937
-0.014797532720963947   -0.03679075910445348   -0.000692833927154858
-0.02029559911985534   -0.048689432380077224   -0.0011852822925453388
-0.014019266980367122   -0.048752702747432125   -0.0009820103930701439
-0.014797532720963947   -0.03679075910445348   -0.000692833927154858
-0.021444887389658194   -0.036696198550245605   -0.0008375416260263209
-0.02029559911985534   -0.048689432380077224   -0.0011852822925453388
-0.021504897853580767   -0.036628048854685034   -0.000769935474048425
-0.014019266980367122   -0.048752702747432125   -0.0009820103930701439
-0.02033422101439443   -0.04862957279772705   -0.0010922226306278198
-0.021504897853580767   -0.036628048854685034   -0.000769935474048425
-0.02029559911985534   -0.048689432380077224   -0.0011852822925453388
-0.014019266980367122   -0.048752702747432125   -0.0009820103930701439
-0.021504897853580767   -0.036628048854685034   -0.000769935474048425
-0.014874766694342687   -0.036703298219374327   -0.0006368100710477607
-0.014797532720963947   -0.03679075910445348   -0.000692833927154858
-0.014019266980367122   -0.048752702747432125   -0.0009820103930701439
-0.021504897853580767   -0.036628048854685034   -0.000769935474048425
-0.014797532720963947   -0.03679075910445348   -0.000692833927154858
-0.02029559911985534   -0.048689432380077224   -0.0011852822925453388
-0.014019266980367122   -0.048752702747432125   -0.0009820103930701439
-0.014874766694342687   -0.036703298219374327   -0.0006368100710477607
-0.02033422101439443   -0.04862957279772705   -0.0010922226306278198
-0.014082003187244332   -0.048688513305113104   -0.0009110449798082948
-0.014874766694342687   -0.036703298219374327   -0.0006368100710477607
-0.021504897853580767   -0.036628048854685034   -0.000769935474048425
-0.02033422101439443   -0.04862957279772705   -0.0010922226306278198
-0.021564426743880653   -0.03656671803199519   -0.0006957985910154345
-0.014082003187244332   -0.048688513305113104   -0.0009110449798082948
-0.020376597765326084   -0.04858719713287479   -0.0009912562925510234
-0.021564426743880653   -0.03656671803199519   -0.0006957985910154345
-0.02033422101439443   -0.04862957279772705   -0.0010922226306278198
-0.014082003187244332   -0.048688513305113104   -0.0009110449798082948
-0.021564426743880653   -0.03656671803199519   -0.0006957985910154345
-0.01495227668640738   -0.036622303380995806   -0.0005748897443463016
-0.014874766694342687   -0.036703298219374327   -0.0006368100710477607
-0.014082003187244332   -0.048688513305113104   -0.0009110449798082948
-0.021564426743880653   -0.03656671803199519   -0.0006957985910154345
-0.014874766694342687   -0.036703298219374327   -0.0006368100710477607
-0.02033422101439443   -0.04862957279772705   -0.0010922226306278198
-0.020231979419884173   -0.04876319566145253   -0.0012717907773555808
-0.021365807821683576   -0.03676816548689897   -0.0008999714105373357
-0.0270396078317927   -0.04855910033477842   -0.0014070252921354264
-0.02029559911985534   -0.048689432380077224   -0.0011852822925453388
-0.021365807821683576   -0.03676816548689897   -0.0008999714105373357
-0.02841419712746668   -0.036630925245916574   -0.001016858864498784
-0.0270396078317927   -0.04855910033477842   -0.0014070252921354264
-0.028426629800548605   -0.036573410630322295   -0.0009479961407431095
-0.02029559911985534   -0.048689432380077224   -0.0011852822925453388
-0.026993295933391045   -0.04849687494627729   -0.0012918708319563808
-0.028426629800548605   -0.036573410630322295   -0.0009479961407431095
-0.0270396078317927   -0.04855910033477842   -0.0014070252921354264
-0.02029559911985534   -0.048689432380077224   -0.0011852822925453388
-0.028426629800548605   -0.036573410630322295   -0.0009479961407431095
-0.021444887389658194   -0.036696198550245605   -0.0008375416260263209
-0.021365807821683576   -0.03676816548689897   -0.0008999714105373357
-0.02029559911985534   -0.048689432380077224   -0.0011852822925453388
-0.028426629800548605   -0.036573410630322295   -0.0009479961407431095
-0.021365807821683576   -0.03676816548689897   -0.0008999714105373357
-0.0270396078317927   -0.04855910033477842   -0.0014070252921354264
-0.02029559911985534   -0.048689432380077224   -0.0011852822925453388
-0.021444887389658194   -0.036696198550245605   -0.0008375416260263209
-0.026993295933391045   -0.04849687494627729   -0.0012918708319563808
-0.02033422101439443   -0.04862957279772705   -0.0010922226306278198
-0.021444887389658194   -0.036696198550245605   -0.0008375416260263209
-0.028426629800548605   -0.036573410630322295   -0.0009479961407431095
-0.026993295933391045   -0.04849687494627729   -0.0012918708319563808
-0.028439349120642173   -0.03651517805449601   -0.0008687061243505321
-0.02033422101439443   -0.04862957279772705   -0.0010922226306278198
-0.026955562561530973   -0.0484466343100114   -0.0011646956649376383
-0.028439349120642173   -0.03651517805449601   -0.0008687061243505321
-0.026993295933391045   -0.04849687494627729   -0.0012918708319563808
-0.02033422101439443   -0.04862957279772705   -0.0010922226306278198
-0.028439349120642173   -0.03651517805449601   -0.0008687061243505321
-0.021504897853580767   -0.036628048854685034   -0.000769935474048425
-0.021444887389658194   -0.036696198550245605   -0.0008375416260263209
-0.02033422101439443   -0.04862957279772705   -0.0010922226306278198
-0.028439349120642173   -0.03651517805449601   -0.0008687061243505321
-0.021444887389658194   -0.036696198550245605   -0.0008375416260263209
-0.026993295933391045   -0.04849687494627729   -0.0012918708319563808
-0.02033422101439443   -0.04862957279772705   -0.0010922226306278198
-0.021504897853580767   -0.036628048854685034   -0.000769935474048425
-0.026955562561530973   -0.0484466343100114   -0.0011646956649376383
-0.020376597765326084   -0.04858719713287479   -0.0009912562925510234
-0.021504897853580767   -0.036628048854685034   -0.000769935474048425
-0.028439349120642173   -0.03651517805449601   -0.0008687061243505321
-0.026955562561530973   -0.0484466343100114   -0.0011646956649376383
-0.028412527957953595   -0.03647657873123782   -0.0007802287512349856
-0.020376597765326084   -0.04858719713287479   -0.0009912562925510234
-0.02686445848230665   -0.04843038664433602   -0.0010268714886863752
-0.028412527957953595   -0.03647657873123782   -0.0007802287512349856
-0.026955562561530973   -0.0484466343100114   -0.0011646956649376383
-0.020376597765326084   -0.04858719713287479   -0.0009912562925510234
-0.028412527957953595   -0.03647657873123782   -0.0007802287512349856
-0.021564426743880653   -0.03656671803199519   -0.0006957985910154345
-0.021504897853580767   -0.036628048854685034   -0.000769935474048425
-0.020376597765326084   -0.04858719713287479   -0.0009912562925510234
-0.028412527957953595   -0.03647657873123782   -0.0007802287512349856
-0.021504897853580767   -0.036628048854685034   -0.000769935474048425
-0.026955562561530973   -0.0484466343100114   -0.0011646956649376383
0.005467124622426557   -0.03710427353624041   -5.40647191051931e-05
0.004898160975422336   -0.024752558014291205   0.0001496453383696394
-0.0015412154898811758   -0.03704238173309948   -0.0003223214874374565
0.005380268128451553   -0.0369477764942551   -4.8910898522057563e-05
0.004898160975422336   -0.024752558014291205   0.0001496453383696394
-0.0021607062892647086   -0.02463595540884798   -6.375213353616938e-05
-0.0015412154898811758   -0.03704238173309948   -0.0003223214874374565
-0.0022581235305767335   -0.02451225483878807   -1.3174129062932928e-05
0.005380268128451553   -0.0369477764942551   -4.8910898522057563e-05
-0.0016228374395472344   -0.036905804283887865   -0.0002980246212101818
-0.0022581235305767335   -0.02451225483878807   -1.3174129062932928e-05
-0.0015412154898811758   -0.03704238173309948   -0.0003223214874374565
0.005380268128451553   -0.0369477764942551   -4.8910898522057563e-05
-0.0022581235305767335   -0.02451225483878807   -1.3174129062932928e-05
0.004744562140393897   -0.02460341192025511   0.00021273479612580107
0.004898160975422336   -0.024752558014291205   0.0001496453383696394
0.005380268128451553   -0.0369477764942551   -4.8910898522057563e-05
-0.0022581235305767335   -0.02451225483878807   -1.3174129062932928e-05
0.004898160975422336   -0.024752558014291205   0.0001496453383696394
-0.0015412154898811758   -0.03704238173309948   -0.0003223214874374565
0.005380268128451553   -0.0369477764942551   -4.8910898522057563e-05
0.004744562140393897   -0.02460341192025511   0.00021273479612580107
-0.0016228374395472344   -0.036905804283887865   -0.0002980246212101818
0.00527383979218024   -0.03680779025282514   -2.9968774462710815e-05
0.004744562140393897   -0.02460341192025511   0.00021273479612580107
-0.0022581235305767335   -0.02451225483878807   -1.3174129062932928e-05
-0.0016228374395472344   -0.036905804283887865   -0.0002980246212101818
-0.0023720565264644575   -0.02438166436841017   4.6380095784471575e-05
0.00527383979218024   -0.03680779025282514   -2.9968774462710815e-05
-0.001716264455082757   -0.03677680293709533   -0.0002669819405359724
-0.0023720565264644575   -0.02438166436841017   4.6380095784471575e-05
-0.0016228374395472344   -0.036905804283887865   -0.0002980246212101818
0.00527383979218024   -0.03680779025282514   -2.9968774462710815e-05
-0.0023720565264644575   -0.02438166436841017   4.6380095784471575e-05
0.004573252295021175   -0.024455207668144494   0.00030322748557584287
0.004744562140393897   -0.02460341192025511   0.00021273479612580107
0.00527383979218024   -0.03680779025282514   -2.9968774462710815e-05
-0.0023720565264644575   -0.02438166436841017   4.6380095784471575e-05
0.004744562140393897   -0.02460341192025511   0.00021273479612580107
-0.0016228374395472344   -0.036905804283887865   -0.0002980246212101818
0.00527383979218024   -0.03680779025282514   -2.9968774462710815e-05
0.004573252295021175   -0.024455207668144494   0.00030322748557584287
-0.001716264455082757   -0.03677680293709533   -0.0002669819405359724
0.005133596078397416   -0.036661286689006915   2.1362427173687937e-06
0.004573252295021175   -0.024455207668144494   0.00030322748557584287
-0.0023720565264644575   -0.02438166436841017   4.6380095784471575e-05
-0.001716264455082757   -0.03677680293709533   -0.0002669819405359724
-0.0024898734173005054   -0.02424297327322229   0.00011478622662263415
0.005133596078397416   -0.036661286689006915   2.1362427173687937e-06
-0.0018210796680804297   -0.0366536171276367   -0.00022750151187458424
-0.0024898734173005054   -0.02424297327322229   0.00011478622662263415
-0.001716264455082757   -0.03677680293709533   -0.0002669819405359724
0.005133596078397416   -0.036661286689006915   2.1362427173687937e-06
-0.0024898734173005054   -0.02424297327322229   0.00011478622662263415
0.00436394760544501   -0.024273180955530632   0.0004027810687640113
0.004573252295021175   -0.024455207668144494   0.00030322748557584287
0.005133596078397416   -0.036661286689006915   2.1362427173687937e-06
-0.0024898734173005054   -0.02424297327322229   0.00011478622662263415
0.004573252295021175   -0.024455207668144494   0.00030322748557584287
-0.001716264455082757   -0.03677680293709533   -0.0002669819405359724
-0.0015412154898811758   -0.03704238173309948   -0.0003223214874374565
-0.0021607062892647086   -0.02463595540884798   -6.375213353616938e-05
-0.008182038346939582   -0.03697050939189776   -0.0005495536411199036
-0.0016228374395472344   -0.036905804283887865   -0.0002980246212101818
-0.0021607062892647086   -0.02463595540884798   -6.375213353616938e-05
-0.008808312022102895   -0.024605789114825777   -0.0002695363205748818
-0.008182038346939582   -0.03697050939189776   -0.0005495536411199036
-0.008896318029862006   -0.024497752519666904   -0.00022254436759720162
-0.0016228374395472344   -0.036905804283887865   -0.0002980246212101818
-0.008265235346142904   -0.03685618775257931   -0.0005124963297048861
-0.008896318029862006   -0.024497752519666904   -0.00022254436759720162
-0.008182038346939582   -0.03697050939189776   -0.0005495536411199036
-0.0016228374395472344   -0.036905804283887865   -0.0002980246212101818
-0.008896318029862006   -0.024497752519666904   -0.00022254436759720162
-0.0022581235305767335   -0.02451225483878807   -1.3174129062932928e-05
-0.0021607062892647086   -0.02463595540884798   -6.375213353616938e-05
-0.0016228374395472344   -0.036905804283887865   -0.0002980246212101818
-0.008896318029862006   -0.024497752519666904   -0.00022254436759720162
-0.0021607062892647086   -0.02463595540884798   -6.375213353616938e-05
-0.008182038346939582   -0.03697050939189776   -0.0005495536411199036
-0.0016228374395472344   -0.036905804283887865   -0.0002980246212101818
-0.0022581235305767335   -0.02451225483878807   -1.3174129062932928e-05
-0.008265235346142904   -0.03685618775257931   -0.0005124963297048861
-0.001716264455082757   -0.03677680293709533   -0.0002669819405359724
-0.0022581235305767335   -0.02451225483878807   -1.3174129062932928e-05
-0.008896318029862006   -0.024497752519666904   -0.00022254436759720162
-0.008265235346142904   -0.03685618775257931   -0.0005124963297048861
-0.008987342737901204   -0.024385360407777622   -0.0001709033467011873
-0.001716264455082757   -0.03677680293709533   -0.0002669819405359724
-0.008350287144321341   -0.03674774897175598   -0.00046901443193476965
-0.008987342737901204   -0.024385360407777622   -0.0001709033467011873
-0.008265235346142904   -0.03685618775257931   -0.0005124963297048861
-0.001716264455082757   -0.03677680293709533   -0.0002669819405359724
-0.008987342737901204   -0.024385360407777622   -0.0001709033467011873
-0.0023720565264644575   -0.02438166436841017   4.6380095784471575e-05
-0.0022581235305767335   -0.02451225483878807   -1.3174129062932928e-05
-0.001716264455082757   -0.03677680293709533   -0.0002669819405359724
-0.008987342737901204   -0.024385360407777622   -0.0001709033467011873
-0.0022581235305767335   -0.02451225483878807   -1.3174129062932928e-05
-0.008265235346142904   -0.03685618775257931   -0.0005124963297048861
-0.001716264455082757   -0.03677680293709533   -0.0002669819405359724
-0.0023720565264644575   -0.02438166436841017   4.6380095784471575e-05
-0.008350287144321341   -0.03674774897175598   -0.00046901443193476965
-0.0018210796680804297   -0.0366536171276367   -0.00022750151187458424
-0.0023720565264644575   -0.02438166436841017   4.6380095784471575e-05
-0.008987342737901204   -0.024385360407777622   -0.0001709033467011873
-0.008350287144321341   -0.03674774897175598   -0.00046901443193476965
-0.009082093563897563   -0.024270604935872485   -0.00011368114174954897
-0.0018210796680804297   -0.0366536171276367   -0.00022750151187458424
-0.00844073460089471   -0.036646859825838256   -0.00041903538722516806
-0.009082093563897563   -0.024270604935872485   -0.00011368114174954897
-0.008350287144321341   -0.03674774897175598   -0.00046901443193476965
-0.0018210796680804297   -0.0366536171276367   -0.00022750151187458424
-0.009082093563897563   -0.024270604935872485   -0.00011368114174954897
-0.0024898734173005054   -0.02424297327322229   0.00011478622662263415
-0.0023720565264644575   -0.02438166436841017   4.6380095784471575e-05
-0.0018210796680804297   -0.0366536171276367   -0.00022750151187458424
-0.009082093563897563   -0.024270604935872485   -0.00011368114174954897
-0.0023720565264644575   -0.02438166436841017   4.6380095784471575e-05
-0.008350287144321341   -0.03674774897175598   -0.00046901443193476965
-0.008182038346939582   -0.03697050939189776   -0.0005495536411199036
-0.008808312022102895   -0.024605789114825777   -0.0002695363205748818
-0.014714964001654977   -0.03688444176339685   -0.000742653053214732
-0.008265235346142904   -0.03685618775257931   -0.0005124963297048861
-0.008808312022102895   -0.024605789114825777   -0.0002695363205748818
-0.01538806529876438   -0.024597417669924525   -0.0004556020334862002
-0.014714964001654977   -0.03688444176339685   -0.000742653053214732
-0.015472173416744438   -0.02450263411430993   -0.0004108301059252823
-0.008265235346142904   -0.03685618775257931   -0.0005124963297048861
-0.014797532720963947   -0.03679075910445348   -0.000692833927154858
-0.015472173416744438   -0.02450263411430993   -0.0004108301059252823
-0.014714964001654977   -0.03688444176339685   -0.000742653053214732
-0.008265235346142904   -0.03685618775257931   -0.0005124963297048861
-0.015472173416744438   -0.02450263411430993   -0.0004108301059252823
-0.008896318029862006   -0.024497752519666904   -0.00022254436759720162
-0.008808312022102895   -0.024605789114825777   -0.0002695363205748818
-0.008265235346142904   -0.03685618775257931   -0.0005124963297048861
-0.015472173416744438   -0.02450263411430993   -0.0004108301059252823
-0.008808312022102895   -0.024605789114825777   -0.0002695363205748818
-0.014714964001654977   -0.03688444176339685   -0.000742653053214732
-0.008265235346142904   -0.03685618775257931   -0.0005124963297048861
-0.008896318029862006   -0.024497752519666904   -0.00022254436759720162
-0.014797532720963947   -0.03679075910445348   -0.000692833927154858
-0.008350287144321341   -0.03674774897175598   -0.00046901443193476965
-0.008896318029862006   -0.024497752519666904   -0.00022254436759720162
-0.015472173416744438   -0.02450263411430993   -0.0004108301059252823
-0.014797532720963947   -0.03679075910445348   -0.000692833927154858
-0.015552293813860928   -0.02440611373416841   -0.00036199515372754577
-0.008350287144321341   -0.03674774897175598   -0.00046901443193476965
-0.014874766694342687   -0.036703298219374327   -0.0006368100710477607
-0.015552293813860928   -0.02440611373416841   -0.00036199515372754577
-0.014797532720963947   -0.03679075910445348   -0.000692833927154858
-0.008350287144321341   -0.03674774897175598   -0.00046901443193476965
-0.015552293813860928   -0.02440611373416841   -0.00036199515372754577
-0.008987342737901204   -0.024385360407777622   -0.0001709033467011873
-0.008896318029862006   -0.024497752519666904   -0.00022254436759720162
-0.008350287144321341   -0.03674774897175598   -0.00046901443193476965
-0.015552293813860928   -0.02440611373416841   -0.00036199515372754577
-0.008896318029862006   -0.024497752519666904   -0.00022254436759720162
-0.014797532720963947   -0.03679075910445348   -0.000692833927154858
-0.008350287144321341   -0.03674774897175598   -0.00046901443193476965
-0.008987342737901204   -0.024385360407777622   -0.0001709033467011873
-0.014874766694342687   -0.036703298219374327   -0.0006368100710477607
-0.00844073460089471   -0.036646859825838256   -0.00041903538722516806
-0.008987342737901204   -0.024385360407777622   -0.0001709033467011873
-0.015552293813860928   -0.02440611373416841   -0.00036199515372754577
-0.014874766694342687   -0.036703298219374327   -0.0006368100710477607
-0.015631606776608385   -0.024307309487137704   -0.0003093296133097441
-0.00844073460089471   -0.036646859825838256   -0.00041903538722516806
-0.01495227668640738   -0.036622303380995806   -0.0005748897443463016
-0.015631606776608385   -0.024307309487137704   -0.0003093296133097441
-0.014874766694342687   -0.036703298219374327   -0.0006368100710477607
-0.00844073460089471   -0.036646859825838256   -0.00041903538722516806
-0.015631606776608385   -0.024307309487137704   -0.0003093296133097441
-0.009082093563897563   -0.024270604935872485   -0.00011368114174954897
-0.008987342737901204   -0.024385360407777622   -0.0001709033467011873
-0.00844073460089471   -0.036646859825838256   -0.00041903538722516806
-0.015631606776608385   -0.024307309487137704   -0.0003093296133097441
-0.008987342737901204   -0.024385360407777622   -0.0001709033467011873
-0.014874766694342687   -0.036703298219374327   -0.0006368100710477607
-0.014714964001654977   -0.03688444176339685   -0.000742653053214732
-0.01538806529876438   -0.024597417669924525   -0.0004556020334862002
-0.021365807821683576   -0.03676816548689897   -0.0008999714105373357
-0.014797532720963947   -0.03679075910445348   -0.000692833927154858
-0.01538806529876438   -0.024597417669924525   -0.0004556020334862002
-0.022107157153146408   -0.024559272023881928   -0.0006120070447164921
-0.021365807821683576   -0.03676816548689897   -0.0008999714105373357
-0.02218734016586917   -0.02448194164643922   -0.0005696738061742919
-0.014797532720963947   -0.03679075910445348   -0.000692833927154858
-0.021444887389658194   -0.036696198550245605   -0.0008375416260263209
-0.02218734016586917   -0.02448194164643922   -0.0005696738061742919
-0.021365807821683576   -0.03676816548689897   -0.0008999714105373357
-0.014797532720963947   -0.03679075910445348   -0.000692833927154858
-0.02218734016586917   -0.02448194164643922   -0.0005696738061742919
-0.015472173416744438   -0.02450263411430993   -0.0004108301059252823
-0.01538806529876438   -0.024597417669924525   -0.0004556020334862002
-0.014797532720963947   -0.03679075910445348   -0.000692833927154858
-0.02218734016586917   -0.02448194164643922   -0.0005696738061742919
-0.01538806529876438   -0.024597417669924525   -0.0004556020334862002
-0.021365807821683576   -0.03676816548689897   -0.0008999714105373357
-0.014797532720963947   -0.03679075910445348   -0.000692833927154858
-0.015472173416744438   -0.02450263411430993   -0.0004108301059252823
-0.021444887389658194   -0.036696198550245605   -0.0008375416260263209
-0.014874766694342687   -0.036703298219374327   -0.0006368100710477607
-0.015472173416744438   -0.02450263411430993   -0.0004108301059252823
-0.02218734016586917   -0.02448194164643922   -0.0005696738061742919
-0.021444887389658194   -0.036696198550245605   -0.0008375416260263209
-0.022255308785560944   -0.02440036174093672   -0.0005244619752970245
-0.014874766694342687   -0.036703298219374327   -0.0006368100710477607
-0.021504897853580767   -0.036628048854685034   -0.000769935474048425
-0.022255308785560944   -0.02440036174093672   -0.0005244619752970245
-0.021444887389658194   -0.036696198550245605   -0.0008375416260263209
-0.014874766694342687   -0.036703298219374327   -0.0006368100710477607
-0.022255308785560944   -0.02440036174093672   -0.0005244619752970245
-0.015552293813860928   -0.02440611373416841   -0.00036199515372754577
-0.015472173416744438   -0.02450263411430993   -0.0004108301059252823
-0.014874766694342687   -0.036703298219374327   -0.0006368100710477607
-0.022255308785560944   -0.02440036174093672   -0.0005244619752970245
-0.015472173416744438   -0.02450263411430993   -0.0004108301059252823
-0.021444887389658194   -0.036696198550245605   -0.0008375416260263209
-0.014874766694342687   -0.036703298219374327   -0.0006368100710477607
-0.015552293813860928   -0.02440611373416841   -0.00036199515372754577
-0.021504897853580767   -0.036628048854685034   -0.000769935474048425
-0.01495227668640738   -0.036622303380995806   -0.0005748897443463016
-0.015552293813860928   -0.02440611373416841   -0.00036199515372754577
-0.022255308785560944   -0.02440036174093672   -0.0005244619752970245
-0.021504897853580767   -0.036628048854685034   -0.000769935474048425
-0.022319550800263342   -0.024316615599712463   -0.00047511142869036897
-0.01495227668640738   -0.036622303380995806   -0.0005748897443463016
-0.021564426743880653   -0.03656671803199519   -0.0006957985910154345
-0.022319550800263342   -0.024316615599712463   -0.00047511142869036897
-0.021504897853580767   -0.036628048854685034   -0.000769935474048425
-0.01495227668640738   -0.036622303380995806   -0.0005748897443463016
-0.022319550800263342   -0.024316615599712463   -0.00047511142869036897
-0.015631606776608385   -0.024307309487137704   -0.0003093296133097441
-0.015552293813860928   -0.02440611373416841   -0.00036199515372754577
-0.01495227668640738   -0.036622303380995806   -0.0005748897443463016
-0.022319550800263342   -0.024316615599712463   -0.00047511142869036897
-0.015552293813860928   -0.02440611373416841   -0.00036199515372754577
-0.021504897853580767   -0.036628048854685034   -0.000769935474048425
-0.021365807821683576   -0.03676816548689897   -0.0008999714105373357
-0.022107157153146408   -0.024559272023881928   -0.0006120070447164921
-0.02841419712746668   -0.036630925245916574   -0.001016858864498784
-0.021444887389658194   -0.036696198550245605   -0.0008375416260263209
-0.022107157153146408   -0.024559272023881928   -0.0006120070447164921
-0.029144777453773935   -0.024496513489848607   -0.0007279089768750935
-0.02841419712746668   -0.036630925245916574   -0.001016858864498784
-0.02919477021913304   -0.02443152045872178   -0.0006962514018763593
-0.021444887389658194   -0.036696198550245605   -0.0008375416260263209
-0.028426629800548605   -0.036573410630322295   -0.0009479961407431095
-0.02919477021913304   -0.02443152045872178   -0.0006962514018763593
-0.02841419712746668   -0.036630925245916574   -0.001016858864498784
-0.021444887389658194   -0.036696198550245605   -0.0008375416260263209
-0.02919477021913304   -0.02443152045872178   -0.0006962514018763593
-0.02218734016586917   -0.02448194164643922   -0.0005696738061742919
-0.022107157153146408   -0.024559272023881928   -0.0006120070447164921
-0.021444887389658194   -0.036696198550245605   -0.0008375416260263209
-0.02919477021913304   -0.02443152045872178   -0.0006962514018763593
-0.022107157153146408   -0.024559272023881928   -0.0006120070447164921
-0.02841419712746668   -0.036630925245916574   -0.001016858864498784
-0.021444887389658194   -0.036696198550245605   -0.0008375416260263209
-0.02218734016586917   -0.02448194164643922   -0.0005696738061742919
-0.028426629800548605   -0.036573410630322295   -0.0009479961407431095
-0.021504897853580767   -0.036628048854685034   -0.000769935474048425
-0.02218734016586917   -0.02448194164643922   -0.0005696738061742919
-0.02919477021913304   -0.02443152045872178   -0.0006962514018763593
-0.028426629800548605   -0.036573410630322295   -0.0009479961407431095
-0.02924048273780337   -0.02435801122926537   -0.000657518531110482
-0.021504897853580767   -0.036628048854685034   -0.000769935474048425
-0.028439349120642173   -0.03651517805449601   -0.0008687061243505321
-0.02924048273780337   -0.02435801122926537   -0.000657518531110482
-0.028426629800548605   -0.036573410630322295   -0.0009479961407431095
-0.021504897853580767   -0.036628048854685034   -0.000769935474048425
-0.02924048273780337   -0.02435801122926537   -0.000657518531110482
-0.022255308785560944   -0.02440036174093672   -0.0005244619752970245
-0.02218734016586917   -0.02448194164643922   -0.0005696738061742919
-0.021504897853580767   -0.036628048854685034   -0.000769935474048425
-0.02924048273780337   -0.02435801122926537   -0.000657518531110482
-0.02218734016586917   -0.02448194164643922   -0.0005696738061742919
-0.028426629800548605   -0.036573410630322295   -0.0009479961407431095
-0.021504897853580767   -0.036628048854685034   -0.000769935474048425
-0.022255308785560944   -0.02440036174093672   -0.0005244619752970245
-0.028439349120642173   -0.03651517805449601   -0.0008687061243505321
-0.021564426743880653   -0.03656671803199519   -0.0006957985910154345
-0.022255308785560944   -0.02440036174093672   -0.0005244619752970245
-0.02924048273780337   -0.02435801122926537   -0.000657518531110482
-0.028439349120642173   -0.03651517805449601   -0.0008687061243505321
-0.029262814944486026   -0.024290455956461097   -0.000613486670653837
-0.021564426743880653   -0.03656671803199519   -0.0006957985910154345
-0.028412527957953595   -0.03647657873123782   -0.0007802287512349856
-0.029262814944486026   -0.024290455956461097   -0.000613486670653837
-0.028439349120642173   -0.03651517805449601   -0.0008687061243505321
-0.021564426743880653   -0.03656671803199519   -0.0006957985910154345
-0.029262814944486026   -0.024290455956461097   -0.000613486670653837
-0.022319550800263342   -0.024316615599712463   -0.00047511142869036897
-0.022255308785560944   -0.02440036174093672   -0.0005244619752970245
-0.021564426743880653   -0.03656671803199519   -0.0006957985910154345
-0.029262814944486026   -0.024290455956461097   -0.000613486670653837
-0.022255308785560944   -0.02440036174093672   -0.0005244619752970245
-0.028439349120642173   -0.03651517805449601   -0.0008687061243505321
0.004898160975422336   -0.024752558014291205   0.0001496453383696394
0.0034302749842123736   -0.012427412867316323   0.00016059465567666876
-0.0021607062892647086   -0.02463595540884798   -6.375213353616938e-05
0.004744562140393897   -0.02460341192025511   0.00021273479612580107
0.0034302749842123736   -0.012427412867316323   0.00016059465567666876
-0.0031502508767062183   -0.01226584846360998   8.097230997645124e-05
-0.0021607062892647086   -0.02463595540884798   -6.375213353616938e-05
-0.003247092594416374   -0.012203178605845001   0.00015114892904131215
0.004744562140393897   -0.02460341192025511   0.00021273479612580107
-0.0022581235305767335   -0.02451225483878807   -1.3174129062932928e-05
-0.003247092594416374   -0.012203178605845001   0.00015114892904131215
-0.0021607062892647086   -0.02463595540884798   -6.375213353616938e-05
0.004744562140393897   -0.02460341192025511   0.00021273479612580107
-0.003247092594416374   -0.012203178605845001   0.00015114892904131215
0.003128501855665635   -0.012269080966072895   0.00033440638213983023
0.0034302749842123736   -0.012427412867316323   0.00016059465567666876
0.004744562140393897   -0.02460341192025511   0.00021273479612580107
-0.003247092594416374   -0.012203178605845001   0.00015114892904131215
0.0034302749842123736   -0.012427412867316323   0.00016059465567666876
-0.0021607062892647086   -0.02463595540884798   -6.375213353616938e-05
0.004744562140393897   -0.02460341192025511   0.00021273479612580107
0.003128501855665635   -0.012269080966072895   0.00033440638213983023
-0.0022581235305767335   -0.02451225483878807   -1.3174129062932928e-05
0.004573252295021175   -0.024455207668144494   0.00030322748557584287
0.003128501855665635   -0.012269080966072895   0.00033440638213983023
-0.003247092594416374   -0.012203178605845001   0.00015114892904131215
-0.0022581235305767335   -0.02451225483878807   -1.3174129062932928e-05
-0.0033742560335500676   -0.01209194387393616   0.00023633140995740862
0.004573252295021175   -0.024455207668144494   0.00030322748557584287
-0.0023720565264644575   -0.02438166436841017   4.6380095784471575e-05
-0.0033742560335500676   -0.01209194387393616   0.00023633140995740862
-0.0022581235305767335   -0.02451225483878807   -1.3174129062932928e-05
0.004573252295021175   -0.024455207668144494   0.00030322748557584287
-0.0033742560335500676   -0.01209194387393616   0.00023633140995740862
0.0029517404339062447   -0.012139394354913227   0.000464177665958438
0.003128501855665635   -0.012269080966072895   0.00033440638213983023
0.004573252295021175   -0.024455207668144494   0.00030322748557584287
-0.0033742560335500676   -0.01209194387393616   0.00023633140995740862
0.003128501855665635   -0.012269080966072895   0.00033440638213983023
-0.0022581235305767335   -0.02451225483878807   -1.3174129062932928e-05
0.004573252295021175   -0.024455207668144494   0.00030322748557584287
0.0029517404339062447   -0.012139394354913227   0.000464177665958438
-0.0023720565264644575   -0.02438166436841017   4.6380095784471575e-05
0.00436394760544501   -0.024273180955530632   0.0004027810687640113
0.0029517404339062447   -0.012139394354913227   0.000464177665958438
-0.0033742560335500676   -0.01209194387393616   0.00023633140995740862
-0.0023720565264644575   -0.02438166436841017   4.6380095784471575e-05
-0.0034811181659830702   -0.011972274296486726   0.0003113232622315999
0.00436394760544501   -0.024273180955530632   0.0004027810687640113
-0.0024898734173005054   -0.02424297327322229   0.00011478622662263415
-0.0034811181659830702   -0.011972274296486726   0.0003113232622315999
-0.0023720565264644575   -0.02438166436841017   4.6380095784471575e-05
0.00436394760544501   -0.024273180955530632   0.0004027810687640113
-0.0034811181659830702   -0.011972274296486726   0.0003113232622315999
0.0027252938819558236   -0.011941350591788299   0.000612741758612422
0.0029517404339062447   -0.012139394354913227   0.000464177665958438
0.00436394760544501   -0.024273180955530632   0.0004027810687640113
-0.0034811181659830702   -0.011972274296486726   0.0003113232622315999
0.0029517404339062447   -0.012139394354913227   0.000464177665958438
-0.0023720565264644575   -0.02438166436841017   4.6380095784471575e-05
-0.0021607062892647086   -0.02463595540884798   -6.375213353616938e-05
-0.0031502508767062183   -0.01226584846360998   8.097230997645124e-05
-0.008808312022102895   -0.024605789114825777   -0.0002695363205748818
-0.0022581235305767335   -0.02451225483878807   -1.3174129062932928e-05
-0.0031502508767062183   -0.01226584846360998   8.097230997645124e-05
-0.009414791243095737   -0.01244683771108554   -8.300301161469066e-05
-0.008808312022102895   -0.024605789114825777   -0.0002695363205748818
-0.009503862912318084   -0.012351267197597169   -3.333404199881683e-05
-0.0022581235305767335   -0.02451225483878807   -1.3174129062932928e-05
-0.008896318029862006   -0.024497752519666904   -0.00022254436759720162
-0.009503862912318084   -0.012351267197597169   -3.333404199881683e-05
-0.008808312022102895   -0.024605789114825777   -0.0002695363205748818
-0.0022581235305767335   -0.02451225483878807   -1.3174129062932928e-05
-0.009503862912318084   -0.012351267197597169   -3.333404199881683e-05
-0.003247092594416374   -0.012203178605845001   0.00015114892904131215
-0.0031502508767062183   -0.01226584846360998   8.097230997645124e-05
-0.0022581235305767335   -0.02451225483878807   -1.3174129062932928e-05
-0.009503862912318084   -0.012351267197597169   -3.333404199881683e-05
-0.0031502508767062183   -0.01226584846360998   8.097230997645124e-05
-0.008808312022102895   -0.024605789114825777   -0.0002695363205748818
-0.0022581235305767335   -0.02451225483878807   -1.3174129062932928e-05
-0.003247092594416374   -0.012203178605845001   0.00015114892904131215
-0.008896318029862006   -0.024497752519666904   -0.00022254436759720162
-0.0023720565264644575   -0.02438166436841017   4.6380095784471575e-05
-0.003247092594416374   -0.012203178605845001   0.00015114892904131215
-0.009503862912318084   -0.012351267197597169   -3.333404199881683e-05
-0.008896318029862006   -0.024497752519666904   -0.00022254436759720162
-0.00959704308935042   -0.012243427625226419   1.9204476077509088e-05
-0.0023720565264644575   -0.02438166436841017   4.6380095784471575e-05
-0.008987342737901204   -0.024385360407777622   -0.0001709033467011873
-0.00959704308935042   -0.012243427625226419   1.9204476077509088e-05
-0.008896318029862006   -0.024497752519666904   -0.00022254436759720162
-0.0023720565264644575   -0.02438166436841017   4.6380095784471575e-05
-0.00959704308935042   -0.012243427625226419   1.9204476077509088e-05
-0.0033742560335500676   -0.01209194387393616   0.00023633140995740862
-0.003247092594416374   -0.012203178605845001   0.00015114892904131215
-0.0023720565264644575   -0.02438166436841017   4.6380095784471575e-05
-0.00959704308935042   -0.012243427625226419   1.9204476077509088e-05
-0.003247092594416374   -0.012203178605845001   0.00015114892904131215
-0.008896318029862006   -0.024497752519666904   -0.00022254436759720162
-0.0023720565264644575   -0.02438166436841017   4.6380095784471575e-05
-0.0033742560335500676   -0.01209194387393616   0.00023633140995740862
-0.008987342737901204   -0.024385360407777622   -0.0001709033467011873
-0.0024898734173005054   -0.02424297327322229   0.00011478622662263415
-0.0033742560335500676   -0.01209194387393616   0.00023633140995740862
-0.00959704308935042   -0.012243427625226419   1.9204476077509088e-05
-0.008987342737901204   -0.024385360407777622   -0.0001709033467011873
-0.009685565417562679   -0.01212523632060637   7.713022610573514e-05
-0.0024898734173005054   -0.02424297327322229   0.00011478622662263415
-0.009082093563897563   -0.024270604935872485   -0.00011368114174954897
-0.009685565417562679   -0.01212523632060637   7.713022610573514e-05
-0.008987342737901204   -0.024385360407777622   -0.0001709033467011873
-0.0024898734173005054   -0.02424297327322229   0.00011478622662263415
-0.009685565417562679   -0.01212523632060637   7.713022610573514e-05
-0.0034811181659830702   -0.011972274296486726   0.0003113232622315999
-0.0033742560335500676   -0.01209194387393616   0.00023633140995740862
-0.0024898734173005054   -0.02424297327322229   0.00011478622662263415
-0.009685565417562679   -0.01212523632060637   7.713022610573514e-05
-0.0033742560335500676   -0.01209194387393616   0.00023633140995740862
-0.008987342737901204   -0.024385360407777622   -0.0001709033467011873
-0.008808312022102895   -0.024605789114825777   -0.0002695363205748818
-0.009414791243095737   -0.01244683771108554   -8.300301161469066e-05
-0.01538806529876438   -0.024597417669924525   -0.0004556020334862002
-0.008896318029862006   -0.024497752519666904   -0.00022254436759720162
-0.009414791243095737   -0.01244683771108554   -8.300301161469066e-05
-0.01583358285443464   -0.012588213600111559   -0.0002645677884545638
-0.01538806529876438   -0.024597417669924525   -0.0004556020334862002
-0.01591353864166263   -0.012490114310475175   -0.00022611442740506403
-0.008896318029862006   -0.024497752519666904   -0.00022254436759720162
-0.015472173416744438   -0.02450263411430993   -0.0004108301059252823
-0.01591353864166263   -0.012490114310475175   -0.00022611442740506403
-0.01538806529876438   -0.024597417669924525   -0.0004556020334862002
-0.008896318029862006   -0.024497752519666904   -0.00022254436759720162
-0.01591353864166263   -0.012490114310475175   -0.00022611442740506403
-0.009503862912318084   -0.012351267197597169   -3.333404199881683e-05
-0.009414791243095737   -0.01244683771108554   -8.300301161469066e-05
-0.008896318029862006   -0.024497752519666904   -0.00022254436759720162
-0.01591353864166263   -0.012490114310475175   -0.00022611442740506403
-0.009414791243095737   -0.01244683771108554   -8.300301161469066e-05
-0.01538806529876438   -0.024597417669924525   -0.0004556020334862002
-0.008896318029862006   -0.024497752519666904   -0.00022254436759720162
-0.009503862912318084   -0.012351267197597169   -3.333404199881683e-05
-0.015472173416744438   -0.02450263411430993   -0.0004108301059252823
-0.008987342737901204   -0.024385360407777622   -0.0001709033467011873
-0.009503862912318084   -0.012351267197597169   -3.333404199881683e-05
-0.01591353864166263   -0.012490114310475175   -0.00022611442740506403
-0.015472173416744438   -0.02450263411430993   -0.0004108301059252823
-0.01599003938142836   -0.012386535493091842   -0.0001878060738710039
-0.008987342737901204   -0.024385360407777622   -0.0001709033467011873
-0.015552293813860928   -0.02440611373416841   -0.00036199515372754577
-0.01599003938142836   -0.012386535493091842   -0.0001878060738710039
-0.015472173416744438   -0.02450263411430993   -0.0004108301059252823
-0.008987342737901204   -0.024385360407777622   -0.0001709033467011873
-0.01599003938142836   -0.012386535493091842   -0.0001878060738710039
-0.00959704308935042   -0.012243427625226419   1.9204476077509088e-05
-0.009503862912318084   -0.012351267197597169   -3.333404199881683e-05
-0.008987342737901204   -0.024385360407777622   -0.0001709033467011873
-0.01599003938142836   -0.012386535493091842   -0.0001878060738710039
-0.009503862912318084   -0.012351267197597169   -3.333404199881683e-05
-0.015472173416744438   -0.02450263411430993   -0.0004108301059252823
-0.008987342737901204   -0.024385360407777622   -0.0001709033467011873
-0.00959704308935042   -0.012243427625226419   1.9204476077509088e-05
-0.015552293813860928   -0.02440611373416841   -0.00036199515372754577
-0.009082093563897563   -0.024270604935872485   -0.00011368114174954897
-0.00959704308935042   -0.012243427625226419   1.9204476077509088e-05
-0.01599003938142836   -0.012386535493091842   -0.0001878060738710039
-0.015552293813860928   -0.02440611373416841   -0.00036199515372754577
-0.01606052811370049   -0.012274414753730433   -0.00014612103793503207
-0.009082093563897563   -0.024270604935872485   -0.00011368114174954897
-0.015631606776608385   -0.024307309487137704   -0.0003093296133097441
-0.01606052811370049   -0.012274414753730433   -0.00014612103793503207
-0.015552293813860928   -0.02440611373416841   -0.00036199515372754577
-0.009082093563897563   -0.024270604935872485   -0.00011368114174954897
-0.01606052811370049   -0.012274414753730433   -0.00014612103793503207
-0.009685565417562679   -0.01212523632060637   7.713022610573514e-05
-0.00959704308935042   -0.012243427625226419   1.9204476077509088e-05
-0.009082093563897563   -0.024270604935872485   -0.00011368114174954897
-0.01606052811370049   -0.012274414753730433   -0.00014612103793503207
-0.00959704308935042   -0.012243427625226419   1.9204476077509088e-05
-0.015552293813860928   -0.02440611373416841   -0.00036199515372754577
-0.01538806529876438   -0.024597417669924525   -0.0004556020334862002
-0.01583358285443464   -0.012588213600111559   -0.0002645677884545638
-0.022107157153146408   -0.024559272023881928   -0.0006120070447164921
-0.015472173416744438   -0.02450263411430993   -0.0004108301059252823
-0.01583358285443464   -0.012588213600111559   -0.0002645677884545638
-0.022477821411333285   -0.01264618456212081   -0.00043222790238022407
-0.022107157153146408   -0.024559272023881928   -0.0006120070447164921
-0.022549845272269605   -0.012558012615114583   -0.0004042276011684256
-0.015472173416744438   -0.02450263411430993   -0.0004108301059252823
-0.02218734016586917   -0.02448194164643922   -0.0005696738061742919
-0.022549845272269605   -0.012558012615114583   -0.0004042276011684256
-0.022107157153146408   -0.024559272023881928   -0.0006120070447164921
-0.015472173416744438   -0.02450263411430993   -0.0004108301059252823
-0.022549845272269605   -0.012558012615114583   -0.0004042276011684256
-0.01591353864166263   -0.012490114310475175   -0.00022611442740506403
-0.01583358285443464   -0.012588213600111559   -0.0002645677884545638
-0.015472173416744438   -0.02450263411430993   -0.0004108301059252823
-0.022549845272269605   -0.012558012615114583   -0.0004042276011684256
-0.01583358285443464   -0.012588213600111559   -0.0002645677884545638
-0.022107157153146408   -0.024559272023881928   -0.0006120070447164921
-0.015472173416744438   -0.02450263411430993   -0.0004108301059252823
-0.01591353864166263   -0.012490114310475175   -0.00022611442740506403
-0.02218734016586917   -0.02448194164643922   -0.0005696738061742919
-0.015552293813860928   -0.02440611373416841   -0.00036199515372754577
-0.01591353864166263   -0.012490114310475175   -0.00022611442740506403
-0.022549845272269605   -0.012558012615114583   -0.0004042276011684256
-0.02218734016586917   -0.02448194164643922   -0.0005696738061742919
-0.02261402433178466   -0.012462023262037306   -0.00037704453017583866
-0.015552293813860928   -0.02440611373416841   -0.00036199515372754577
-0.022255308785560944   -0.02440036174093672   -0.0005244619752970245
-0.02261402433178466   -0.012462023262037306   -0.00037704453017583866
-0.02218734016586917   -0.02448194164643922   -0.0005696738061742919
-0.015552293813860928   -0.02440611373416841   -0.00036199515372754577
-0.02261402433178466   -0.012462023262037306   -0.00037704453017583866
-0.01599003938142836   -0.012386535493091842   -0.0001878060738710039
-0.01591353864166263   -0.012490114310475175   -0.00022611442740506403
-0.015552293813860928   -0.02440611373416841   -0.00036199515372754577
-0.02261402433178466   -0.012462023262037306   -0.00037704453017583866
-0.01591353864166263   -0.012490114310475175   -0.00022611442740506403
-0.02218734016586917   -0.02448194164643922   -0.0005696738061742919
-0.015552293813860928   -0.02440611373416841   -0.00036199515372754577
-0.01599003938142836   -0.012386535493091842   -0.0001878060738710039
-0.022255308785560944   -0.02440036174093672   -0.0005244619752970245
-0.015631606776608385   -0.024307309487137704   -0.0003093296133097441
-0.01599003938142836   -0.012386535493091842   -0.0001878060738710039
-0.02261402433178466   -0.012462023262037306   -0.00037704453017583866
-0.022255308785560944   -0.02440036174093672   -0.0005244619752970245
-0.022672132156333437   -0.012359865690768078   -0.0003490765171022925
-0.015631606776608385   -0.024307309487137704   -0.0003093296133097441
-0.022319550800263342   -0.024316615599712463   -0.00047511142869036897
-0.022672132156333437   -0.012359865690768078   -0.0003490765171022925
-0.022255308785560944   -0.02440036174093672   -0.0005244619752970245
-0.015631606776608385   -0.024307309487137704   -0.0003093296133097441
-0.022672132156333437   -0.012359865690768078   -0.0003490765171022925
-0.01606052811370049   -0.012274414753730433   -0.00014612103793503207
-0.01599003938142836   -0.012386535493091842   -0.0001878060738710039
-0.015631606776608385   -0.024307309487137704   -0.0003093296133097441
-0.022672132156333437   -0.012359865690768078   -0.0003490765171022925
-0.01599003938142836   -0.012386535493091842   -0.0001878060738710039
-0.022255308785560944   -0.02440036174093672   -0.0005244619752970245
-0.022107157153146408   -0.024559272023881928   -0.0006120070447164921
-0.022477821411333285   -0.01264618456212081   -0.00043222790238022407
-0.029144777453773935   -0.024496513489848607   -0.0007279089768750935
-0.02218734016586917   -0.02448194164643922   -0.0005696738061742919
-0.022477821411333285   -0.01264618456212081   -0.00043222790238022407
-0.029357933775553388   -0.012652738094647389   -0.0005715657514215547
-0.029144777453773935   -0.024496513489848607   -0.0007279089768750935
-0.029419878428548804   -0.012567122030071171   -0.0005596063296924844
-0.02218734016586917   -0.02448194164643922   -0.0005696738061742919
-0.02919477021913304   -0.02443152045872178   -0.0006962514018763593
-0.029419878428548804   -0.012567122030071171   -0.0005596063296924844
-0.029144777453773935   -0.024496513489848607   -0.0007279089768750935
-0.02218734016586917   -0.02448194164643922   -0.0005696738061742919
-0.029419878428548804   -0.012567122030071171   -0.0005596063296924844
-0.022549845272269605   -0.012558012615114583   -0.0004042276011684256
-0.022477821411333285   -0.01264618456212081   -0.00043222790238022407
-0.02218734016586917   -0.02448194164643922   -0.0005696738061742919
-0.029419878428548804   -0.012567122030071171   -0.0005596063296924844
-0.022477821411333285   -0.01264618456212081   -0.00043222790238022407
-0.029144777453773935   -0.024496513489848607   -0.0007279089768750935
-0.02218734016586917   -0.02448194164643922   -0.0005696738061742919
-0.022549845272269605   -0.012558012615114583   -0.0004042276011684256
-0.02919477021913304   -0.02443152045872178   -0.0006962514018763593
-0.022255308785560944   -0.02440036174093672   -0.0005244619752970245
-0.022549845272269605   -0.012558012615114583   -0.0004042276011684256
-0.029419878428548804   -0.012567122030071171   -0.0005596063296924844
-0.02919477021913304   -0.02443152045872178   -0.0006962514018763593
-0.029475375334971774   -0.012474601916493645   -0.0005456305762568649
-0.022255308785560944   -0.02440036174093672   -0.0005244619752970245
-0.02924048273780337   -0.02435801122926537   -0.000657518531110482
-0.029475375334971774   -0.012474601916493645   -0.0005456305762568649
-0.02919477021913304   -0.02443152045872178   -0.0006962514018763593
-0.022255308785560944   -0.02440036174093672   -0.0005244619752970245
-0.029475375334971774   -0.012474601916493645   -0.0005456305762568649
-0.02261402433178466   -0.012462023262037306   -0.00037704453017583866
-0.022549845272269605   -0.012558012615114583   -0.0004042276011684256
-0.022255308785560944   -0.02440036174093672   -0.0005244619752970245
-0.029475375334971774   -0.012474601916493645   -0.0005456305762568649
-0.022549845272269605   -0.012558012615114583   -0.0004042276011684256
-0.02919477021913304   -0.02443152045872178   -0.0006962514018763593
-0.022255308785560944   -0.02440036174093672   -0.0005244619752970245
-0.02261402433178466   -0.012462023262037306   -0.00037704453017583866
-0.02924048273780337   -0.02435801122926537   -0.000657518531110482
-0.022319550800263342   -0.024316615599712463   -0.00047511142869036897
-0.02261402433178466   -0.012462023262037306   -0.00037704453017583866
-0.029475375334971774   -0.012474601916493645   -0.0005456305762568649
-0.02924048273780337   -0.02435801122926537   -0.000657518531110482
-0.029522123394272175   -0.01237662285172048   -0.0005326718279537064
-0.022319550800263342   -0.024316615599712463   -0.00047511142869036897
-0.029262814944486026   -0.024290455956461097   -0.000613486670653837
-0.029522123394272175   -0.01237662285172048   -0.0005326718279537064
-0.02924048273780337   -0.02435801122926537   -0.000657518531110482
-0.022319550800263342   -0.024316615599712463   -0.00047511142869036897
-0.029522123394272175   -0.01237662285172048   -0.0005326718279537064
-0.022672132156333437   -0.012359865690768078   -0.0003490765171022925
-0.02261402433178466   -0.012462023262037306   -0.00037704453017583866
-0.022319550800263342   -0.024316615599712463   -0.00047511142869036897
-0.029522123394272175   -0.01237662285172048   -0.0005326718279537064
-0.02261402433178466   -0.012462023262037306   -0.00037704453017583866
-0.02924048273780337   -0.02435801122926537   -0.000657518531110482
0.0034302749842123736   -0.012427412867316323   0.00016059465567666876
0.0   0.0   0.0
-0.0031502508767062183   -0.01226584846360998   8.097230997645124e-05
0.003128501855665635   -0.012269080966072895   0.00033440638213983023
0.0   0.0   0.0
-0.003957835084171442   -0.0009982967393540345   -3.457998159671369e-05
-0.0031502508767062183   -0.01226584846360998   8.097230997645124e-05
-0.004194194405138019   -0.0007748029567302666   0.00010122761592229632
0.003128501855665635   -0.012269080966072895   0.00033440638213983023
-0.003247092594416374   -0.012203178605845001   0.00015114892904131215
-0.004194194405138019   -0.0007748029567302666   0.00010122761592229632
-0.0031502508767062183   -0.01226584846360998   8.097230997645124e-05
0.003128501855665635   -0.012269080966072895   0.00033440638213983023
-0.004194194405138019   -0.0007748029567302666   0.00010122761592229632
0.0   0.0   0.0
0.0   0.0   0.0
0.003128501855665635   -0.012269080966072895   0.00033440638213983023
-0.004194194405138019   -0.0007748029567302666   0.00010122761592229632
0.0   0.0   0.0
-0.0031502508767062183   -0.01226584846360998   8.097230997645124e-05
0.003128501855665635   -0.012269080966072895   0.00033440638213983023
0.0   0.0   0.0
-0.003247092594416374   -0.012203178605845001   0.00015114892904131215
0.0029517404339062447   -0.012139394354913227   0.000464177665958438
0.0   0.0   0.0
-0.004194194405138019   -0.0007748029567302666   0.00010122761592229632
-0.003247092594416374   -0.012203178605845001   0.00015114892904131215
-0.004342375893808142   -0.0006669615450604123   0.00017944975794057492
0.0029517404339062447   -0.012139394354913227   0.000464177665958438
-0.0033742560335500676   -0.01209194387393616   0.00023633140995740862
-0.004342375893808142   -0.0006669615450604123   0.00017944975794057492
-0.003247092594416374   -0.012203178605845001   0.00015114892904131215
0.0029517404339062447   -0.012139394354913227   0.000464177665958438
-0.004342375893808142   -0.0006669615450604123   0.00017944975794057492
0.0   0.0   0.0
0.0   0.0   0.0
0.0029517404339062447   -0.012139394354913227   0.000464177665958438
-0.004342375893808142   -0.0006669615450604123   0.00017944975794057492
0.0   0.0   0.0
-0.003247092594416374   -0.012203178605845001   0.00015114892904131215
0.0029517404339062447   -0.012139394354913227   0.000464177665958438
0.0   0.0   0.0
-0.0033742560335500676   -0.01209194387393616   0.00023633140995740862
0.0027252938819558236   -0.011941350591788299   0.000612741758612422
0.0   0.0   0.0
-0.004342375893808142   -0.0006669615450604123   0.00017944975794057492
-0.0033742560335500676   -0.01209194387393616   0.00023633140995740862
-0.004540774045846614   -0.0005238448931221395   0.00026920253066882487
0.0027252938819558236   -0.011941350591788299   0.000612741758612422
-0.0034811181659830702   -0.011972274296486726   0.0003113232622315999
-0.004540774045846614   -0.0005238448931221395   0.00026920253066882487
-0.0033742560335500676   -0.01209194387393616   0.00023633140995740862
0.0027252938819558236   -0.011941350591788299   0.000612741758612422
-0.004540774045846614   -0.0005238448931221395   0.00026920253066882487
0.0   0.0   0.0
0.0   0.0   0.0
0.0027252938819558236   -0.011941350591788299   0.000612741758612422
-0.004540774045846614   -0.0005238448931221395   0.00026920253066882487
0.0   0.0   0.0
-0.0033742560335500676   -0.01209194387393616   0.00023633140995740862
-0.0031502508767062183   -0.01226584846360998   8.097230997645124e-05
-0.003957835084171442   -0.0009982967393540345   -3.457998159671369e-05
-0.009414791243095737   -0.01244683771108554   -8.300301161469066e-05
-0.003247092594416374   -0.012203178605845001   0.00015114892904131215
-0.003957835084171442   -0.0009982967393540345   -3.457998159671369e-05
-0.009696446471823043   -0.0013057138072207284   -3.4439067378184704e-05
-0.009414791243095737   -0.01244683771108554   -8.300301161469066e-05
-0.009818032838430902   -0.0011832430521338494   1.1821907614587777e-07
-0.003247092594416374   -0.012203178605845001   0.00015114892904131215
-0.009503862912318084   -0.012351267197597169   -3.333404199881683e-05
-0.009818032838430902   -0.0011832430521338494   1.1821907614587777e-07
-0.009414791243095737   -0.01244683771108554   -8.300301161469066e-05
-0.003247092594416374   -0.012203178605845001   0.00015114892904131215
-0.009818032838430902   -0.0011832430521338494   1.1821907614587777e-07
-0.004194194405138019   -0.0007748029567302666   0.00010122761592229632
-0.003957835084171442   -0.0009982967393540345   -3.457998159671369e-05
-0.003247092594416374   -0.012203178605845001   0.00015114892904131215
-0.009818032838430902   -0.0011832430521338494   1.1821907614587777e-07
-0.003957835084171442   -0.0009982967393540345   -3.457998159671369e-05
-0.009414791243095737   -0.01244683771108554   -8.300301161469066e-05
-0.003247092594416374   -0.012203178605845001   0.00015114892904131215
-0.004194194405138019   -0.0007748029567302666   0.00010122761592229632
-0.009503862912318084   -0.012351267197597169   -3.333404199881683e-05
-0.0033742560335500676   -0.01209194387393616   0.00023633140995740862
-0.004194194405138019   -0.0007748029567302666   0.00010122761592229632
-0.009818032838430902   -0.0011832430521338494   1.1821907614587777e-07
-0.009503862912318084   -0.012351267197597169   -3.333404199881683e-05
-0.009939034086905442   -0.0010400340795153407   6.221357359336331e-05
-0.0033742560335500676   -0.01209194387393616   0.00023633140995740862
-0.00959704308935042   -0.012243427625226419   1.9204476077509088e-05
-0.009939034086905442   -0.0010400340795153407   6.221357359336331e-05
-0.009503862912318084   -0.012351267197597169   -3.333404199881683e-05
-0.0033742560335500676   -0.01209194387393616   0.00023633140995740862
-0.009939034086905442   -0.0010400340795153407   6.221357359336331e-05
-0.004342375893808142   -0.0006669615450604123   0.00017944975794057492
-0.004194194405138019   -0.0007748029567302666   0.00010122761592229632
-0.0033742560335500676   -0.01209194387393616   0.00023633140995740862
-0.009939034086905442   -0.0010400340795153407   6.221357359336331e-05
-0.004194194405138019   -0.0007748029567302666   0.00010122761592229632
-0.009503862912318084   -0.012351267197597169   -3.333404199881683e-05
-0.0033742560335500676   -0.01209194387393616   0.00023633140995740862
-0.004342375893808142   -0.0006669615450604123   0.00017944975794057492
-0.00959704308935042   -0.012243427625226419   1.9204476077509088e-05
-0.0034811181659830702   -0.011972274296486726   0.0003113232622315999
-0.004342375893808142   -0.0006669615450604123   0.00017944975794057492
-0.009939034086905442   -0.0010400340795153407   6.221357359336331e-05
-0.00959704308935042   -0.012243427625226419   1.9204476077509088e-05
-0.010072733883732353   -0.0008746604234968064   0.00012154829073888605
-0.0034811181659830702   -0.011972274296486726   0.0003113232622315999
-0.009685565417562679   -0.01212523632060637   7.713022610573514e-05
-0.010072733883732353   -0.0008746604234968064   0.00012154829073888605
-0.00959704308935042   -0.012243427625226419   1.9204476077509088e-05
-0.0034811181659830702   -0.011972274296486726   0.0003113232622315999
-0.010072733883732353   -0.0008746604234968064   0.00012154829073888605
-0.004540774045846614   -0.0005238448931221395   0.00026920253066882487
-0.004342375893808142   -0.0006669615450604123   0.00017944975794057492
-0.0034811181659830702   -0.011972274296486726   0.0003113232622315999
-0.010072733883732353   -0.0008746604234968064   0.00012154829073888605
-0.004342375893808142   -0.0006669615450604123   0.00017944975794057492
-0.00959704308935042   -0.012243427625226419   1.9204476077509088e-05
-0.009414791243095737   -0.01244683771108554   -8.300301161469066e-05
-0.009696446471823043   -0.0013057138072207284   -3.4439067378184704e-05
-0.01583358285443464   -0.012588213600111559   -0.0002645677884545638
-0.009503862912318084   -0.012351267197597169   -3.333404199881683e-05
-0.009696446471823043   -0.0013057138072207284   -3.4439067378184704e-05
-0.01599051484575568   -0.0013904396247625367   -0.00015006726978289097
-0.01583358285443464   -0.012588213600111559   -0.0002645677884545638
-0.01606414097891611   -0.0012945269109893615   -0.00014064896057361558
-0.009503862912318084   -0.012351267197597169   -3.333404199881683e-05
-0.01591353864166263   -0.012490114310475175   -0.00022611442740506403
-0.01606414097891611   -0.0012945269109893615   -0.00014064896057361558
-0.01583358285443464   -0.012588213600111559   -0.0002645677884545638
-0.009503862912318084   -0.012351267197597169   -3.333404199881683e-05
-0.01606414097891611   -0.0012945269109893615   -0.00014064896057361558
-0.009818032838430902   -0.0011832430521338494   1.1821907614587777e-07
-0.009696446471823043   -0.0013057138072207284   -3.4439067378184704e-05
-0.009503862912318084   -0.012351267197597169   -3.333404199881683e-05
-0.01606414097891611   -0.0012945269109893615   -0.00014064896057361558
-0.009696446471823043   -0.0013057138072207284   -3.4439067378184704e-05
-0.01583358285443464   -0.012588213600111559   -0.0002645677884545638
-0.009503862912318084   -0.012351267197597169   -3.333404199881683e-05
-0.009818032838430902   -0.0011832430521338494   1.1821907614587777e-07
-0.01591353864166263   -0.012490114310475175   -0.00022611442740506403
-0.00959704308935042   -0.012243427625226419   1.9204476077509088e-05
-0.009818032838430902   -0.0011832430521338494   1.1821907614587777e-07
-0.01606414097891611   -0.0012945269109893615   -0.00014064896057361558
-0.01591353864166263   -0.012490114310475175   -0.00022611442740506403
-0.016140672005288986   -0.0011834108938203506   -0.00012403186991251125
-0.00959704308935042   -0.012243427625226419   1.9204476077509088e-05
-0.01599003938142836   -0.012386535493091842   -0.0001878060738710039
-0.016140672005288986   -0.0011834108938203506   -0.00012403186991251125
-0.01591353864166263   -0.012490114310475175   -0.00022611442740506403
-0.00959704308935042   -0.012243427625226419   1.9204476077509088e-05
-0.016140672005288986   -0.0011834108938203506   -0.00012403186991251125
-0.009939034086905442   -0.0010400340795153407   6.221357359336331e-05
-0.009818032838430902   -0.0011832430521338494   1.1821907614587777e-07
-0.00959704308935042   -0.012243427625226419   1.9204476077509088e-05
-0.016140672005288986   -0.0011834108938203506   -0.00012403186991251125
-0.009818032838430902   -0.0011832430521338494   1.1821907614587777e-07
-0.01591353864166263   -0.012490114310475175   -0.00022611442740506403
-0.00959704308935042   -0.012243427625226419   1.9204476077509088e-05
-0.009939034086905442   -0.0010400340795153407   6.221357359336331e-05
-0.01599003938142836   -0.012386535493091842   -0.0001878060738710039
-0.009685565417562679   -0.01212523632060637   7.713022610573514e-05
-0.009939034086905442   -0.0010400340795153407   6.221357359336331e-05
-0.016140672005288986   -0.0011834108938203506   -0.00012403186991251125
-0.01599003938142836   -0.012386535493091842   -0.0001878060738710039
-0.016213047135454198   -0.0010485576053722993   -0.00010204630215036846
-0.009685565417562679   -0.01212523632060637   7.713022610573514e-05
-0.01606052811370049   -0.012274414753730433   -0.00014612103793503207
-0.016213047135454198   -0.0010485576053722993   -0.00010204630215036846
-0.01599003938142836   -0.012386535493091842   -0.0001878060738710039
-0.009685565417562679   -0.01212523632060637   7.713022610573514e-05
-0.016213047135454198   -0.0010485576053722993   -0.00010204630215036846
-0.010072733883732353   -0.0008746604234968064   0.00012154829073888605
-0.009939034086905442   -0.0010400340795153407   6.221357359336331e-05
-0.009685565417562679   -0.01212523632060637   7.713022610573514e-05
-0.016213047135454198   -0.0010485576053722993   -0.00010204630215036846
-0.009939034086905442   -0.0010400340795153407   6.221357359336331e-05
-0.01599003938142836   -0.012386535493091842   -0.0001878060738710039
-0.01583358285443464   -0.012588213600111559   -0.0002645677884545638
-0.01599051484575568   -0.0013904396247625367   -0.00015006726978289097
-0.022477821411333285   -0.01264618456212081   -0.00043222790238022407
-0.01591353864166263   -0.012490114310475175   -0.00022611442740506403
-0.01599051484575568   -0.0013904396247625367   -0.00015006726978289097
-0.022593929138400585   -0.0013745348122042509   -0.000315316822675491
-0.022477821411333285   -0.01264618456212081   -0.00043222790238022407
-0.022643619816937615   -0.0012880393826557425   -0.0003113077866236055
-0.01591353864166263   -0.012490114310475175   -0.00022611442740506403
-0.022549845272269605   -0.012558012615114583   -0.0004042276011684256
-0.022643619816937615   -0.0012880393826557425   -0.0003113077866236055
-0.022477821411333285   -0.01264618456212081   -0.00043222790238022407
-0.01591353864166263   -0.012490114310475175   -0.00022611442740506403
-0.022643619816937615   -0.0012880393826557425   -0.0003113077866236055
-0.01606414097891611   -0.0012945269109893615   -0.00014064896057361558
-0.01599051484575568   -0.0013904396247625367   -0.00015006726978289097
-0.01591353864166263   -0.012490114310475175   -0.00022611442740506403
-0.022643619816937615   -0.0012880393826557425   -0.0003113077866236055
-0.01599051484575568   -0.0013904396247625367   -0.00015006726978289097
-0.022477821411333285   -0.01264618456212081   -0.00043222790238022407
-0.01591353864166263   -0.012490114310475175   -0.00022611442740506403
-0.01606414097891611   -0.0012945269109893615   -0.00014064896057361558
-0.022549845272269605   -0.012558012615114583   -0.0004042276011684256
-0.01599003938142836   -0.012386535493091842   -0.0001878060738710039
-0.01606414097891611   -0.0012945269109893615   -0.00014064896057361558
-0.022643619816937615   -0.0012880393826557425   -0.0003113077866236055
-0.022549845272269605   -0.012558012615114583   -0.0004042276011684256
-0.022695470561891064   -0.0011919630434506002   -0.0003086488944169454
-0.01599003938142836   -0.012386535493091842   -0.0001878060738710039
-0.02261402433178466   -0.012462023262037306   -0.00037704453017583866
-0.022695470561891064   -0.0011919630434506002   -0.0003086488944169454
-0.022549845272269605   -0.012558012615114583   -0.0004042276011684256
-0.01599003938142836   -0.012386535493091842   -0.0001878060738710039
-0.022695470561891064   -0.0011919630434506002   -0.0003086488944169454
-0.016140672005288986   -0.0011834108938203506   -0.00012403186991251125
-0.01606414097891611   -0.0012945269109893615   -0.00014064896057361558
-0.01599003938142836   -0.012386535493091842   -0.0001878060738710039
-0.022695470561891064   -0.0011919630434506002   -0.0003086488944169454
-0.01606414097891611   -0.0012945269109893615   -0.00014064896057361558
-0.022549845272269605   -0.012558012615114583   -0.0004042276011684256
-0.01599003938142836   -0.012386535493091842   -0.0001878060738710039
-0.016140672005288986   -0.0011834108938203506   -0.00012403186991251125
-0.02261402433178466   -0.012462023262037306   -0.00037704453017583866
-0.01606052811370049   -0.012274414753730433   -0.00014612103793503207
-0.016140672005288986   -0.0011834108938203506   -0.00012403186991251125
-0.022695470561891064   -0.0011919630434506002   -0.0003086488944169454
-0.02261402433178466   -0.012462023262037306   -0.00037704453017583866
-0.022734657620177328   -0.0010881381623982958   -0.0003075731434873398
-0.01606052811370049   -0.012274414753730433   -0.00014612103793503207
-0.022672132156333437   -0.012359865690768078   -0.0003490765171022925
-0.022734657620177328   -0.0010881381623982958   -0.0003075731434873398
-0.02261402433178466   -0.012462023262037306   -0.00037704453017583866
-0.01606052811370049   -0.012274414753730433   -0.00014612103793503207
-0.022734657620177328   -0.0010881381623982958   -0.0003075731434873398
-0.016213047135454198   -0.0010485576053722993   -0.00010204630215036846
-0.016140672005288986   -0.0011834108938203506   -0.00012403186991251125
-0.01606052811370049   -0.012274414753730433   -0.00014612103793503207
-0.022734657620177328   -0.0010881381623982958   -0.0003075731434873398
-0.016140672005288986   -0.0011834108938203506   -0.00012403186991251125
-0.02261402433178466   -0.012462023262037306   -0.00037704453017583866
-0.022477821411333285   -0.01264618456212081   -0.00043222790238022407
-0.022593929138400585   -0.0013745348122042509   -0.000315316822675491
-0.029357933775553388   -0.012652738094647389   -0.0005715657514215547
-0.022549845272269605   -0.012558012615114583   -0.0004042276011684256
-0.022593929138400585   -0.0013745348122042509   -0.000315316822675491
-0.02937907674268828   -0.0013644500775760958   -0.0004778990916279666
-0.029357933775553388   -0.012652738094647389   -0.0005715657514215547
-0.02941907401823511   -0.001270549135567177   -0.0004778894132272705
-0.022549845272269605   -0.012558012615114583   -0.0004042276011684256
-0.029419878428548804   -0.012567122030071171   -0.0005596063296924844
-0.02941907401823511   -0.001270549135567177   -0.0004778894132272705
-0.029357933775553388   -0.012652738094647389   -0.0005715657514215547
-0.022549845272269605   -0.012558012615114583   -0.0004042276011684256
-0.02941907401823511   -0.001270549135567177   -0.0004778894132272705
-0.022643619816937615   -0.0012880393826557425   -0.0003113077866236055
-0.022593929138400585   -0.0013745348122042509   -0.000315316822675491
-0.022549845272269605   -0.012558012615114583   -0.0004042276011684256
-0.02941907401823511   -0.001270549135567177   -0.0004778894132272705
-0.022593929138400585   -0.0013745348122042509   -0.000315316822675491
-0.029357933775553388   -0.012652738094647389   -0.0005715657514215547
-0.022549845272269605   -0.012558012615114583   -0.0004042276011684256
-0.022643619816937615   -0.0012880393826557425   -0.0003113077866236055
-0.029419878428548804   -0.012567122030071171   -0.0005596063296924844
-0.02261402433178466   -0.012462023262037306   -0.00037704453017583866
-0.022643619816937615   -0.0012880393826557425   -0.0003113077866236055
-0.02941907401823511   -0.001270549135567177   -0.0004778894132272705
-0.029419878428548804   -0.012567122030071171   -0.0005596063296924844
-0.02946299775196327   -0.0011768743514097887   -0.00048519972420645236
-0.02261402433178466   -0.012462023262037306   -0.00037704453017583866
-0.029475375334971774   -0.012474601916493645   -0.0005456305762568649
-0.02946299775196327   -0.0011768743514097887   -0.00048519972420645236
-0.029419878428548804   -0.012567122030071171   -0.0005596063296924844
-0.02261402433178466   -0.012462023262037306   -0.00037704453017583866
-0.02946299775196327   -0.0011768743514097887   -0.00048519972420645236
-0.022695470561891064   -0.0011919630434506002   -0.0003086488944169454
-0.022643619816937615   -0.0012880393826557425   -0.0003113077866236055
-0.02261402433178466   -0.012462023262037306   -0.00037704453017583866
-0.02946299775196327   -0.0011768743514097887   -0.00048519972420645236
-0.022643619816937615   -0.0012880393826557425   -0.0003113077866236055
-0.029419878428548804   -0.012567122030071171   -0.0005596063296924844
-0.02261402433178466   -0.012462023262037306   -0.00037704453017583866
-0.022695470561891064   -0.0011919630434506002   -0.0003086488944169454
-0.029475375334971774   -0.012474601916493645   -0.0005456305762568649
-0.022672132156333437   -0.012359865690768078   -0.0003490765171022925
-0.022695470561891064   -0.0011919630434506002   -0.0003086488944169454
-0.02946299775196327   -0.0011768743514097887   -0.00048519972420645236
-0.029475375334971774   -0.012474601916493645   -0.0005456305762568649
-0.029495293900632127   -0.0010749822871283096   -0.0004930037766490783
-0.022672132156333437   -0.012359865690768078   -0.0003490765171022925
-0.029522123394272175   -0.01237662285172048   -0.0005326718279537064
-0.029495293900632127   -0.0010749822871283096   -0.0004930037766490783
-0.029475375334971774   -0.012474601916493645   -0.0005456305762568649
-0.022672132156333437   -0.012359865690768078   -0.0003490765171022925
-0.029495293900632127   -0.0010749822871283096   -0.0004930037766490783
-0.022734657620177328   -0.0010881381623982958   -0.0003075731434873398
-0.022695470561891064   -0.0011919630434506002   -0.0003086488944169454
-0.022672132156333437   -0.012359865690768078   -0.0003490765171022925
-0.029495293900632127   -0.0010749822871283096   -0.0004930037766490783
-0.022695470561891064   -0.0011919630434506002   -0.0003086488944169454
-0.029475375334971774   -0.012474601916493645   -0.0005456305762568649
              </DataArray>   
          </PointData>  
       </Piece>  
   </UnstructuredGrid> 
</VTKFile> 
