<?xml version="1.0"?> 
<VTKFile type="UnstructuredGrid"> 
   <UnstructuredGrid> 
      <Piece NumberOfPoints="6000"  NumberOfCells="1500">  
          <Points>  
             <DataArray type="Float64" NumberOfComponents="3" format="ascii">   
-500.0   0.0   0.0
-450.0   0.0   0.0
-500.0   30.0   0.0
-500.0   0.0   16.666666666666668
-450.0   0.0   0.0
-450.0   30.0   0.0
-500.0   30.0   0.0
-450.0   30.0   16.666666666666668
-500.0   0.0   16.666666666666668
-500.0   30.0   16.666666666666668
-450.0   30.0   16.666666666666668
-500.0   30.0   0.0
-500.0   0.0   16.666666666666668
-450.0   30.0   16.666666666666668
-450.0   0.0   16.666666666666668
-450.0   0.0   0.0
-500.0   0.0   16.666666666666668
-450.0   30.0   16.666666666666668
-450.0   0.0   0.0
-500.0   30.0   0.0
-500.0   0.0   16.666666666666668
-450.0   0.0   16.666666666666668
-500.0   30.0   16.666666666666668
-500.0   0.0   33.333333333333336
-450.0   0.0   16.666666666666668
-450.0   30.0   16.666666666666668
-500.0   30.0   16.666666666666668
-450.0   30.0   33.333333333333336
-500.0   0.0   33.333333333333336
-500.0   30.0   33.333333333333336
-450.0   30.0   33.333333333333336
-500.0   30.0   16.666666666666668
-500.0   0.0   33.333333333333336
-450.0   30.0   33.333333333333336
-450.0   0.0   33.333333333333336
-450.0   0.0   16.666666666666668
-500.0   0.0   33.333333333333336
-450.0   30.0   33.333333333333336
-450.0   0.0   16.666666666666668
-500.0   30.0   16.666666666666668
-500.0   0.0   33.333333333333336
-450.0   0.0   33.333333333333336
-500.0   30.0   33.333333333333336
-500.0   0.0   50.0
-450.0   0.0   33.333333333333336
-450.0   30.0   33.333333333333336
-500.0   30.0   33.333333333333336
-450.0   30.0   50.0
-500.0   0.0   50.0
-500.0   30.0   50.0
-450.0   30.0   50.0
-500.0   30.0   33.333333333333336
-500.0   0.0   50.0
-450.0   30.0   50.0
-450.0   0.0   50.0
-450.0   0.0   33.333333333333336
-500.0   0.0   50.0
-450.0   30.0   50.0
-450.0   0.0   33.333333333333336
-500.0   30.0   33.333333333333336
-500.0   30.0   0.0
-450.0   30.0   0.0
-500.0   60.0   0.0
-500.0   30.0   16.666666666666668
-450.0   30.0   0.0
-450.0   60.0   0.0
-500.0   60.0   0.0
-450.0   60.0   16.666666666666668
-500.0   30.0   16.666666666666668
-500.0   60.0   16.666666666666668
-450.0   60.0   16.666666666666668
-500.0   60.0   0.0
-500.0   30.0   16.666666666666668
-450.0   60.0   16.666666666666668
-450.0   30.0   16.666666666666668
-450.0   30.0   0.0
-500.0   30.0   16.666666666666668
-450.0   60.0   16.666666666666668
-450.0   30.0   0.0
-500.0   60.0   0.0
-500.0   30.0   16.666666666666668
-450.0   30.0   16.666666666666668
-500.0   60.0   16.666666666666668
-500.0   30.0   33.333333333333336
-450.0   30.0   16.666666666666668
-450.0   60.0   16.666666666666668
-500.0   60.0   16.666666666666668
-450.0   60.0   33.333333333333336
-500.0   30.0   33.333333333333336
-500.0   60.0   33.333333333333336
-450.0   60.0   33.333333333333336
-500.0   60.0   16.666666666666668
-500.0   30.0   33.333333333333336
-450.0   60.0   33.333333333333336
-450.0   30.0   33.333333333333336
-450.0   30.0   16.666666666666668
-500.0   30.0   33.333333333333336
-450.0   60.0   33.333333333333336
-450.0   30.0   16.666666666666668
-500.0   60.0   16.666666666666668
-500.0   30.0   33.333333333333336
-450.0   30.0   33.333333333333336
-500.0   60.0   33.333333333333336
-500.0   30.0   50.0
-450.0   30.0   33.333333333333336
-450.0   60.0   33.333333333333336
-500.0   60.0   33.333333333333336
-450.0   60.0   50.0
-500.0   30.0   50.0
-500.0   60.0   50.0
-450.0   60.0   50.0
-500.0   60.0   33.333333333333336
-500.0   30.0   50.0
-450.0   60.0   50.0
-450.0   30.0   50.0
-450.0   30.0   33.333333333333336
-500.0   30.0   50.0
-450.0   60.0   50.0
-450.0   30.0   33.333333333333336
-500.0   60.0   33.333333333333336
-500.0   60.0   0.0
-450.0   60.0   0.0
-500.0   90.0   0.0
-500.0   60.0   16.666666666666668
-450.0   60.0   0.0
-450.0   90.0   0.0
-500.0   90.0   0.0
-450.0   90.0   16.666666666666668
-500.0   60.0   16.666666666666668
-500.0   90.0   16.666666666666668
-450.0   90.0   16.666666666666668
-500.0   90.0   0.0
-500.0   60.0   16.666666666666668
-450.0   90.0   16.666666666666668
-450.0   60.0   16.666666666666668
-450.0   60.0   0.0
-500.0   60.0   16.666666666666668
-450.0   90.0   16.666666666666668
-450.0   60.0   0.0
-500.0   90.0   0.0
-500.0   60.0   16.666666666666668
-450.0   60.0   16.666666666666668
-500.0   90.0   16.666666666666668
-500.0   60.0   33.333333333333336
-450.0   60.0   16.666666666666668
-450.0   90.0   16.666666666666668
-500.0   90.0   16.666666666666668
-450.0   90.0   33.333333333333336
-500.0   60.0   33.333333333333336
-500.0   90.0   33.333333333333336
-450.0   90.0   33.333333333333336
-500.0   90.0   16.666666666666668
-500.0   60.0   33.333333333333336
-450.0   90.0   33.333333333333336
-450.0   60.0   33.333333333333336
-450.0   60.0   16.666666666666668
-500.0   60.0   33.333333333333336
-450.0   90.0   33.333333333333336
-450.0   60.0   16.666666666666668
-500.0   90.0   16.666666666666668
-500.0   60.0   33.333333333333336
-450.0   60.0   33.333333333333336
-500.0   90.0   33.333333333333336
-500.0   60.0   50.0
-450.0   60.0   33.333333333333336
-450.0   90.0   33.333333333333336
-500.0   90.0   33.333333333333336
-450.0   90.0   50.0
-500.0   60.0   50.0
-500.0   90.0   50.0
-450.0   90.0   50.0
-500.0   90.0   33.333333333333336
-500.0   60.0   50.0
-450.0   90.0   50.0
-450.0   60.0   50.0
-450.0   60.0   33.333333333333336
-500.0   60.0   50.0
-450.0   90.0   50.0
-450.0   60.0   33.333333333333336
-500.0   90.0   33.333333333333336
-500.0   90.0   0.0
-450.0   90.0   0.0
-500.0   120.0   0.0
-500.0   90.0   16.666666666666668
-450.0   90.0   0.0
-450.0   120.0   0.0
-500.0   120.0   0.0
-450.0   120.0   16.666666666666668
-500.0   90.0   16.666666666666668
-500.0   120.0   16.666666666666668
-450.0   120.0   16.666666666666668
-500.0   120.0   0.0
-500.0   90.0   16.666666666666668
-450.0   120.0   16.666666666666668
-450.0   90.0   16.666666666666668
-450.0   90.0   0.0
-500.0   90.0   16.666666666666668
-450.0   120.0   16.666666666666668
-450.0   90.0   0.0
-500.0   120.0   0.0
-500.0   90.0   16.666666666666668
-450.0   90.0   16.666666666666668
-500.0   120.0   16.666666666666668
-500.0   90.0   33.333333333333336
-450.0   90.0   16.666666666666668
-450.0   120.0   16.666666666666668
-500.0   120.0   16.666666666666668
-450.0   120.0   33.333333333333336
-500.0   90.0   33.333333333333336
-500.0   120.0   33.333333333333336
-450.0   120.0   33.333333333333336
-500.0   120.0   16.666666666666668
-500.0   90.0   33.333333333333336
-450.0   120.0   33.333333333333336
-450.0   90.0   33.333333333333336
-450.0   90.0   16.666666666666668
-500.0   90.0   33.333333333333336
-450.0   120.0   33.333333333333336
-450.0   90.0   16.666666666666668
-500.0   120.0   16.666666666666668
-500.0   90.0   33.333333333333336
-450.0   90.0   33.333333333333336
-500.0   120.0   33.333333333333336
-500.0   90.0   50.0
-450.0   90.0   33.333333333333336
-450.0   120.0   33.333333333333336
-500.0   120.0   33.333333333333336
-450.0   120.0   50.0
-500.0   90.0   50.0
-500.0   120.0   50.0
-450.0   120.0   50.0
-500.0   120.0   33.333333333333336
-500.0   90.0   50.0
-450.0   120.0   50.0
-450.0   90.0   50.0
-450.0   90.0   33.333333333333336
-500.0   90.0   50.0
-450.0   120.0   50.0
-450.0   90.0   33.333333333333336
-500.0   120.0   33.333333333333336
-500.0   120.0   0.0
-450.0   120.0   0.0
-500.0   150.0   0.0
-500.0   120.0   16.666666666666668
-450.0   120.0   0.0
-450.0   150.0   0.0
-500.0   150.0   0.0
-450.0   150.0   16.666666666666668
-500.0   120.0   16.666666666666668
-500.0   150.0   16.666666666666668
-450.0   150.0   16.666666666666668
-500.0   150.0   0.0
-500.0   120.0   16.666666666666668
-450.0   150.0   16.666666666666668
-450.0   120.0   16.666666666666668
-450.0   120.0   0.0
-500.0   120.0   16.666666666666668
-450.0   150.0   16.666666666666668
-450.0   120.0   0.0
-500.0   150.0   0.0
-500.0   120.0   16.666666666666668
-450.0   120.0   16.666666666666668
-500.0   150.0   16.666666666666668
-500.0   120.0   33.333333333333336
-450.0   120.0   16.666666666666668
-450.0   150.0   16.666666666666668
-500.0   150.0   16.666666666666668
-450.0   150.0   33.333333333333336
-500.0   120.0   33.333333333333336
-500.0   150.0   33.333333333333336
-450.0   150.0   33.333333333333336
-500.0   150.0   16.666666666666668
-500.0   120.0   33.333333333333336
-450.0   150.0   33.333333333333336
-450.0   120.0   33.333333333333336
-450.0   120.0   16.666666666666668
-500.0   120.0   33.333333333333336
-450.0   150.0   33.333333333333336
-450.0   120.0   16.666666666666668
-500.0   150.0   16.666666666666668
-500.0   120.0   33.333333333333336
-450.0   120.0   33.333333333333336
-500.0   150.0   33.333333333333336
-500.0   120.0   50.0
-450.0   120.0   33.333333333333336
-450.0   150.0   33.333333333333336
-500.0   150.0   33.333333333333336
-450.0   150.0   50.0
-500.0   120.0   50.0
-500.0   150.0   50.0
-450.0   150.0   50.0
-500.0   150.0   33.333333333333336
-500.0   120.0   50.0
-450.0   150.0   50.0
-450.0   120.0   50.0
-450.0   120.0   33.333333333333336
-500.0   120.0   50.0
-450.0   150.0   50.0
-450.0   120.0   33.333333333333336
-500.0   150.0   33.333333333333336
-450.0   0.0   0.0
-400.0   0.0   0.0
-450.0   30.0   0.0
-450.0   0.0   16.666666666666668
-400.0   0.0   0.0
-400.0   30.0   0.0
-450.0   30.0   0.0
-400.0   30.0   16.666666666666668
-450.0   0.0   16.666666666666668
-450.0   30.0   16.666666666666668
-400.0   30.0   16.666666666666668
-450.0   30.0   0.0
-450.0   0.0   16.666666666666668
-400.0   30.0   16.666666666666668
-400.0   0.0   16.666666666666668
-400.0   0.0   0.0
-450.0   0.0   16.666666666666668
-400.0   30.0   16.666666666666668
-400.0   0.0   0.0
-450.0   30.0   0.0
-450.0   0.0   16.666666666666668
-400.0   0.0   16.666666666666668
-450.0   30.0   16.666666666666668
-450.0   0.0   33.333333333333336
-400.0   0.0   16.666666666666668
-400.0   30.0   16.666666666666668
-450.0   30.0   16.666666666666668
-400.0   30.0   33.333333333333336
-450.0   0.0   33.333333333333336
-450.0   30.0   33.333333333333336
-400.0   30.0   33.333333333333336
-450.0   30.0   16.666666666666668
-450.0   0.0   33.333333333333336
-400.0   30.0   33.333333333333336
-400.0   0.0   33.333333333333336
-400.0   0.0   16.666666666666668
-450.0   0.0   33.333333333333336
-400.0   30.0   33.333333333333336
-400.0   0.0   16.666666666666668
-450.0   30.0   16.666666666666668
-450.0   0.0   33.333333333333336
-400.0   0.0   33.333333333333336
-450.0   30.0   33.333333333333336
-450.0   0.0   50.0
-400.0   0.0   33.333333333333336
-400.0   30.0   33.333333333333336
-450.0   30.0   33.333333333333336
-400.0   30.0   50.0
-450.0   0.0   50.0
-450.0   30.0   50.0
-400.0   30.0   50.0
-450.0   30.0   33.333333333333336
-450.0   0.0   50.0
-400.0   30.0   50.0
-400.0   0.0   50.0
-400.0   0.0   33.333333333333336
-450.0   0.0   50.0
-400.0   30.0   50.0
-400.0   0.0   33.333333333333336
-450.0   30.0   33.333333333333336
-450.0   30.0   0.0
-400.0   30.0   0.0
-450.0   60.0   0.0
-450.0   30.0   16.666666666666668
-400.0   30.0   0.0
-400.0   60.0   0.0
-450.0   60.0   0.0
-400.0   60.0   16.666666666666668
-450.0   30.0   16.666666666666668
-450.0   60.0   16.666666666666668
-400.0   60.0   16.666666666666668
-450.0   60.0   0.0
-450.0   30.0   16.666666666666668
-400.0   60.0   16.666666666666668
-400.0   30.0   16.666666666666668
-400.0   30.0   0.0
-450.0   30.0   16.666666666666668
-400.0   60.0   16.666666666666668
-400.0   30.0   0.0
-450.0   60.0   0.0
-450.0   30.0   16.666666666666668
-400.0   30.0   16.666666666666668
-450.0   60.0   16.666666666666668
-450.0   30.0   33.333333333333336
-400.0   30.0   16.666666666666668
-400.0   60.0   16.666666666666668
-450.0   60.0   16.666666666666668
-400.0   60.0   33.333333333333336
-450.0   30.0   33.333333333333336
-450.0   60.0   33.333333333333336
-400.0   60.0   33.333333333333336
-450.0   60.0   16.666666666666668
-450.0   30.0   33.333333333333336
-400.0   60.0   33.333333333333336
-400.0   30.0   33.333333333333336
-400.0   30.0   16.666666666666668
-450.0   30.0   33.333333333333336
-400.0   60.0   33.333333333333336
-400.0   30.0   16.666666666666668
-450.0   60.0   16.666666666666668
-450.0   30.0   33.333333333333336
-400.0   30.0   33.333333333333336
-450.0   60.0   33.333333333333336
-450.0   30.0   50.0
-400.0   30.0   33.333333333333336
-400.0   60.0   33.333333333333336
-450.0   60.0   33.333333333333336
-400.0   60.0   50.0
-450.0   30.0   50.0
-450.0   60.0   50.0
-400.0   60.0   50.0
-450.0   60.0   33.333333333333336
-450.0   30.0   50.0
-400.0   60.0   50.0
-400.0   30.0   50.0
-400.0   30.0   33.333333333333336
-450.0   30.0   50.0
-400.0   60.0   50.0
-400.0   30.0   33.333333333333336
-450.0   60.0   33.333333333333336
-450.0   60.0   0.0
-400.0   60.0   0.0
-450.0   90.0   0.0
-450.0   60.0   16.666666666666668
-400.0   60.0   0.0
-400.0   90.0   0.0
-450.0   90.0   0.0
-400.0   90.0   16.666666666666668
-450.0   60.0   16.666666666666668
-450.0   90.0   16.666666666666668
-400.0   90.0   16.666666666666668
-450.0   90.0   0.0
-450.0   60.0   16.666666666666668
-400.0   90.0   16.666666666666668
-400.0   60.0   16.666666666666668
-400.0   60.0   0.0
-450.0   60.0   16.666666666666668
-400.0   90.0   16.666666666666668
-400.0   60.0   0.0
-450.0   90.0   0.0
-450.0   60.0   16.666666666666668
-400.0   60.0   16.666666666666668
-450.0   90.0   16.666666666666668
-450.0   60.0   33.333333333333336
-400.0   60.0   16.666666666666668
-400.0   90.0   16.666666666666668
-450.0   90.0   16.666666666666668
-400.0   90.0   33.333333333333336
-450.0   60.0   33.333333333333336
-450.0   90.0   33.333333333333336
-400.0   90.0   33.333333333333336
-450.0   90.0   16.666666666666668
-450.0   60.0   33.333333333333336
-400.0   90.0   33.333333333333336
-400.0   60.0   33.333333333333336
-400.0   60.0   16.666666666666668
-450.0   60.0   33.333333333333336
-400.0   90.0   33.333333333333336
-400.0   60.0   16.666666666666668
-450.0   90.0   16.666666666666668
-450.0   60.0   33.333333333333336
-400.0   60.0   33.333333333333336
-450.0   90.0   33.333333333333336
-450.0   60.0   50.0
-400.0   60.0   33.333333333333336
-400.0   90.0   33.333333333333336
-450.0   90.0   33.333333333333336
-400.0   90.0   50.0
-450.0   60.0   50.0
-450.0   90.0   50.0
-400.0   90.0   50.0
-450.0   90.0   33.333333333333336
-450.0   60.0   50.0
-400.0   90.0   50.0
-400.0   60.0   50.0
-400.0   60.0   33.333333333333336
-450.0   60.0   50.0
-400.0   90.0   50.0
-400.0   60.0   33.333333333333336
-450.0   90.0   33.333333333333336
-450.0   90.0   0.0
-400.0   90.0   0.0
-450.0   120.0   0.0
-450.0   90.0   16.666666666666668
-400.0   90.0   0.0
-400.0   120.0   0.0
-450.0   120.0   0.0
-400.0   120.0   16.666666666666668
-450.0   90.0   16.666666666666668
-450.0   120.0   16.666666666666668
-400.0   120.0   16.666666666666668
-450.0   120.0   0.0
-450.0   90.0   16.666666666666668
-400.0   120.0   16.666666666666668
-400.0   90.0   16.666666666666668
-400.0   90.0   0.0
-450.0   90.0   16.666666666666668
-400.0   120.0   16.666666666666668
-400.0   90.0   0.0
-450.0   120.0   0.0
-450.0   90.0   16.666666666666668
-400.0   90.0   16.666666666666668
-450.0   120.0   16.666666666666668
-450.0   90.0   33.333333333333336
-400.0   90.0   16.666666666666668
-400.0   120.0   16.666666666666668
-450.0   120.0   16.666666666666668
-400.0   120.0   33.333333333333336
-450.0   90.0   33.333333333333336
-450.0   120.0   33.333333333333336
-400.0   120.0   33.333333333333336
-450.0   120.0   16.666666666666668
-450.0   90.0   33.333333333333336
-400.0   120.0   33.333333333333336
-400.0   90.0   33.333333333333336
-400.0   90.0   16.666666666666668
-450.0   90.0   33.333333333333336
-400.0   120.0   33.333333333333336
-400.0   90.0   16.666666666666668
-450.0   120.0   16.666666666666668
-450.0   90.0   33.333333333333336
-400.0   90.0   33.333333333333336
-450.0   120.0   33.333333333333336
-450.0   90.0   50.0
-400.0   90.0   33.333333333333336
-400.0   120.0   33.333333333333336
-450.0   120.0   33.333333333333336
-400.0   120.0   50.0
-450.0   90.0   50.0
-450.0   120.0   50.0
-400.0   120.0   50.0
-450.0   120.0   33.333333333333336
-450.0   90.0   50.0
-400.0   120.0   50.0
-400.0   90.0   50.0
-400.0   90.0   33.333333333333336
-450.0   90.0   50.0
-400.0   120.0   50.0
-400.0   90.0   33.333333333333336
-450.0   120.0   33.333333333333336
-450.0   120.0   0.0
-400.0   120.0   0.0
-450.0   150.0   0.0
-450.0   120.0   16.666666666666668
-400.0   120.0   0.0
-400.0   150.0   0.0
-450.0   150.0   0.0
-400.0   150.0   16.666666666666668
-450.0   120.0   16.666666666666668
-450.0   150.0   16.666666666666668
-400.0   150.0   16.666666666666668
-450.0   150.0   0.0
-450.0   120.0   16.666666666666668
-400.0   150.0   16.666666666666668
-400.0   120.0   16.666666666666668
-400.0   120.0   0.0
-450.0   120.0   16.666666666666668
-400.0   150.0   16.666666666666668
-400.0   120.0   0.0
-450.0   150.0   0.0
-450.0   120.0   16.666666666666668
-400.0   120.0   16.666666666666668
-450.0   150.0   16.666666666666668
-450.0   120.0   33.333333333333336
-400.0   120.0   16.666666666666668
-400.0   150.0   16.666666666666668
-450.0   150.0   16.666666666666668
-400.0   150.0   33.333333333333336
-450.0   120.0   33.333333333333336
-450.0   150.0   33.333333333333336
-400.0   150.0   33.333333333333336
-450.0   150.0   16.666666666666668
-450.0   120.0   33.333333333333336
-400.0   150.0   33.333333333333336
-400.0   120.0   33.333333333333336
-400.0   120.0   16.666666666666668
-450.0   120.0   33.333333333333336
-400.0   150.0   33.333333333333336
-400.0   120.0   16.666666666666668
-450.0   150.0   16.666666666666668
-450.0   120.0   33.333333333333336
-400.0   120.0   33.333333333333336
-450.0   150.0   33.333333333333336
-450.0   120.0   50.0
-400.0   120.0   33.333333333333336
-400.0   150.0   33.333333333333336
-450.0   150.0   33.333333333333336
-400.0   150.0   50.0
-450.0   120.0   50.0
-450.0   150.0   50.0
-400.0   150.0   50.0
-450.0   150.0   33.333333333333336
-450.0   120.0   50.0
-400.0   150.0   50.0
-400.0   120.0   50.0
-400.0   120.0   33.333333333333336
-450.0   120.0   50.0
-400.0   150.0   50.0
-400.0   120.0   33.333333333333336
-450.0   150.0   33.333333333333336
-400.0   0.0   0.0
-350.0   0.0   0.0
-400.0   30.0   0.0
-400.0   0.0   16.666666666666668
-350.0   0.0   0.0
-350.0   30.0   0.0
-400.0   30.0   0.0
-350.0   30.0   16.666666666666668
-400.0   0.0   16.666666666666668
-400.0   30.0   16.666666666666668
-350.0   30.0   16.666666666666668
-400.0   30.0   0.0
-400.0   0.0   16.666666666666668
-350.0   30.0   16.666666666666668
-350.0   0.0   16.666666666666668
-350.0   0.0   0.0
-400.0   0.0   16.666666666666668
-350.0   30.0   16.666666666666668
-350.0   0.0   0.0
-400.0   30.0   0.0
-400.0   0.0   16.666666666666668
-350.0   0.0   16.666666666666668
-400.0   30.0   16.666666666666668
-400.0   0.0   33.333333333333336
-350.0   0.0   16.666666666666668
-350.0   30.0   16.666666666666668
-400.0   30.0   16.666666666666668
-350.0   30.0   33.333333333333336
-400.0   0.0   33.333333333333336
-400.0   30.0   33.333333333333336
-350.0   30.0   33.333333333333336
-400.0   30.0   16.666666666666668
-400.0   0.0   33.333333333333336
-350.0   30.0   33.333333333333336
-350.0   0.0   33.333333333333336
-350.0   0.0   16.666666666666668
-400.0   0.0   33.333333333333336
-350.0   30.0   33.333333333333336
-350.0   0.0   16.666666666666668
-400.0   30.0   16.666666666666668
-400.0   0.0   33.333333333333336
-350.0   0.0   33.333333333333336
-400.0   30.0   33.333333333333336
-400.0   0.0   50.0
-350.0   0.0   33.333333333333336
-350.0   30.0   33.333333333333336
-400.0   30.0   33.333333333333336
-350.0   30.0   50.0
-400.0   0.0   50.0
-400.0   30.0   50.0
-350.0   30.0   50.0
-400.0   30.0   33.333333333333336
-400.0   0.0   50.0
-350.0   30.0   50.0
-350.0   0.0   50.0
-350.0   0.0   33.333333333333336
-400.0   0.0   50.0
-350.0   30.0   50.0
-350.0   0.0   33.333333333333336
-400.0   30.0   33.333333333333336
-400.0   30.0   0.0
-350.0   30.0   0.0
-400.0   60.0   0.0
-400.0   30.0   16.666666666666668
-350.0   30.0   0.0
-350.0   60.0   0.0
-400.0   60.0   0.0
-350.0   60.0   16.666666666666668
-400.0   30.0   16.666666666666668
-400.0   60.0   16.666666666666668
-350.0   60.0   16.666666666666668
-400.0   60.0   0.0
-400.0   30.0   16.666666666666668
-350.0   60.0   16.666666666666668
-350.0   30.0   16.666666666666668
-350.0   30.0   0.0
-400.0   30.0   16.666666666666668
-350.0   60.0   16.666666666666668
-350.0   30.0   0.0
-400.0   60.0   0.0
-400.0   30.0   16.666666666666668
-350.0   30.0   16.666666666666668
-400.0   60.0   16.666666666666668
-400.0   30.0   33.333333333333336
-350.0   30.0   16.666666666666668
-350.0   60.0   16.666666666666668
-400.0   60.0   16.666666666666668
-350.0   60.0   33.333333333333336
-400.0   30.0   33.333333333333336
-400.0   60.0   33.333333333333336
-350.0   60.0   33.333333333333336
-400.0   60.0   16.666666666666668
-400.0   30.0   33.333333333333336
-350.0   60.0   33.333333333333336
-350.0   30.0   33.333333333333336
-350.0   30.0   16.666666666666668
-400.0   30.0   33.333333333333336
-350.0   60.0   33.333333333333336
-350.0   30.0   16.666666666666668
-400.0   60.0   16.666666666666668
-400.0   30.0   33.333333333333336
-350.0   30.0   33.333333333333336
-400.0   60.0   33.333333333333336
-400.0   30.0   50.0
-350.0   30.0   33.333333333333336
-350.0   60.0   33.333333333333336
-400.0   60.0   33.333333333333336
-350.0   60.0   50.0
-400.0   30.0   50.0
-400.0   60.0   50.0
-350.0   60.0   50.0
-400.0   60.0   33.333333333333336
-400.0   30.0   50.0
-350.0   60.0   50.0
-350.0   30.0   50.0
-350.0   30.0   33.333333333333336
-400.0   30.0   50.0
-350.0   60.0   50.0
-350.0   30.0   33.333333333333336
-400.0   60.0   33.333333333333336
-400.0   60.0   0.0
-350.0   60.0   0.0
-400.0   90.0   0.0
-400.0   60.0   16.666666666666668
-350.0   60.0   0.0
-350.0   90.0   0.0
-400.0   90.0   0.0
-350.0   90.0   16.666666666666668
-400.0   60.0   16.666666666666668
-400.0   90.0   16.666666666666668
-350.0   90.0   16.666666666666668
-400.0   90.0   0.0
-400.0   60.0   16.666666666666668
-350.0   90.0   16.666666666666668
-350.0   60.0   16.666666666666668
-350.0   60.0   0.0
-400.0   60.0   16.666666666666668
-350.0   90.0   16.666666666666668
-350.0   60.0   0.0
-400.0   90.0   0.0
-400.0   60.0   16.666666666666668
-350.0   60.0   16.666666666666668
-400.0   90.0   16.666666666666668
-400.0   60.0   33.333333333333336
-350.0   60.0   16.666666666666668
-350.0   90.0   16.666666666666668
-400.0   90.0   16.666666666666668
-350.0   90.0   33.333333333333336
-400.0   60.0   33.333333333333336
-400.0   90.0   33.333333333333336
-350.0   90.0   33.333333333333336
-400.0   90.0   16.666666666666668
-400.0   60.0   33.333333333333336
-350.0   90.0   33.333333333333336
-350.0   60.0   33.333333333333336
-350.0   60.0   16.666666666666668
-400.0   60.0   33.333333333333336
-350.0   90.0   33.333333333333336
-350.0   60.0   16.666666666666668
-400.0   90.0   16.666666666666668
-400.0   60.0   33.333333333333336
-350.0   60.0   33.333333333333336
-400.0   90.0   33.333333333333336
-400.0   60.0   50.0
-350.0   60.0   33.333333333333336
-350.0   90.0   33.333333333333336
-400.0   90.0   33.333333333333336
-350.0   90.0   50.0
-400.0   60.0   50.0
-400.0   90.0   50.0
-350.0   90.0   50.0
-400.0   90.0   33.333333333333336
-400.0   60.0   50.0
-350.0   90.0   50.0
-350.0   60.0   50.0
-350.0   60.0   33.333333333333336
-400.0   60.0   50.0
-350.0   90.0   50.0
-350.0   60.0   33.333333333333336
-400.0   90.0   33.333333333333336
-400.0   90.0   0.0
-350.0   90.0   0.0
-400.0   120.0   0.0
-400.0   90.0   16.666666666666668
-350.0   90.0   0.0
-350.0   120.0   0.0
-400.0   120.0   0.0
-350.0   120.0   16.666666666666668
-400.0   90.0   16.666666666666668
-400.0   120.0   16.666666666666668
-350.0   120.0   16.666666666666668
-400.0   120.0   0.0
-400.0   90.0   16.666666666666668
-350.0   120.0   16.666666666666668
-350.0   90.0   16.666666666666668
-350.0   90.0   0.0
-400.0   90.0   16.666666666666668
-350.0   120.0   16.666666666666668
-350.0   90.0   0.0
-400.0   120.0   0.0
-400.0   90.0   16.666666666666668
-350.0   90.0   16.666666666666668
-400.0   120.0   16.666666666666668
-400.0   90.0   33.333333333333336
-350.0   90.0   16.666666666666668
-350.0   120.0   16.666666666666668
-400.0   120.0   16.666666666666668
-350.0   120.0   33.333333333333336
-400.0   90.0   33.333333333333336
-400.0   120.0   33.333333333333336
-350.0   120.0   33.333333333333336
-400.0   120.0   16.666666666666668
-400.0   90.0   33.333333333333336
-350.0   120.0   33.333333333333336
-350.0   90.0   33.333333333333336
-350.0   90.0   16.666666666666668
-400.0   90.0   33.333333333333336
-350.0   120.0   33.333333333333336
-350.0   90.0   16.666666666666668
-400.0   120.0   16.666666666666668
-400.0   90.0   33.333333333333336
-350.0   90.0   33.333333333333336
-400.0   120.0   33.333333333333336
-400.0   90.0   50.0
-350.0   90.0   33.333333333333336
-350.0   120.0   33.333333333333336
-400.0   120.0   33.333333333333336
-350.0   120.0   50.0
-400.0   90.0   50.0
-400.0   120.0   50.0
-350.0   120.0   50.0
-400.0   120.0   33.333333333333336
-400.0   90.0   50.0
-350.0   120.0   50.0
-350.0   90.0   50.0
-350.0   90.0   33.333333333333336
-400.0   90.0   50.0
-350.0   120.0   50.0
-350.0   90.0   33.333333333333336
-400.0   120.0   33.333333333333336
-400.0   120.0   0.0
-350.0   120.0   0.0
-400.0   150.0   0.0
-400.0   120.0   16.666666666666668
-350.0   120.0   0.0
-350.0   150.0   0.0
-400.0   150.0   0.0
-350.0   150.0   16.666666666666668
-400.0   120.0   16.666666666666668
-400.0   150.0   16.666666666666668
-350.0   150.0   16.666666666666668
-400.0   150.0   0.0
-400.0   120.0   16.666666666666668
-350.0   150.0   16.666666666666668
-350.0   120.0   16.666666666666668
-350.0   120.0   0.0
-400.0   120.0   16.666666666666668
-350.0   150.0   16.666666666666668
-350.0   120.0   0.0
-400.0   150.0   0.0
-400.0   120.0   16.666666666666668
-350.0   120.0   16.666666666666668
-400.0   150.0   16.666666666666668
-400.0   120.0   33.333333333333336
-350.0   120.0   16.666666666666668
-350.0   150.0   16.666666666666668
-400.0   150.0   16.666666666666668
-350.0   150.0   33.333333333333336
-400.0   120.0   33.333333333333336
-400.0   150.0   33.333333333333336
-350.0   150.0   33.333333333333336
-400.0   150.0   16.666666666666668
-400.0   120.0   33.333333333333336
-350.0   150.0   33.333333333333336
-350.0   120.0   33.333333333333336
-350.0   120.0   16.666666666666668
-400.0   120.0   33.333333333333336
-350.0   150.0   33.333333333333336
-350.0   120.0   16.666666666666668
-400.0   150.0   16.666666666666668
-400.0   120.0   33.333333333333336
-350.0   120.0   33.333333333333336
-400.0   150.0   33.333333333333336
-400.0   120.0   50.0
-350.0   120.0   33.333333333333336
-350.0   150.0   33.333333333333336
-400.0   150.0   33.333333333333336
-350.0   150.0   50.0
-400.0   120.0   50.0
-400.0   150.0   50.0
-350.0   150.0   50.0
-400.0   150.0   33.333333333333336
-400.0   120.0   50.0
-350.0   150.0   50.0
-350.0   120.0   50.0
-350.0   120.0   33.333333333333336
-400.0   120.0   50.0
-350.0   150.0   50.0
-350.0   120.0   33.333333333333336
-400.0   150.0   33.333333333333336
-350.0   0.0   0.0
-300.0   0.0   0.0
-350.0   30.0   0.0
-350.0   0.0   16.666666666666668
-300.0   0.0   0.0
-300.0   30.0   0.0
-350.0   30.0   0.0
-300.0   30.0   16.666666666666668
-350.0   0.0   16.666666666666668
-350.0   30.0   16.666666666666668
-300.0   30.0   16.666666666666668
-350.0   30.0   0.0
-350.0   0.0   16.666666666666668
-300.0   30.0   16.666666666666668
-300.0   0.0   16.666666666666668
-300.0   0.0   0.0
-350.0   0.0   16.666666666666668
-300.0   30.0   16.666666666666668
-300.0   0.0   0.0
-350.0   30.0   0.0
-350.0   0.0   16.666666666666668
-300.0   0.0   16.666666666666668
-350.0   30.0   16.666666666666668
-350.0   0.0   33.333333333333336
-300.0   0.0   16.666666666666668
-300.0   30.0   16.666666666666668
-350.0   30.0   16.666666666666668
-300.0   30.0   33.333333333333336
-350.0   0.0   33.333333333333336
-350.0   30.0   33.333333333333336
-300.0   30.0   33.333333333333336
-350.0   30.0   16.666666666666668
-350.0   0.0   33.333333333333336
-300.0   30.0   33.333333333333336
-300.0   0.0   33.333333333333336
-300.0   0.0   16.666666666666668
-350.0   0.0   33.333333333333336
-300.0   30.0   33.333333333333336
-300.0   0.0   16.666666666666668
-350.0   30.0   16.666666666666668
-350.0   0.0   33.333333333333336
-300.0   0.0   33.333333333333336
-350.0   30.0   33.333333333333336
-350.0   0.0   50.0
-300.0   0.0   33.333333333333336
-300.0   30.0   33.333333333333336
-350.0   30.0   33.333333333333336
-300.0   30.0   50.0
-350.0   0.0   50.0
-350.0   30.0   50.0
-300.0   30.0   50.0
-350.0   30.0   33.333333333333336
-350.0   0.0   50.0
-300.0   30.0   50.0
-300.0   0.0   50.0
-300.0   0.0   33.333333333333336
-350.0   0.0   50.0
-300.0   30.0   50.0
-300.0   0.0   33.333333333333336
-350.0   30.0   33.333333333333336
-350.0   30.0   0.0
-300.0   30.0   0.0
-350.0   60.0   0.0
-350.0   30.0   16.666666666666668
-300.0   30.0   0.0
-300.0   60.0   0.0
-350.0   60.0   0.0
-300.0   60.0   16.666666666666668
-350.0   30.0   16.666666666666668
-350.0   60.0   16.666666666666668
-300.0   60.0   16.666666666666668
-350.0   60.0   0.0
-350.0   30.0   16.666666666666668
-300.0   60.0   16.666666666666668
-300.0   30.0   16.666666666666668
-300.0   30.0   0.0
-350.0   30.0   16.666666666666668
-300.0   60.0   16.666666666666668
-300.0   30.0   0.0
-350.0   60.0   0.0
-350.0   30.0   16.666666666666668
-300.0   30.0   16.666666666666668
-350.0   60.0   16.666666666666668
-350.0   30.0   33.333333333333336
-300.0   30.0   16.666666666666668
-300.0   60.0   16.666666666666668
-350.0   60.0   16.666666666666668
-300.0   60.0   33.333333333333336
-350.0   30.0   33.333333333333336
-350.0   60.0   33.333333333333336
-300.0   60.0   33.333333333333336
-350.0   60.0   16.666666666666668
-350.0   30.0   33.333333333333336
-300.0   60.0   33.333333333333336
-300.0   30.0   33.333333333333336
-300.0   30.0   16.666666666666668
-350.0   30.0   33.333333333333336
-300.0   60.0   33.333333333333336
-300.0   30.0   16.666666666666668
-350.0   60.0   16.666666666666668
-350.0   30.0   33.333333333333336
-300.0   30.0   33.333333333333336
-350.0   60.0   33.333333333333336
-350.0   30.0   50.0
-300.0   30.0   33.333333333333336
-300.0   60.0   33.333333333333336
-350.0   60.0   33.333333333333336
-300.0   60.0   50.0
-350.0   30.0   50.0
-350.0   60.0   50.0
-300.0   60.0   50.0
-350.0   60.0   33.333333333333336
-350.0   30.0   50.0
-300.0   60.0   50.0
-300.0   30.0   50.0
-300.0   30.0   33.333333333333336
-350.0   30.0   50.0
-300.0   60.0   50.0
-300.0   30.0   33.333333333333336
-350.0   60.0   33.333333333333336
-350.0   60.0   0.0
-300.0   60.0   0.0
-350.0   90.0   0.0
-350.0   60.0   16.666666666666668
-300.0   60.0   0.0
-300.0   90.0   0.0
-350.0   90.0   0.0
-300.0   90.0   16.666666666666668
-350.0   60.0   16.666666666666668
-350.0   90.0   16.666666666666668
-300.0   90.0   16.666666666666668
-350.0   90.0   0.0
-350.0   60.0   16.666666666666668
-300.0   90.0   16.666666666666668
-300.0   60.0   16.666666666666668
-300.0   60.0   0.0
-350.0   60.0   16.666666666666668
-300.0   90.0   16.666666666666668
-300.0   60.0   0.0
-350.0   90.0   0.0
-350.0   60.0   16.666666666666668
-300.0   60.0   16.666666666666668
-350.0   90.0   16.666666666666668
-350.0   60.0   33.333333333333336
-300.0   60.0   16.666666666666668
-300.0   90.0   16.666666666666668
-350.0   90.0   16.666666666666668
-300.0   90.0   33.333333333333336
-350.0   60.0   33.333333333333336
-350.0   90.0   33.333333333333336
-300.0   90.0   33.333333333333336
-350.0   90.0   16.666666666666668
-350.0   60.0   33.333333333333336
-300.0   90.0   33.333333333333336
-300.0   60.0   33.333333333333336
-300.0   60.0   16.666666666666668
-350.0   60.0   33.333333333333336
-300.0   90.0   33.333333333333336
-300.0   60.0   16.666666666666668
-350.0   90.0   16.666666666666668
-350.0   60.0   33.333333333333336
-300.0   60.0   33.333333333333336
-350.0   90.0   33.333333333333336
-350.0   60.0   50.0
-300.0   60.0   33.333333333333336
-300.0   90.0   33.333333333333336
-350.0   90.0   33.333333333333336
-300.0   90.0   50.0
-350.0   60.0   50.0
-350.0   90.0   50.0
-300.0   90.0   50.0
-350.0   90.0   33.333333333333336
-350.0   60.0   50.0
-300.0   90.0   50.0
-300.0   60.0   50.0
-300.0   60.0   33.333333333333336
-350.0   60.0   50.0
-300.0   90.0   50.0
-300.0   60.0   33.333333333333336
-350.0   90.0   33.333333333333336
-350.0   90.0   0.0
-300.0   90.0   0.0
-350.0   120.0   0.0
-350.0   90.0   16.666666666666668
-300.0   90.0   0.0
-300.0   120.0   0.0
-350.0   120.0   0.0
-300.0   120.0   16.666666666666668
-350.0   90.0   16.666666666666668
-350.0   120.0   16.666666666666668
-300.0   120.0   16.666666666666668
-350.0   120.0   0.0
-350.0   90.0   16.666666666666668
-300.0   120.0   16.666666666666668
-300.0   90.0   16.666666666666668
-300.0   90.0   0.0
-350.0   90.0   16.666666666666668
-300.0   120.0   16.666666666666668
-300.0   90.0   0.0
-350.0   120.0   0.0
-350.0   90.0   16.666666666666668
-300.0   90.0   16.666666666666668
-350.0   120.0   16.666666666666668
-350.0   90.0   33.333333333333336
-300.0   90.0   16.666666666666668
-300.0   120.0   16.666666666666668
-350.0   120.0   16.666666666666668
-300.0   120.0   33.333333333333336
-350.0   90.0   33.333333333333336
-350.0   120.0   33.333333333333336
-300.0   120.0   33.333333333333336
-350.0   120.0   16.666666666666668
-350.0   90.0   33.333333333333336
-300.0   120.0   33.333333333333336
-300.0   90.0   33.333333333333336
-300.0   90.0   16.666666666666668
-350.0   90.0   33.333333333333336
-300.0   120.0   33.333333333333336
-300.0   90.0   16.666666666666668
-350.0   120.0   16.666666666666668
-350.0   90.0   33.333333333333336
-300.0   90.0   33.333333333333336
-350.0   120.0   33.333333333333336
-350.0   90.0   50.0
-300.0   90.0   33.333333333333336
-300.0   120.0   33.333333333333336
-350.0   120.0   33.333333333333336
-300.0   120.0   50.0
-350.0   90.0   50.0
-350.0   120.0   50.0
-300.0   120.0   50.0
-350.0   120.0   33.333333333333336
-350.0   90.0   50.0
-300.0   120.0   50.0
-300.0   90.0   50.0
-300.0   90.0   33.333333333333336
-350.0   90.0   50.0
-300.0   120.0   50.0
-300.0   90.0   33.333333333333336
-350.0   120.0   33.333333333333336
-350.0   120.0   0.0
-300.0   120.0   0.0
-350.0   150.0   0.0
-350.0   120.0   16.666666666666668
-300.0   120.0   0.0
-300.0   150.0   0.0
-350.0   150.0   0.0
-300.0   150.0   16.666666666666668
-350.0   120.0   16.666666666666668
-350.0   150.0   16.666666666666668
-300.0   150.0   16.666666666666668
-350.0   150.0   0.0
-350.0   120.0   16.666666666666668
-300.0   150.0   16.666666666666668
-300.0   120.0   16.666666666666668
-300.0   120.0   0.0
-350.0   120.0   16.666666666666668
-300.0   150.0   16.666666666666668
-300.0   120.0   0.0
-350.0   150.0   0.0
-350.0   120.0   16.666666666666668
-300.0   120.0   16.666666666666668
-350.0   150.0   16.666666666666668
-350.0   120.0   33.333333333333336
-300.0   120.0   16.666666666666668
-300.0   150.0   16.666666666666668
-350.0   150.0   16.666666666666668
-300.0   150.0   33.333333333333336
-350.0   120.0   33.333333333333336
-350.0   150.0   33.333333333333336
-300.0   150.0   33.333333333333336
-350.0   150.0   16.666666666666668
-350.0   120.0   33.333333333333336
-300.0   150.0   33.333333333333336
-300.0   120.0   33.333333333333336
-300.0   120.0   16.666666666666668
-350.0   120.0   33.333333333333336
-300.0   150.0   33.333333333333336
-300.0   120.0   16.666666666666668
-350.0   150.0   16.666666666666668
-350.0   120.0   33.333333333333336
-300.0   120.0   33.333333333333336
-350.0   150.0   33.333333333333336
-350.0   120.0   50.0
-300.0   120.0   33.333333333333336
-300.0   150.0   33.333333333333336
-350.0   150.0   33.333333333333336
-300.0   150.0   50.0
-350.0   120.0   50.0
-350.0   150.0   50.0
-300.0   150.0   50.0
-350.0   150.0   33.333333333333336
-350.0   120.0   50.0
-300.0   150.0   50.0
-300.0   120.0   50.0
-300.0   120.0   33.333333333333336
-350.0   120.0   50.0
-300.0   150.0   50.0
-300.0   120.0   33.333333333333336
-350.0   150.0   33.333333333333336
-300.0   0.0   0.0
-250.0   0.0   0.0
-300.0   30.0   0.0
-300.0   0.0   16.666666666666668
-250.0   0.0   0.0
-250.0   30.0   0.0
-300.0   30.0   0.0
-250.0   30.0   16.666666666666668
-300.0   0.0   16.666666666666668
-300.0   30.0   16.666666666666668
-250.0   30.0   16.666666666666668
-300.0   30.0   0.0
-300.0   0.0   16.666666666666668
-250.0   30.0   16.666666666666668
-250.0   0.0   16.666666666666668
-250.0   0.0   0.0
-300.0   0.0   16.666666666666668
-250.0   30.0   16.666666666666668
-250.0   0.0   0.0
-300.0   30.0   0.0
-300.0   0.0   16.666666666666668
-250.0   0.0   16.666666666666668
-300.0   30.0   16.666666666666668
-300.0   0.0   33.333333333333336
-250.0   0.0   16.666666666666668
-250.0   30.0   16.666666666666668
-300.0   30.0   16.666666666666668
-250.0   30.0   33.333333333333336
-300.0   0.0   33.333333333333336
-300.0   30.0   33.333333333333336
-250.0   30.0   33.333333333333336
-300.0   30.0   16.666666666666668
-300.0   0.0   33.333333333333336
-250.0   30.0   33.333333333333336
-250.0   0.0   33.333333333333336
-250.0   0.0   16.666666666666668
-300.0   0.0   33.333333333333336
-250.0   30.0   33.333333333333336
-250.0   0.0   16.666666666666668
-300.0   30.0   16.666666666666668
-300.0   0.0   33.333333333333336
-250.0   0.0   33.333333333333336
-300.0   30.0   33.333333333333336
-300.0   0.0   50.0
-250.0   0.0   33.333333333333336
-250.0   30.0   33.333333333333336
-300.0   30.0   33.333333333333336
-250.0   30.0   50.0
-300.0   0.0   50.0
-300.0   30.0   50.0
-250.0   30.0   50.0
-300.0   30.0   33.333333333333336
-300.0   0.0   50.0
-250.0   30.0   50.0
-250.0   0.0   50.0
-250.0   0.0   33.333333333333336
-300.0   0.0   50.0
-250.0   30.0   50.0
-250.0   0.0   33.333333333333336
-300.0   30.0   33.333333333333336
-300.0   30.0   0.0
-250.0   30.0   0.0
-300.0   60.0   0.0
-300.0   30.0   16.666666666666668
-250.0   30.0   0.0
-250.0   60.0   0.0
-300.0   60.0   0.0
-250.0   60.0   16.666666666666668
-300.0   30.0   16.666666666666668
-300.0   60.0   16.666666666666668
-250.0   60.0   16.666666666666668
-300.0   60.0   0.0
-300.0   30.0   16.666666666666668
-250.0   60.0   16.666666666666668
-250.0   30.0   16.666666666666668
-250.0   30.0   0.0
-300.0   30.0   16.666666666666668
-250.0   60.0   16.666666666666668
-250.0   30.0   0.0
-300.0   60.0   0.0
-300.0   30.0   16.666666666666668
-250.0   30.0   16.666666666666668
-300.0   60.0   16.666666666666668
-300.0   30.0   33.333333333333336
-250.0   30.0   16.666666666666668
-250.0   60.0   16.666666666666668
-300.0   60.0   16.666666666666668
-250.0   60.0   33.333333333333336
-300.0   30.0   33.333333333333336
-300.0   60.0   33.333333333333336
-250.0   60.0   33.333333333333336
-300.0   60.0   16.666666666666668
-300.0   30.0   33.333333333333336
-250.0   60.0   33.333333333333336
-250.0   30.0   33.333333333333336
-250.0   30.0   16.666666666666668
-300.0   30.0   33.333333333333336
-250.0   60.0   33.333333333333336
-250.0   30.0   16.666666666666668
-300.0   60.0   16.666666666666668
-300.0   30.0   33.333333333333336
-250.0   30.0   33.333333333333336
-300.0   60.0   33.333333333333336
-300.0   30.0   50.0
-250.0   30.0   33.333333333333336
-250.0   60.0   33.333333333333336
-300.0   60.0   33.333333333333336
-250.0   60.0   50.0
-300.0   30.0   50.0
-300.0   60.0   50.0
-250.0   60.0   50.0
-300.0   60.0   33.333333333333336
-300.0   30.0   50.0
-250.0   60.0   50.0
-250.0   30.0   50.0
-250.0   30.0   33.333333333333336
-300.0   30.0   50.0
-250.0   60.0   50.0
-250.0   30.0   33.333333333333336
-300.0   60.0   33.333333333333336
-300.0   60.0   0.0
-250.0   60.0   0.0
-300.0   90.0   0.0
-300.0   60.0   16.666666666666668
-250.0   60.0   0.0
-250.0   90.0   0.0
-300.0   90.0   0.0
-250.0   90.0   16.666666666666668
-300.0   60.0   16.666666666666668
-300.0   90.0   16.666666666666668
-250.0   90.0   16.666666666666668
-300.0   90.0   0.0
-300.0   60.0   16.666666666666668
-250.0   90.0   16.666666666666668
-250.0   60.0   16.666666666666668
-250.0   60.0   0.0
-300.0   60.0   16.666666666666668
-250.0   90.0   16.666666666666668
-250.0   60.0   0.0
-300.0   90.0   0.0
-300.0   60.0   16.666666666666668
-250.0   60.0   16.666666666666668
-300.0   90.0   16.666666666666668
-300.0   60.0   33.333333333333336
-250.0   60.0   16.666666666666668
-250.0   90.0   16.666666666666668
-300.0   90.0   16.666666666666668
-250.0   90.0   33.333333333333336
-300.0   60.0   33.333333333333336
-300.0   90.0   33.333333333333336
-250.0   90.0   33.333333333333336
-300.0   90.0   16.666666666666668
-300.0   60.0   33.333333333333336
-250.0   90.0   33.333333333333336
-250.0   60.0   33.333333333333336
-250.0   60.0   16.666666666666668
-300.0   60.0   33.333333333333336
-250.0   90.0   33.333333333333336
-250.0   60.0   16.666666666666668
-300.0   90.0   16.666666666666668
-300.0   60.0   33.333333333333336
-250.0   60.0   33.333333333333336
-300.0   90.0   33.333333333333336
-300.0   60.0   50.0
-250.0   60.0   33.333333333333336
-250.0   90.0   33.333333333333336
-300.0   90.0   33.333333333333336
-250.0   90.0   50.0
-300.0   60.0   50.0
-300.0   90.0   50.0
-250.0   90.0   50.0
-300.0   90.0   33.333333333333336
-300.0   60.0   50.0
-250.0   90.0   50.0
-250.0   60.0   50.0
-250.0   60.0   33.333333333333336
-300.0   60.0   50.0
-250.0   90.0   50.0
-250.0   60.0   33.333333333333336
-300.0   90.0   33.333333333333336
-300.0   90.0   0.0
-250.0   90.0   0.0
-300.0   120.0   0.0
-300.0   90.0   16.666666666666668
-250.0   90.0   0.0
-250.0   120.0   0.0
-300.0   120.0   0.0
-250.0   120.0   16.666666666666668
-300.0   90.0   16.666666666666668
-300.0   120.0   16.666666666666668
-250.0   120.0   16.666666666666668
-300.0   120.0   0.0
-300.0   90.0   16.666666666666668
-250.0   120.0   16.666666666666668
-250.0   90.0   16.666666666666668
-250.0   90.0   0.0
-300.0   90.0   16.666666666666668
-250.0   120.0   16.666666666666668
-250.0   90.0   0.0
-300.0   120.0   0.0
-300.0   90.0   16.666666666666668
-250.0   90.0   16.666666666666668
-300.0   120.0   16.666666666666668
-300.0   90.0   33.333333333333336
-250.0   90.0   16.666666666666668
-250.0   120.0   16.666666666666668
-300.0   120.0   16.666666666666668
-250.0   120.0   33.333333333333336
-300.0   90.0   33.333333333333336
-300.0   120.0   33.333333333333336
-250.0   120.0   33.333333333333336
-300.0   120.0   16.666666666666668
-300.0   90.0   33.333333333333336
-250.0   120.0   33.333333333333336
-250.0   90.0   33.333333333333336
-250.0   90.0   16.666666666666668
-300.0   90.0   33.333333333333336
-250.0   120.0   33.333333333333336
-250.0   90.0   16.666666666666668
-300.0   120.0   16.666666666666668
-300.0   90.0   33.333333333333336
-250.0   90.0   33.333333333333336
-300.0   120.0   33.333333333333336
-300.0   90.0   50.0
-250.0   90.0   33.333333333333336
-250.0   120.0   33.333333333333336
-300.0   120.0   33.333333333333336
-250.0   120.0   50.0
-300.0   90.0   50.0
-300.0   120.0   50.0
-250.0   120.0   50.0
-300.0   120.0   33.333333333333336
-300.0   90.0   50.0
-250.0   120.0   50.0
-250.0   90.0   50.0
-250.0   90.0   33.333333333333336
-300.0   90.0   50.0
-250.0   120.0   50.0
-250.0   90.0   33.333333333333336
-300.0   120.0   33.333333333333336
-300.0   120.0   0.0
-250.0   120.0   0.0
-300.0   150.0   0.0
-300.0   120.0   16.666666666666668
-250.0   120.0   0.0
-250.0   150.0   0.0
-300.0   150.0   0.0
-250.0   150.0   16.666666666666668
-300.0   120.0   16.666666666666668
-300.0   150.0   16.666666666666668
-250.0   150.0   16.666666666666668
-300.0   150.0   0.0
-300.0   120.0   16.666666666666668
-250.0   150.0   16.666666666666668
-250.0   120.0   16.666666666666668
-250.0   120.0   0.0
-300.0   120.0   16.666666666666668
-250.0   150.0   16.666666666666668
-250.0   120.0   0.0
-300.0   150.0   0.0
-300.0   120.0   16.666666666666668
-250.0   120.0   16.666666666666668
-300.0   150.0   16.666666666666668
-300.0   120.0   33.333333333333336
-250.0   120.0   16.666666666666668
-250.0   150.0   16.666666666666668
-300.0   150.0   16.666666666666668
-250.0   150.0   33.333333333333336
-300.0   120.0   33.333333333333336
-300.0   150.0   33.333333333333336
-250.0   150.0   33.333333333333336
-300.0   150.0   16.666666666666668
-300.0   120.0   33.333333333333336
-250.0   150.0   33.333333333333336
-250.0   120.0   33.333333333333336
-250.0   120.0   16.666666666666668
-300.0   120.0   33.333333333333336
-250.0   150.0   33.333333333333336
-250.0   120.0   16.666666666666668
-300.0   150.0   16.666666666666668
-300.0   120.0   33.333333333333336
-250.0   120.0   33.333333333333336
-300.0   150.0   33.333333333333336
-300.0   120.0   50.0
-250.0   120.0   33.333333333333336
-250.0   150.0   33.333333333333336
-300.0   150.0   33.333333333333336
-250.0   150.0   50.0
-300.0   120.0   50.0
-300.0   150.0   50.0
-250.0   150.0   50.0
-300.0   150.0   33.333333333333336
-300.0   120.0   50.0
-250.0   150.0   50.0
-250.0   120.0   50.0
-250.0   120.0   33.333333333333336
-300.0   120.0   50.0
-250.0   150.0   50.0
-250.0   120.0   33.333333333333336
-300.0   150.0   33.333333333333336
-250.0   0.0   0.0
-200.0   0.0   0.0
-250.0   30.0   0.0
-250.0   0.0   16.666666666666668
-200.0   0.0   0.0
-200.0   30.0   0.0
-250.0   30.0   0.0
-200.0   30.0   16.666666666666668
-250.0   0.0   16.666666666666668
-250.0   30.0   16.666666666666668
-200.0   30.0   16.666666666666668
-250.0   30.0   0.0
-250.0   0.0   16.666666666666668
-200.0   30.0   16.666666666666668
-200.0   0.0   16.666666666666668
-200.0   0.0   0.0
-250.0   0.0   16.666666666666668
-200.0   30.0   16.666666666666668
-200.0   0.0   0.0
-250.0   30.0   0.0
-250.0   0.0   16.666666666666668
-200.0   0.0   16.666666666666668
-250.0   30.0   16.666666666666668
-250.0   0.0   33.333333333333336
-200.0   0.0   16.666666666666668
-200.0   30.0   16.666666666666668
-250.0   30.0   16.666666666666668
-200.0   30.0   33.333333333333336
-250.0   0.0   33.333333333333336
-250.0   30.0   33.333333333333336
-200.0   30.0   33.333333333333336
-250.0   30.0   16.666666666666668
-250.0   0.0   33.333333333333336
-200.0   30.0   33.333333333333336
-200.0   0.0   33.333333333333336
-200.0   0.0   16.666666666666668
-250.0   0.0   33.333333333333336
-200.0   30.0   33.333333333333336
-200.0   0.0   16.666666666666668
-250.0   30.0   16.666666666666668
-250.0   0.0   33.333333333333336
-200.0   0.0   33.333333333333336
-250.0   30.0   33.333333333333336
-250.0   0.0   50.0
-200.0   0.0   33.333333333333336
-200.0   30.0   33.333333333333336
-250.0   30.0   33.333333333333336
-200.0   30.0   50.0
-250.0   0.0   50.0
-250.0   30.0   50.0
-200.0   30.0   50.0
-250.0   30.0   33.333333333333336
-250.0   0.0   50.0
-200.0   30.0   50.0
-200.0   0.0   50.0
-200.0   0.0   33.333333333333336
-250.0   0.0   50.0
-200.0   30.0   50.0
-200.0   0.0   33.333333333333336
-250.0   30.0   33.333333333333336
-250.0   30.0   0.0
-200.0   30.0   0.0
-250.0   60.0   0.0
-250.0   30.0   16.666666666666668
-200.0   30.0   0.0
-200.0   60.0   0.0
-250.0   60.0   0.0
-200.0   60.0   16.666666666666668
-250.0   30.0   16.666666666666668
-250.0   60.0   16.666666666666668
-200.0   60.0   16.666666666666668
-250.0   60.0   0.0
-250.0   30.0   16.666666666666668
-200.0   60.0   16.666666666666668
-200.0   30.0   16.666666666666668
-200.0   30.0   0.0
-250.0   30.0   16.666666666666668
-200.0   60.0   16.666666666666668
-200.0   30.0   0.0
-250.0   60.0   0.0
-250.0   30.0   16.666666666666668
-200.0   30.0   16.666666666666668
-250.0   60.0   16.666666666666668
-250.0   30.0   33.333333333333336
-200.0   30.0   16.666666666666668
-200.0   60.0   16.666666666666668
-250.0   60.0   16.666666666666668
-200.0   60.0   33.333333333333336
-250.0   30.0   33.333333333333336
-250.0   60.0   33.333333333333336
-200.0   60.0   33.333333333333336
-250.0   60.0   16.666666666666668
-250.0   30.0   33.333333333333336
-200.0   60.0   33.333333333333336
-200.0   30.0   33.333333333333336
-200.0   30.0   16.666666666666668
-250.0   30.0   33.333333333333336
-200.0   60.0   33.333333333333336
-200.0   30.0   16.666666666666668
-250.0   60.0   16.666666666666668
-250.0   30.0   33.333333333333336
-200.0   30.0   33.333333333333336
-250.0   60.0   33.333333333333336
-250.0   30.0   50.0
-200.0   30.0   33.333333333333336
-200.0   60.0   33.333333333333336
-250.0   60.0   33.333333333333336
-200.0   60.0   50.0
-250.0   30.0   50.0
-250.0   60.0   50.0
-200.0   60.0   50.0
-250.0   60.0   33.333333333333336
-250.0   30.0   50.0
-200.0   60.0   50.0
-200.0   30.0   50.0
-200.0   30.0   33.333333333333336
-250.0   30.0   50.0
-200.0   60.0   50.0
-200.0   30.0   33.333333333333336
-250.0   60.0   33.333333333333336
-250.0   60.0   0.0
-200.0   60.0   0.0
-250.0   90.0   0.0
-250.0   60.0   16.666666666666668
-200.0   60.0   0.0
-200.0   90.0   0.0
-250.0   90.0   0.0
-200.0   90.0   16.666666666666668
-250.0   60.0   16.666666666666668
-250.0   90.0   16.666666666666668
-200.0   90.0   16.666666666666668
-250.0   90.0   0.0
-250.0   60.0   16.666666666666668
-200.0   90.0   16.666666666666668
-200.0   60.0   16.666666666666668
-200.0   60.0   0.0
-250.0   60.0   16.666666666666668
-200.0   90.0   16.666666666666668
-200.0   60.0   0.0
-250.0   90.0   0.0
-250.0   60.0   16.666666666666668
-200.0   60.0   16.666666666666668
-250.0   90.0   16.666666666666668
-250.0   60.0   33.333333333333336
-200.0   60.0   16.666666666666668
-200.0   90.0   16.666666666666668
-250.0   90.0   16.666666666666668
-200.0   90.0   33.333333333333336
-250.0   60.0   33.333333333333336
-250.0   90.0   33.333333333333336
-200.0   90.0   33.333333333333336
-250.0   90.0   16.666666666666668
-250.0   60.0   33.333333333333336
-200.0   90.0   33.333333333333336
-200.0   60.0   33.333333333333336
-200.0   60.0   16.666666666666668
-250.0   60.0   33.333333333333336
-200.0   90.0   33.333333333333336
-200.0   60.0   16.666666666666668
-250.0   90.0   16.666666666666668
-250.0   60.0   33.333333333333336
-200.0   60.0   33.333333333333336
-250.0   90.0   33.333333333333336
-250.0   60.0   50.0
-200.0   60.0   33.333333333333336
-200.0   90.0   33.333333333333336
-250.0   90.0   33.333333333333336
-200.0   90.0   50.0
-250.0   60.0   50.0
-250.0   90.0   50.0
-200.0   90.0   50.0
-250.0   90.0   33.333333333333336
-250.0   60.0   50.0
-200.0   90.0   50.0
-200.0   60.0   50.0
-200.0   60.0   33.333333333333336
-250.0   60.0   50.0
-200.0   90.0   50.0
-200.0   60.0   33.333333333333336
-250.0   90.0   33.333333333333336
-250.0   90.0   0.0
-200.0   90.0   0.0
-250.0   120.0   0.0
-250.0   90.0   16.666666666666668
-200.0   90.0   0.0
-200.0   120.0   0.0
-250.0   120.0   0.0
-200.0   120.0   16.666666666666668
-250.0   90.0   16.666666666666668
-250.0   120.0   16.666666666666668
-200.0   120.0   16.666666666666668
-250.0   120.0   0.0
-250.0   90.0   16.666666666666668
-200.0   120.0   16.666666666666668
-200.0   90.0   16.666666666666668
-200.0   90.0   0.0
-250.0   90.0   16.666666666666668
-200.0   120.0   16.666666666666668
-200.0   90.0   0.0
-250.0   120.0   0.0
-250.0   90.0   16.666666666666668
-200.0   90.0   16.666666666666668
-250.0   120.0   16.666666666666668
-250.0   90.0   33.333333333333336
-200.0   90.0   16.666666666666668
-200.0   120.0   16.666666666666668
-250.0   120.0   16.666666666666668
-200.0   120.0   33.333333333333336
-250.0   90.0   33.333333333333336
-250.0   120.0   33.333333333333336
-200.0   120.0   33.333333333333336
-250.0   120.0   16.666666666666668
-250.0   90.0   33.333333333333336
-200.0   120.0   33.333333333333336
-200.0   90.0   33.333333333333336
-200.0   90.0   16.666666666666668
-250.0   90.0   33.333333333333336
-200.0   120.0   33.333333333333336
-200.0   90.0   16.666666666666668
-250.0   120.0   16.666666666666668
-250.0   90.0   33.333333333333336
-200.0   90.0   33.333333333333336
-250.0   120.0   33.333333333333336
-250.0   90.0   50.0
-200.0   90.0   33.333333333333336
-200.0   120.0   33.333333333333336
-250.0   120.0   33.333333333333336
-200.0   120.0   50.0
-250.0   90.0   50.0
-250.0   120.0   50.0
-200.0   120.0   50.0
-250.0   120.0   33.333333333333336
-250.0   90.0   50.0
-200.0   120.0   50.0
-200.0   90.0   50.0
-200.0   90.0   33.333333333333336
-250.0   90.0   50.0
-200.0   120.0   50.0
-200.0   90.0   33.333333333333336
-250.0   120.0   33.333333333333336
-250.0   120.0   0.0
-200.0   120.0   0.0
-250.0   150.0   0.0
-250.0   120.0   16.666666666666668
-200.0   120.0   0.0
-200.0   150.0   0.0
-250.0   150.0   0.0
-200.0   150.0   16.666666666666668
-250.0   120.0   16.666666666666668
-250.0   150.0   16.666666666666668
-200.0   150.0   16.666666666666668
-250.0   150.0   0.0
-250.0   120.0   16.666666666666668
-200.0   150.0   16.666666666666668
-200.0   120.0   16.666666666666668
-200.0   120.0   0.0
-250.0   120.0   16.666666666666668
-200.0   150.0   16.666666666666668
-200.0   120.0   0.0
-250.0   150.0   0.0
-250.0   120.0   16.666666666666668
-200.0   120.0   16.666666666666668
-250.0   150.0   16.666666666666668
-250.0   120.0   33.333333333333336
-200.0   120.0   16.666666666666668
-200.0   150.0   16.666666666666668
-250.0   150.0   16.666666666666668
-200.0   150.0   33.333333333333336
-250.0   120.0   33.333333333333336
-250.0   150.0   33.333333333333336
-200.0   150.0   33.333333333333336
-250.0   150.0   16.666666666666668
-250.0   120.0   33.333333333333336
-200.0   150.0   33.333333333333336
-200.0   120.0   33.333333333333336
-200.0   120.0   16.666666666666668
-250.0   120.0   33.333333333333336
-200.0   150.0   33.333333333333336
-200.0   120.0   16.666666666666668
-250.0   150.0   16.666666666666668
-250.0   120.0   33.333333333333336
-200.0   120.0   33.333333333333336
-250.0   150.0   33.333333333333336
-250.0   120.0   50.0
-200.0   120.0   33.333333333333336
-200.0   150.0   33.333333333333336
-250.0   150.0   33.333333333333336
-200.0   150.0   50.0
-250.0   120.0   50.0
-250.0   150.0   50.0
-200.0   150.0   50.0
-250.0   150.0   33.333333333333336
-250.0   120.0   50.0
-200.0   150.0   50.0
-200.0   120.0   50.0
-200.0   120.0   33.333333333333336
-250.0   120.0   50.0
-200.0   150.0   50.0
-200.0   120.0   33.333333333333336
-250.0   150.0   33.333333333333336
-200.0   0.0   0.0
-150.0   0.0   0.0
-200.0   30.0   0.0
-200.0   0.0   16.666666666666668
-150.0   0.0   0.0
-150.0   30.0   0.0
-200.0   30.0   0.0
-150.0   30.0   16.666666666666668
-200.0   0.0   16.666666666666668
-200.0   30.0   16.666666666666668
-150.0   30.0   16.666666666666668
-200.0   30.0   0.0
-200.0   0.0   16.666666666666668
-150.0   30.0   16.666666666666668
-150.0   0.0   16.666666666666668
-150.0   0.0   0.0
-200.0   0.0   16.666666666666668
-150.0   30.0   16.666666666666668
-150.0   0.0   0.0
-200.0   30.0   0.0
-200.0   0.0   16.666666666666668
-150.0   0.0   16.666666666666668
-200.0   30.0   16.666666666666668
-200.0   0.0   33.333333333333336
-150.0   0.0   16.666666666666668
-150.0   30.0   16.666666666666668
-200.0   30.0   16.666666666666668
-150.0   30.0   33.333333333333336
-200.0   0.0   33.333333333333336
-200.0   30.0   33.333333333333336
-150.0   30.0   33.333333333333336
-200.0   30.0   16.666666666666668
-200.0   0.0   33.333333333333336
-150.0   30.0   33.333333333333336
-150.0   0.0   33.333333333333336
-150.0   0.0   16.666666666666668
-200.0   0.0   33.333333333333336
-150.0   30.0   33.333333333333336
-150.0   0.0   16.666666666666668
-200.0   30.0   16.666666666666668
-200.0   0.0   33.333333333333336
-150.0   0.0   33.333333333333336
-200.0   30.0   33.333333333333336
-200.0   0.0   50.0
-150.0   0.0   33.333333333333336
-150.0   30.0   33.333333333333336
-200.0   30.0   33.333333333333336
-150.0   30.0   50.0
-200.0   0.0   50.0
-200.0   30.0   50.0
-150.0   30.0   50.0
-200.0   30.0   33.333333333333336
-200.0   0.0   50.0
-150.0   30.0   50.0
-150.0   0.0   50.0
-150.0   0.0   33.333333333333336
-200.0   0.0   50.0
-150.0   30.0   50.0
-150.0   0.0   33.333333333333336
-200.0   30.0   33.333333333333336
-200.0   30.0   0.0
-150.0   30.0   0.0
-200.0   60.0   0.0
-200.0   30.0   16.666666666666668
-150.0   30.0   0.0
-150.0   60.0   0.0
-200.0   60.0   0.0
-150.0   60.0   16.666666666666668
-200.0   30.0   16.666666666666668
-200.0   60.0   16.666666666666668
-150.0   60.0   16.666666666666668
-200.0   60.0   0.0
-200.0   30.0   16.666666666666668
-150.0   60.0   16.666666666666668
-150.0   30.0   16.666666666666668
-150.0   30.0   0.0
-200.0   30.0   16.666666666666668
-150.0   60.0   16.666666666666668
-150.0   30.0   0.0
-200.0   60.0   0.0
-200.0   30.0   16.666666666666668
-150.0   30.0   16.666666666666668
-200.0   60.0   16.666666666666668
-200.0   30.0   33.333333333333336
-150.0   30.0   16.666666666666668
-150.0   60.0   16.666666666666668
-200.0   60.0   16.666666666666668
-150.0   60.0   33.333333333333336
-200.0   30.0   33.333333333333336
-200.0   60.0   33.333333333333336
-150.0   60.0   33.333333333333336
-200.0   60.0   16.666666666666668
-200.0   30.0   33.333333333333336
-150.0   60.0   33.333333333333336
-150.0   30.0   33.333333333333336
-150.0   30.0   16.666666666666668
-200.0   30.0   33.333333333333336
-150.0   60.0   33.333333333333336
-150.0   30.0   16.666666666666668
-200.0   60.0   16.666666666666668
-200.0   30.0   33.333333333333336
-150.0   30.0   33.333333333333336
-200.0   60.0   33.333333333333336
-200.0   30.0   50.0
-150.0   30.0   33.333333333333336
-150.0   60.0   33.333333333333336
-200.0   60.0   33.333333333333336
-150.0   60.0   50.0
-200.0   30.0   50.0
-200.0   60.0   50.0
-150.0   60.0   50.0
-200.0   60.0   33.333333333333336
-200.0   30.0   50.0
-150.0   60.0   50.0
-150.0   30.0   50.0
-150.0   30.0   33.333333333333336
-200.0   30.0   50.0
-150.0   60.0   50.0
-150.0   30.0   33.333333333333336
-200.0   60.0   33.333333333333336
-200.0   60.0   0.0
-150.0   60.0   0.0
-200.0   90.0   0.0
-200.0   60.0   16.666666666666668
-150.0   60.0   0.0
-150.0   90.0   0.0
-200.0   90.0   0.0
-150.0   90.0   16.666666666666668
-200.0   60.0   16.666666666666668
-200.0   90.0   16.666666666666668
-150.0   90.0   16.666666666666668
-200.0   90.0   0.0
-200.0   60.0   16.666666666666668
-150.0   90.0   16.666666666666668
-150.0   60.0   16.666666666666668
-150.0   60.0   0.0
-200.0   60.0   16.666666666666668
-150.0   90.0   16.666666666666668
-150.0   60.0   0.0
-200.0   90.0   0.0
-200.0   60.0   16.666666666666668
-150.0   60.0   16.666666666666668
-200.0   90.0   16.666666666666668
-200.0   60.0   33.333333333333336
-150.0   60.0   16.666666666666668
-150.0   90.0   16.666666666666668
-200.0   90.0   16.666666666666668
-150.0   90.0   33.333333333333336
-200.0   60.0   33.333333333333336
-200.0   90.0   33.333333333333336
-150.0   90.0   33.333333333333336
-200.0   90.0   16.666666666666668
-200.0   60.0   33.333333333333336
-150.0   90.0   33.333333333333336
-150.0   60.0   33.333333333333336
-150.0   60.0   16.666666666666668
-200.0   60.0   33.333333333333336
-150.0   90.0   33.333333333333336
-150.0   60.0   16.666666666666668
-200.0   90.0   16.666666666666668
-200.0   60.0   33.333333333333336
-150.0   60.0   33.333333333333336
-200.0   90.0   33.333333333333336
-200.0   60.0   50.0
-150.0   60.0   33.333333333333336
-150.0   90.0   33.333333333333336
-200.0   90.0   33.333333333333336
-150.0   90.0   50.0
-200.0   60.0   50.0
-200.0   90.0   50.0
-150.0   90.0   50.0
-200.0   90.0   33.333333333333336
-200.0   60.0   50.0
-150.0   90.0   50.0
-150.0   60.0   50.0
-150.0   60.0   33.333333333333336
-200.0   60.0   50.0
-150.0   90.0   50.0
-150.0   60.0   33.333333333333336
-200.0   90.0   33.333333333333336
-200.0   90.0   0.0
-150.0   90.0   0.0
-200.0   120.0   0.0
-200.0   90.0   16.666666666666668
-150.0   90.0   0.0
-150.0   120.0   0.0
-200.0   120.0   0.0
-150.0   120.0   16.666666666666668
-200.0   90.0   16.666666666666668
-200.0   120.0   16.666666666666668
-150.0   120.0   16.666666666666668
-200.0   120.0   0.0
-200.0   90.0   16.666666666666668
-150.0   120.0   16.666666666666668
-150.0   90.0   16.666666666666668
-150.0   90.0   0.0
-200.0   90.0   16.666666666666668
-150.0   120.0   16.666666666666668
-150.0   90.0   0.0
-200.0   120.0   0.0
-200.0   90.0   16.666666666666668
-150.0   90.0   16.666666666666668
-200.0   120.0   16.666666666666668
-200.0   90.0   33.333333333333336
-150.0   90.0   16.666666666666668
-150.0   120.0   16.666666666666668
-200.0   120.0   16.666666666666668
-150.0   120.0   33.333333333333336
-200.0   90.0   33.333333333333336
-200.0   120.0   33.333333333333336
-150.0   120.0   33.333333333333336
-200.0   120.0   16.666666666666668
-200.0   90.0   33.333333333333336
-150.0   120.0   33.333333333333336
-150.0   90.0   33.333333333333336
-150.0   90.0   16.666666666666668
-200.0   90.0   33.333333333333336
-150.0   120.0   33.333333333333336
-150.0   90.0   16.666666666666668
-200.0   120.0   16.666666666666668
-200.0   90.0   33.333333333333336
-150.0   90.0   33.333333333333336
-200.0   120.0   33.333333333333336
-200.0   90.0   50.0
-150.0   90.0   33.333333333333336
-150.0   120.0   33.333333333333336
-200.0   120.0   33.333333333333336
-150.0   120.0   50.0
-200.0   90.0   50.0
-200.0   120.0   50.0
-150.0   120.0   50.0
-200.0   120.0   33.333333333333336
-200.0   90.0   50.0
-150.0   120.0   50.0
-150.0   90.0   50.0
-150.0   90.0   33.333333333333336
-200.0   90.0   50.0
-150.0   120.0   50.0
-150.0   90.0   33.333333333333336
-200.0   120.0   33.333333333333336
-200.0   120.0   0.0
-150.0   120.0   0.0
-200.0   150.0   0.0
-200.0   120.0   16.666666666666668
-150.0   120.0   0.0
-150.0   150.0   0.0
-200.0   150.0   0.0
-150.0   150.0   16.666666666666668
-200.0   120.0   16.666666666666668
-200.0   150.0   16.666666666666668
-150.0   150.0   16.666666666666668
-200.0   150.0   0.0
-200.0   120.0   16.666666666666668
-150.0   150.0   16.666666666666668
-150.0   120.0   16.666666666666668
-150.0   120.0   0.0
-200.0   120.0   16.666666666666668
-150.0   150.0   16.666666666666668
-150.0   120.0   0.0
-200.0   150.0   0.0
-200.0   120.0   16.666666666666668
-150.0   120.0   16.666666666666668
-200.0   150.0   16.666666666666668
-200.0   120.0   33.333333333333336
-150.0   120.0   16.666666666666668
-150.0   150.0   16.666666666666668
-200.0   150.0   16.666666666666668
-150.0   150.0   33.333333333333336
-200.0   120.0   33.333333333333336
-200.0   150.0   33.333333333333336
-150.0   150.0   33.333333333333336
-200.0   150.0   16.666666666666668
-200.0   120.0   33.333333333333336
-150.0   150.0   33.333333333333336
-150.0   120.0   33.333333333333336
-150.0   120.0   16.666666666666668
-200.0   120.0   33.333333333333336
-150.0   150.0   33.333333333333336
-150.0   120.0   16.666666666666668
-200.0   150.0   16.666666666666668
-200.0   120.0   33.333333333333336
-150.0   120.0   33.333333333333336
-200.0   150.0   33.333333333333336
-200.0   120.0   50.0
-150.0   120.0   33.333333333333336
-150.0   150.0   33.333333333333336
-200.0   150.0   33.333333333333336
-150.0   150.0   50.0
-200.0   120.0   50.0
-200.0   150.0   50.0
-150.0   150.0   50.0
-200.0   150.0   33.333333333333336
-200.0   120.0   50.0
-150.0   150.0   50.0
-150.0   120.0   50.0
-150.0   120.0   33.333333333333336
-200.0   120.0   50.0
-150.0   150.0   50.0
-150.0   120.0   33.333333333333336
-200.0   150.0   33.333333333333336
-150.0   0.0   0.0
-100.0   0.0   0.0
-150.0   30.0   0.0
-150.0   0.0   16.666666666666668
-100.0   0.0   0.0
-100.0   30.0   0.0
-150.0   30.0   0.0
-100.0   30.0   16.666666666666668
-150.0   0.0   16.666666666666668
-150.0   30.0   16.666666666666668
-100.0   30.0   16.666666666666668
-150.0   30.0   0.0
-150.0   0.0   16.666666666666668
-100.0   30.0   16.666666666666668
-100.0   0.0   16.666666666666668
-100.0   0.0   0.0
-150.0   0.0   16.666666666666668
-100.0   30.0   16.666666666666668
-100.0   0.0   0.0
-150.0   30.0   0.0
-150.0   0.0   16.666666666666668
-100.0   0.0   16.666666666666668
-150.0   30.0   16.666666666666668
-150.0   0.0   33.333333333333336
-100.0   0.0   16.666666666666668
-100.0   30.0   16.666666666666668
-150.0   30.0   16.666666666666668
-100.0   30.0   33.333333333333336
-150.0   0.0   33.333333333333336
-150.0   30.0   33.333333333333336
-100.0   30.0   33.333333333333336
-150.0   30.0   16.666666666666668
-150.0   0.0   33.333333333333336
-100.0   30.0   33.333333333333336
-100.0   0.0   33.333333333333336
-100.0   0.0   16.666666666666668
-150.0   0.0   33.333333333333336
-100.0   30.0   33.333333333333336
-100.0   0.0   16.666666666666668
-150.0   30.0   16.666666666666668
-150.0   0.0   33.333333333333336
-100.0   0.0   33.333333333333336
-150.0   30.0   33.333333333333336
-150.0   0.0   50.0
-100.0   0.0   33.333333333333336
-100.0   30.0   33.333333333333336
-150.0   30.0   33.333333333333336
-100.0   30.0   50.0
-150.0   0.0   50.0
-150.0   30.0   50.0
-100.0   30.0   50.0
-150.0   30.0   33.333333333333336
-150.0   0.0   50.0
-100.0   30.0   50.0
-100.0   0.0   50.0
-100.0   0.0   33.333333333333336
-150.0   0.0   50.0
-100.0   30.0   50.0
-100.0   0.0   33.333333333333336
-150.0   30.0   33.333333333333336
-150.0   30.0   0.0
-100.0   30.0   0.0
-150.0   60.0   0.0
-150.0   30.0   16.666666666666668
-100.0   30.0   0.0
-100.0   60.0   0.0
-150.0   60.0   0.0
-100.0   60.0   16.666666666666668
-150.0   30.0   16.666666666666668
-150.0   60.0   16.666666666666668
-100.0   60.0   16.666666666666668
-150.0   60.0   0.0
-150.0   30.0   16.666666666666668
-100.0   60.0   16.666666666666668
-100.0   30.0   16.666666666666668
-100.0   30.0   0.0
-150.0   30.0   16.666666666666668
-100.0   60.0   16.666666666666668
-100.0   30.0   0.0
-150.0   60.0   0.0
-150.0   30.0   16.666666666666668
-100.0   30.0   16.666666666666668
-150.0   60.0   16.666666666666668
-150.0   30.0   33.333333333333336
-100.0   30.0   16.666666666666668
-100.0   60.0   16.666666666666668
-150.0   60.0   16.666666666666668
-100.0   60.0   33.333333333333336
-150.0   30.0   33.333333333333336
-150.0   60.0   33.333333333333336
-100.0   60.0   33.333333333333336
-150.0   60.0   16.666666666666668
-150.0   30.0   33.333333333333336
-100.0   60.0   33.333333333333336
-100.0   30.0   33.333333333333336
-100.0   30.0   16.666666666666668
-150.0   30.0   33.333333333333336
-100.0   60.0   33.333333333333336
-100.0   30.0   16.666666666666668
-150.0   60.0   16.666666666666668
-150.0   30.0   33.333333333333336
-100.0   30.0   33.333333333333336
-150.0   60.0   33.333333333333336
-150.0   30.0   50.0
-100.0   30.0   33.333333333333336
-100.0   60.0   33.333333333333336
-150.0   60.0   33.333333333333336
-100.0   60.0   50.0
-150.0   30.0   50.0
-150.0   60.0   50.0
-100.0   60.0   50.0
-150.0   60.0   33.333333333333336
-150.0   30.0   50.0
-100.0   60.0   50.0
-100.0   30.0   50.0
-100.0   30.0   33.333333333333336
-150.0   30.0   50.0
-100.0   60.0   50.0
-100.0   30.0   33.333333333333336
-150.0   60.0   33.333333333333336
-150.0   60.0   0.0
-100.0   60.0   0.0
-150.0   90.0   0.0
-150.0   60.0   16.666666666666668
-100.0   60.0   0.0
-100.0   90.0   0.0
-150.0   90.0   0.0
-100.0   90.0   16.666666666666668
-150.0   60.0   16.666666666666668
-150.0   90.0   16.666666666666668
-100.0   90.0   16.666666666666668
-150.0   90.0   0.0
-150.0   60.0   16.666666666666668
-100.0   90.0   16.666666666666668
-100.0   60.0   16.666666666666668
-100.0   60.0   0.0
-150.0   60.0   16.666666666666668
-100.0   90.0   16.666666666666668
-100.0   60.0   0.0
-150.0   90.0   0.0
-150.0   60.0   16.666666666666668
-100.0   60.0   16.666666666666668
-150.0   90.0   16.666666666666668
-150.0   60.0   33.333333333333336
-100.0   60.0   16.666666666666668
-100.0   90.0   16.666666666666668
-150.0   90.0   16.666666666666668
-100.0   90.0   33.333333333333336
-150.0   60.0   33.333333333333336
-150.0   90.0   33.333333333333336
-100.0   90.0   33.333333333333336
-150.0   90.0   16.666666666666668
-150.0   60.0   33.333333333333336
-100.0   90.0   33.333333333333336
-100.0   60.0   33.333333333333336
-100.0   60.0   16.666666666666668
-150.0   60.0   33.333333333333336
-100.0   90.0   33.333333333333336
-100.0   60.0   16.666666666666668
-150.0   90.0   16.666666666666668
-150.0   60.0   33.333333333333336
-100.0   60.0   33.333333333333336
-150.0   90.0   33.333333333333336
-150.0   60.0   50.0
-100.0   60.0   33.333333333333336
-100.0   90.0   33.333333333333336
-150.0   90.0   33.333333333333336
-100.0   90.0   50.0
-150.0   60.0   50.0
-150.0   90.0   50.0
-100.0   90.0   50.0
-150.0   90.0   33.333333333333336
-150.0   60.0   50.0
-100.0   90.0   50.0
-100.0   60.0   50.0
-100.0   60.0   33.333333333333336
-150.0   60.0   50.0
-100.0   90.0   50.0
-100.0   60.0   33.333333333333336
-150.0   90.0   33.333333333333336
-150.0   90.0   0.0
-100.0   90.0   0.0
-150.0   120.0   0.0
-150.0   90.0   16.666666666666668
-100.0   90.0   0.0
-100.0   120.0   0.0
-150.0   120.0   0.0
-100.0   120.0   16.666666666666668
-150.0   90.0   16.666666666666668
-150.0   120.0   16.666666666666668
-100.0   120.0   16.666666666666668
-150.0   120.0   0.0
-150.0   90.0   16.666666666666668
-100.0   120.0   16.666666666666668
-100.0   90.0   16.666666666666668
-100.0   90.0   0.0
-150.0   90.0   16.666666666666668
-100.0   120.0   16.666666666666668
-100.0   90.0   0.0
-150.0   120.0   0.0
-150.0   90.0   16.666666666666668
-100.0   90.0   16.666666666666668
-150.0   120.0   16.666666666666668
-150.0   90.0   33.333333333333336
-100.0   90.0   16.666666666666668
-100.0   120.0   16.666666666666668
-150.0   120.0   16.666666666666668
-100.0   120.0   33.333333333333336
-150.0   90.0   33.333333333333336
-150.0   120.0   33.333333333333336
-100.0   120.0   33.333333333333336
-150.0   120.0   16.666666666666668
-150.0   90.0   33.333333333333336
-100.0   120.0   33.333333333333336
-100.0   90.0   33.333333333333336
-100.0   90.0   16.666666666666668
-150.0   90.0   33.333333333333336
-100.0   120.0   33.333333333333336
-100.0   90.0   16.666666666666668
-150.0   120.0   16.666666666666668
-150.0   90.0   33.333333333333336
-100.0   90.0   33.333333333333336
-150.0   120.0   33.333333333333336
-150.0   90.0   50.0
-100.0   90.0   33.333333333333336
-100.0   120.0   33.333333333333336
-150.0   120.0   33.333333333333336
-100.0   120.0   50.0
-150.0   90.0   50.0
-150.0   120.0   50.0
-100.0   120.0   50.0
-150.0   120.0   33.333333333333336
-150.0   90.0   50.0
-100.0   120.0   50.0
-100.0   90.0   50.0
-100.0   90.0   33.333333333333336
-150.0   90.0   50.0
-100.0   120.0   50.0
-100.0   90.0   33.333333333333336
-150.0   120.0   33.333333333333336
-150.0   120.0   0.0
-100.0   120.0   0.0
-150.0   150.0   0.0
-150.0   120.0   16.666666666666668
-100.0   120.0   0.0
-100.0   150.0   0.0
-150.0   150.0   0.0
-100.0   150.0   16.666666666666668
-150.0   120.0   16.666666666666668
-150.0   150.0   16.666666666666668
-100.0   150.0   16.666666666666668
-150.0   150.0   0.0
-150.0   120.0   16.666666666666668
-100.0   150.0   16.666666666666668
-100.0   120.0   16.666666666666668
-100.0   120.0   0.0
-150.0   120.0   16.666666666666668
-100.0   150.0   16.666666666666668
-100.0   120.0   0.0
-150.0   150.0   0.0
-150.0   120.0   16.666666666666668
-100.0   120.0   16.666666666666668
-150.0   150.0   16.666666666666668
-150.0   120.0   33.333333333333336
-100.0   120.0   16.666666666666668
-100.0   150.0   16.666666666666668
-150.0   150.0   16.666666666666668
-100.0   150.0   33.333333333333336
-150.0   120.0   33.333333333333336
-150.0   150.0   33.333333333333336
-100.0   150.0   33.333333333333336
-150.0   150.0   16.666666666666668
-150.0   120.0   33.333333333333336
-100.0   150.0   33.333333333333336
-100.0   120.0   33.333333333333336
-100.0   120.0   16.666666666666668
-150.0   120.0   33.333333333333336
-100.0   150.0   33.333333333333336
-100.0   120.0   16.666666666666668
-150.0   150.0   16.666666666666668
-150.0   120.0   33.333333333333336
-100.0   120.0   33.333333333333336
-150.0   150.0   33.333333333333336
-150.0   120.0   50.0
-100.0   120.0   33.333333333333336
-100.0   150.0   33.333333333333336
-150.0   150.0   33.333333333333336
-100.0   150.0   50.0
-150.0   120.0   50.0
-150.0   150.0   50.0
-100.0   150.0   50.0
-150.0   150.0   33.333333333333336
-150.0   120.0   50.0
-100.0   150.0   50.0
-100.0   120.0   50.0
-100.0   120.0   33.333333333333336
-150.0   120.0   50.0
-100.0   150.0   50.0
-100.0   120.0   33.333333333333336
-150.0   150.0   33.333333333333336
-100.0   0.0   0.0
-50.0   0.0   0.0
-100.0   30.0   0.0
-100.0   0.0   16.666666666666668
-50.0   0.0   0.0
-50.0   30.0   0.0
-100.0   30.0   0.0
-50.0   30.0   16.666666666666668
-100.0   0.0   16.666666666666668
-100.0   30.0   16.666666666666668
-50.0   30.0   16.666666666666668
-100.0   30.0   0.0
-100.0   0.0   16.666666666666668
-50.0   30.0   16.666666666666668
-50.0   0.0   16.666666666666668
-50.0   0.0   0.0
-100.0   0.0   16.666666666666668
-50.0   30.0   16.666666666666668
-50.0   0.0   0.0
-100.0   30.0   0.0
-100.0   0.0   16.666666666666668
-50.0   0.0   16.666666666666668
-100.0   30.0   16.666666666666668
-100.0   0.0   33.333333333333336
-50.0   0.0   16.666666666666668
-50.0   30.0   16.666666666666668
-100.0   30.0   16.666666666666668
-50.0   30.0   33.333333333333336
-100.0   0.0   33.333333333333336
-100.0   30.0   33.333333333333336
-50.0   30.0   33.333333333333336
-100.0   30.0   16.666666666666668
-100.0   0.0   33.333333333333336
-50.0   30.0   33.333333333333336
-50.0   0.0   33.333333333333336
-50.0   0.0   16.666666666666668
-100.0   0.0   33.333333333333336
-50.0   30.0   33.333333333333336
-50.0   0.0   16.666666666666668
-100.0   30.0   16.666666666666668
-100.0   0.0   33.333333333333336
-50.0   0.0   33.333333333333336
-100.0   30.0   33.333333333333336
-100.0   0.0   50.0
-50.0   0.0   33.333333333333336
-50.0   30.0   33.333333333333336
-100.0   30.0   33.333333333333336
-50.0   30.0   50.0
-100.0   0.0   50.0
-100.0   30.0   50.0
-50.0   30.0   50.0
-100.0   30.0   33.333333333333336
-100.0   0.0   50.0
-50.0   30.0   50.0
-50.0   0.0   50.0
-50.0   0.0   33.333333333333336
-100.0   0.0   50.0
-50.0   30.0   50.0
-50.0   0.0   33.333333333333336
-100.0   30.0   33.333333333333336
-100.0   30.0   0.0
-50.0   30.0   0.0
-100.0   60.0   0.0
-100.0   30.0   16.666666666666668
-50.0   30.0   0.0
-50.0   60.0   0.0
-100.0   60.0   0.0
-50.0   60.0   16.666666666666668
-100.0   30.0   16.666666666666668
-100.0   60.0   16.666666666666668
-50.0   60.0   16.666666666666668
-100.0   60.0   0.0
-100.0   30.0   16.666666666666668
-50.0   60.0   16.666666666666668
-50.0   30.0   16.666666666666668
-50.0   30.0   0.0
-100.0   30.0   16.666666666666668
-50.0   60.0   16.666666666666668
-50.0   30.0   0.0
-100.0   60.0   0.0
-100.0   30.0   16.666666666666668
-50.0   30.0   16.666666666666668
-100.0   60.0   16.666666666666668
-100.0   30.0   33.333333333333336
-50.0   30.0   16.666666666666668
-50.0   60.0   16.666666666666668
-100.0   60.0   16.666666666666668
-50.0   60.0   33.333333333333336
-100.0   30.0   33.333333333333336
-100.0   60.0   33.333333333333336
-50.0   60.0   33.333333333333336
-100.0   60.0   16.666666666666668
-100.0   30.0   33.333333333333336
-50.0   60.0   33.333333333333336
-50.0   30.0   33.333333333333336
-50.0   30.0   16.666666666666668
-100.0   30.0   33.333333333333336
-50.0   60.0   33.333333333333336
-50.0   30.0   16.666666666666668
-100.0   60.0   16.666666666666668
-100.0   30.0   33.333333333333336
-50.0   30.0   33.333333333333336
-100.0   60.0   33.333333333333336
-100.0   30.0   50.0
-50.0   30.0   33.333333333333336
-50.0   60.0   33.333333333333336
-100.0   60.0   33.333333333333336
-50.0   60.0   50.0
-100.0   30.0   50.0
-100.0   60.0   50.0
-50.0   60.0   50.0
-100.0   60.0   33.333333333333336
-100.0   30.0   50.0
-50.0   60.0   50.0
-50.0   30.0   50.0
-50.0   30.0   33.333333333333336
-100.0   30.0   50.0
-50.0   60.0   50.0
-50.0   30.0   33.333333333333336
-100.0   60.0   33.333333333333336
-100.0   60.0   0.0
-50.0   60.0   0.0
-100.0   90.0   0.0
-100.0   60.0   16.666666666666668
-50.0   60.0   0.0
-50.0   90.0   0.0
-100.0   90.0   0.0
-50.0   90.0   16.666666666666668
-100.0   60.0   16.666666666666668
-100.0   90.0   16.666666666666668
-50.0   90.0   16.666666666666668
-100.0   90.0   0.0
-100.0   60.0   16.666666666666668
-50.0   90.0   16.666666666666668
-50.0   60.0   16.666666666666668
-50.0   60.0   0.0
-100.0   60.0   16.666666666666668
-50.0   90.0   16.666666666666668
-50.0   60.0   0.0
-100.0   90.0   0.0
-100.0   60.0   16.666666666666668
-50.0   60.0   16.666666666666668
-100.0   90.0   16.666666666666668
-100.0   60.0   33.333333333333336
-50.0   60.0   16.666666666666668
-50.0   90.0   16.666666666666668
-100.0   90.0   16.666666666666668
-50.0   90.0   33.333333333333336
-100.0   60.0   33.333333333333336
-100.0   90.0   33.333333333333336
-50.0   90.0   33.333333333333336
-100.0   90.0   16.666666666666668
-100.0   60.0   33.333333333333336
-50.0   90.0   33.333333333333336
-50.0   60.0   33.333333333333336
-50.0   60.0   16.666666666666668
-100.0   60.0   33.333333333333336
-50.0   90.0   33.333333333333336
-50.0   60.0   16.666666666666668
-100.0   90.0   16.666666666666668
-100.0   60.0   33.333333333333336
-50.0   60.0   33.333333333333336
-100.0   90.0   33.333333333333336
-100.0   60.0   50.0
-50.0   60.0   33.333333333333336
-50.0   90.0   33.333333333333336
-100.0   90.0   33.333333333333336
-50.0   90.0   50.0
-100.0   60.0   50.0
-100.0   90.0   50.0
-50.0   90.0   50.0
-100.0   90.0   33.333333333333336
-100.0   60.0   50.0
-50.0   90.0   50.0
-50.0   60.0   50.0
-50.0   60.0   33.333333333333336
-100.0   60.0   50.0
-50.0   90.0   50.0
-50.0   60.0   33.333333333333336
-100.0   90.0   33.333333333333336
-100.0   90.0   0.0
-50.0   90.0   0.0
-100.0   120.0   0.0
-100.0   90.0   16.666666666666668
-50.0   90.0   0.0
-50.0   120.0   0.0
-100.0   120.0   0.0
-50.0   120.0   16.666666666666668
-100.0   90.0   16.666666666666668
-100.0   120.0   16.666666666666668
-50.0   120.0   16.666666666666668
-100.0   120.0   0.0
-100.0   90.0   16.666666666666668
-50.0   120.0   16.666666666666668
-50.0   90.0   16.666666666666668
-50.0   90.0   0.0
-100.0   90.0   16.666666666666668
-50.0   120.0   16.666666666666668
-50.0   90.0   0.0
-100.0   120.0   0.0
-100.0   90.0   16.666666666666668
-50.0   90.0   16.666666666666668
-100.0   120.0   16.666666666666668
-100.0   90.0   33.333333333333336
-50.0   90.0   16.666666666666668
-50.0   120.0   16.666666666666668
-100.0   120.0   16.666666666666668
-50.0   120.0   33.333333333333336
-100.0   90.0   33.333333333333336
-100.0   120.0   33.333333333333336
-50.0   120.0   33.333333333333336
-100.0   120.0   16.666666666666668
-100.0   90.0   33.333333333333336
-50.0   120.0   33.333333333333336
-50.0   90.0   33.333333333333336
-50.0   90.0   16.666666666666668
-100.0   90.0   33.333333333333336
-50.0   120.0   33.333333333333336
-50.0   90.0   16.666666666666668
-100.0   120.0   16.666666666666668
-100.0   90.0   33.333333333333336
-50.0   90.0   33.333333333333336
-100.0   120.0   33.333333333333336
-100.0   90.0   50.0
-50.0   90.0   33.333333333333336
-50.0   120.0   33.333333333333336
-100.0   120.0   33.333333333333336
-50.0   120.0   50.0
-100.0   90.0   50.0
-100.0   120.0   50.0
-50.0   120.0   50.0
-100.0   120.0   33.333333333333336
-100.0   90.0   50.0
-50.0   120.0   50.0
-50.0   90.0   50.0
-50.0   90.0   33.333333333333336
-100.0   90.0   50.0
-50.0   120.0   50.0
-50.0   90.0   33.333333333333336
-100.0   120.0   33.333333333333336
-100.0   120.0   0.0
-50.0   120.0   0.0
-100.0   150.0   0.0
-100.0   120.0   16.666666666666668
-50.0   120.0   0.0
-50.0   150.0   0.0
-100.0   150.0   0.0
-50.0   150.0   16.666666666666668
-100.0   120.0   16.666666666666668
-100.0   150.0   16.666666666666668
-50.0   150.0   16.666666666666668
-100.0   150.0   0.0
-100.0   120.0   16.666666666666668
-50.0   150.0   16.666666666666668
-50.0   120.0   16.666666666666668
-50.0   120.0   0.0
-100.0   120.0   16.666666666666668
-50.0   150.0   16.666666666666668
-50.0   120.0   0.0
-100.0   150.0   0.0
-100.0   120.0   16.666666666666668
-50.0   120.0   16.666666666666668
-100.0   150.0   16.666666666666668
-100.0   120.0   33.333333333333336
-50.0   120.0   16.666666666666668
-50.0   150.0   16.666666666666668
-100.0   150.0   16.666666666666668
-50.0   150.0   33.333333333333336
-100.0   120.0   33.333333333333336
-100.0   150.0   33.333333333333336
-50.0   150.0   33.333333333333336
-100.0   150.0   16.666666666666668
-100.0   120.0   33.333333333333336
-50.0   150.0   33.333333333333336
-50.0   120.0   33.333333333333336
-50.0   120.0   16.666666666666668
-100.0   120.0   33.333333333333336
-50.0   150.0   33.333333333333336
-50.0   120.0   16.666666666666668
-100.0   150.0   16.666666666666668
-100.0   120.0   33.333333333333336
-50.0   120.0   33.333333333333336
-100.0   150.0   33.333333333333336
-100.0   120.0   50.0
-50.0   120.0   33.333333333333336
-50.0   150.0   33.333333333333336
-100.0   150.0   33.333333333333336
-50.0   150.0   50.0
-100.0   120.0   50.0
-100.0   150.0   50.0
-50.0   150.0   50.0
-100.0   150.0   33.333333333333336
-100.0   120.0   50.0
-50.0   150.0   50.0
-50.0   120.0   50.0
-50.0   120.0   33.333333333333336
-100.0   120.0   50.0
-50.0   150.0   50.0
-50.0   120.0   33.333333333333336
-100.0   150.0   33.333333333333336
-50.0   0.0   0.0
0.0   0.0   0.0
-50.0   30.0   0.0
-50.0   0.0   16.666666666666668
0.0   0.0   0.0
0.0   30.0   0.0
-50.0   30.0   0.0
0.0   30.0   16.666666666666668
-50.0   0.0   16.666666666666668
-50.0   30.0   16.666666666666668
0.0   30.0   16.666666666666668
-50.0   30.0   0.0
-50.0   0.0   16.666666666666668
0.0   30.0   16.666666666666668
0.0   0.0   16.666666666666668
0.0   0.0   0.0
-50.0   0.0   16.666666666666668
0.0   30.0   16.666666666666668
0.0   0.0   0.0
-50.0   30.0   0.0
-50.0   0.0   16.666666666666668
0.0   0.0   16.666666666666668
-50.0   30.0   16.666666666666668
-50.0   0.0   33.333333333333336
0.0   0.0   16.666666666666668
0.0   30.0   16.666666666666668
-50.0   30.0   16.666666666666668
0.0   30.0   33.333333333333336
-50.0   0.0   33.333333333333336
-50.0   30.0   33.333333333333336
0.0   30.0   33.333333333333336
-50.0   30.0   16.666666666666668
-50.0   0.0   33.333333333333336
0.0   30.0   33.333333333333336
0.0   0.0   33.333333333333336
0.0   0.0   16.666666666666668
-50.0   0.0   33.333333333333336
0.0   30.0   33.333333333333336
0.0   0.0   16.666666666666668
-50.0   30.0   16.666666666666668
-50.0   0.0   33.333333333333336
0.0   0.0   33.333333333333336
-50.0   30.0   33.333333333333336
-50.0   0.0   50.0
0.0   0.0   33.333333333333336
0.0   30.0   33.333333333333336
-50.0   30.0   33.333333333333336
0.0   30.0   50.0
-50.0   0.0   50.0
-50.0   30.0   50.0
0.0   30.0   50.0
-50.0   30.0   33.333333333333336
-50.0   0.0   50.0
0.0   30.0   50.0
0.0   0.0   50.0
0.0   0.0   33.333333333333336
-50.0   0.0   50.0
0.0   30.0   50.0
0.0   0.0   33.333333333333336
-50.0   30.0   33.333333333333336
-50.0   30.0   0.0
0.0   30.0   0.0
-50.0   60.0   0.0
-50.0   30.0   16.666666666666668
0.0   30.0   0.0
0.0   60.0   0.0
-50.0   60.0   0.0
0.0   60.0   16.666666666666668
-50.0   30.0   16.666666666666668
-50.0   60.0   16.666666666666668
0.0   60.0   16.666666666666668
-50.0   60.0   0.0
-50.0   30.0   16.666666666666668
0.0   60.0   16.666666666666668
0.0   30.0   16.666666666666668
0.0   30.0   0.0
-50.0   30.0   16.666666666666668
0.0   60.0   16.666666666666668
0.0   30.0   0.0
-50.0   60.0   0.0
-50.0   30.0   16.666666666666668
0.0   30.0   16.666666666666668
-50.0   60.0   16.666666666666668
-50.0   30.0   33.333333333333336
0.0   30.0   16.666666666666668
0.0   60.0   16.666666666666668
-50.0   60.0   16.666666666666668
0.0   60.0   33.333333333333336
-50.0   30.0   33.333333333333336
-50.0   60.0   33.333333333333336
0.0   60.0   33.333333333333336
-50.0   60.0   16.666666666666668
-50.0   30.0   33.333333333333336
0.0   60.0   33.333333333333336
0.0   30.0   33.333333333333336
0.0   30.0   16.666666666666668
-50.0   30.0   33.333333333333336
0.0   60.0   33.333333333333336
0.0   30.0   16.666666666666668
-50.0   60.0   16.666666666666668
-50.0   30.0   33.333333333333336
0.0   30.0   33.333333333333336
-50.0   60.0   33.333333333333336
-50.0   30.0   50.0
0.0   30.0   33.333333333333336
0.0   60.0   33.333333333333336
-50.0   60.0   33.333333333333336
0.0   60.0   50.0
-50.0   30.0   50.0
-50.0   60.0   50.0
0.0   60.0   50.0
-50.0   60.0   33.333333333333336
-50.0   30.0   50.0
0.0   60.0   50.0
0.0   30.0   50.0
0.0   30.0   33.333333333333336
-50.0   30.0   50.0
0.0   60.0   50.0
0.0   30.0   33.333333333333336
-50.0   60.0   33.333333333333336
-50.0   60.0   0.0
0.0   60.0   0.0
-50.0   90.0   0.0
-50.0   60.0   16.666666666666668
0.0   60.0   0.0
0.0   90.0   0.0
-50.0   90.0   0.0
0.0   90.0   16.666666666666668
-50.0   60.0   16.666666666666668
-50.0   90.0   16.666666666666668
0.0   90.0   16.666666666666668
-50.0   90.0   0.0
-50.0   60.0   16.666666666666668
0.0   90.0   16.666666666666668
0.0   60.0   16.666666666666668
0.0   60.0   0.0
-50.0   60.0   16.666666666666668
0.0   90.0   16.666666666666668
0.0   60.0   0.0
-50.0   90.0   0.0
-50.0   60.0   16.666666666666668
0.0   60.0   16.666666666666668
-50.0   90.0   16.666666666666668
-50.0   60.0   33.333333333333336
0.0   60.0   16.666666666666668
0.0   90.0   16.666666666666668
-50.0   90.0   16.666666666666668
0.0   90.0   33.333333333333336
-50.0   60.0   33.333333333333336
-50.0   90.0   33.333333333333336
0.0   90.0   33.333333333333336
-50.0   90.0   16.666666666666668
-50.0   60.0   33.333333333333336
0.0   90.0   33.333333333333336
0.0   60.0   33.333333333333336
0.0   60.0   16.666666666666668
-50.0   60.0   33.333333333333336
0.0   90.0   33.333333333333336
0.0   60.0   16.666666666666668
-50.0   90.0   16.666666666666668
-50.0   60.0   33.333333333333336
0.0   60.0   33.333333333333336
-50.0   90.0   33.333333333333336
-50.0   60.0   50.0
0.0   60.0   33.333333333333336
0.0   90.0   33.333333333333336
-50.0   90.0   33.333333333333336
0.0   90.0   50.0
-50.0   60.0   50.0
-50.0   90.0   50.0
0.0   90.0   50.0
-50.0   90.0   33.333333333333336
-50.0   60.0   50.0
0.0   90.0   50.0
0.0   60.0   50.0
0.0   60.0   33.333333333333336
-50.0   60.0   50.0
0.0   90.0   50.0
0.0   60.0   33.333333333333336
-50.0   90.0   33.333333333333336
-50.0   90.0   0.0
0.0   90.0   0.0
-50.0   120.0   0.0
-50.0   90.0   16.666666666666668
0.0   90.0   0.0
0.0   120.0   0.0
-50.0   120.0   0.0
0.0   120.0   16.666666666666668
-50.0   90.0   16.666666666666668
-50.0   120.0   16.666666666666668
0.0   120.0   16.666666666666668
-50.0   120.0   0.0
-50.0   90.0   16.666666666666668
0.0   120.0   16.666666666666668
0.0   90.0   16.666666666666668
0.0   90.0   0.0
-50.0   90.0   16.666666666666668
0.0   120.0   16.666666666666668
0.0   90.0   0.0
-50.0   120.0   0.0
-50.0   90.0   16.666666666666668
0.0   90.0   16.666666666666668
-50.0   120.0   16.666666666666668
-50.0   90.0   33.333333333333336
0.0   90.0   16.666666666666668
0.0   120.0   16.666666666666668
-50.0   120.0   16.666666666666668
0.0   120.0   33.333333333333336
-50.0   90.0   33.333333333333336
-50.0   120.0   33.333333333333336
0.0   120.0   33.333333333333336
-50.0   120.0   16.666666666666668
-50.0   90.0   33.333333333333336
0.0   120.0   33.333333333333336
0.0   90.0   33.333333333333336
0.0   90.0   16.666666666666668
-50.0   90.0   33.333333333333336
0.0   120.0   33.333333333333336
0.0   90.0   16.666666666666668
-50.0   120.0   16.666666666666668
-50.0   90.0   33.333333333333336
0.0   90.0   33.333333333333336
-50.0   120.0   33.333333333333336
-50.0   90.0   50.0
0.0   90.0   33.333333333333336
0.0   120.0   33.333333333333336
-50.0   120.0   33.333333333333336
0.0   120.0   50.0
-50.0   90.0   50.0
-50.0   120.0   50.0
0.0   120.0   50.0
-50.0   120.0   33.333333333333336
-50.0   90.0   50.0
0.0   120.0   50.0
0.0   90.0   50.0
0.0   90.0   33.333333333333336
-50.0   90.0   50.0
0.0   120.0   50.0
0.0   90.0   33.333333333333336
-50.0   120.0   33.333333333333336
-50.0   120.0   0.0
0.0   120.0   0.0
-50.0   150.0   0.0
-50.0   120.0   16.666666666666668
0.0   120.0   0.0
0.0   150.0   0.0
-50.0   150.0   0.0
0.0   150.0   16.666666666666668
-50.0   120.0   16.666666666666668
-50.0   150.0   16.666666666666668
0.0   150.0   16.666666666666668
-50.0   150.0   0.0
-50.0   120.0   16.666666666666668
0.0   150.0   16.666666666666668
0.0   120.0   16.666666666666668
0.0   120.0   0.0
-50.0   120.0   16.666666666666668
0.0   150.0   16.666666666666668
0.0   120.0   0.0
-50.0   150.0   0.0
-50.0   120.0   16.666666666666668
0.0   120.0   16.666666666666668
-50.0   150.0   16.666666666666668
-50.0   120.0   33.333333333333336
0.0   120.0   16.666666666666668
0.0   150.0   16.666666666666668
-50.0   150.0   16.666666666666668
0.0   150.0   33.333333333333336
-50.0   120.0   33.333333333333336
-50.0   150.0   33.333333333333336
0.0   150.0   33.333333333333336
-50.0   150.0   16.666666666666668
-50.0   120.0   33.333333333333336
0.0   150.0   33.333333333333336
0.0   120.0   33.333333333333336
0.0   120.0   16.666666666666668
-50.0   120.0   33.333333333333336
0.0   150.0   33.333333333333336
0.0   120.0   16.666666666666668
-50.0   150.0   16.666666666666668
-50.0   120.0   33.333333333333336
0.0   120.0   33.333333333333336
-50.0   150.0   33.333333333333336
-50.0   120.0   50.0
0.0   120.0   33.333333333333336
0.0   150.0   33.333333333333336
-50.0   150.0   33.333333333333336
0.0   150.0   50.0
-50.0   120.0   50.0
-50.0   150.0   50.0
0.0   150.0   50.0
-50.0   150.0   33.333333333333336
-50.0   120.0   50.0
0.0   150.0   50.0
0.0   120.0   50.0
0.0   120.0   33.333333333333336
-50.0   120.0   50.0
0.0   150.0   50.0
0.0   120.0   33.333333333333336
-50.0   150.0   33.333333333333336
0.0   0.0   0.0
50.0   0.0   0.0
0.0   30.0   0.0
0.0   0.0   16.666666666666668
50.0   0.0   0.0
50.0   30.0   0.0
0.0   30.0   0.0
50.0   30.0   16.666666666666668
0.0   0.0   16.666666666666668
0.0   30.0   16.666666666666668
50.0   30.0   16.666666666666668
0.0   30.0   0.0
0.0   0.0   16.666666666666668
50.0   30.0   16.666666666666668
50.0   0.0   16.666666666666668
50.0   0.0   0.0
0.0   0.0   16.666666666666668
50.0   30.0   16.666666666666668
50.0   0.0   0.0
0.0   30.0   0.0
0.0   0.0   16.666666666666668
50.0   0.0   16.666666666666668
0.0   30.0   16.666666666666668
0.0   0.0   33.333333333333336
50.0   0.0   16.666666666666668
50.0   30.0   16.666666666666668
0.0   30.0   16.666666666666668
50.0   30.0   33.333333333333336
0.0   0.0   33.333333333333336
0.0   30.0   33.333333333333336
50.0   30.0   33.333333333333336
0.0   30.0   16.666666666666668
0.0   0.0   33.333333333333336
50.0   30.0   33.333333333333336
50.0   0.0   33.333333333333336
50.0   0.0   16.666666666666668
0.0   0.0   33.333333333333336
50.0   30.0   33.333333333333336
50.0   0.0   16.666666666666668
0.0   30.0   16.666666666666668
0.0   0.0   33.333333333333336
50.0   0.0   33.333333333333336
0.0   30.0   33.333333333333336
0.0   0.0   50.0
50.0   0.0   33.333333333333336
50.0   30.0   33.333333333333336
0.0   30.0   33.333333333333336
50.0   30.0   50.0
0.0   0.0   50.0
0.0   30.0   50.0
50.0   30.0   50.0
0.0   30.0   33.333333333333336
0.0   0.0   50.0
50.0   30.0   50.0
50.0   0.0   50.0
50.0   0.0   33.333333333333336
0.0   0.0   50.0
50.0   30.0   50.0
50.0   0.0   33.333333333333336
0.0   30.0   33.333333333333336
0.0   30.0   0.0
50.0   30.0   0.0
0.0   60.0   0.0
0.0   30.0   16.666666666666668
50.0   30.0   0.0
50.0   60.0   0.0
0.0   60.0   0.0
50.0   60.0   16.666666666666668
0.0   30.0   16.666666666666668
0.0   60.0   16.666666666666668
50.0   60.0   16.666666666666668
0.0   60.0   0.0
0.0   30.0   16.666666666666668
50.0   60.0   16.666666666666668
50.0   30.0   16.666666666666668
50.0   30.0   0.0
0.0   30.0   16.666666666666668
50.0   60.0   16.666666666666668
50.0   30.0   0.0
0.0   60.0   0.0
0.0   30.0   16.666666666666668
50.0   30.0   16.666666666666668
0.0   60.0   16.666666666666668
0.0   30.0   33.333333333333336
50.0   30.0   16.666666666666668
50.0   60.0   16.666666666666668
0.0   60.0   16.666666666666668
50.0   60.0   33.333333333333336
0.0   30.0   33.333333333333336
0.0   60.0   33.333333333333336
50.0   60.0   33.333333333333336
0.0   60.0   16.666666666666668
0.0   30.0   33.333333333333336
50.0   60.0   33.333333333333336
50.0   30.0   33.333333333333336
50.0   30.0   16.666666666666668
0.0   30.0   33.333333333333336
50.0   60.0   33.333333333333336
50.0   30.0   16.666666666666668
0.0   60.0   16.666666666666668
0.0   30.0   33.333333333333336
50.0   30.0   33.333333333333336
0.0   60.0   33.333333333333336
0.0   30.0   50.0
50.0   30.0   33.333333333333336
50.0   60.0   33.333333333333336
0.0   60.0   33.333333333333336
50.0   60.0   50.0
0.0   30.0   50.0
0.0   60.0   50.0
50.0   60.0   50.0
0.0   60.0   33.333333333333336
0.0   30.0   50.0
50.0   60.0   50.0
50.0   30.0   50.0
50.0   30.0   33.333333333333336
0.0   30.0   50.0
50.0   60.0   50.0
50.0   30.0   33.333333333333336
0.0   60.0   33.333333333333336
0.0   60.0   0.0
50.0   60.0   0.0
0.0   90.0   0.0
0.0   60.0   16.666666666666668
50.0   60.0   0.0
50.0   90.0   0.0
0.0   90.0   0.0
50.0   90.0   16.666666666666668
0.0   60.0   16.666666666666668
0.0   90.0   16.666666666666668
50.0   90.0   16.666666666666668
0.0   90.0   0.0
0.0   60.0   16.666666666666668
50.0   90.0   16.666666666666668
50.0   60.0   16.666666666666668
50.0   60.0   0.0
0.0   60.0   16.666666666666668
50.0   90.0   16.666666666666668
50.0   60.0   0.0
0.0   90.0   0.0
0.0   60.0   16.666666666666668
50.0   60.0   16.666666666666668
0.0   90.0   16.666666666666668
0.0   60.0   33.333333333333336
50.0   60.0   16.666666666666668
50.0   90.0   16.666666666666668
0.0   90.0   16.666666666666668
50.0   90.0   33.333333333333336
0.0   60.0   33.333333333333336
0.0   90.0   33.333333333333336
50.0   90.0   33.333333333333336
0.0   90.0   16.666666666666668
0.0   60.0   33.333333333333336
50.0   90.0   33.333333333333336
50.0   60.0   33.333333333333336
50.0   60.0   16.666666666666668
0.0   60.0   33.333333333333336
50.0   90.0   33.333333333333336
50.0   60.0   16.666666666666668
0.0   90.0   16.666666666666668
0.0   60.0   33.333333333333336
50.0   60.0   33.333333333333336
0.0   90.0   33.333333333333336
0.0   60.0   50.0
50.0   60.0   33.333333333333336
50.0   90.0   33.333333333333336
0.0   90.0   33.333333333333336
50.0   90.0   50.0
0.0   60.0   50.0
0.0   90.0   50.0
50.0   90.0   50.0
0.0   90.0   33.333333333333336
0.0   60.0   50.0
50.0   90.0   50.0
50.0   60.0   50.0
50.0   60.0   33.333333333333336
0.0   60.0   50.0
50.0   90.0   50.0
50.0   60.0   33.333333333333336
0.0   90.0   33.333333333333336
0.0   90.0   0.0
50.0   90.0   0.0
0.0   120.0   0.0
0.0   90.0   16.666666666666668
50.0   90.0   0.0
50.0   120.0   0.0
0.0   120.0   0.0
50.0   120.0   16.666666666666668
0.0   90.0   16.666666666666668
0.0   120.0   16.666666666666668
50.0   120.0   16.666666666666668
0.0   120.0   0.0
0.0   90.0   16.666666666666668
50.0   120.0   16.666666666666668
50.0   90.0   16.666666666666668
50.0   90.0   0.0
0.0   90.0   16.666666666666668
50.0   120.0   16.666666666666668
50.0   90.0   0.0
0.0   120.0   0.0
0.0   90.0   16.666666666666668
50.0   90.0   16.666666666666668
0.0   120.0   16.666666666666668
0.0   90.0   33.333333333333336
50.0   90.0   16.666666666666668
50.0   120.0   16.666666666666668
0.0   120.0   16.666666666666668
50.0   120.0   33.333333333333336
0.0   90.0   33.333333333333336
0.0   120.0   33.333333333333336
50.0   120.0   33.333333333333336
0.0   120.0   16.666666666666668
0.0   90.0   33.333333333333336
50.0   120.0   33.333333333333336
50.0   90.0   33.333333333333336
50.0   90.0   16.666666666666668
0.0   90.0   33.333333333333336
50.0   120.0   33.333333333333336
50.0   90.0   16.666666666666668
0.0   120.0   16.666666666666668
0.0   90.0   33.333333333333336
50.0   90.0   33.333333333333336
0.0   120.0   33.333333333333336
0.0   90.0   50.0
50.0   90.0   33.333333333333336
50.0   120.0   33.333333333333336
0.0   120.0   33.333333333333336
50.0   120.0   50.0
0.0   90.0   50.0
0.0   120.0   50.0
50.0   120.0   50.0
0.0   120.0   33.333333333333336
0.0   90.0   50.0
50.0   120.0   50.0
50.0   90.0   50.0
50.0   90.0   33.333333333333336
0.0   90.0   50.0
50.0   120.0   50.0
50.0   90.0   33.333333333333336
0.0   120.0   33.333333333333336
0.0   120.0   0.0
50.0   120.0   0.0
0.0   150.0   0.0
0.0   120.0   16.666666666666668
50.0   120.0   0.0
50.0   150.0   0.0
0.0   150.0   0.0
50.0   150.0   16.666666666666668
0.0   120.0   16.666666666666668
0.0   150.0   16.666666666666668
50.0   150.0   16.666666666666668
0.0   150.0   0.0
0.0   120.0   16.666666666666668
50.0   150.0   16.666666666666668
50.0   120.0   16.666666666666668
50.0   120.0   0.0
0.0   120.0   16.666666666666668
50.0   150.0   16.666666666666668
50.0   120.0   0.0
0.0   150.0   0.0
0.0   120.0   16.666666666666668
50.0   120.0   16.666666666666668
0.0   150.0   16.666666666666668
0.0   120.0   33.333333333333336
50.0   120.0   16.666666666666668
50.0   150.0   16.666666666666668
0.0   150.0   16.666666666666668
50.0   150.0   33.333333333333336
0.0   120.0   33.333333333333336
0.0   150.0   33.333333333333336
50.0   150.0   33.333333333333336
0.0   150.0   16.666666666666668
0.0   120.0   33.333333333333336
50.0   150.0   33.333333333333336
50.0   120.0   33.333333333333336
50.0   120.0   16.666666666666668
0.0   120.0   33.333333333333336
50.0   150.0   33.333333333333336
50.0   120.0   16.666666666666668
0.0   150.0   16.666666666666668
0.0   120.0   33.333333333333336
50.0   120.0   33.333333333333336
0.0   150.0   33.333333333333336
0.0   120.0   50.0
50.0   120.0   33.333333333333336
50.0   150.0   33.333333333333336
0.0   150.0   33.333333333333336
50.0   150.0   50.0
0.0   120.0   50.0
0.0   150.0   50.0
50.0   150.0   50.0
0.0   150.0   33.333333333333336
0.0   120.0   50.0
50.0   150.0   50.0
50.0   120.0   50.0
50.0   120.0   33.333333333333336
0.0   120.0   50.0
50.0   150.0   50.0
50.0   120.0   33.333333333333336
0.0   150.0   33.333333333333336
50.0   0.0   0.0
100.0   0.0   0.0
50.0   30.0   0.0
50.0   0.0   16.666666666666668
100.0   0.0   0.0
100.0   30.0   0.0
50.0   30.0   0.0
100.0   30.0   16.666666666666668
50.0   0.0   16.666666666666668
50.0   30.0   16.666666666666668
100.0   30.0   16.666666666666668
50.0   30.0   0.0
50.0   0.0   16.666666666666668
100.0   30.0   16.666666666666668
100.0   0.0   16.666666666666668
100.0   0.0   0.0
50.0   0.0   16.666666666666668
100.0   30.0   16.666666666666668
100.0   0.0   0.0
50.0   30.0   0.0
50.0   0.0   16.666666666666668
100.0   0.0   16.666666666666668
50.0   30.0   16.666666666666668
50.0   0.0   33.333333333333336
100.0   0.0   16.666666666666668
100.0   30.0   16.666666666666668
50.0   30.0   16.666666666666668
100.0   30.0   33.333333333333336
50.0   0.0   33.333333333333336
50.0   30.0   33.333333333333336
100.0   30.0   33.333333333333336
50.0   30.0   16.666666666666668
50.0   0.0   33.333333333333336
100.0   30.0   33.333333333333336
100.0   0.0   33.333333333333336
100.0   0.0   16.666666666666668
50.0   0.0   33.333333333333336
100.0   30.0   33.333333333333336
100.0   0.0   16.666666666666668
50.0   30.0   16.666666666666668
50.0   0.0   33.333333333333336
100.0   0.0   33.333333333333336
50.0   30.0   33.333333333333336
50.0   0.0   50.0
100.0   0.0   33.333333333333336
100.0   30.0   33.333333333333336
50.0   30.0   33.333333333333336
100.0   30.0   50.0
50.0   0.0   50.0
50.0   30.0   50.0
100.0   30.0   50.0
50.0   30.0   33.333333333333336
50.0   0.0   50.0
100.0   30.0   50.0
100.0   0.0   50.0
100.0   0.0   33.333333333333336
50.0   0.0   50.0
100.0   30.0   50.0
100.0   0.0   33.333333333333336
50.0   30.0   33.333333333333336
50.0   30.0   0.0
100.0   30.0   0.0
50.0   60.0   0.0
50.0   30.0   16.666666666666668
100.0   30.0   0.0
100.0   60.0   0.0
50.0   60.0   0.0
100.0   60.0   16.666666666666668
50.0   30.0   16.666666666666668
50.0   60.0   16.666666666666668
100.0   60.0   16.666666666666668
50.0   60.0   0.0
50.0   30.0   16.666666666666668
100.0   60.0   16.666666666666668
100.0   30.0   16.666666666666668
100.0   30.0   0.0
50.0   30.0   16.666666666666668
100.0   60.0   16.666666666666668
100.0   30.0   0.0
50.0   60.0   0.0
50.0   30.0   16.666666666666668
100.0   30.0   16.666666666666668
50.0   60.0   16.666666666666668
50.0   30.0   33.333333333333336
100.0   30.0   16.666666666666668
100.0   60.0   16.666666666666668
50.0   60.0   16.666666666666668
100.0   60.0   33.333333333333336
50.0   30.0   33.333333333333336
50.0   60.0   33.333333333333336
100.0   60.0   33.333333333333336
50.0   60.0   16.666666666666668
50.0   30.0   33.333333333333336
100.0   60.0   33.333333333333336
100.0   30.0   33.333333333333336
100.0   30.0   16.666666666666668
50.0   30.0   33.333333333333336
100.0   60.0   33.333333333333336
100.0   30.0   16.666666666666668
50.0   60.0   16.666666666666668
50.0   30.0   33.333333333333336
100.0   30.0   33.333333333333336
50.0   60.0   33.333333333333336
50.0   30.0   50.0
100.0   30.0   33.333333333333336
100.0   60.0   33.333333333333336
50.0   60.0   33.333333333333336
100.0   60.0   50.0
50.0   30.0   50.0
50.0   60.0   50.0
100.0   60.0   50.0
50.0   60.0   33.333333333333336
50.0   30.0   50.0
100.0   60.0   50.0
100.0   30.0   50.0
100.0   30.0   33.333333333333336
50.0   30.0   50.0
100.0   60.0   50.0
100.0   30.0   33.333333333333336
50.0   60.0   33.333333333333336
50.0   60.0   0.0
100.0   60.0   0.0
50.0   90.0   0.0
50.0   60.0   16.666666666666668
100.0   60.0   0.0
100.0   90.0   0.0
50.0   90.0   0.0
100.0   90.0   16.666666666666668
50.0   60.0   16.666666666666668
50.0   90.0   16.666666666666668
100.0   90.0   16.666666666666668
50.0   90.0   0.0
50.0   60.0   16.666666666666668
100.0   90.0   16.666666666666668
100.0   60.0   16.666666666666668
100.0   60.0   0.0
50.0   60.0   16.666666666666668
100.0   90.0   16.666666666666668
100.0   60.0   0.0
50.0   90.0   0.0
50.0   60.0   16.666666666666668
100.0   60.0   16.666666666666668
50.0   90.0   16.666666666666668
50.0   60.0   33.333333333333336
100.0   60.0   16.666666666666668
100.0   90.0   16.666666666666668
50.0   90.0   16.666666666666668
100.0   90.0   33.333333333333336
50.0   60.0   33.333333333333336
50.0   90.0   33.333333333333336
100.0   90.0   33.333333333333336
50.0   90.0   16.666666666666668
50.0   60.0   33.333333333333336
100.0   90.0   33.333333333333336
100.0   60.0   33.333333333333336
100.0   60.0   16.666666666666668
50.0   60.0   33.333333333333336
100.0   90.0   33.333333333333336
100.0   60.0   16.666666666666668
50.0   90.0   16.666666666666668
50.0   60.0   33.333333333333336
100.0   60.0   33.333333333333336
50.0   90.0   33.333333333333336
50.0   60.0   50.0
100.0   60.0   33.333333333333336
100.0   90.0   33.333333333333336
50.0   90.0   33.333333333333336
100.0   90.0   50.0
50.0   60.0   50.0
50.0   90.0   50.0
100.0   90.0   50.0
50.0   90.0   33.333333333333336
50.0   60.0   50.0
100.0   90.0   50.0
100.0   60.0   50.0
100.0   60.0   33.333333333333336
50.0   60.0   50.0
100.0   90.0   50.0
100.0   60.0   33.333333333333336
50.0   90.0   33.333333333333336
50.0   90.0   0.0
100.0   90.0   0.0
50.0   120.0   0.0
50.0   90.0   16.666666666666668
100.0   90.0   0.0
100.0   120.0   0.0
50.0   120.0   0.0
100.0   120.0   16.666666666666668
50.0   90.0   16.666666666666668
50.0   120.0   16.666666666666668
100.0   120.0   16.666666666666668
50.0   120.0   0.0
50.0   90.0   16.666666666666668
100.0   120.0   16.666666666666668
100.0   90.0   16.666666666666668
100.0   90.0   0.0
50.0   90.0   16.666666666666668
100.0   120.0   16.666666666666668
100.0   90.0   0.0
50.0   120.0   0.0
50.0   90.0   16.666666666666668
100.0   90.0   16.666666666666668
50.0   120.0   16.666666666666668
50.0   90.0   33.333333333333336
100.0   90.0   16.666666666666668
100.0   120.0   16.666666666666668
50.0   120.0   16.666666666666668
100.0   120.0   33.333333333333336
50.0   90.0   33.333333333333336
50.0   120.0   33.333333333333336
100.0   120.0   33.333333333333336
50.0   120.0   16.666666666666668
50.0   90.0   33.333333333333336
100.0   120.0   33.333333333333336
100.0   90.0   33.333333333333336
100.0   90.0   16.666666666666668
50.0   90.0   33.333333333333336
100.0   120.0   33.333333333333336
100.0   90.0   16.666666666666668
50.0   120.0   16.666666666666668
50.0   90.0   33.333333333333336
100.0   90.0   33.333333333333336
50.0   120.0   33.333333333333336
50.0   90.0   50.0
100.0   90.0   33.333333333333336
100.0   120.0   33.333333333333336
50.0   120.0   33.333333333333336
100.0   120.0   50.0
50.0   90.0   50.0
50.0   120.0   50.0
100.0   120.0   50.0
50.0   120.0   33.333333333333336
50.0   90.0   50.0
100.0   120.0   50.0
100.0   90.0   50.0
100.0   90.0   33.333333333333336
50.0   90.0   50.0
100.0   120.0   50.0
100.0   90.0   33.333333333333336
50.0   120.0   33.333333333333336
50.0   120.0   0.0
100.0   120.0   0.0
50.0   150.0   0.0
50.0   120.0   16.666666666666668
100.0   120.0   0.0
100.0   150.0   0.0
50.0   150.0   0.0
100.0   150.0   16.666666666666668
50.0   120.0   16.666666666666668
50.0   150.0   16.666666666666668
100.0   150.0   16.666666666666668
50.0   150.0   0.0
50.0   120.0   16.666666666666668
100.0   150.0   16.666666666666668
100.0   120.0   16.666666666666668
100.0   120.0   0.0
50.0   120.0   16.666666666666668
100.0   150.0   16.666666666666668
100.0   120.0   0.0
50.0   150.0   0.0
50.0   120.0   16.666666666666668
100.0   120.0   16.666666666666668
50.0   150.0   16.666666666666668
50.0   120.0   33.333333333333336
100.0   120.0   16.666666666666668
100.0   150.0   16.666666666666668
50.0   150.0   16.666666666666668
100.0   150.0   33.333333333333336
50.0   120.0   33.333333333333336
50.0   150.0   33.333333333333336
100.0   150.0   33.333333333333336
50.0   150.0   16.666666666666668
50.0   120.0   33.333333333333336
100.0   150.0   33.333333333333336
100.0   120.0   33.333333333333336
100.0   120.0   16.666666666666668
50.0   120.0   33.333333333333336
100.0   150.0   33.333333333333336
100.0   120.0   16.666666666666668
50.0   150.0   16.666666666666668
50.0   120.0   33.333333333333336
100.0   120.0   33.333333333333336
50.0   150.0   33.333333333333336
50.0   120.0   50.0
100.0   120.0   33.333333333333336
100.0   150.0   33.333333333333336
50.0   150.0   33.333333333333336
100.0   150.0   50.0
50.0   120.0   50.0
50.0   150.0   50.0
100.0   150.0   50.0
50.0   150.0   33.333333333333336
50.0   120.0   50.0
100.0   150.0   50.0
100.0   120.0   50.0
100.0   120.0   33.333333333333336
50.0   120.0   50.0
100.0   150.0   50.0
100.0   120.0   33.333333333333336
50.0   150.0   33.333333333333336
100.0   0.0   0.0
150.0   0.0   0.0
100.0   30.0   0.0
100.0   0.0   16.666666666666668
150.0   0.0   0.0
150.0   30.0   0.0
100.0   30.0   0.0
150.0   30.0   16.666666666666668
100.0   0.0   16.666666666666668
100.0   30.0   16.666666666666668
150.0   30.0   16.666666666666668
100.0   30.0   0.0
100.0   0.0   16.666666666666668
150.0   30.0   16.666666666666668
150.0   0.0   16.666666666666668
150.0   0.0   0.0
100.0   0.0   16.666666666666668
150.0   30.0   16.666666666666668
150.0   0.0   0.0
100.0   30.0   0.0
100.0   0.0   16.666666666666668
150.0   0.0   16.666666666666668
100.0   30.0   16.666666666666668
100.0   0.0   33.333333333333336
150.0   0.0   16.666666666666668
150.0   30.0   16.666666666666668
100.0   30.0   16.666666666666668
150.0   30.0   33.333333333333336
100.0   0.0   33.333333333333336
100.0   30.0   33.333333333333336
150.0   30.0   33.333333333333336
100.0   30.0   16.666666666666668
100.0   0.0   33.333333333333336
150.0   30.0   33.333333333333336
150.0   0.0   33.333333333333336
150.0   0.0   16.666666666666668
100.0   0.0   33.333333333333336
150.0   30.0   33.333333333333336
150.0   0.0   16.666666666666668
100.0   30.0   16.666666666666668
100.0   0.0   33.333333333333336
150.0   0.0   33.333333333333336
100.0   30.0   33.333333333333336
100.0   0.0   50.0
150.0   0.0   33.333333333333336
150.0   30.0   33.333333333333336
100.0   30.0   33.333333333333336
150.0   30.0   50.0
100.0   0.0   50.0
100.0   30.0   50.0
150.0   30.0   50.0
100.0   30.0   33.333333333333336
100.0   0.0   50.0
150.0   30.0   50.0
150.0   0.0   50.0
150.0   0.0   33.333333333333336
100.0   0.0   50.0
150.0   30.0   50.0
150.0   0.0   33.333333333333336
100.0   30.0   33.333333333333336
100.0   30.0   0.0
150.0   30.0   0.0
100.0   60.0   0.0
100.0   30.0   16.666666666666668
150.0   30.0   0.0
150.0   60.0   0.0
100.0   60.0   0.0
150.0   60.0   16.666666666666668
100.0   30.0   16.666666666666668
100.0   60.0   16.666666666666668
150.0   60.0   16.666666666666668
100.0   60.0   0.0
100.0   30.0   16.666666666666668
150.0   60.0   16.666666666666668
150.0   30.0   16.666666666666668
150.0   30.0   0.0
100.0   30.0   16.666666666666668
150.0   60.0   16.666666666666668
150.0   30.0   0.0
100.0   60.0   0.0
100.0   30.0   16.666666666666668
150.0   30.0   16.666666666666668
100.0   60.0   16.666666666666668
100.0   30.0   33.333333333333336
150.0   30.0   16.666666666666668
150.0   60.0   16.666666666666668
100.0   60.0   16.666666666666668
150.0   60.0   33.333333333333336
100.0   30.0   33.333333333333336
100.0   60.0   33.333333333333336
150.0   60.0   33.333333333333336
100.0   60.0   16.666666666666668
100.0   30.0   33.333333333333336
150.0   60.0   33.333333333333336
150.0   30.0   33.333333333333336
150.0   30.0   16.666666666666668
100.0   30.0   33.333333333333336
150.0   60.0   33.333333333333336
150.0   30.0   16.666666666666668
100.0   60.0   16.666666666666668
100.0   30.0   33.333333333333336
150.0   30.0   33.333333333333336
100.0   60.0   33.333333333333336
100.0   30.0   50.0
150.0   30.0   33.333333333333336
150.0   60.0   33.333333333333336
100.0   60.0   33.333333333333336
150.0   60.0   50.0
100.0   30.0   50.0
100.0   60.0   50.0
150.0   60.0   50.0
100.0   60.0   33.333333333333336
100.0   30.0   50.0
150.0   60.0   50.0
150.0   30.0   50.0
150.0   30.0   33.333333333333336
100.0   30.0   50.0
150.0   60.0   50.0
150.0   30.0   33.333333333333336
100.0   60.0   33.333333333333336
100.0   60.0   0.0
150.0   60.0   0.0
100.0   90.0   0.0
100.0   60.0   16.666666666666668
150.0   60.0   0.0
150.0   90.0   0.0
100.0   90.0   0.0
150.0   90.0   16.666666666666668
100.0   60.0   16.666666666666668
100.0   90.0   16.666666666666668
150.0   90.0   16.666666666666668
100.0   90.0   0.0
100.0   60.0   16.666666666666668
150.0   90.0   16.666666666666668
150.0   60.0   16.666666666666668
150.0   60.0   0.0
100.0   60.0   16.666666666666668
150.0   90.0   16.666666666666668
150.0   60.0   0.0
100.0   90.0   0.0
100.0   60.0   16.666666666666668
150.0   60.0   16.666666666666668
100.0   90.0   16.666666666666668
100.0   60.0   33.333333333333336
150.0   60.0   16.666666666666668
150.0   90.0   16.666666666666668
100.0   90.0   16.666666666666668
150.0   90.0   33.333333333333336
100.0   60.0   33.333333333333336
100.0   90.0   33.333333333333336
150.0   90.0   33.333333333333336
100.0   90.0   16.666666666666668
100.0   60.0   33.333333333333336
150.0   90.0   33.333333333333336
150.0   60.0   33.333333333333336
150.0   60.0   16.666666666666668
100.0   60.0   33.333333333333336
150.0   90.0   33.333333333333336
150.0   60.0   16.666666666666668
100.0   90.0   16.666666666666668
100.0   60.0   33.333333333333336
150.0   60.0   33.333333333333336
100.0   90.0   33.333333333333336
100.0   60.0   50.0
150.0   60.0   33.333333333333336
150.0   90.0   33.333333333333336
100.0   90.0   33.333333333333336
150.0   90.0   50.0
100.0   60.0   50.0
100.0   90.0   50.0
150.0   90.0   50.0
100.0   90.0   33.333333333333336
100.0   60.0   50.0
150.0   90.0   50.0
150.0   60.0   50.0
150.0   60.0   33.333333333333336
100.0   60.0   50.0
150.0   90.0   50.0
150.0   60.0   33.333333333333336
100.0   90.0   33.333333333333336
100.0   90.0   0.0
150.0   90.0   0.0
100.0   120.0   0.0
100.0   90.0   16.666666666666668
150.0   90.0   0.0
150.0   120.0   0.0
100.0   120.0   0.0
150.0   120.0   16.666666666666668
100.0   90.0   16.666666666666668
100.0   120.0   16.666666666666668
150.0   120.0   16.666666666666668
100.0   120.0   0.0
100.0   90.0   16.666666666666668
150.0   120.0   16.666666666666668
150.0   90.0   16.666666666666668
150.0   90.0   0.0
100.0   90.0   16.666666666666668
150.0   120.0   16.666666666666668
150.0   90.0   0.0
100.0   120.0   0.0
100.0   90.0   16.666666666666668
150.0   90.0   16.666666666666668
100.0   120.0   16.666666666666668
100.0   90.0   33.333333333333336
150.0   90.0   16.666666666666668
150.0   120.0   16.666666666666668
100.0   120.0   16.666666666666668
150.0   120.0   33.333333333333336
100.0   90.0   33.333333333333336
100.0   120.0   33.333333333333336
150.0   120.0   33.333333333333336
100.0   120.0   16.666666666666668
100.0   90.0   33.333333333333336
150.0   120.0   33.333333333333336
150.0   90.0   33.333333333333336
150.0   90.0   16.666666666666668
100.0   90.0   33.333333333333336
150.0   120.0   33.333333333333336
150.0   90.0   16.666666666666668
100.0   120.0   16.666666666666668
100.0   90.0   33.333333333333336
150.0   90.0   33.333333333333336
100.0   120.0   33.333333333333336
100.0   90.0   50.0
150.0   90.0   33.333333333333336
150.0   120.0   33.333333333333336
100.0   120.0   33.333333333333336
150.0   120.0   50.0
100.0   90.0   50.0
100.0   120.0   50.0
150.0   120.0   50.0
100.0   120.0   33.333333333333336
100.0   90.0   50.0
150.0   120.0   50.0
150.0   90.0   50.0
150.0   90.0   33.333333333333336
100.0   90.0   50.0
150.0   120.0   50.0
150.0   90.0   33.333333333333336
100.0   120.0   33.333333333333336
100.0   120.0   0.0
150.0   120.0   0.0
100.0   150.0   0.0
100.0   120.0   16.666666666666668
150.0   120.0   0.0
150.0   150.0   0.0
100.0   150.0   0.0
150.0   150.0   16.666666666666668
100.0   120.0   16.666666666666668
100.0   150.0   16.666666666666668
150.0   150.0   16.666666666666668
100.0   150.0   0.0
100.0   120.0   16.666666666666668
150.0   150.0   16.666666666666668
150.0   120.0   16.666666666666668
150.0   120.0   0.0
100.0   120.0   16.666666666666668
150.0   150.0   16.666666666666668
150.0   120.0   0.0
100.0   150.0   0.0
100.0   120.0   16.666666666666668
150.0   120.0   16.666666666666668
100.0   150.0   16.666666666666668
100.0   120.0   33.333333333333336
150.0   120.0   16.666666666666668
150.0   150.0   16.666666666666668
100.0   150.0   16.666666666666668
150.0   150.0   33.333333333333336
100.0   120.0   33.333333333333336
100.0   150.0   33.333333333333336
150.0   150.0   33.333333333333336
100.0   150.0   16.666666666666668
100.0   120.0   33.333333333333336
150.0   150.0   33.333333333333336
150.0   120.0   33.333333333333336
150.0   120.0   16.666666666666668
100.0   120.0   33.333333333333336
150.0   150.0   33.333333333333336
150.0   120.0   16.666666666666668
100.0   150.0   16.666666666666668
100.0   120.0   33.333333333333336
150.0   120.0   33.333333333333336
100.0   150.0   33.333333333333336
100.0   120.0   50.0
150.0   120.0   33.333333333333336
150.0   150.0   33.333333333333336
100.0   150.0   33.333333333333336
150.0   150.0   50.0
100.0   120.0   50.0
100.0   150.0   50.0
150.0   150.0   50.0
100.0   150.0   33.333333333333336
100.0   120.0   50.0
150.0   150.0   50.0
150.0   120.0   50.0
150.0   120.0   33.333333333333336
100.0   120.0   50.0
150.0   150.0   50.0
150.0   120.0   33.333333333333336
100.0   150.0   33.333333333333336
150.0   0.0   0.0
200.0   0.0   0.0
150.0   30.0   0.0
150.0   0.0   16.666666666666668
200.0   0.0   0.0
200.0   30.0   0.0
150.0   30.0   0.0
200.0   30.0   16.666666666666668
150.0   0.0   16.666666666666668
150.0   30.0   16.666666666666668
200.0   30.0   16.666666666666668
150.0   30.0   0.0
150.0   0.0   16.666666666666668
200.0   30.0   16.666666666666668
200.0   0.0   16.666666666666668
200.0   0.0   0.0
150.0   0.0   16.666666666666668
200.0   30.0   16.666666666666668
200.0   0.0   0.0
150.0   30.0   0.0
150.0   0.0   16.666666666666668
200.0   0.0   16.666666666666668
150.0   30.0   16.666666666666668
150.0   0.0   33.333333333333336
200.0   0.0   16.666666666666668
200.0   30.0   16.666666666666668
150.0   30.0   16.666666666666668
200.0   30.0   33.333333333333336
150.0   0.0   33.333333333333336
150.0   30.0   33.333333333333336
200.0   30.0   33.333333333333336
150.0   30.0   16.666666666666668
150.0   0.0   33.333333333333336
200.0   30.0   33.333333333333336
200.0   0.0   33.333333333333336
200.0   0.0   16.666666666666668
150.0   0.0   33.333333333333336
200.0   30.0   33.333333333333336
200.0   0.0   16.666666666666668
150.0   30.0   16.666666666666668
150.0   0.0   33.333333333333336
200.0   0.0   33.333333333333336
150.0   30.0   33.333333333333336
150.0   0.0   50.0
200.0   0.0   33.333333333333336
200.0   30.0   33.333333333333336
150.0   30.0   33.333333333333336
200.0   30.0   50.0
150.0   0.0   50.0
150.0   30.0   50.0
200.0   30.0   50.0
150.0   30.0   33.333333333333336
150.0   0.0   50.0
200.0   30.0   50.0
200.0   0.0   50.0
200.0   0.0   33.333333333333336
150.0   0.0   50.0
200.0   30.0   50.0
200.0   0.0   33.333333333333336
150.0   30.0   33.333333333333336
150.0   30.0   0.0
200.0   30.0   0.0
150.0   60.0   0.0
150.0   30.0   16.666666666666668
200.0   30.0   0.0
200.0   60.0   0.0
150.0   60.0   0.0
200.0   60.0   16.666666666666668
150.0   30.0   16.666666666666668
150.0   60.0   16.666666666666668
200.0   60.0   16.666666666666668
150.0   60.0   0.0
150.0   30.0   16.666666666666668
200.0   60.0   16.666666666666668
200.0   30.0   16.666666666666668
200.0   30.0   0.0
150.0   30.0   16.666666666666668
200.0   60.0   16.666666666666668
200.0   30.0   0.0
150.0   60.0   0.0
150.0   30.0   16.666666666666668
200.0   30.0   16.666666666666668
150.0   60.0   16.666666666666668
150.0   30.0   33.333333333333336
200.0   30.0   16.666666666666668
200.0   60.0   16.666666666666668
150.0   60.0   16.666666666666668
200.0   60.0   33.333333333333336
150.0   30.0   33.333333333333336
150.0   60.0   33.333333333333336
200.0   60.0   33.333333333333336
150.0   60.0   16.666666666666668
150.0   30.0   33.333333333333336
200.0   60.0   33.333333333333336
200.0   30.0   33.333333333333336
200.0   30.0   16.666666666666668
150.0   30.0   33.333333333333336
200.0   60.0   33.333333333333336
200.0   30.0   16.666666666666668
150.0   60.0   16.666666666666668
150.0   30.0   33.333333333333336
200.0   30.0   33.333333333333336
150.0   60.0   33.333333333333336
150.0   30.0   50.0
200.0   30.0   33.333333333333336
200.0   60.0   33.333333333333336
150.0   60.0   33.333333333333336
200.0   60.0   50.0
150.0   30.0   50.0
150.0   60.0   50.0
200.0   60.0   50.0
150.0   60.0   33.333333333333336
150.0   30.0   50.0
200.0   60.0   50.0
200.0   30.0   50.0
200.0   30.0   33.333333333333336
150.0   30.0   50.0
200.0   60.0   50.0
200.0   30.0   33.333333333333336
150.0   60.0   33.333333333333336
150.0   60.0   0.0
200.0   60.0   0.0
150.0   90.0   0.0
150.0   60.0   16.666666666666668
200.0   60.0   0.0
200.0   90.0   0.0
150.0   90.0   0.0
200.0   90.0   16.666666666666668
150.0   60.0   16.666666666666668
150.0   90.0   16.666666666666668
200.0   90.0   16.666666666666668
150.0   90.0   0.0
150.0   60.0   16.666666666666668
200.0   90.0   16.666666666666668
200.0   60.0   16.666666666666668
200.0   60.0   0.0
150.0   60.0   16.666666666666668
200.0   90.0   16.666666666666668
200.0   60.0   0.0
150.0   90.0   0.0
150.0   60.0   16.666666666666668
200.0   60.0   16.666666666666668
150.0   90.0   16.666666666666668
150.0   60.0   33.333333333333336
200.0   60.0   16.666666666666668
200.0   90.0   16.666666666666668
150.0   90.0   16.666666666666668
200.0   90.0   33.333333333333336
150.0   60.0   33.333333333333336
150.0   90.0   33.333333333333336
200.0   90.0   33.333333333333336
150.0   90.0   16.666666666666668
150.0   60.0   33.333333333333336
200.0   90.0   33.333333333333336
200.0   60.0   33.333333333333336
200.0   60.0   16.666666666666668
150.0   60.0   33.333333333333336
200.0   90.0   33.333333333333336
200.0   60.0   16.666666666666668
150.0   90.0   16.666666666666668
150.0   60.0   33.333333333333336
200.0   60.0   33.333333333333336
150.0   90.0   33.333333333333336
150.0   60.0   50.0
200.0   60.0   33.333333333333336
200.0   90.0   33.333333333333336
150.0   90.0   33.333333333333336
200.0   90.0   50.0
150.0   60.0   50.0
150.0   90.0   50.0
200.0   90.0   50.0
150.0   90.0   33.333333333333336
150.0   60.0   50.0
200.0   90.0   50.0
200.0   60.0   50.0
200.0   60.0   33.333333333333336
150.0   60.0   50.0
200.0   90.0   50.0
200.0   60.0   33.333333333333336
150.0   90.0   33.333333333333336
150.0   90.0   0.0
200.0   90.0   0.0
150.0   120.0   0.0
150.0   90.0   16.666666666666668
200.0   90.0   0.0
200.0   120.0   0.0
150.0   120.0   0.0
200.0   120.0   16.666666666666668
150.0   90.0   16.666666666666668
150.0   120.0   16.666666666666668
200.0   120.0   16.666666666666668
150.0   120.0   0.0
150.0   90.0   16.666666666666668
200.0   120.0   16.666666666666668
200.0   90.0   16.666666666666668
200.0   90.0   0.0
150.0   90.0   16.666666666666668
200.0   120.0   16.666666666666668
200.0   90.0   0.0
150.0   120.0   0.0
150.0   90.0   16.666666666666668
200.0   90.0   16.666666666666668
150.0   120.0   16.666666666666668
150.0   90.0   33.333333333333336
200.0   90.0   16.666666666666668
200.0   120.0   16.666666666666668
150.0   120.0   16.666666666666668
200.0   120.0   33.333333333333336
150.0   90.0   33.333333333333336
150.0   120.0   33.333333333333336
200.0   120.0   33.333333333333336
150.0   120.0   16.666666666666668
150.0   90.0   33.333333333333336
200.0   120.0   33.333333333333336
200.0   90.0   33.333333333333336
200.0   90.0   16.666666666666668
150.0   90.0   33.333333333333336
200.0   120.0   33.333333333333336
200.0   90.0   16.666666666666668
150.0   120.0   16.666666666666668
150.0   90.0   33.333333333333336
200.0   90.0   33.333333333333336
150.0   120.0   33.333333333333336
150.0   90.0   50.0
200.0   90.0   33.333333333333336
200.0   120.0   33.333333333333336
150.0   120.0   33.333333333333336
200.0   120.0   50.0
150.0   90.0   50.0
150.0   120.0   50.0
200.0   120.0   50.0
150.0   120.0   33.333333333333336
150.0   90.0   50.0
200.0   120.0   50.0
200.0   90.0   50.0
200.0   90.0   33.333333333333336
150.0   90.0   50.0
200.0   120.0   50.0
200.0   90.0   33.333333333333336
150.0   120.0   33.333333333333336
150.0   120.0   0.0
200.0   120.0   0.0
150.0   150.0   0.0
150.0   120.0   16.666666666666668
200.0   120.0   0.0
200.0   150.0   0.0
150.0   150.0   0.0
200.0   150.0   16.666666666666668
150.0   120.0   16.666666666666668
150.0   150.0   16.666666666666668
200.0   150.0   16.666666666666668
150.0   150.0   0.0
150.0   120.0   16.666666666666668
200.0   150.0   16.666666666666668
200.0   120.0   16.666666666666668
200.0   120.0   0.0
150.0   120.0   16.666666666666668
200.0   150.0   16.666666666666668
200.0   120.0   0.0
150.0   150.0   0.0
150.0   120.0   16.666666666666668
200.0   120.0   16.666666666666668
150.0   150.0   16.666666666666668
150.0   120.0   33.333333333333336
200.0   120.0   16.666666666666668
200.0   150.0   16.666666666666668
150.0   150.0   16.666666666666668
200.0   150.0   33.333333333333336
150.0   120.0   33.333333333333336
150.0   150.0   33.333333333333336
200.0   150.0   33.333333333333336
150.0   150.0   16.666666666666668
150.0   120.0   33.333333333333336
200.0   150.0   33.333333333333336
200.0   120.0   33.333333333333336
200.0   120.0   16.666666666666668
150.0   120.0   33.333333333333336
200.0   150.0   33.333333333333336
200.0   120.0   16.666666666666668
150.0   150.0   16.666666666666668
150.0   120.0   33.333333333333336
200.0   120.0   33.333333333333336
150.0   150.0   33.333333333333336
150.0   120.0   50.0
200.0   120.0   33.333333333333336
200.0   150.0   33.333333333333336
150.0   150.0   33.333333333333336
200.0   150.0   50.0
150.0   120.0   50.0
150.0   150.0   50.0
200.0   150.0   50.0
150.0   150.0   33.333333333333336
150.0   120.0   50.0
200.0   150.0   50.0
200.0   120.0   50.0
200.0   120.0   33.333333333333336
150.0   120.0   50.0
200.0   150.0   50.0
200.0   120.0   33.333333333333336
150.0   150.0   33.333333333333336
200.0   0.0   0.0
250.0   0.0   0.0
200.0   30.0   0.0
200.0   0.0   16.666666666666668
250.0   0.0   0.0
250.0   30.0   0.0
200.0   30.0   0.0
250.0   30.0   16.666666666666668
200.0   0.0   16.666666666666668
200.0   30.0   16.666666666666668
250.0   30.0   16.666666666666668
200.0   30.0   0.0
200.0   0.0   16.666666666666668
250.0   30.0   16.666666666666668
250.0   0.0   16.666666666666668
250.0   0.0   0.0
200.0   0.0   16.666666666666668
250.0   30.0   16.666666666666668
250.0   0.0   0.0
200.0   30.0   0.0
200.0   0.0   16.666666666666668
250.0   0.0   16.666666666666668
200.0   30.0   16.666666666666668
200.0   0.0   33.333333333333336
250.0   0.0   16.666666666666668
250.0   30.0   16.666666666666668
200.0   30.0   16.666666666666668
250.0   30.0   33.333333333333336
200.0   0.0   33.333333333333336
200.0   30.0   33.333333333333336
250.0   30.0   33.333333333333336
200.0   30.0   16.666666666666668
200.0   0.0   33.333333333333336
250.0   30.0   33.333333333333336
250.0   0.0   33.333333333333336
250.0   0.0   16.666666666666668
200.0   0.0   33.333333333333336
250.0   30.0   33.333333333333336
250.0   0.0   16.666666666666668
200.0   30.0   16.666666666666668
200.0   0.0   33.333333333333336
250.0   0.0   33.333333333333336
200.0   30.0   33.333333333333336
200.0   0.0   50.0
250.0   0.0   33.333333333333336
250.0   30.0   33.333333333333336
200.0   30.0   33.333333333333336
250.0   30.0   50.0
200.0   0.0   50.0
200.0   30.0   50.0
250.0   30.0   50.0
200.0   30.0   33.333333333333336
200.0   0.0   50.0
250.0   30.0   50.0
250.0   0.0   50.0
250.0   0.0   33.333333333333336
200.0   0.0   50.0
250.0   30.0   50.0
250.0   0.0   33.333333333333336
200.0   30.0   33.333333333333336
200.0   30.0   0.0
250.0   30.0   0.0
200.0   60.0   0.0
200.0   30.0   16.666666666666668
250.0   30.0   0.0
250.0   60.0   0.0
200.0   60.0   0.0
250.0   60.0   16.666666666666668
200.0   30.0   16.666666666666668
200.0   60.0   16.666666666666668
250.0   60.0   16.666666666666668
200.0   60.0   0.0
200.0   30.0   16.666666666666668
250.0   60.0   16.666666666666668
250.0   30.0   16.666666666666668
250.0   30.0   0.0
200.0   30.0   16.666666666666668
250.0   60.0   16.666666666666668
250.0   30.0   0.0
200.0   60.0   0.0
200.0   30.0   16.666666666666668
250.0   30.0   16.666666666666668
200.0   60.0   16.666666666666668
200.0   30.0   33.333333333333336
250.0   30.0   16.666666666666668
250.0   60.0   16.666666666666668
200.0   60.0   16.666666666666668
250.0   60.0   33.333333333333336
200.0   30.0   33.333333333333336
200.0   60.0   33.333333333333336
250.0   60.0   33.333333333333336
200.0   60.0   16.666666666666668
200.0   30.0   33.333333333333336
250.0   60.0   33.333333333333336
250.0   30.0   33.333333333333336
250.0   30.0   16.666666666666668
200.0   30.0   33.333333333333336
250.0   60.0   33.333333333333336
250.0   30.0   16.666666666666668
200.0   60.0   16.666666666666668
200.0   30.0   33.333333333333336
250.0   30.0   33.333333333333336
200.0   60.0   33.333333333333336
200.0   30.0   50.0
250.0   30.0   33.333333333333336
250.0   60.0   33.333333333333336
200.0   60.0   33.333333333333336
250.0   60.0   50.0
200.0   30.0   50.0
200.0   60.0   50.0
250.0   60.0   50.0
200.0   60.0   33.333333333333336
200.0   30.0   50.0
250.0   60.0   50.0
250.0   30.0   50.0
250.0   30.0   33.333333333333336
200.0   30.0   50.0
250.0   60.0   50.0
250.0   30.0   33.333333333333336
200.0   60.0   33.333333333333336
200.0   60.0   0.0
250.0   60.0   0.0
200.0   90.0   0.0
200.0   60.0   16.666666666666668
250.0   60.0   0.0
250.0   90.0   0.0
200.0   90.0   0.0
250.0   90.0   16.666666666666668
200.0   60.0   16.666666666666668
200.0   90.0   16.666666666666668
250.0   90.0   16.666666666666668
200.0   90.0   0.0
200.0   60.0   16.666666666666668
250.0   90.0   16.666666666666668
250.0   60.0   16.666666666666668
250.0   60.0   0.0
200.0   60.0   16.666666666666668
250.0   90.0   16.666666666666668
250.0   60.0   0.0
200.0   90.0   0.0
200.0   60.0   16.666666666666668
250.0   60.0   16.666666666666668
200.0   90.0   16.666666666666668
200.0   60.0   33.333333333333336
250.0   60.0   16.666666666666668
250.0   90.0   16.666666666666668
200.0   90.0   16.666666666666668
250.0   90.0   33.333333333333336
200.0   60.0   33.333333333333336
200.0   90.0   33.333333333333336
250.0   90.0   33.333333333333336
200.0   90.0   16.666666666666668
200.0   60.0   33.333333333333336
250.0   90.0   33.333333333333336
250.0   60.0   33.333333333333336
250.0   60.0   16.666666666666668
200.0   60.0   33.333333333333336
250.0   90.0   33.333333333333336
250.0   60.0   16.666666666666668
200.0   90.0   16.666666666666668
200.0   60.0   33.333333333333336
250.0   60.0   33.333333333333336
200.0   90.0   33.333333333333336
200.0   60.0   50.0
250.0   60.0   33.333333333333336
250.0   90.0   33.333333333333336
200.0   90.0   33.333333333333336
250.0   90.0   50.0
200.0   60.0   50.0
200.0   90.0   50.0
250.0   90.0   50.0
200.0   90.0   33.333333333333336
200.0   60.0   50.0
250.0   90.0   50.0
250.0   60.0   50.0
250.0   60.0   33.333333333333336
200.0   60.0   50.0
250.0   90.0   50.0
250.0   60.0   33.333333333333336
200.0   90.0   33.333333333333336
200.0   90.0   0.0
250.0   90.0   0.0
200.0   120.0   0.0
200.0   90.0   16.666666666666668
250.0   90.0   0.0
250.0   120.0   0.0
200.0   120.0   0.0
250.0   120.0   16.666666666666668
200.0   90.0   16.666666666666668
200.0   120.0   16.666666666666668
250.0   120.0   16.666666666666668
200.0   120.0   0.0
200.0   90.0   16.666666666666668
250.0   120.0   16.666666666666668
250.0   90.0   16.666666666666668
250.0   90.0   0.0
200.0   90.0   16.666666666666668
250.0   120.0   16.666666666666668
250.0   90.0   0.0
200.0   120.0   0.0
200.0   90.0   16.666666666666668
250.0   90.0   16.666666666666668
200.0   120.0   16.666666666666668
200.0   90.0   33.333333333333336
250.0   90.0   16.666666666666668
250.0   120.0   16.666666666666668
200.0   120.0   16.666666666666668
250.0   120.0   33.333333333333336
200.0   90.0   33.333333333333336
200.0   120.0   33.333333333333336
250.0   120.0   33.333333333333336
200.0   120.0   16.666666666666668
200.0   90.0   33.333333333333336
250.0   120.0   33.333333333333336
250.0   90.0   33.333333333333336
250.0   90.0   16.666666666666668
200.0   90.0   33.333333333333336
250.0   120.0   33.333333333333336
250.0   90.0   16.666666666666668
200.0   120.0   16.666666666666668
200.0   90.0   33.333333333333336
250.0   90.0   33.333333333333336
200.0   120.0   33.333333333333336
200.0   90.0   50.0
250.0   90.0   33.333333333333336
250.0   120.0   33.333333333333336
200.0   120.0   33.333333333333336
250.0   120.0   50.0
200.0   90.0   50.0
200.0   120.0   50.0
250.0   120.0   50.0
200.0   120.0   33.333333333333336
200.0   90.0   50.0
250.0   120.0   50.0
250.0   90.0   50.0
250.0   90.0   33.333333333333336
200.0   90.0   50.0
250.0   120.0   50.0
250.0   90.0   33.333333333333336
200.0   120.0   33.333333333333336
200.0   120.0   0.0
250.0   120.0   0.0
200.0   150.0   0.0
200.0   120.0   16.666666666666668
250.0   120.0   0.0
250.0   150.0   0.0
200.0   150.0   0.0
250.0   150.0   16.666666666666668
200.0   120.0   16.666666666666668
200.0   150.0   16.666666666666668
250.0   150.0   16.666666666666668
200.0   150.0   0.0
200.0   120.0   16.666666666666668
250.0   150.0   16.666666666666668
250.0   120.0   16.666666666666668
250.0   120.0   0.0
200.0   120.0   16.666666666666668
250.0   150.0   16.666666666666668
250.0   120.0   0.0
200.0   150.0   0.0
200.0   120.0   16.666666666666668
250.0   120.0   16.666666666666668
200.0   150.0   16.666666666666668
200.0   120.0   33.333333333333336
250.0   120.0   16.666666666666668
250.0   150.0   16.666666666666668
200.0   150.0   16.666666666666668
250.0   150.0   33.333333333333336
200.0   120.0   33.333333333333336
200.0   150.0   33.333333333333336
250.0   150.0   33.333333333333336
200.0   150.0   16.666666666666668
200.0   120.0   33.333333333333336
250.0   150.0   33.333333333333336
250.0   120.0   33.333333333333336
250.0   120.0   16.666666666666668
200.0   120.0   33.333333333333336
250.0   150.0   33.333333333333336
250.0   120.0   16.666666666666668
200.0   150.0   16.666666666666668
200.0   120.0   33.333333333333336
250.0   120.0   33.333333333333336
200.0   150.0   33.333333333333336
200.0   120.0   50.0
250.0   120.0   33.333333333333336
250.0   150.0   33.333333333333336
200.0   150.0   33.333333333333336
250.0   150.0   50.0
200.0   120.0   50.0
200.0   150.0   50.0
250.0   150.0   50.0
200.0   150.0   33.333333333333336
200.0   120.0   50.0
250.0   150.0   50.0
250.0   120.0   50.0
250.0   120.0   33.333333333333336
200.0   120.0   50.0
250.0   150.0   50.0
250.0   120.0   33.333333333333336
200.0   150.0   33.333333333333336
250.0   0.0   0.0
300.0   0.0   0.0
250.0   30.0   0.0
250.0   0.0   16.666666666666668
300.0   0.0   0.0
300.0   30.0   0.0
250.0   30.0   0.0
300.0   30.0   16.666666666666668
250.0   0.0   16.666666666666668
250.0   30.0   16.666666666666668
300.0   30.0   16.666666666666668
250.0   30.0   0.0
250.0   0.0   16.666666666666668
300.0   30.0   16.666666666666668
300.0   0.0   16.666666666666668
300.0   0.0   0.0
250.0   0.0   16.666666666666668
300.0   30.0   16.666666666666668
300.0   0.0   0.0
250.0   30.0   0.0
250.0   0.0   16.666666666666668
300.0   0.0   16.666666666666668
250.0   30.0   16.666666666666668
250.0   0.0   33.333333333333336
300.0   0.0   16.666666666666668
300.0   30.0   16.666666666666668
250.0   30.0   16.666666666666668
300.0   30.0   33.333333333333336
250.0   0.0   33.333333333333336
250.0   30.0   33.333333333333336
300.0   30.0   33.333333333333336
250.0   30.0   16.666666666666668
250.0   0.0   33.333333333333336
300.0   30.0   33.333333333333336
300.0   0.0   33.333333333333336
300.0   0.0   16.666666666666668
250.0   0.0   33.333333333333336
300.0   30.0   33.333333333333336
300.0   0.0   16.666666666666668
250.0   30.0   16.666666666666668
250.0   0.0   33.333333333333336
300.0   0.0   33.333333333333336
250.0   30.0   33.333333333333336
250.0   0.0   50.0
300.0   0.0   33.333333333333336
300.0   30.0   33.333333333333336
250.0   30.0   33.333333333333336
300.0   30.0   50.0
250.0   0.0   50.0
250.0   30.0   50.0
300.0   30.0   50.0
250.0   30.0   33.333333333333336
250.0   0.0   50.0
300.0   30.0   50.0
300.0   0.0   50.0
300.0   0.0   33.333333333333336
250.0   0.0   50.0
300.0   30.0   50.0
300.0   0.0   33.333333333333336
250.0   30.0   33.333333333333336
250.0   30.0   0.0
300.0   30.0   0.0
250.0   60.0   0.0
250.0   30.0   16.666666666666668
300.0   30.0   0.0
300.0   60.0   0.0
250.0   60.0   0.0
300.0   60.0   16.666666666666668
250.0   30.0   16.666666666666668
250.0   60.0   16.666666666666668
300.0   60.0   16.666666666666668
250.0   60.0   0.0
250.0   30.0   16.666666666666668
300.0   60.0   16.666666666666668
300.0   30.0   16.666666666666668
300.0   30.0   0.0
250.0   30.0   16.666666666666668
300.0   60.0   16.666666666666668
300.0   30.0   0.0
250.0   60.0   0.0
250.0   30.0   16.666666666666668
300.0   30.0   16.666666666666668
250.0   60.0   16.666666666666668
250.0   30.0   33.333333333333336
300.0   30.0   16.666666666666668
300.0   60.0   16.666666666666668
250.0   60.0   16.666666666666668
300.0   60.0   33.333333333333336
250.0   30.0   33.333333333333336
250.0   60.0   33.333333333333336
300.0   60.0   33.333333333333336
250.0   60.0   16.666666666666668
250.0   30.0   33.333333333333336
300.0   60.0   33.333333333333336
300.0   30.0   33.333333333333336
300.0   30.0   16.666666666666668
250.0   30.0   33.333333333333336
300.0   60.0   33.333333333333336
300.0   30.0   16.666666666666668
250.0   60.0   16.666666666666668
250.0   30.0   33.333333333333336
300.0   30.0   33.333333333333336
250.0   60.0   33.333333333333336
250.0   30.0   50.0
300.0   30.0   33.333333333333336
300.0   60.0   33.333333333333336
250.0   60.0   33.333333333333336
300.0   60.0   50.0
250.0   30.0   50.0
250.0   60.0   50.0
300.0   60.0   50.0
250.0   60.0   33.333333333333336
250.0   30.0   50.0
300.0   60.0   50.0
300.0   30.0   50.0
300.0   30.0   33.333333333333336
250.0   30.0   50.0
300.0   60.0   50.0
300.0   30.0   33.333333333333336
250.0   60.0   33.333333333333336
250.0   60.0   0.0
300.0   60.0   0.0
250.0   90.0   0.0
250.0   60.0   16.666666666666668
300.0   60.0   0.0
300.0   90.0   0.0
250.0   90.0   0.0
300.0   90.0   16.666666666666668
250.0   60.0   16.666666666666668
250.0   90.0   16.666666666666668
300.0   90.0   16.666666666666668
250.0   90.0   0.0
250.0   60.0   16.666666666666668
300.0   90.0   16.666666666666668
300.0   60.0   16.666666666666668
300.0   60.0   0.0
250.0   60.0   16.666666666666668
300.0   90.0   16.666666666666668
300.0   60.0   0.0
250.0   90.0   0.0
250.0   60.0   16.666666666666668
300.0   60.0   16.666666666666668
250.0   90.0   16.666666666666668
250.0   60.0   33.333333333333336
300.0   60.0   16.666666666666668
300.0   90.0   16.666666666666668
250.0   90.0   16.666666666666668
300.0   90.0   33.333333333333336
250.0   60.0   33.333333333333336
250.0   90.0   33.333333333333336
300.0   90.0   33.333333333333336
250.0   90.0   16.666666666666668
250.0   60.0   33.333333333333336
300.0   90.0   33.333333333333336
300.0   60.0   33.333333333333336
300.0   60.0   16.666666666666668
250.0   60.0   33.333333333333336
300.0   90.0   33.333333333333336
300.0   60.0   16.666666666666668
250.0   90.0   16.666666666666668
250.0   60.0   33.333333333333336
300.0   60.0   33.333333333333336
250.0   90.0   33.333333333333336
250.0   60.0   50.0
300.0   60.0   33.333333333333336
300.0   90.0   33.333333333333336
250.0   90.0   33.333333333333336
300.0   90.0   50.0
250.0   60.0   50.0
250.0   90.0   50.0
300.0   90.0   50.0
250.0   90.0   33.333333333333336
250.0   60.0   50.0
300.0   90.0   50.0
300.0   60.0   50.0
300.0   60.0   33.333333333333336
250.0   60.0   50.0
300.0   90.0   50.0
300.0   60.0   33.333333333333336
250.0   90.0   33.333333333333336
250.0   90.0   0.0
300.0   90.0   0.0
250.0   120.0   0.0
250.0   90.0   16.666666666666668
300.0   90.0   0.0
300.0   120.0   0.0
250.0   120.0   0.0
300.0   120.0   16.666666666666668
250.0   90.0   16.666666666666668
250.0   120.0   16.666666666666668
300.0   120.0   16.666666666666668
250.0   120.0   0.0
250.0   90.0   16.666666666666668
300.0   120.0   16.666666666666668
300.0   90.0   16.666666666666668
300.0   90.0   0.0
250.0   90.0   16.666666666666668
300.0   120.0   16.666666666666668
300.0   90.0   0.0
250.0   120.0   0.0
250.0   90.0   16.666666666666668
300.0   90.0   16.666666666666668
250.0   120.0   16.666666666666668
250.0   90.0   33.333333333333336
300.0   90.0   16.666666666666668
300.0   120.0   16.666666666666668
250.0   120.0   16.666666666666668
300.0   120.0   33.333333333333336
250.0   90.0   33.333333333333336
250.0   120.0   33.333333333333336
300.0   120.0   33.333333333333336
250.0   120.0   16.666666666666668
250.0   90.0   33.333333333333336
300.0   120.0   33.333333333333336
300.0   90.0   33.333333333333336
300.0   90.0   16.666666666666668
250.0   90.0   33.333333333333336
300.0   120.0   33.333333333333336
300.0   90.0   16.666666666666668
250.0   120.0   16.666666666666668
250.0   90.0   33.333333333333336
300.0   90.0   33.333333333333336
250.0   120.0   33.333333333333336
250.0   90.0   50.0
300.0   90.0   33.333333333333336
300.0   120.0   33.333333333333336
250.0   120.0   33.333333333333336
300.0   120.0   50.0
250.0   90.0   50.0
250.0   120.0   50.0
300.0   120.0   50.0
250.0   120.0   33.333333333333336
250.0   90.0   50.0
300.0   120.0   50.0
300.0   90.0   50.0
300.0   90.0   33.333333333333336
250.0   90.0   50.0
300.0   120.0   50.0
300.0   90.0   33.333333333333336
250.0   120.0   33.333333333333336
250.0   120.0   0.0
300.0   120.0   0.0
250.0   150.0   0.0
250.0   120.0   16.666666666666668
300.0   120.0   0.0
300.0   150.0   0.0
250.0   150.0   0.0
300.0   150.0   16.666666666666668
250.0   120.0   16.666666666666668
250.0   150.0   16.666666666666668
300.0   150.0   16.666666666666668
250.0   150.0   0.0
250.0   120.0   16.666666666666668
300.0   150.0   16.666666666666668
300.0   120.0   16.666666666666668
300.0   120.0   0.0
250.0   120.0   16.666666666666668
300.0   150.0   16.666666666666668
300.0   120.0   0.0
250.0   150.0   0.0
250.0   120.0   16.666666666666668
300.0   120.0   16.666666666666668
250.0   150.0   16.666666666666668
250.0   120.0   33.333333333333336
300.0   120.0   16.666666666666668
300.0   150.0   16.666666666666668
250.0   150.0   16.666666666666668
300.0   150.0   33.333333333333336
250.0   120.0   33.333333333333336
250.0   150.0   33.333333333333336
300.0   150.0   33.333333333333336
250.0   150.0   16.666666666666668
250.0   120.0   33.333333333333336
300.0   150.0   33.333333333333336
300.0   120.0   33.333333333333336
300.0   120.0   16.666666666666668
250.0   120.0   33.333333333333336
300.0   150.0   33.333333333333336
300.0   120.0   16.666666666666668
250.0   150.0   16.666666666666668
250.0   120.0   33.333333333333336
300.0   120.0   33.333333333333336
250.0   150.0   33.333333333333336
250.0   120.0   50.0
300.0   120.0   33.333333333333336
300.0   150.0   33.333333333333336
250.0   150.0   33.333333333333336
300.0   150.0   50.0
250.0   120.0   50.0
250.0   150.0   50.0
300.0   150.0   50.0
250.0   150.0   33.333333333333336
250.0   120.0   50.0
300.0   150.0   50.0
300.0   120.0   50.0
300.0   120.0   33.333333333333336
250.0   120.0   50.0
300.0   150.0   50.0
300.0   120.0   33.333333333333336
250.0   150.0   33.333333333333336
300.0   0.0   0.0
350.0   0.0   0.0
300.0   30.0   0.0
300.0   0.0   16.666666666666668
350.0   0.0   0.0
350.0   30.0   0.0
300.0   30.0   0.0
350.0   30.0   16.666666666666668
300.0   0.0   16.666666666666668
300.0   30.0   16.666666666666668
350.0   30.0   16.666666666666668
300.0   30.0   0.0
300.0   0.0   16.666666666666668
350.0   30.0   16.666666666666668
350.0   0.0   16.666666666666668
350.0   0.0   0.0
300.0   0.0   16.666666666666668
350.0   30.0   16.666666666666668
350.0   0.0   0.0
300.0   30.0   0.0
300.0   0.0   16.666666666666668
350.0   0.0   16.666666666666668
300.0   30.0   16.666666666666668
300.0   0.0   33.333333333333336
350.0   0.0   16.666666666666668
350.0   30.0   16.666666666666668
300.0   30.0   16.666666666666668
350.0   30.0   33.333333333333336
300.0   0.0   33.333333333333336
300.0   30.0   33.333333333333336
350.0   30.0   33.333333333333336
300.0   30.0   16.666666666666668
300.0   0.0   33.333333333333336
350.0   30.0   33.333333333333336
350.0   0.0   33.333333333333336
350.0   0.0   16.666666666666668
300.0   0.0   33.333333333333336
350.0   30.0   33.333333333333336
350.0   0.0   16.666666666666668
300.0   30.0   16.666666666666668
300.0   0.0   33.333333333333336
350.0   0.0   33.333333333333336
300.0   30.0   33.333333333333336
300.0   0.0   50.0
350.0   0.0   33.333333333333336
350.0   30.0   33.333333333333336
300.0   30.0   33.333333333333336
350.0   30.0   50.0
300.0   0.0   50.0
300.0   30.0   50.0
350.0   30.0   50.0
300.0   30.0   33.333333333333336
300.0   0.0   50.0
350.0   30.0   50.0
350.0   0.0   50.0
350.0   0.0   33.333333333333336
300.0   0.0   50.0
350.0   30.0   50.0
350.0   0.0   33.333333333333336
300.0   30.0   33.333333333333336
300.0   30.0   0.0
350.0   30.0   0.0
300.0   60.0   0.0
300.0   30.0   16.666666666666668
350.0   30.0   0.0
350.0   60.0   0.0
300.0   60.0   0.0
350.0   60.0   16.666666666666668
300.0   30.0   16.666666666666668
300.0   60.0   16.666666666666668
350.0   60.0   16.666666666666668
300.0   60.0   0.0
300.0   30.0   16.666666666666668
350.0   60.0   16.666666666666668
350.0   30.0   16.666666666666668
350.0   30.0   0.0
300.0   30.0   16.666666666666668
350.0   60.0   16.666666666666668
350.0   30.0   0.0
300.0   60.0   0.0
300.0   30.0   16.666666666666668
350.0   30.0   16.666666666666668
300.0   60.0   16.666666666666668
300.0   30.0   33.333333333333336
350.0   30.0   16.666666666666668
350.0   60.0   16.666666666666668
300.0   60.0   16.666666666666668
350.0   60.0   33.333333333333336
300.0   30.0   33.333333333333336
300.0   60.0   33.333333333333336
350.0   60.0   33.333333333333336
300.0   60.0   16.666666666666668
300.0   30.0   33.333333333333336
350.0   60.0   33.333333333333336
350.0   30.0   33.333333333333336
350.0   30.0   16.666666666666668
300.0   30.0   33.333333333333336
350.0   60.0   33.333333333333336
350.0   30.0   16.666666666666668
300.0   60.0   16.666666666666668
300.0   30.0   33.333333333333336
350.0   30.0   33.333333333333336
300.0   60.0   33.333333333333336
300.0   30.0   50.0
350.0   30.0   33.333333333333336
350.0   60.0   33.333333333333336
300.0   60.0   33.333333333333336
350.0   60.0   50.0
300.0   30.0   50.0
300.0   60.0   50.0
350.0   60.0   50.0
300.0   60.0   33.333333333333336
300.0   30.0   50.0
350.0   60.0   50.0
350.0   30.0   50.0
350.0   30.0   33.333333333333336
300.0   30.0   50.0
350.0   60.0   50.0
350.0   30.0   33.333333333333336
300.0   60.0   33.333333333333336
300.0   60.0   0.0
350.0   60.0   0.0
300.0   90.0   0.0
300.0   60.0   16.666666666666668
350.0   60.0   0.0
350.0   90.0   0.0
300.0   90.0   0.0
350.0   90.0   16.666666666666668
300.0   60.0   16.666666666666668
300.0   90.0   16.666666666666668
350.0   90.0   16.666666666666668
300.0   90.0   0.0
300.0   60.0   16.666666666666668
350.0   90.0   16.666666666666668
350.0   60.0   16.666666666666668
350.0   60.0   0.0
300.0   60.0   16.666666666666668
350.0   90.0   16.666666666666668
350.0   60.0   0.0
300.0   90.0   0.0
300.0   60.0   16.666666666666668
350.0   60.0   16.666666666666668
300.0   90.0   16.666666666666668
300.0   60.0   33.333333333333336
350.0   60.0   16.666666666666668
350.0   90.0   16.666666666666668
300.0   90.0   16.666666666666668
350.0   90.0   33.333333333333336
300.0   60.0   33.333333333333336
300.0   90.0   33.333333333333336
350.0   90.0   33.333333333333336
300.0   90.0   16.666666666666668
300.0   60.0   33.333333333333336
350.0   90.0   33.333333333333336
350.0   60.0   33.333333333333336
350.0   60.0   16.666666666666668
300.0   60.0   33.333333333333336
350.0   90.0   33.333333333333336
350.0   60.0   16.666666666666668
300.0   90.0   16.666666666666668
300.0   60.0   33.333333333333336
350.0   60.0   33.333333333333336
300.0   90.0   33.333333333333336
300.0   60.0   50.0
350.0   60.0   33.333333333333336
350.0   90.0   33.333333333333336
300.0   90.0   33.333333333333336
350.0   90.0   50.0
300.0   60.0   50.0
300.0   90.0   50.0
350.0   90.0   50.0
300.0   90.0   33.333333333333336
300.0   60.0   50.0
350.0   90.0   50.0
350.0   60.0   50.0
350.0   60.0   33.333333333333336
300.0   60.0   50.0
350.0   90.0   50.0
350.0   60.0   33.333333333333336
300.0   90.0   33.333333333333336
300.0   90.0   0.0
350.0   90.0   0.0
300.0   120.0   0.0
300.0   90.0   16.666666666666668
350.0   90.0   0.0
350.0   120.0   0.0
300.0   120.0   0.0
350.0   120.0   16.666666666666668
300.0   90.0   16.666666666666668
300.0   120.0   16.666666666666668
350.0   120.0   16.666666666666668
300.0   120.0   0.0
300.0   90.0   16.666666666666668
350.0   120.0   16.666666666666668
350.0   90.0   16.666666666666668
350.0   90.0   0.0
300.0   90.0   16.666666666666668
350.0   120.0   16.666666666666668
350.0   90.0   0.0
300.0   120.0   0.0
300.0   90.0   16.666666666666668
350.0   90.0   16.666666666666668
300.0   120.0   16.666666666666668
300.0   90.0   33.333333333333336
350.0   90.0   16.666666666666668
350.0   120.0   16.666666666666668
300.0   120.0   16.666666666666668
350.0   120.0   33.333333333333336
300.0   90.0   33.333333333333336
300.0   120.0   33.333333333333336
350.0   120.0   33.333333333333336
300.0   120.0   16.666666666666668
300.0   90.0   33.333333333333336
350.0   120.0   33.333333333333336
350.0   90.0   33.333333333333336
350.0   90.0   16.666666666666668
300.0   90.0   33.333333333333336
350.0   120.0   33.333333333333336
350.0   90.0   16.666666666666668
300.0   120.0   16.666666666666668
300.0   90.0   33.333333333333336
350.0   90.0   33.333333333333336
300.0   120.0   33.333333333333336
300.0   90.0   50.0
350.0   90.0   33.333333333333336
350.0   120.0   33.333333333333336
300.0   120.0   33.333333333333336
350.0   120.0   50.0
300.0   90.0   50.0
300.0   120.0   50.0
350.0   120.0   50.0
300.0   120.0   33.333333333333336
300.0   90.0   50.0
350.0   120.0   50.0
350.0   90.0   50.0
350.0   90.0   33.333333333333336
300.0   90.0   50.0
350.0   120.0   50.0
350.0   90.0   33.333333333333336
300.0   120.0   33.333333333333336
300.0   120.0   0.0
350.0   120.0   0.0
300.0   150.0   0.0
300.0   120.0   16.666666666666668
350.0   120.0   0.0
350.0   150.0   0.0
300.0   150.0   0.0
350.0   150.0   16.666666666666668
300.0   120.0   16.666666666666668
300.0   150.0   16.666666666666668
350.0   150.0   16.666666666666668
300.0   150.0   0.0
300.0   120.0   16.666666666666668
350.0   150.0   16.666666666666668
350.0   120.0   16.666666666666668
350.0   120.0   0.0
300.0   120.0   16.666666666666668
350.0   150.0   16.666666666666668
350.0   120.0   0.0
300.0   150.0   0.0
300.0   120.0   16.666666666666668
350.0   120.0   16.666666666666668
300.0   150.0   16.666666666666668
300.0   120.0   33.333333333333336
350.0   120.0   16.666666666666668
350.0   150.0   16.666666666666668
300.0   150.0   16.666666666666668
350.0   150.0   33.333333333333336
300.0   120.0   33.333333333333336
300.0   150.0   33.333333333333336
350.0   150.0   33.333333333333336
300.0   150.0   16.666666666666668
300.0   120.0   33.333333333333336
350.0   150.0   33.333333333333336
350.0   120.0   33.333333333333336
350.0   120.0   16.666666666666668
300.0   120.0   33.333333333333336
350.0   150.0   33.333333333333336
350.0   120.0   16.666666666666668
300.0   150.0   16.666666666666668
300.0   120.0   33.333333333333336
350.0   120.0   33.333333333333336
300.0   150.0   33.333333333333336
300.0   120.0   50.0
350.0   120.0   33.333333333333336
350.0   150.0   33.333333333333336
300.0   150.0   33.333333333333336
350.0   150.0   50.0
300.0   120.0   50.0
300.0   150.0   50.0
350.0   150.0   50.0
300.0   150.0   33.333333333333336
300.0   120.0   50.0
350.0   150.0   50.0
350.0   120.0   50.0
350.0   120.0   33.333333333333336
300.0   120.0   50.0
350.0   150.0   50.0
350.0   120.0   33.333333333333336
300.0   150.0   33.333333333333336
350.0   0.0   0.0
400.0   0.0   0.0
350.0   30.0   0.0
350.0   0.0   16.666666666666668
400.0   0.0   0.0
400.0   30.0   0.0
350.0   30.0   0.0
400.0   30.0   16.666666666666668
350.0   0.0   16.666666666666668
350.0   30.0   16.666666666666668
400.0   30.0   16.666666666666668
350.0   30.0   0.0
350.0   0.0   16.666666666666668
400.0   30.0   16.666666666666668
400.0   0.0   16.666666666666668
400.0   0.0   0.0
350.0   0.0   16.666666666666668
400.0   30.0   16.666666666666668
400.0   0.0   0.0
350.0   30.0   0.0
350.0   0.0   16.666666666666668
400.0   0.0   16.666666666666668
350.0   30.0   16.666666666666668
350.0   0.0   33.333333333333336
400.0   0.0   16.666666666666668
400.0   30.0   16.666666666666668
350.0   30.0   16.666666666666668
400.0   30.0   33.333333333333336
350.0   0.0   33.333333333333336
350.0   30.0   33.333333333333336
400.0   30.0   33.333333333333336
350.0   30.0   16.666666666666668
350.0   0.0   33.333333333333336
400.0   30.0   33.333333333333336
400.0   0.0   33.333333333333336
400.0   0.0   16.666666666666668
350.0   0.0   33.333333333333336
400.0   30.0   33.333333333333336
400.0   0.0   16.666666666666668
350.0   30.0   16.666666666666668
350.0   0.0   33.333333333333336
400.0   0.0   33.333333333333336
350.0   30.0   33.333333333333336
350.0   0.0   50.0
400.0   0.0   33.333333333333336
400.0   30.0   33.333333333333336
350.0   30.0   33.333333333333336
400.0   30.0   50.0
350.0   0.0   50.0
350.0   30.0   50.0
400.0   30.0   50.0
350.0   30.0   33.333333333333336
350.0   0.0   50.0
400.0   30.0   50.0
400.0   0.0   50.0
400.0   0.0   33.333333333333336
350.0   0.0   50.0
400.0   30.0   50.0
400.0   0.0   33.333333333333336
350.0   30.0   33.333333333333336
350.0   30.0   0.0
400.0   30.0   0.0
350.0   60.0   0.0
350.0   30.0   16.666666666666668
400.0   30.0   0.0
400.0   60.0   0.0
350.0   60.0   0.0
400.0   60.0   16.666666666666668
350.0   30.0   16.666666666666668
350.0   60.0   16.666666666666668
400.0   60.0   16.666666666666668
350.0   60.0   0.0
350.0   30.0   16.666666666666668
400.0   60.0   16.666666666666668
400.0   30.0   16.666666666666668
400.0   30.0   0.0
350.0   30.0   16.666666666666668
400.0   60.0   16.666666666666668
400.0   30.0   0.0
350.0   60.0   0.0
350.0   30.0   16.666666666666668
400.0   30.0   16.666666666666668
350.0   60.0   16.666666666666668
350.0   30.0   33.333333333333336
400.0   30.0   16.666666666666668
400.0   60.0   16.666666666666668
350.0   60.0   16.666666666666668
400.0   60.0   33.333333333333336
350.0   30.0   33.333333333333336
350.0   60.0   33.333333333333336
400.0   60.0   33.333333333333336
350.0   60.0   16.666666666666668
350.0   30.0   33.333333333333336
400.0   60.0   33.333333333333336
400.0   30.0   33.333333333333336
400.0   30.0   16.666666666666668
350.0   30.0   33.333333333333336
400.0   60.0   33.333333333333336
400.0   30.0   16.666666666666668
350.0   60.0   16.666666666666668
350.0   30.0   33.333333333333336
400.0   30.0   33.333333333333336
350.0   60.0   33.333333333333336
350.0   30.0   50.0
400.0   30.0   33.333333333333336
400.0   60.0   33.333333333333336
350.0   60.0   33.333333333333336
400.0   60.0   50.0
350.0   30.0   50.0
350.0   60.0   50.0
400.0   60.0   50.0
350.0   60.0   33.333333333333336
350.0   30.0   50.0
400.0   60.0   50.0
400.0   30.0   50.0
400.0   30.0   33.333333333333336
350.0   30.0   50.0
400.0   60.0   50.0
400.0   30.0   33.333333333333336
350.0   60.0   33.333333333333336
350.0   60.0   0.0
400.0   60.0   0.0
350.0   90.0   0.0
350.0   60.0   16.666666666666668
400.0   60.0   0.0
400.0   90.0   0.0
350.0   90.0   0.0
400.0   90.0   16.666666666666668
350.0   60.0   16.666666666666668
350.0   90.0   16.666666666666668
400.0   90.0   16.666666666666668
350.0   90.0   0.0
350.0   60.0   16.666666666666668
400.0   90.0   16.666666666666668
400.0   60.0   16.666666666666668
400.0   60.0   0.0
350.0   60.0   16.666666666666668
400.0   90.0   16.666666666666668
400.0   60.0   0.0
350.0   90.0   0.0
350.0   60.0   16.666666666666668
400.0   60.0   16.666666666666668
350.0   90.0   16.666666666666668
350.0   60.0   33.333333333333336
400.0   60.0   16.666666666666668
400.0   90.0   16.666666666666668
350.0   90.0   16.666666666666668
400.0   90.0   33.333333333333336
350.0   60.0   33.333333333333336
350.0   90.0   33.333333333333336
400.0   90.0   33.333333333333336
350.0   90.0   16.666666666666668
350.0   60.0   33.333333333333336
400.0   90.0   33.333333333333336
400.0   60.0   33.333333333333336
400.0   60.0   16.666666666666668
350.0   60.0   33.333333333333336
400.0   90.0   33.333333333333336
400.0   60.0   16.666666666666668
350.0   90.0   16.666666666666668
350.0   60.0   33.333333333333336
400.0   60.0   33.333333333333336
350.0   90.0   33.333333333333336
350.0   60.0   50.0
400.0   60.0   33.333333333333336
400.0   90.0   33.333333333333336
350.0   90.0   33.333333333333336
400.0   90.0   50.0
350.0   60.0   50.0
350.0   90.0   50.0
400.0   90.0   50.0
350.0   90.0   33.333333333333336
350.0   60.0   50.0
400.0   90.0   50.0
400.0   60.0   50.0
400.0   60.0   33.333333333333336
350.0   60.0   50.0
400.0   90.0   50.0
400.0   60.0   33.333333333333336
350.0   90.0   33.333333333333336
350.0   90.0   0.0
400.0   90.0   0.0
350.0   120.0   0.0
350.0   90.0   16.666666666666668
400.0   90.0   0.0
400.0   120.0   0.0
350.0   120.0   0.0
400.0   120.0   16.666666666666668
350.0   90.0   16.666666666666668
350.0   120.0   16.666666666666668
400.0   120.0   16.666666666666668
350.0   120.0   0.0
350.0   90.0   16.666666666666668
400.0   120.0   16.666666666666668
400.0   90.0   16.666666666666668
400.0   90.0   0.0
350.0   90.0   16.666666666666668
400.0   120.0   16.666666666666668
400.0   90.0   0.0
350.0   120.0   0.0
350.0   90.0   16.666666666666668
400.0   90.0   16.666666666666668
350.0   120.0   16.666666666666668
350.0   90.0   33.333333333333336
400.0   90.0   16.666666666666668
400.0   120.0   16.666666666666668
350.0   120.0   16.666666666666668
400.0   120.0   33.333333333333336
350.0   90.0   33.333333333333336
350.0   120.0   33.333333333333336
400.0   120.0   33.333333333333336
350.0   120.0   16.666666666666668
350.0   90.0   33.333333333333336
400.0   120.0   33.333333333333336
400.0   90.0   33.333333333333336
400.0   90.0   16.666666666666668
350.0   90.0   33.333333333333336
400.0   120.0   33.333333333333336
400.0   90.0   16.666666666666668
350.0   120.0   16.666666666666668
350.0   90.0   33.333333333333336
400.0   90.0   33.333333333333336
350.0   120.0   33.333333333333336
350.0   90.0   50.0
400.0   90.0   33.333333333333336
400.0   120.0   33.333333333333336
350.0   120.0   33.333333333333336
400.0   120.0   50.0
350.0   90.0   50.0
350.0   120.0   50.0
400.0   120.0   50.0
350.0   120.0   33.333333333333336
350.0   90.0   50.0
400.0   120.0   50.0
400.0   90.0   50.0
400.0   90.0   33.333333333333336
350.0   90.0   50.0
400.0   120.0   50.0
400.0   90.0   33.333333333333336
350.0   120.0   33.333333333333336
350.0   120.0   0.0
400.0   120.0   0.0
350.0   150.0   0.0
350.0   120.0   16.666666666666668
400.0   120.0   0.0
400.0   150.0   0.0
350.0   150.0   0.0
400.0   150.0   16.666666666666668
350.0   120.0   16.666666666666668
350.0   150.0   16.666666666666668
400.0   150.0   16.666666666666668
350.0   150.0   0.0
350.0   120.0   16.666666666666668
400.0   150.0   16.666666666666668
400.0   120.0   16.666666666666668
400.0   120.0   0.0
350.0   120.0   16.666666666666668
400.0   150.0   16.666666666666668
400.0   120.0   0.0
350.0   150.0   0.0
350.0   120.0   16.666666666666668
400.0   120.0   16.666666666666668
350.0   150.0   16.666666666666668
350.0   120.0   33.333333333333336
400.0   120.0   16.666666666666668
400.0   150.0   16.666666666666668
350.0   150.0   16.666666666666668
400.0   150.0   33.333333333333336
350.0   120.0   33.333333333333336
350.0   150.0   33.333333333333336
400.0   150.0   33.333333333333336
350.0   150.0   16.666666666666668
350.0   120.0   33.333333333333336
400.0   150.0   33.333333333333336
400.0   120.0   33.333333333333336
400.0   120.0   16.666666666666668
350.0   120.0   33.333333333333336
400.0   150.0   33.333333333333336
400.0   120.0   16.666666666666668
350.0   150.0   16.666666666666668
350.0   120.0   33.333333333333336
400.0   120.0   33.333333333333336
350.0   150.0   33.333333333333336
350.0   120.0   50.0
400.0   120.0   33.333333333333336
400.0   150.0   33.333333333333336
350.0   150.0   33.333333333333336
400.0   150.0   50.0
350.0   120.0   50.0
350.0   150.0   50.0
400.0   150.0   50.0
350.0   150.0   33.333333333333336
350.0   120.0   50.0
400.0   150.0   50.0
400.0   120.0   50.0
400.0   120.0   33.333333333333336
350.0   120.0   50.0
400.0   150.0   50.0
400.0   120.0   33.333333333333336
350.0   150.0   33.333333333333336
400.0   0.0   0.0
450.0   0.0   0.0
400.0   30.0   0.0
400.0   0.0   16.666666666666668
450.0   0.0   0.0
450.0   30.0   0.0
400.0   30.0   0.0
450.0   30.0   16.666666666666668
400.0   0.0   16.666666666666668
400.0   30.0   16.666666666666668
450.0   30.0   16.666666666666668
400.0   30.0   0.0
400.0   0.0   16.666666666666668
450.0   30.0   16.666666666666668
450.0   0.0   16.666666666666668
450.0   0.0   0.0
400.0   0.0   16.666666666666668
450.0   30.0   16.666666666666668
450.0   0.0   0.0
400.0   30.0   0.0
400.0   0.0   16.666666666666668
450.0   0.0   16.666666666666668
400.0   30.0   16.666666666666668
400.0   0.0   33.333333333333336
450.0   0.0   16.666666666666668
450.0   30.0   16.666666666666668
400.0   30.0   16.666666666666668
450.0   30.0   33.333333333333336
400.0   0.0   33.333333333333336
400.0   30.0   33.333333333333336
450.0   30.0   33.333333333333336
400.0   30.0   16.666666666666668
400.0   0.0   33.333333333333336
450.0   30.0   33.333333333333336
450.0   0.0   33.333333333333336
450.0   0.0   16.666666666666668
400.0   0.0   33.333333333333336
450.0   30.0   33.333333333333336
450.0   0.0   16.666666666666668
400.0   30.0   16.666666666666668
400.0   0.0   33.333333333333336
450.0   0.0   33.333333333333336
400.0   30.0   33.333333333333336
400.0   0.0   50.0
450.0   0.0   33.333333333333336
450.0   30.0   33.333333333333336
400.0   30.0   33.333333333333336
450.0   30.0   50.0
400.0   0.0   50.0
400.0   30.0   50.0
450.0   30.0   50.0
400.0   30.0   33.333333333333336
400.0   0.0   50.0
450.0   30.0   50.0
450.0   0.0   50.0
450.0   0.0   33.333333333333336
400.0   0.0   50.0
450.0   30.0   50.0
450.0   0.0   33.333333333333336
400.0   30.0   33.333333333333336
400.0   30.0   0.0
450.0   30.0   0.0
400.0   60.0   0.0
400.0   30.0   16.666666666666668
450.0   30.0   0.0
450.0   60.0   0.0
400.0   60.0   0.0
450.0   60.0   16.666666666666668
400.0   30.0   16.666666666666668
400.0   60.0   16.666666666666668
450.0   60.0   16.666666666666668
400.0   60.0   0.0
400.0   30.0   16.666666666666668
450.0   60.0   16.666666666666668
450.0   30.0   16.666666666666668
450.0   30.0   0.0
400.0   30.0   16.666666666666668
450.0   60.0   16.666666666666668
450.0   30.0   0.0
400.0   60.0   0.0
400.0   30.0   16.666666666666668
450.0   30.0   16.666666666666668
400.0   60.0   16.666666666666668
400.0   30.0   33.333333333333336
450.0   30.0   16.666666666666668
450.0   60.0   16.666666666666668
400.0   60.0   16.666666666666668
450.0   60.0   33.333333333333336
400.0   30.0   33.333333333333336
400.0   60.0   33.333333333333336
450.0   60.0   33.333333333333336
400.0   60.0   16.666666666666668
400.0   30.0   33.333333333333336
450.0   60.0   33.333333333333336
450.0   30.0   33.333333333333336
450.0   30.0   16.666666666666668
400.0   30.0   33.333333333333336
450.0   60.0   33.333333333333336
450.0   30.0   16.666666666666668
400.0   60.0   16.666666666666668
400.0   30.0   33.333333333333336
450.0   30.0   33.333333333333336
400.0   60.0   33.333333333333336
400.0   30.0   50.0
450.0   30.0   33.333333333333336
450.0   60.0   33.333333333333336
400.0   60.0   33.333333333333336
450.0   60.0   50.0
400.0   30.0   50.0
400.0   60.0   50.0
450.0   60.0   50.0
400.0   60.0   33.333333333333336
400.0   30.0   50.0
450.0   60.0   50.0
450.0   30.0   50.0
450.0   30.0   33.333333333333336
400.0   30.0   50.0
450.0   60.0   50.0
450.0   30.0   33.333333333333336
400.0   60.0   33.333333333333336
400.0   60.0   0.0
450.0   60.0   0.0
400.0   90.0   0.0
400.0   60.0   16.666666666666668
450.0   60.0   0.0
450.0   90.0   0.0
400.0   90.0   0.0
450.0   90.0   16.666666666666668
400.0   60.0   16.666666666666668
400.0   90.0   16.666666666666668
450.0   90.0   16.666666666666668
400.0   90.0   0.0
400.0   60.0   16.666666666666668
450.0   90.0   16.666666666666668
450.0   60.0   16.666666666666668
450.0   60.0   0.0
400.0   60.0   16.666666666666668
450.0   90.0   16.666666666666668
450.0   60.0   0.0
400.0   90.0   0.0
400.0   60.0   16.666666666666668
450.0   60.0   16.666666666666668
400.0   90.0   16.666666666666668
400.0   60.0   33.333333333333336
450.0   60.0   16.666666666666668
450.0   90.0   16.666666666666668
400.0   90.0   16.666666666666668
450.0   90.0   33.333333333333336
400.0   60.0   33.333333333333336
400.0   90.0   33.333333333333336
450.0   90.0   33.333333333333336
400.0   90.0   16.666666666666668
400.0   60.0   33.333333333333336
450.0   90.0   33.333333333333336
450.0   60.0   33.333333333333336
450.0   60.0   16.666666666666668
400.0   60.0   33.333333333333336
450.0   90.0   33.333333333333336
450.0   60.0   16.666666666666668
400.0   90.0   16.666666666666668
400.0   60.0   33.333333333333336
450.0   60.0   33.333333333333336
400.0   90.0   33.333333333333336
400.0   60.0   50.0
450.0   60.0   33.333333333333336
450.0   90.0   33.333333333333336
400.0   90.0   33.333333333333336
450.0   90.0   50.0
400.0   60.0   50.0
400.0   90.0   50.0
450.0   90.0   50.0
400.0   90.0   33.333333333333336
400.0   60.0   50.0
450.0   90.0   50.0
450.0   60.0   50.0
450.0   60.0   33.333333333333336
400.0   60.0   50.0
450.0   90.0   50.0
450.0   60.0   33.333333333333336
400.0   90.0   33.333333333333336
400.0   90.0   0.0
450.0   90.0   0.0
400.0   120.0   0.0
400.0   90.0   16.666666666666668
450.0   90.0   0.0
450.0   120.0   0.0
400.0   120.0   0.0
450.0   120.0   16.666666666666668
400.0   90.0   16.666666666666668
400.0   120.0   16.666666666666668
450.0   120.0   16.666666666666668
400.0   120.0   0.0
400.0   90.0   16.666666666666668
450.0   120.0   16.666666666666668
450.0   90.0   16.666666666666668
450.0   90.0   0.0
400.0   90.0   16.666666666666668
450.0   120.0   16.666666666666668
450.0   90.0   0.0
400.0   120.0   0.0
400.0   90.0   16.666666666666668
450.0   90.0   16.666666666666668
400.0   120.0   16.666666666666668
400.0   90.0   33.333333333333336
450.0   90.0   16.666666666666668
450.0   120.0   16.666666666666668
400.0   120.0   16.666666666666668
450.0   120.0   33.333333333333336
400.0   90.0   33.333333333333336
400.0   120.0   33.333333333333336
450.0   120.0   33.333333333333336
400.0   120.0   16.666666666666668
400.0   90.0   33.333333333333336
450.0   120.0   33.333333333333336
450.0   90.0   33.333333333333336
450.0   90.0   16.666666666666668
400.0   90.0   33.333333333333336
450.0   120.0   33.333333333333336
450.0   90.0   16.666666666666668
400.0   120.0   16.666666666666668
400.0   90.0   33.333333333333336
450.0   90.0   33.333333333333336
400.0   120.0   33.333333333333336
400.0   90.0   50.0
450.0   90.0   33.333333333333336
450.0   120.0   33.333333333333336
400.0   120.0   33.333333333333336
450.0   120.0   50.0
400.0   90.0   50.0
400.0   120.0   50.0
450.0   120.0   50.0
400.0   120.0   33.333333333333336
400.0   90.0   50.0
450.0   120.0   50.0
450.0   90.0   50.0
450.0   90.0   33.333333333333336
400.0   90.0   50.0
450.0   120.0   50.0
450.0   90.0   33.333333333333336
400.0   120.0   33.333333333333336
400.0   120.0   0.0
450.0   120.0   0.0
400.0   150.0   0.0
400.0   120.0   16.666666666666668
450.0   120.0   0.0
450.0   150.0   0.0
400.0   150.0   0.0
450.0   150.0   16.666666666666668
400.0   120.0   16.666666666666668
400.0   150.0   16.666666666666668
450.0   150.0   16.666666666666668
400.0   150.0   0.0
400.0   120.0   16.666666666666668
450.0   150.0   16.666666666666668
450.0   120.0   16.666666666666668
450.0   120.0   0.0
400.0   120.0   16.666666666666668
450.0   150.0   16.666666666666668
450.0   120.0   0.0
400.0   150.0   0.0
400.0   120.0   16.666666666666668
450.0   120.0   16.666666666666668
400.0   150.0   16.666666666666668
400.0   120.0   33.333333333333336
450.0   120.0   16.666666666666668
450.0   150.0   16.666666666666668
400.0   150.0   16.666666666666668
450.0   150.0   33.333333333333336
400.0   120.0   33.333333333333336
400.0   150.0   33.333333333333336
450.0   150.0   33.333333333333336
400.0   150.0   16.666666666666668
400.0   120.0   33.333333333333336
450.0   150.0   33.333333333333336
450.0   120.0   33.333333333333336
450.0   120.0   16.666666666666668
400.0   120.0   33.333333333333336
450.0   150.0   33.333333333333336
450.0   120.0   16.666666666666668
400.0   150.0   16.666666666666668
400.0   120.0   33.333333333333336
450.0   120.0   33.333333333333336
400.0   150.0   33.333333333333336
400.0   120.0   50.0
450.0   120.0   33.333333333333336
450.0   150.0   33.333333333333336
400.0   150.0   33.333333333333336
450.0   150.0   50.0
400.0   120.0   50.0
400.0   150.0   50.0
450.0   150.0   50.0
400.0   150.0   33.333333333333336
400.0   120.0   50.0
450.0   150.0   50.0
450.0   120.0   50.0
450.0   120.0   33.333333333333336
400.0   120.0   50.0
450.0   150.0   50.0
450.0   120.0   33.333333333333336
400.0   150.0   33.333333333333336
450.0   0.0   0.0
500.0   0.0   0.0
450.0   30.0   0.0
450.0   0.0   16.666666666666668
500.0   0.0   0.0
500.0   30.0   0.0
450.0   30.0   0.0
500.0   30.0   16.666666666666668
450.0   0.0   16.666666666666668
450.0   30.0   16.666666666666668
500.0   30.0   16.666666666666668
450.0   30.0   0.0
450.0   0.0   16.666666666666668
500.0   30.0   16.666666666666668
500.0   0.0   16.666666666666668
500.0   0.0   0.0
450.0   0.0   16.666666666666668
500.0   30.0   16.666666666666668
500.0   0.0   0.0
450.0   30.0   0.0
450.0   0.0   16.666666666666668
500.0   0.0   16.666666666666668
450.0   30.0   16.666666666666668
450.0   0.0   33.333333333333336
500.0   0.0   16.666666666666668
500.0   30.0   16.666666666666668
450.0   30.0   16.666666666666668
500.0   30.0   33.333333333333336
450.0   0.0   33.333333333333336
450.0   30.0   33.333333333333336
500.0   30.0   33.333333333333336
450.0   30.0   16.666666666666668
450.0   0.0   33.333333333333336
500.0   30.0   33.333333333333336
500.0   0.0   33.333333333333336
500.0   0.0   16.666666666666668
450.0   0.0   33.333333333333336
500.0   30.0   33.333333333333336
500.0   0.0   16.666666666666668
450.0   30.0   16.666666666666668
450.0   0.0   33.333333333333336
500.0   0.0   33.333333333333336
450.0   30.0   33.333333333333336
450.0   0.0   50.0
500.0   0.0   33.333333333333336
500.0   30.0   33.333333333333336
450.0   30.0   33.333333333333336
500.0   30.0   50.0
450.0   0.0   50.0
450.0   30.0   50.0
500.0   30.0   50.0
450.0   30.0   33.333333333333336
450.0   0.0   50.0
500.0   30.0   50.0
500.0   0.0   50.0
500.0   0.0   33.333333333333336
450.0   0.0   50.0
500.0   30.0   50.0
500.0   0.0   33.333333333333336
450.0   30.0   33.333333333333336
450.0   30.0   0.0
500.0   30.0   0.0
450.0   60.0   0.0
450.0   30.0   16.666666666666668
500.0   30.0   0.0
500.0   60.0   0.0
450.0   60.0   0.0
500.0   60.0   16.666666666666668
450.0   30.0   16.666666666666668
450.0   60.0   16.666666666666668
500.0   60.0   16.666666666666668
450.0   60.0   0.0
450.0   30.0   16.666666666666668
500.0   60.0   16.666666666666668
500.0   30.0   16.666666666666668
500.0   30.0   0.0
450.0   30.0   16.666666666666668
500.0   60.0   16.666666666666668
500.0   30.0   0.0
450.0   60.0   0.0
450.0   30.0   16.666666666666668
500.0   30.0   16.666666666666668
450.0   60.0   16.666666666666668
450.0   30.0   33.333333333333336
500.0   30.0   16.666666666666668
500.0   60.0   16.666666666666668
450.0   60.0   16.666666666666668
500.0   60.0   33.333333333333336
450.0   30.0   33.333333333333336
450.0   60.0   33.333333333333336
500.0   60.0   33.333333333333336
450.0   60.0   16.666666666666668
450.0   30.0   33.333333333333336
500.0   60.0   33.333333333333336
500.0   30.0   33.333333333333336
500.0   30.0   16.666666666666668
450.0   30.0   33.333333333333336
500.0   60.0   33.333333333333336
500.0   30.0   16.666666666666668
450.0   60.0   16.666666666666668
450.0   30.0   33.333333333333336
500.0   30.0   33.333333333333336
450.0   60.0   33.333333333333336
450.0   30.0   50.0
500.0   30.0   33.333333333333336
500.0   60.0   33.333333333333336
450.0   60.0   33.333333333333336
500.0   60.0   50.0
450.0   30.0   50.0
450.0   60.0   50.0
500.0   60.0   50.0
450.0   60.0   33.333333333333336
450.0   30.0   50.0
500.0   60.0   50.0
500.0   30.0   50.0
500.0   30.0   33.333333333333336
450.0   30.0   50.0
500.0   60.0   50.0
500.0   30.0   33.333333333333336
450.0   60.0   33.333333333333336
450.0   60.0   0.0
500.0   60.0   0.0
450.0   90.0   0.0
450.0   60.0   16.666666666666668
500.0   60.0   0.0
500.0   90.0   0.0
450.0   90.0   0.0
500.0   90.0   16.666666666666668
450.0   60.0   16.666666666666668
450.0   90.0   16.666666666666668
500.0   90.0   16.666666666666668
450.0   90.0   0.0
450.0   60.0   16.666666666666668
500.0   90.0   16.666666666666668
500.0   60.0   16.666666666666668
500.0   60.0   0.0
450.0   60.0   16.666666666666668
500.0   90.0   16.666666666666668
500.0   60.0   0.0
450.0   90.0   0.0
450.0   60.0   16.666666666666668
500.0   60.0   16.666666666666668
450.0   90.0   16.666666666666668
450.0   60.0   33.333333333333336
500.0   60.0   16.666666666666668
500.0   90.0   16.666666666666668
450.0   90.0   16.666666666666668
500.0   90.0   33.333333333333336
450.0   60.0   33.333333333333336
450.0   90.0   33.333333333333336
500.0   90.0   33.333333333333336
450.0   90.0   16.666666666666668
450.0   60.0   33.333333333333336
500.0   90.0   33.333333333333336
500.0   60.0   33.333333333333336
500.0   60.0   16.666666666666668
450.0   60.0   33.333333333333336
500.0   90.0   33.333333333333336
500.0   60.0   16.666666666666668
450.0   90.0   16.666666666666668
450.0   60.0   33.333333333333336
500.0   60.0   33.333333333333336
450.0   90.0   33.333333333333336
450.0   60.0   50.0
500.0   60.0   33.333333333333336
500.0   90.0   33.333333333333336
450.0   90.0   33.333333333333336
500.0   90.0   50.0
450.0   60.0   50.0
450.0   90.0   50.0
500.0   90.0   50.0
450.0   90.0   33.333333333333336
450.0   60.0   50.0
500.0   90.0   50.0
500.0   60.0   50.0
500.0   60.0   33.333333333333336
450.0   60.0   50.0
500.0   90.0   50.0
500.0   60.0   33.333333333333336
450.0   90.0   33.333333333333336
450.0   90.0   0.0
500.0   90.0   0.0
450.0   120.0   0.0
450.0   90.0   16.666666666666668
500.0   90.0   0.0
500.0   120.0   0.0
450.0   120.0   0.0
500.0   120.0   16.666666666666668
450.0   90.0   16.666666666666668
450.0   120.0   16.666666666666668
500.0   120.0   16.666666666666668
450.0   120.0   0.0
450.0   90.0   16.666666666666668
500.0   120.0   16.666666666666668
500.0   90.0   16.666666666666668
500.0   90.0   0.0
450.0   90.0   16.666666666666668
500.0   120.0   16.666666666666668
500.0   90.0   0.0
450.0   120.0   0.0
450.0   90.0   16.666666666666668
500.0   90.0   16.666666666666668
450.0   120.0   16.666666666666668
450.0   90.0   33.333333333333336
500.0   90.0   16.666666666666668
500.0   120.0   16.666666666666668
450.0   120.0   16.666666666666668
500.0   120.0   33.333333333333336
450.0   90.0   33.333333333333336
450.0   120.0   33.333333333333336
500.0   120.0   33.333333333333336
450.0   120.0   16.666666666666668
450.0   90.0   33.333333333333336
500.0   120.0   33.333333333333336
500.0   90.0   33.333333333333336
500.0   90.0   16.666666666666668
450.0   90.0   33.333333333333336
500.0   120.0   33.333333333333336
500.0   90.0   16.666666666666668
450.0   120.0   16.666666666666668
450.0   90.0   33.333333333333336
500.0   90.0   33.333333333333336
450.0   120.0   33.333333333333336
450.0   90.0   50.0
500.0   90.0   33.333333333333336
500.0   120.0   33.333333333333336
450.0   120.0   33.333333333333336
500.0   120.0   50.0
450.0   90.0   50.0
450.0   120.0   50.0
500.0   120.0   50.0
450.0   120.0   33.333333333333336
450.0   90.0   50.0
500.0   120.0   50.0
500.0   90.0   50.0
500.0   90.0   33.333333333333336
450.0   90.0   50.0
500.0   120.0   50.0
500.0   90.0   33.333333333333336
450.0   120.0   33.333333333333336
450.0   120.0   0.0
500.0   120.0   0.0
450.0   150.0   0.0
450.0   120.0   16.666666666666668
500.0   120.0   0.0
500.0   150.0   0.0
450.0   150.0   0.0
500.0   150.0   16.666666666666668
450.0   120.0   16.666666666666668
450.0   150.0   16.666666666666668
500.0   150.0   16.666666666666668
450.0   150.0   0.0
450.0   120.0   16.666666666666668
500.0   150.0   16.666666666666668
500.0   120.0   16.666666666666668
500.0   120.0   0.0
450.0   120.0   16.666666666666668
500.0   150.0   16.666666666666668
500.0   120.0   0.0
450.0   150.0   0.0
450.0   120.0   16.666666666666668
500.0   120.0   16.666666666666668
450.0   150.0   16.666666666666668
450.0   120.0   33.333333333333336
500.0   120.0   16.666666666666668
500.0   150.0   16.666666666666668
450.0   150.0   16.666666666666668
500.0   150.0   33.333333333333336
450.0   120.0   33.333333333333336
450.0   150.0   33.333333333333336
500.0   150.0   33.333333333333336
450.0   150.0   16.666666666666668
450.0   120.0   33.333333333333336
500.0   150.0   33.333333333333336
500.0   120.0   33.333333333333336
500.0   120.0   16.666666666666668
450.0   120.0   33.333333333333336
500.0   150.0   33.333333333333336
500.0   120.0   16.666666666666668
450.0   150.0   16.666666666666668
450.0   120.0   33.333333333333336
500.0   120.0   33.333333333333336
450.0   150.0   33.333333333333336
450.0   120.0   50.0
500.0   120.0   33.333333333333336
500.0   150.0   33.333333333333336
450.0   150.0   33.333333333333336
500.0   150.0   50.0
450.0   120.0   50.0
450.0   150.0   50.0
500.0   150.0   50.0
450.0   150.0   33.333333333333336
450.0   120.0   50.0
500.0   150.0   50.0
500.0   120.0   50.0
500.0   120.0   33.333333333333336
450.0   120.0   50.0
500.0   150.0   50.0
500.0   120.0   33.333333333333336
450.0   150.0   33.333333333333336
             </DataArray>   
          </Points>  
          <Cells>  
             <DataArray type="Int32" Name="connectivity" format="ascii">   
0   1   2   3
4   5   6   7
8   9   10   11
12   13   14   15
16   17   18   19
20   21   22   23
24   25   26   27
28   29   30   31
32   33   34   35
36   37   38   39
40   41   42   43
44   45   46   47
48   49   50   51
52   53   54   55
56   57   58   59
60   61   62   63
64   65   66   67
68   69   70   71
72   73   74   75
76   77   78   79
80   81   82   83
84   85   86   87
88   89   90   91
92   93   94   95
96   97   98   99
100   101   102   103
104   105   106   107
108   109   110   111
112   113   114   115
116   117   118   119
120   121   122   123
124   125   126   127
128   129   130   131
132   133   134   135
136   137   138   139
140   141   142   143
144   145   146   147
148   149   150   151
152   153   154   155
156   157   158   159
160   161   162   163
164   165   166   167
168   169   170   171
172   173   174   175
176   177   178   179
180   181   182   183
184   185   186   187
188   189   190   191
192   193   194   195
196   197   198   199
200   201   202   203
204   205   206   207
208   209   210   211
212   213   214   215
216   217   218   219
220   221   222   223
224   225   226   227
228   229   230   231
232   233   234   235
236   237   238   239
240   241   242   243
244   245   246   247
248   249   250   251
252   253   254   255
256   257   258   259
260   261   262   263
264   265   266   267
268   269   270   271
272   273   274   275
276   277   278   279
280   281   282   283
284   285   286   287
288   289   290   291
292   293   294   295
296   297   298   299
300   301   302   303
304   305   306   307
308   309   310   311
312   313   314   315
316   317   318   319
320   321   322   323
324   325   326   327
328   329   330   331
332   333   334   335
336   337   338   339
340   341   342   343
344   345   346   347
348   349   350   351
352   353   354   355
356   357   358   359
360   361   362   363
364   365   366   367
368   369   370   371
372   373   374   375
376   377   378   379
380   381   382   383
384   385   386   387
388   389   390   391
392   393   394   395
396   397   398   399
400   401   402   403
404   405   406   407
408   409   410   411
412   413   414   415
416   417   418   419
420   421   422   423
424   425   426   427
428   429   430   431
432   433   434   435
436   437   438   439
440   441   442   443
444   445   446   447
448   449   450   451
452   453   454   455
456   457   458   459
460   461   462   463
464   465   466   467
468   469   470   471
472   473   474   475
476   477   478   479
480   481   482   483
484   485   486   487
488   489   490   491
492   493   494   495
496   497   498   499
500   501   502   503
504   505   506   507
508   509   510   511
512   513   514   515
516   517   518   519
520   521   522   523
524   525   526   527
528   529   530   531
532   533   534   535
536   537   538   539
540   541   542   543
544   545   546   547
548   549   550   551
552   553   554   555
556   557   558   559
560   561   562   563
564   565   566   567
568   569   570   571
572   573   574   575
576   577   578   579
580   581   582   583
584   585   586   587
588   589   590   591
592   593   594   595
596   597   598   599
600   601   602   603
604   605   606   607
608   609   610   611
612   613   614   615
616   617   618   619
620   621   622   623
624   625   626   627
628   629   630   631
632   633   634   635
636   637   638   639
640   641   642   643
644   645   646   647
648   649   650   651
652   653   654   655
656   657   658   659
660   661   662   663
664   665   666   667
668   669   670   671
672   673   674   675
676   677   678   679
680   681   682   683
684   685   686   687
688   689   690   691
692   693   694   695
696   697   698   699
700   701   702   703
704   705   706   707
708   709   710   711
712   713   714   715
716   717   718   719
720   721   722   723
724   725   726   727
728   729   730   731
732   733   734   735
736   737   738   739
740   741   742   743
744   745   746   747
748   749   750   751
752   753   754   755
756   757   758   759
760   761   762   763
764   765   766   767
768   769   770   771
772   773   774   775
776   777   778   779
780   781   782   783
784   785   786   787
788   789   790   791
792   793   794   795
796   797   798   799
800   801   802   803
804   805   806   807
808   809   810   811
812   813   814   815
816   817   818   819
820   821   822   823
824   825   826   827
828   829   830   831
832   833   834   835
836   837   838   839
840   841   842   843
844   845   846   847
848   849   850   851
852   853   854   855
856   857   858   859
860   861   862   863
864   865   866   867
868   869   870   871
872   873   874   875
876   877   878   879
880   881   882   883
884   885   886   887
888   889   890   891
892   893   894   895
896   897   898   899
900   901   902   903
904   905   906   907
908   909   910   911
912   913   914   915
916   917   918   919
920   921   922   923
924   925   926   927
928   929   930   931
932   933   934   935
936   937   938   939
940   941   942   943
944   945   946   947
948   949   950   951
952   953   954   955
956   957   958   959
960   961   962   963
964   965   966   967
968   969   970   971
972   973   974   975
976   977   978   979
980   981   982   983
984   985   986   987
988   989   990   991
992   993   994   995
996   997   998   999
1000   1001   1002   1003
1004   1005   1006   1007
1008   1009   1010   1011
1012   1013   1014   1015
1016   1017   1018   1019
1020   1021   1022   1023
1024   1025   1026   1027
1028   1029   1030   1031
1032   1033   1034   1035
1036   1037   1038   1039
1040   1041   1042   1043
1044   1045   1046   1047
1048   1049   1050   1051
1052   1053   1054   1055
1056   1057   1058   1059
1060   1061   1062   1063
1064   1065   1066   1067
1068   1069   1070   1071
1072   1073   1074   1075
1076   1077   1078   1079
1080   1081   1082   1083
1084   1085   1086   1087
1088   1089   1090   1091
1092   1093   1094   1095
1096   1097   1098   1099
1100   1101   1102   1103
1104   1105   1106   1107
1108   1109   1110   1111
1112   1113   1114   1115
1116   1117   1118   1119
1120   1121   1122   1123
1124   1125   1126   1127
1128   1129   1130   1131
1132   1133   1134   1135
1136   1137   1138   1139
1140   1141   1142   1143
1144   1145   1146   1147
1148   1149   1150   1151
1152   1153   1154   1155
1156   1157   1158   1159
1160   1161   1162   1163
1164   1165   1166   1167
1168   1169   1170   1171
1172   1173   1174   1175
1176   1177   1178   1179
1180   1181   1182   1183
1184   1185   1186   1187
1188   1189   1190   1191
1192   1193   1194   1195
1196   1197   1198   1199
1200   1201   1202   1203
1204   1205   1206   1207
1208   1209   1210   1211
1212   1213   1214   1215
1216   1217   1218   1219
1220   1221   1222   1223
1224   1225   1226   1227
1228   1229   1230   1231
1232   1233   1234   1235
1236   1237   1238   1239
1240   1241   1242   1243
1244   1245   1246   1247
1248   1249   1250   1251
1252   1253   1254   1255
1256   1257   1258   1259
1260   1261   1262   1263
1264   1265   1266   1267
1268   1269   1270   1271
1272   1273   1274   1275
1276   1277   1278   1279
1280   1281   1282   1283
1284   1285   1286   1287
1288   1289   1290   1291
1292   1293   1294   1295
1296   1297   1298   1299
1300   1301   1302   1303
1304   1305   1306   1307
1308   1309   1310   1311
1312   1313   1314   1315
1316   1317   1318   1319
1320   1321   1322   1323
1324   1325   1326   1327
1328   1329   1330   1331
1332   1333   1334   1335
1336   1337   1338   1339
1340   1341   1342   1343
1344   1345   1346   1347
1348   1349   1350   1351
1352   1353   1354   1355
1356   1357   1358   1359
1360   1361   1362   1363
1364   1365   1366   1367
1368   1369   1370   1371
1372   1373   1374   1375
1376   1377   1378   1379
1380   1381   1382   1383
1384   1385   1386   1387
1388   1389   1390   1391
1392   1393   1394   1395
1396   1397   1398   1399
1400   1401   1402   1403
1404   1405   1406   1407
1408   1409   1410   1411
1412   1413   1414   1415
1416   1417   1418   1419
1420   1421   1422   1423
1424   1425   1426   1427
1428   1429   1430   1431
1432   1433   1434   1435
1436   1437   1438   1439
1440   1441   1442   1443
1444   1445   1446   1447
1448   1449   1450   1451
1452   1453   1454   1455
1456   1457   1458   1459
1460   1461   1462   1463
1464   1465   1466   1467
1468   1469   1470   1471
1472   1473   1474   1475
1476   1477   1478   1479
1480   1481   1482   1483
1484   1485   1486   1487
1488   1489   1490   1491
1492   1493   1494   1495
1496   1497   1498   1499
1500   1501   1502   1503
1504   1505   1506   1507
1508   1509   1510   1511
1512   1513   1514   1515
1516   1517   1518   1519
1520   1521   1522   1523
1524   1525   1526   1527
1528   1529   1530   1531
1532   1533   1534   1535
1536   1537   1538   1539
1540   1541   1542   1543
1544   1545   1546   1547
1548   1549   1550   1551
1552   1553   1554   1555
1556   1557   1558   1559
1560   1561   1562   1563
1564   1565   1566   1567
1568   1569   1570   1571
1572   1573   1574   1575
1576   1577   1578   1579
1580   1581   1582   1583
1584   1585   1586   1587
1588   1589   1590   1591
1592   1593   1594   1595
1596   1597   1598   1599
1600   1601   1602   1603
1604   1605   1606   1607
1608   1609   1610   1611
1612   1613   1614   1615
1616   1617   1618   1619
1620   1621   1622   1623
1624   1625   1626   1627
1628   1629   1630   1631
1632   1633   1634   1635
1636   1637   1638   1639
1640   1641   1642   1643
1644   1645   1646   1647
1648   1649   1650   1651
1652   1653   1654   1655
1656   1657   1658   1659
1660   1661   1662   1663
1664   1665   1666   1667
1668   1669   1670   1671
1672   1673   1674   1675
1676   1677   1678   1679
1680   1681   1682   1683
1684   1685   1686   1687
1688   1689   1690   1691
1692   1693   1694   1695
1696   1697   1698   1699
1700   1701   1702   1703
1704   1705   1706   1707
1708   1709   1710   1711
1712   1713   1714   1715
1716   1717   1718   1719
1720   1721   1722   1723
1724   1725   1726   1727
1728   1729   1730   1731
1732   1733   1734   1735
1736   1737   1738   1739
1740   1741   1742   1743
1744   1745   1746   1747
1748   1749   1750   1751
1752   1753   1754   1755
1756   1757   1758   1759
1760   1761   1762   1763
1764   1765   1766   1767
1768   1769   1770   1771
1772   1773   1774   1775
1776   1777   1778   1779
1780   1781   1782   1783
1784   1785   1786   1787
1788   1789   1790   1791
1792   1793   1794   1795
1796   1797   1798   1799
1800   1801   1802   1803
1804   1805   1806   1807
1808   1809   1810   1811
1812   1813   1814   1815
1816   1817   1818   1819
1820   1821   1822   1823
1824   1825   1826   1827
1828   1829   1830   1831
1832   1833   1834   1835
1836   1837   1838   1839
1840   1841   1842   1843
1844   1845   1846   1847
1848   1849   1850   1851
1852   1853   1854   1855
1856   1857   1858   1859
1860   1861   1862   1863
1864   1865   1866   1867
1868   1869   1870   1871
1872   1873   1874   1875
1876   1877   1878   1879
1880   1881   1882   1883
1884   1885   1886   1887
1888   1889   1890   1891
1892   1893   1894   1895
1896   1897   1898   1899
1900   1901   1902   1903
1904   1905   1906   1907
1908   1909   1910   1911
1912   1913   1914   1915
1916   1917   1918   1919
1920   1921   1922   1923
1924   1925   1926   1927
1928   1929   1930   1931
1932   1933   1934   1935
1936   1937   1938   1939
1940   1941   1942   1943
1944   1945   1946   1947
1948   1949   1950   1951
1952   1953   1954   1955
1956   1957   1958   1959
1960   1961   1962   1963
1964   1965   1966   1967
1968   1969   1970   1971
1972   1973   1974   1975
1976   1977   1978   1979
1980   1981   1982   1983
1984   1985   1986   1987
1988   1989   1990   1991
1992   1993   1994   1995
1996   1997   1998   1999
2000   2001   2002   2003
2004   2005   2006   2007
2008   2009   2010   2011
2012   2013   2014   2015
2016   2017   2018   2019
2020   2021   2022   2023
2024   2025   2026   2027
2028   2029   2030   2031
2032   2033   2034   2035
2036   2037   2038   2039
2040   2041   2042   2043
2044   2045   2046   2047
2048   2049   2050   2051
2052   2053   2054   2055
2056   2057   2058   2059
2060   2061   2062   2063
2064   2065   2066   2067
2068   2069   2070   2071
2072   2073   2074   2075
2076   2077   2078   2079
2080   2081   2082   2083
2084   2085   2086   2087
2088   2089   2090   2091
2092   2093   2094   2095
2096   2097   2098   2099
2100   2101   2102   2103
2104   2105   2106   2107
2108   2109   2110   2111
2112   2113   2114   2115
2116   2117   2118   2119
2120   2121   2122   2123
2124   2125   2126   2127
2128   2129   2130   2131
2132   2133   2134   2135
2136   2137   2138   2139
2140   2141   2142   2143
2144   2145   2146   2147
2148   2149   2150   2151
2152   2153   2154   2155
2156   2157   2158   2159
2160   2161   2162   2163
2164   2165   2166   2167
2168   2169   2170   2171
2172   2173   2174   2175
2176   2177   2178   2179
2180   2181   2182   2183
2184   2185   2186   2187
2188   2189   2190   2191
2192   2193   2194   2195
2196   2197   2198   2199
2200   2201   2202   2203
2204   2205   2206   2207
2208   2209   2210   2211
2212   2213   2214   2215
2216   2217   2218   2219
2220   2221   2222   2223
2224   2225   2226   2227
2228   2229   2230   2231
2232   2233   2234   2235
2236   2237   2238   2239
2240   2241   2242   2243
2244   2245   2246   2247
2248   2249   2250   2251
2252   2253   2254   2255
2256   2257   2258   2259
2260   2261   2262   2263
2264   2265   2266   2267
2268   2269   2270   2271
2272   2273   2274   2275
2276   2277   2278   2279
2280   2281   2282   2283
2284   2285   2286   2287
2288   2289   2290   2291
2292   2293   2294   2295
2296   2297   2298   2299
2300   2301   2302   2303
2304   2305   2306   2307
2308   2309   2310   2311
2312   2313   2314   2315
2316   2317   2318   2319
2320   2321   2322   2323
2324   2325   2326   2327
2328   2329   2330   2331
2332   2333   2334   2335
2336   2337   2338   2339
2340   2341   2342   2343
2344   2345   2346   2347
2348   2349   2350   2351
2352   2353   2354   2355
2356   2357   2358   2359
2360   2361   2362   2363
2364   2365   2366   2367
2368   2369   2370   2371
2372   2373   2374   2375
2376   2377   2378   2379
2380   2381   2382   2383
2384   2385   2386   2387
2388   2389   2390   2391
2392   2393   2394   2395
2396   2397   2398   2399
2400   2401   2402   2403
2404   2405   2406   2407
2408   2409   2410   2411
2412   2413   2414   2415
2416   2417   2418   2419
2420   2421   2422   2423
2424   2425   2426   2427
2428   2429   2430   2431
2432   2433   2434   2435
2436   2437   2438   2439
2440   2441   2442   2443
2444   2445   2446   2447
2448   2449   2450   2451
2452   2453   2454   2455
2456   2457   2458   2459
2460   2461   2462   2463
2464   2465   2466   2467
2468   2469   2470   2471
2472   2473   2474   2475
2476   2477   2478   2479
2480   2481   2482   2483
2484   2485   2486   2487
2488   2489   2490   2491
2492   2493   2494   2495
2496   2497   2498   2499
2500   2501   2502   2503
2504   2505   2506   2507
2508   2509   2510   2511
2512   2513   2514   2515
2516   2517   2518   2519
2520   2521   2522   2523
2524   2525   2526   2527
2528   2529   2530   2531
2532   2533   2534   2535
2536   2537   2538   2539
2540   2541   2542   2543
2544   2545   2546   2547
2548   2549   2550   2551
2552   2553   2554   2555
2556   2557   2558   2559
2560   2561   2562   2563
2564   2565   2566   2567
2568   2569   2570   2571
2572   2573   2574   2575
2576   2577   2578   2579
2580   2581   2582   2583
2584   2585   2586   2587
2588   2589   2590   2591
2592   2593   2594   2595
2596   2597   2598   2599
2600   2601   2602   2603
2604   2605   2606   2607
2608   2609   2610   2611
2612   2613   2614   2615
2616   2617   2618   2619
2620   2621   2622   2623
2624   2625   2626   2627
2628   2629   2630   2631
2632   2633   2634   2635
2636   2637   2638   2639
2640   2641   2642   2643
2644   2645   2646   2647
2648   2649   2650   2651
2652   2653   2654   2655
2656   2657   2658   2659
2660   2661   2662   2663
2664   2665   2666   2667
2668   2669   2670   2671
2672   2673   2674   2675
2676   2677   2678   2679
2680   2681   2682   2683
2684   2685   2686   2687
2688   2689   2690   2691
2692   2693   2694   2695
2696   2697   2698   2699
2700   2701   2702   2703
2704   2705   2706   2707
2708   2709   2710   2711
2712   2713   2714   2715
2716   2717   2718   2719
2720   2721   2722   2723
2724   2725   2726   2727
2728   2729   2730   2731
2732   2733   2734   2735
2736   2737   2738   2739
2740   2741   2742   2743
2744   2745   2746   2747
2748   2749   2750   2751
2752   2753   2754   2755
2756   2757   2758   2759
2760   2761   2762   2763
2764   2765   2766   2767
2768   2769   2770   2771
2772   2773   2774   2775
2776   2777   2778   2779
2780   2781   2782   2783
2784   2785   2786   2787
2788   2789   2790   2791
2792   2793   2794   2795
2796   2797   2798   2799
2800   2801   2802   2803
2804   2805   2806   2807
2808   2809   2810   2811
2812   2813   2814   2815
2816   2817   2818   2819
2820   2821   2822   2823
2824   2825   2826   2827
2828   2829   2830   2831
2832   2833   2834   2835
2836   2837   2838   2839
2840   2841   2842   2843
2844   2845   2846   2847
2848   2849   2850   2851
2852   2853   2854   2855
2856   2857   2858   2859
2860   2861   2862   2863
2864   2865   2866   2867
2868   2869   2870   2871
2872   2873   2874   2875
2876   2877   2878   2879
2880   2881   2882   2883
2884   2885   2886   2887
2888   2889   2890   2891
2892   2893   2894   2895
2896   2897   2898   2899
2900   2901   2902   2903
2904   2905   2906   2907
2908   2909   2910   2911
2912   2913   2914   2915
2916   2917   2918   2919
2920   2921   2922   2923
2924   2925   2926   2927
2928   2929   2930   2931
2932   2933   2934   2935
2936   2937   2938   2939
2940   2941   2942   2943
2944   2945   2946   2947
2948   2949   2950   2951
2952   2953   2954   2955
2956   2957   2958   2959
2960   2961   2962   2963
2964   2965   2966   2967
2968   2969   2970   2971
2972   2973   2974   2975
2976   2977   2978   2979
2980   2981   2982   2983
2984   2985   2986   2987
2988   2989   2990   2991
2992   2993   2994   2995
2996   2997   2998   2999
3000   3001   3002   3003
3004   3005   3006   3007
3008   3009   3010   3011
3012   3013   3014   3015
3016   3017   3018   3019
3020   3021   3022   3023
3024   3025   3026   3027
3028   3029   3030   3031
3032   3033   3034   3035
3036   3037   3038   3039
3040   3041   3042   3043
3044   3045   3046   3047
3048   3049   3050   3051
3052   3053   3054   3055
3056   3057   3058   3059
3060   3061   3062   3063
3064   3065   3066   3067
3068   3069   3070   3071
3072   3073   3074   3075
3076   3077   3078   3079
3080   3081   3082   3083
3084   3085   3086   3087
3088   3089   3090   3091
3092   3093   3094   3095
3096   3097   3098   3099
3100   3101   3102   3103
3104   3105   3106   3107
3108   3109   3110   3111
3112   3113   3114   3115
3116   3117   3118   3119
3120   3121   3122   3123
3124   3125   3126   3127
3128   3129   3130   3131
3132   3133   3134   3135
3136   3137   3138   3139
3140   3141   3142   3143
3144   3145   3146   3147
3148   3149   3150   3151
3152   3153   3154   3155
3156   3157   3158   3159
3160   3161   3162   3163
3164   3165   3166   3167
3168   3169   3170   3171
3172   3173   3174   3175
3176   3177   3178   3179
3180   3181   3182   3183
3184   3185   3186   3187
3188   3189   3190   3191
3192   3193   3194   3195
3196   3197   3198   3199
3200   3201   3202   3203
3204   3205   3206   3207
3208   3209   3210   3211
3212   3213   3214   3215
3216   3217   3218   3219
3220   3221   3222   3223
3224   3225   3226   3227
3228   3229   3230   3231
3232   3233   3234   3235
3236   3237   3238   3239
3240   3241   3242   3243
3244   3245   3246   3247
3248   3249   3250   3251
3252   3253   3254   3255
3256   3257   3258   3259
3260   3261   3262   3263
3264   3265   3266   3267
3268   3269   3270   3271
3272   3273   3274   3275
3276   3277   3278   3279
3280   3281   3282   3283
3284   3285   3286   3287
3288   3289   3290   3291
3292   3293   3294   3295
3296   3297   3298   3299
3300   3301   3302   3303
3304   3305   3306   3307
3308   3309   3310   3311
3312   3313   3314   3315
3316   3317   3318   3319
3320   3321   3322   3323
3324   3325   3326   3327
3328   3329   3330   3331
3332   3333   3334   3335
3336   3337   3338   3339
3340   3341   3342   3343
3344   3345   3346   3347
3348   3349   3350   3351
3352   3353   3354   3355
3356   3357   3358   3359
3360   3361   3362   3363
3364   3365   3366   3367
3368   3369   3370   3371
3372   3373   3374   3375
3376   3377   3378   3379
3380   3381   3382   3383
3384   3385   3386   3387
3388   3389   3390   3391
3392   3393   3394   3395
3396   3397   3398   3399
3400   3401   3402   3403
3404   3405   3406   3407
3408   3409   3410   3411
3412   3413   3414   3415
3416   3417   3418   3419
3420   3421   3422   3423
3424   3425   3426   3427
3428   3429   3430   3431
3432   3433   3434   3435
3436   3437   3438   3439
3440   3441   3442   3443
3444   3445   3446   3447
3448   3449   3450   3451
3452   3453   3454   3455
3456   3457   3458   3459
3460   3461   3462   3463
3464   3465   3466   3467
3468   3469   3470   3471
3472   3473   3474   3475
3476   3477   3478   3479
3480   3481   3482   3483
3484   3485   3486   3487
3488   3489   3490   3491
3492   3493   3494   3495
3496   3497   3498   3499
3500   3501   3502   3503
3504   3505   3506   3507
3508   3509   3510   3511
3512   3513   3514   3515
3516   3517   3518   3519
3520   3521   3522   3523
3524   3525   3526   3527
3528   3529   3530   3531
3532   3533   3534   3535
3536   3537   3538   3539
3540   3541   3542   3543
3544   3545   3546   3547
3548   3549   3550   3551
3552   3553   3554   3555
3556   3557   3558   3559
3560   3561   3562   3563
3564   3565   3566   3567
3568   3569   3570   3571
3572   3573   3574   3575
3576   3577   3578   3579
3580   3581   3582   3583
3584   3585   3586   3587
3588   3589   3590   3591
3592   3593   3594   3595
3596   3597   3598   3599
3600   3601   3602   3603
3604   3605   3606   3607
3608   3609   3610   3611
3612   3613   3614   3615
3616   3617   3618   3619
3620   3621   3622   3623
3624   3625   3626   3627
3628   3629   3630   3631
3632   3633   3634   3635
3636   3637   3638   3639
3640   3641   3642   3643
3644   3645   3646   3647
3648   3649   3650   3651
3652   3653   3654   3655
3656   3657   3658   3659
3660   3661   3662   3663
3664   3665   3666   3667
3668   3669   3670   3671
3672   3673   3674   3675
3676   3677   3678   3679
3680   3681   3682   3683
3684   3685   3686   3687
3688   3689   3690   3691
3692   3693   3694   3695
3696   3697   3698   3699
3700   3701   3702   3703
3704   3705   3706   3707
3708   3709   3710   3711
3712   3713   3714   3715
3716   3717   3718   3719
3720   3721   3722   3723
3724   3725   3726   3727
3728   3729   3730   3731
3732   3733   3734   3735
3736   3737   3738   3739
3740   3741   3742   3743
3744   3745   3746   3747
3748   3749   3750   3751
3752   3753   3754   3755
3756   3757   3758   3759
3760   3761   3762   3763
3764   3765   3766   3767
3768   3769   3770   3771
3772   3773   3774   3775
3776   3777   3778   3779
3780   3781   3782   3783
3784   3785   3786   3787
3788   3789   3790   3791
3792   3793   3794   3795
3796   3797   3798   3799
3800   3801   3802   3803
3804   3805   3806   3807
3808   3809   3810   3811
3812   3813   3814   3815
3816   3817   3818   3819
3820   3821   3822   3823
3824   3825   3826   3827
3828   3829   3830   3831
3832   3833   3834   3835
3836   3837   3838   3839
3840   3841   3842   3843
3844   3845   3846   3847
3848   3849   3850   3851
3852   3853   3854   3855
3856   3857   3858   3859
3860   3861   3862   3863
3864   3865   3866   3867
3868   3869   3870   3871
3872   3873   3874   3875
3876   3877   3878   3879
3880   3881   3882   3883
3884   3885   3886   3887
3888   3889   3890   3891
3892   3893   3894   3895
3896   3897   3898   3899
3900   3901   3902   3903
3904   3905   3906   3907
3908   3909   3910   3911
3912   3913   3914   3915
3916   3917   3918   3919
3920   3921   3922   3923
3924   3925   3926   3927
3928   3929   3930   3931
3932   3933   3934   3935
3936   3937   3938   3939
3940   3941   3942   3943
3944   3945   3946   3947
3948   3949   3950   3951
3952   3953   3954   3955
3956   3957   3958   3959
3960   3961   3962   3963
3964   3965   3966   3967
3968   3969   3970   3971
3972   3973   3974   3975
3976   3977   3978   3979
3980   3981   3982   3983
3984   3985   3986   3987
3988   3989   3990   3991
3992   3993   3994   3995
3996   3997   3998   3999
4000   4001   4002   4003
4004   4005   4006   4007
4008   4009   4010   4011
4012   4013   4014   4015
4016   4017   4018   4019
4020   4021   4022   4023
4024   4025   4026   4027
4028   4029   4030   4031
4032   4033   4034   4035
4036   4037   4038   4039
4040   4041   4042   4043
4044   4045   4046   4047
4048   4049   4050   4051
4052   4053   4054   4055
4056   4057   4058   4059
4060   4061   4062   4063
4064   4065   4066   4067
4068   4069   4070   4071
4072   4073   4074   4075
4076   4077   4078   4079
4080   4081   4082   4083
4084   4085   4086   4087
4088   4089   4090   4091
4092   4093   4094   4095
4096   4097   4098   4099
4100   4101   4102   4103
4104   4105   4106   4107
4108   4109   4110   4111
4112   4113   4114   4115
4116   4117   4118   4119
4120   4121   4122   4123
4124   4125   4126   4127
4128   4129   4130   4131
4132   4133   4134   4135
4136   4137   4138   4139
4140   4141   4142   4143
4144   4145   4146   4147
4148   4149   4150   4151
4152   4153   4154   4155
4156   4157   4158   4159
4160   4161   4162   4163
4164   4165   4166   4167
4168   4169   4170   4171
4172   4173   4174   4175
4176   4177   4178   4179
4180   4181   4182   4183
4184   4185   4186   4187
4188   4189   4190   4191
4192   4193   4194   4195
4196   4197   4198   4199
4200   4201   4202   4203
4204   4205   4206   4207
4208   4209   4210   4211
4212   4213   4214   4215
4216   4217   4218   4219
4220   4221   4222   4223
4224   4225   4226   4227
4228   4229   4230   4231
4232   4233   4234   4235
4236   4237   4238   4239
4240   4241   4242   4243
4244   4245   4246   4247
4248   4249   4250   4251
4252   4253   4254   4255
4256   4257   4258   4259
4260   4261   4262   4263
4264   4265   4266   4267
4268   4269   4270   4271
4272   4273   4274   4275
4276   4277   4278   4279
4280   4281   4282   4283
4284   4285   4286   4287
4288   4289   4290   4291
4292   4293   4294   4295
4296   4297   4298   4299
4300   4301   4302   4303
4304   4305   4306   4307
4308   4309   4310   4311
4312   4313   4314   4315
4316   4317   4318   4319
4320   4321   4322   4323
4324   4325   4326   4327
4328   4329   4330   4331
4332   4333   4334   4335
4336   4337   4338   4339
4340   4341   4342   4343
4344   4345   4346   4347
4348   4349   4350   4351
4352   4353   4354   4355
4356   4357   4358   4359
4360   4361   4362   4363
4364   4365   4366   4367
4368   4369   4370   4371
4372   4373   4374   4375
4376   4377   4378   4379
4380   4381   4382   4383
4384   4385   4386   4387
4388   4389   4390   4391
4392   4393   4394   4395
4396   4397   4398   4399
4400   4401   4402   4403
4404   4405   4406   4407
4408   4409   4410   4411
4412   4413   4414   4415
4416   4417   4418   4419
4420   4421   4422   4423
4424   4425   4426   4427
4428   4429   4430   4431
4432   4433   4434   4435
4436   4437   4438   4439
4440   4441   4442   4443
4444   4445   4446   4447
4448   4449   4450   4451
4452   4453   4454   4455
4456   4457   4458   4459
4460   4461   4462   4463
4464   4465   4466   4467
4468   4469   4470   4471
4472   4473   4474   4475
4476   4477   4478   4479
4480   4481   4482   4483
4484   4485   4486   4487
4488   4489   4490   4491
4492   4493   4494   4495
4496   4497   4498   4499
4500   4501   4502   4503
4504   4505   4506   4507
4508   4509   4510   4511
4512   4513   4514   4515
4516   4517   4518   4519
4520   4521   4522   4523
4524   4525   4526   4527
4528   4529   4530   4531
4532   4533   4534   4535
4536   4537   4538   4539
4540   4541   4542   4543
4544   4545   4546   4547
4548   4549   4550   4551
4552   4553   4554   4555
4556   4557   4558   4559
4560   4561   4562   4563
4564   4565   4566   4567
4568   4569   4570   4571
4572   4573   4574   4575
4576   4577   4578   4579
4580   4581   4582   4583
4584   4585   4586   4587
4588   4589   4590   4591
4592   4593   4594   4595
4596   4597   4598   4599
4600   4601   4602   4603
4604   4605   4606   4607
4608   4609   4610   4611
4612   4613   4614   4615
4616   4617   4618   4619
4620   4621   4622   4623
4624   4625   4626   4627
4628   4629   4630   4631
4632   4633   4634   4635
4636   4637   4638   4639
4640   4641   4642   4643
4644   4645   4646   4647
4648   4649   4650   4651
4652   4653   4654   4655
4656   4657   4658   4659
4660   4661   4662   4663
4664   4665   4666   4667
4668   4669   4670   4671
4672   4673   4674   4675
4676   4677   4678   4679
4680   4681   4682   4683
4684   4685   4686   4687
4688   4689   4690   4691
4692   4693   4694   4695
4696   4697   4698   4699
4700   4701   4702   4703
4704   4705   4706   4707
4708   4709   4710   4711
4712   4713   4714   4715
4716   4717   4718   4719
4720   4721   4722   4723
4724   4725   4726   4727
4728   4729   4730   4731
4732   4733   4734   4735
4736   4737   4738   4739
4740   4741   4742   4743
4744   4745   4746   4747
4748   4749   4750   4751
4752   4753   4754   4755
4756   4757   4758   4759
4760   4761   4762   4763
4764   4765   4766   4767
4768   4769   4770   4771
4772   4773   4774   4775
4776   4777   4778   4779
4780   4781   4782   4783
4784   4785   4786   4787
4788   4789   4790   4791
4792   4793   4794   4795
4796   4797   4798   4799
4800   4801   4802   4803
4804   4805   4806   4807
4808   4809   4810   4811
4812   4813   4814   4815
4816   4817   4818   4819
4820   4821   4822   4823
4824   4825   4826   4827
4828   4829   4830   4831
4832   4833   4834   4835
4836   4837   4838   4839
4840   4841   4842   4843
4844   4845   4846   4847
4848   4849   4850   4851
4852   4853   4854   4855
4856   4857   4858   4859
4860   4861   4862   4863
4864   4865   4866   4867
4868   4869   4870   4871
4872   4873   4874   4875
4876   4877   4878   4879
4880   4881   4882   4883
4884   4885   4886   4887
4888   4889   4890   4891
4892   4893   4894   4895
4896   4897   4898   4899
4900   4901   4902   4903
4904   4905   4906   4907
4908   4909   4910   4911
4912   4913   4914   4915
4916   4917   4918   4919
4920   4921   4922   4923
4924   4925   4926   4927
4928   4929   4930   4931
4932   4933   4934   4935
4936   4937   4938   4939
4940   4941   4942   4943
4944   4945   4946   4947
4948   4949   4950   4951
4952   4953   4954   4955
4956   4957   4958   4959
4960   4961   4962   4963
4964   4965   4966   4967
4968   4969   4970   4971
4972   4973   4974   4975
4976   4977   4978   4979
4980   4981   4982   4983
4984   4985   4986   4987
4988   4989   4990   4991
4992   4993   4994   4995
4996   4997   4998   4999
5000   5001   5002   5003
5004   5005   5006   5007
5008   5009   5010   5011
5012   5013   5014   5015
5016   5017   5018   5019
5020   5021   5022   5023
5024   5025   5026   5027
5028   5029   5030   5031
5032   5033   5034   5035
5036   5037   5038   5039
5040   5041   5042   5043
5044   5045   5046   5047
5048   5049   5050   5051
5052   5053   5054   5055
5056   5057   5058   5059
5060   5061   5062   5063
5064   5065   5066   5067
5068   5069   5070   5071
5072   5073   5074   5075
5076   5077   5078   5079
5080   5081   5082   5083
5084   5085   5086   5087
5088   5089   5090   5091
5092   5093   5094   5095
5096   5097   5098   5099
5100   5101   5102   5103
5104   5105   5106   5107
5108   5109   5110   5111
5112   5113   5114   5115
5116   5117   5118   5119
5120   5121   5122   5123
5124   5125   5126   5127
5128   5129   5130   5131
5132   5133   5134   5135
5136   5137   5138   5139
5140   5141   5142   5143
5144   5145   5146   5147
5148   5149   5150   5151
5152   5153   5154   5155
5156   5157   5158   5159
5160   5161   5162   5163
5164   5165   5166   5167
5168   5169   5170   5171
5172   5173   5174   5175
5176   5177   5178   5179
5180   5181   5182   5183
5184   5185   5186   5187
5188   5189   5190   5191
5192   5193   5194   5195
5196   5197   5198   5199
5200   5201   5202   5203
5204   5205   5206   5207
5208   5209   5210   5211
5212   5213   5214   5215
5216   5217   5218   5219
5220   5221   5222   5223
5224   5225   5226   5227
5228   5229   5230   5231
5232   5233   5234   5235
5236   5237   5238   5239
5240   5241   5242   5243
5244   5245   5246   5247
5248   5249   5250   5251
5252   5253   5254   5255
5256   5257   5258   5259
5260   5261   5262   5263
5264   5265   5266   5267
5268   5269   5270   5271
5272   5273   5274   5275
5276   5277   5278   5279
5280   5281   5282   5283
5284   5285   5286   5287
5288   5289   5290   5291
5292   5293   5294   5295
5296   5297   5298   5299
5300   5301   5302   5303
5304   5305   5306   5307
5308   5309   5310   5311
5312   5313   5314   5315
5316   5317   5318   5319
5320   5321   5322   5323
5324   5325   5326   5327
5328   5329   5330   5331
5332   5333   5334   5335
5336   5337   5338   5339
5340   5341   5342   5343
5344   5345   5346   5347
5348   5349   5350   5351
5352   5353   5354   5355
5356   5357   5358   5359
5360   5361   5362   5363
5364   5365   5366   5367
5368   5369   5370   5371
5372   5373   5374   5375
5376   5377   5378   5379
5380   5381   5382   5383
5384   5385   5386   5387
5388   5389   5390   5391
5392   5393   5394   5395
5396   5397   5398   5399
5400   5401   5402   5403
5404   5405   5406   5407
5408   5409   5410   5411
5412   5413   5414   5415
5416   5417   5418   5419
5420   5421   5422   5423
5424   5425   5426   5427
5428   5429   5430   5431
5432   5433   5434   5435
5436   5437   5438   5439
5440   5441   5442   5443
5444   5445   5446   5447
5448   5449   5450   5451
5452   5453   5454   5455
5456   5457   5458   5459
5460   5461   5462   5463
5464   5465   5466   5467
5468   5469   5470   5471
5472   5473   5474   5475
5476   5477   5478   5479
5480   5481   5482   5483
5484   5485   5486   5487
5488   5489   5490   5491
5492   5493   5494   5495
5496   5497   5498   5499
5500   5501   5502   5503
5504   5505   5506   5507
5508   5509   5510   5511
5512   5513   5514   5515
5516   5517   5518   5519
5520   5521   5522   5523
5524   5525   5526   5527
5528   5529   5530   5531
5532   5533   5534   5535
5536   5537   5538   5539
5540   5541   5542   5543
5544   5545   5546   5547
5548   5549   5550   5551
5552   5553   5554   5555
5556   5557   5558   5559
5560   5561   5562   5563
5564   5565   5566   5567
5568   5569   5570   5571
5572   5573   5574   5575
5576   5577   5578   5579
5580   5581   5582   5583
5584   5585   5586   5587
5588   5589   5590   5591
5592   5593   5594   5595
5596   5597   5598   5599
5600   5601   5602   5603
5604   5605   5606   5607
5608   5609   5610   5611
5612   5613   5614   5615
5616   5617   5618   5619
5620   5621   5622   5623
5624   5625   5626   5627
5628   5629   5630   5631
5632   5633   5634   5635
5636   5637   5638   5639
5640   5641   5642   5643
5644   5645   5646   5647
5648   5649   5650   5651
5652   5653   5654   5655
5656   5657   5658   5659
5660   5661   5662   5663
5664   5665   5666   5667
5668   5669   5670   5671
5672   5673   5674   5675
5676   5677   5678   5679
5680   5681   5682   5683
5684   5685   5686   5687
5688   5689   5690   5691
5692   5693   5694   5695
5696   5697   5698   5699
5700   5701   5702   5703
5704   5705   5706   5707
5708   5709   5710   5711
5712   5713   5714   5715
5716   5717   5718   5719
5720   5721   5722   5723
5724   5725   5726   5727
5728   5729   5730   5731
5732   5733   5734   5735
5736   5737   5738   5739
5740   5741   5742   5743
5744   5745   5746   5747
5748   5749   5750   5751
5752   5753   5754   5755
5756   5757   5758   5759
5760   5761   5762   5763
5764   5765   5766   5767
5768   5769   5770   5771
5772   5773   5774   5775
5776   5777   5778   5779
5780   5781   5782   5783
5784   5785   5786   5787
5788   5789   5790   5791
5792   5793   5794   5795
5796   5797   5798   5799
5800   5801   5802   5803
5804   5805   5806   5807
5808   5809   5810   5811
5812   5813   5814   5815
5816   5817   5818   5819
5820   5821   5822   5823
5824   5825   5826   5827
5828   5829   5830   5831
5832   5833   5834   5835
5836   5837   5838   5839
5840   5841   5842   5843
5844   5845   5846   5847
5848   5849   5850   5851
5852   5853   5854   5855
5856   5857   5858   5859
5860   5861   5862   5863
5864   5865   5866   5867
5868   5869   5870   5871
5872   5873   5874   5875
5876   5877   5878   5879
5880   5881   5882   5883
5884   5885   5886   5887
5888   5889   5890   5891
5892   5893   5894   5895
5896   5897   5898   5899
5900   5901   5902   5903
5904   5905   5906   5907
5908   5909   5910   5911
5912   5913   5914   5915
5916   5917   5918   5919
5920   5921   5922   5923
5924   5925   5926   5927
5928   5929   5930   5931
5932   5933   5934   5935
5936   5937   5938   5939
5940   5941   5942   5943
5944   5945   5946   5947
5948   5949   5950   5951
5952   5953   5954   5955
5956   5957   5958   5959
5960   5961   5962   5963
5964   5965   5966   5967
5968   5969   5970   5971
5972   5973   5974   5975
5976   5977   5978   5979
5980   5981   5982   5983
5984   5985   5986   5987
5988   5989   5990   5991
5992   5993   5994   5995
5996   5997   5998   5999
              </DataArray>   
              <DataArray type="Int32" Name="offsets" format="ascii">   
4
8
12
16
20
24
28
32
36
40
44
48
52
56
60
64
68
72
76
80
84
88
92
96
100
104
108
112
116
120
124
128
132
136
140
144
148
152
156
160
164
168
172
176
180
184
188
192
196
200
204
208
212
216
220
224
228
232
236
240
244
248
252
256
260
264
268
272
276
280
284
288
292
296
300
304
308
312
316
320
324
328
332
336
340
344
348
352
356
360
364
368
372
376
380
384
388
392
396
400
404
408
412
416
420
424
428
432
436
440
444
448
452
456
460
464
468
472
476
480
484
488
492
496
500
504
508
512
516
520
524
528
532
536
540
544
548
552
556
560
564
568
572
576
580
584
588
592
596
600
604
608
612
616
620
624
628
632
636
640
644
648
652
656
660
664
668
672
676
680
684
688
692
696
700
704
708
712
716
720
724
728
732
736
740
744
748
752
756
760
764
768
772
776
780
784
788
792
796
800
804
808
812
816
820
824
828
832
836
840
844
848
852
856
860
864
868
872
876
880
884
888
892
896
900
904
908
912
916
920
924
928
932
936
940
944
948
952
956
960
964
968
972
976
980
984
988
992
996
1000
1004
1008
1012
1016
1020
1024
1028
1032
1036
1040
1044
1048
1052
1056
1060
1064
1068
1072
1076
1080
1084
1088
1092
1096
1100
1104
1108
1112
1116
1120
1124
1128
1132
1136
1140
1144
1148
1152
1156
1160
1164
1168
1172
1176
1180
1184
1188
1192
1196
1200
1204
1208
1212
1216
1220
1224
1228
1232
1236
1240
1244
1248
1252
1256
1260
1264
1268
1272
1276
1280
1284
1288
1292
1296
1300
1304
1308
1312
1316
1320
1324
1328
1332
1336
1340
1344
1348
1352
1356
1360
1364
1368
1372
1376
1380
1384
1388
1392
1396
1400
1404
1408
1412
1416
1420
1424
1428
1432
1436
1440
1444
1448
1452
1456
1460
1464
1468
1472
1476
1480
1484
1488
1492
1496
1500
1504
1508
1512
1516
1520
1524
1528
1532
1536
1540
1544
1548
1552
1556
1560
1564
1568
1572
1576
1580
1584
1588
1592
1596
1600
1604
1608
1612
1616
1620
1624
1628
1632
1636
1640
1644
1648
1652
1656
1660
1664
1668
1672
1676
1680
1684
1688
1692
1696
1700
1704
1708
1712
1716
1720
1724
1728
1732
1736
1740
1744
1748
1752
1756
1760
1764
1768
1772
1776
1780
1784
1788
1792
1796
1800
1804
1808
1812
1816
1820
1824
1828
1832
1836
1840
1844
1848
1852
1856
1860
1864
1868
1872
1876
1880
1884
1888
1892
1896
1900
1904
1908
1912
1916
1920
1924
1928
1932
1936
1940
1944
1948
1952
1956
1960
1964
1968
1972
1976
1980
1984
1988
1992
1996
2000
2004
2008
2012
2016
2020
2024
2028
2032
2036
2040
2044
2048
2052
2056
2060
2064
2068
2072
2076
2080
2084
2088
2092
2096
2100
2104
2108
2112
2116
2120
2124
2128
2132
2136
2140
2144
2148
2152
2156
2160
2164
2168
2172
2176
2180
2184
2188
2192
2196
2200
2204
2208
2212
2216
2220
2224
2228
2232
2236
2240
2244
2248
2252
2256
2260
2264
2268
2272
2276
2280
2284
2288
2292
2296
2300
2304
2308
2312
2316
2320
2324
2328
2332
2336
2340
2344
2348
2352
2356
2360
2364
2368
2372
2376
2380
2384
2388
2392
2396
2400
2404
2408
2412
2416
2420
2424
2428
2432
2436
2440
2444
2448
2452
2456
2460
2464
2468
2472
2476
2480
2484
2488
2492
2496
2500
2504
2508
2512
2516
2520
2524
2528
2532
2536
2540
2544
2548
2552
2556
2560
2564
2568
2572
2576
2580
2584
2588
2592
2596
2600
2604
2608
2612
2616
2620
2624
2628
2632
2636
2640
2644
2648
2652
2656
2660
2664
2668
2672
2676
2680
2684
2688
2692
2696
2700
2704
2708
2712
2716
2720
2724
2728
2732
2736
2740
2744
2748
2752
2756
2760
2764
2768
2772
2776
2780
2784
2788
2792
2796
2800
2804
2808
2812
2816
2820
2824
2828
2832
2836
2840
2844
2848
2852
2856
2860
2864
2868
2872
2876
2880
2884
2888
2892
2896
2900
2904
2908
2912
2916
2920
2924
2928
2932
2936
2940
2944
2948
2952
2956
2960
2964
2968
2972
2976
2980
2984
2988
2992
2996
3000
3004
3008
3012
3016
3020
3024
3028
3032
3036
3040
3044
3048
3052
3056
3060
3064
3068
3072
3076
3080
3084
3088
3092
3096
3100
3104
3108
3112
3116
3120
3124
3128
3132
3136
3140
3144
3148
3152
3156
3160
3164
3168
3172
3176
3180
3184
3188
3192
3196
3200
3204
3208
3212
3216
3220
3224
3228
3232
3236
3240
3244
3248
3252
3256
3260
3264
3268
3272
3276
3280
3284
3288
3292
3296
3300
3304
3308
3312
3316
3320
3324
3328
3332
3336
3340
3344
3348
3352
3356
3360
3364
3368
3372
3376
3380
3384
3388
3392
3396
3400
3404
3408
3412
3416
3420
3424
3428
3432
3436
3440
3444
3448
3452
3456
3460
3464
3468
3472
3476
3480
3484
3488
3492
3496
3500
3504
3508
3512
3516
3520
3524
3528
3532
3536
3540
3544
3548
3552
3556
3560
3564
3568
3572
3576
3580
3584
3588
3592
3596
3600
3604
3608
3612
3616
3620
3624
3628
3632
3636
3640
3644
3648
3652
3656
3660
3664
3668
3672
3676
3680
3684
3688
3692
3696
3700
3704
3708
3712
3716
3720
3724
3728
3732
3736
3740
3744
3748
3752
3756
3760
3764
3768
3772
3776
3780
3784
3788
3792
3796
3800
3804
3808
3812
3816
3820
3824
3828
3832
3836
3840
3844
3848
3852
3856
3860
3864
3868
3872
3876
3880
3884
3888
3892
3896
3900
3904
3908
3912
3916
3920
3924
3928
3932
3936
3940
3944
3948
3952
3956
3960
3964
3968
3972
3976
3980
3984
3988
3992
3996
4000
4004
4008
4012
4016
4020
4024
4028
4032
4036
4040
4044
4048
4052
4056
4060
4064
4068
4072
4076
4080
4084
4088
4092
4096
4100
4104
4108
4112
4116
4120
4124
4128
4132
4136
4140
4144
4148
4152
4156
4160
4164
4168
4172
4176
4180
4184
4188
4192
4196
4200
4204
4208
4212
4216
4220
4224
4228
4232
4236
4240
4244
4248
4252
4256
4260
4264
4268
4272
4276
4280
4284
4288
4292
4296
4300
4304
4308
4312
4316
4320
4324
4328
4332
4336
4340
4344
4348
4352
4356
4360
4364
4368
4372
4376
4380
4384
4388
4392
4396
4400
4404
4408
4412
4416
4420
4424
4428
4432
4436
4440
4444
4448
4452
4456
4460
4464
4468
4472
4476
4480
4484
4488
4492
4496
4500
4504
4508
4512
4516
4520
4524
4528
4532
4536
4540
4544
4548
4552
4556
4560
4564
4568
4572
4576
4580
4584
4588
4592
4596
4600
4604
4608
4612
4616
4620
4624
4628
4632
4636
4640
4644
4648
4652
4656
4660
4664
4668
4672
4676
4680
4684
4688
4692
4696
4700
4704
4708
4712
4716
4720
4724
4728
4732
4736
4740
4744
4748
4752
4756
4760
4764
4768
4772
4776
4780
4784
4788
4792
4796
4800
4804
4808
4812
4816
4820
4824
4828
4832
4836
4840
4844
4848
4852
4856
4860
4864
4868
4872
4876
4880
4884
4888
4892
4896
4900
4904
4908
4912
4916
4920
4924
4928
4932
4936
4940
4944
4948
4952
4956
4960
4964
4968
4972
4976
4980
4984
4988
4992
4996
5000
5004
5008
5012
5016
5020
5024
5028
5032
5036
5040
5044
5048
5052
5056
5060
5064
5068
5072
5076
5080
5084
5088
5092
5096
5100
5104
5108
5112
5116
5120
5124
5128
5132
5136
5140
5144
5148
5152
5156
5160
5164
5168
5172
5176
5180
5184
5188
5192
5196
5200
5204
5208
5212
5216
5220
5224
5228
5232
5236
5240
5244
5248
5252
5256
5260
5264
5268
5272
5276
5280
5284
5288
5292
5296
5300
5304
5308
5312
5316
5320
5324
5328
5332
5336
5340
5344
5348
5352
5356
5360
5364
5368
5372
5376
5380
5384
5388
5392
5396
5400
5404
5408
5412
5416
5420
5424
5428
5432
5436
5440
5444
5448
5452
5456
5460
5464
5468
5472
5476
5480
5484
5488
5492
5496
5500
5504
5508
5512
5516
5520
5524
5528
5532
5536
5540
5544
5548
5552
5556
5560
5564
5568
5572
5576
5580
5584
5588
5592
5596
5600
5604
5608
5612
5616
5620
5624
5628
5632
5636
5640
5644
5648
5652
5656
5660
5664
5668
5672
5676
5680
5684
5688
5692
5696
5700
5704
5708
5712
5716
5720
5724
5728
5732
5736
5740
5744
5748
5752
5756
5760
5764
5768
5772
5776
5780
5784
5788
5792
5796
5800
5804
5808
5812
5816
5820
5824
5828
5832
5836
5840
5844
5848
5852
5856
5860
5864
5868
5872
5876
5880
5884
5888
5892
5896
5900
5904
5908
5912
5916
5920
5924
5928
5932
5936
5940
5944
5948
5952
5956
5960
5964
5968
5972
5976
5980
5984
5988
5992
5996
6000
              </DataArray>   
              <DataArray type="UInt8" Name="types" format="ascii">   
10
10
10
10
10
10
10
10
10
10
10
10
10
10
10
10
10
10
10
10
10
10
10
10
10
10
10
10
10
10
10
10
10
10
10
10
10
10
10
10
10
10
10
10
10
10
10
10
10
10
10
10
10
10
10
10
10
10
10
10
10
10
10
10
10
10
10
10
10
10
10
10
10
10
10
10
10
10
10
10
10
10
10
10
10
10
10
10
10
10
10
10
10
10
10
10
10
10
10
10
10
10
10
10
10
10
10
10
10
10
10
10
10
10
10
10
10
10
10
10
10
10
10
10
10
10
10
10
10
10
10
10
10
10
10
10
10
10
10
10
10
10
10
10
10
10
10
10
10
10
10
10
10
10
10
10
10
10
10
10
10
10
10
10
10
10
10
10
10
10
10
10
10
10
10
10
10
10
10
10
10
10
10
10
10
10
10
10
10
10
10
10
10
10
10
10
10
10
10
10
10
10
10
10
10
10
10
10
10
10
10
10
10
10
10
10
10
10
10
10
10
10
10
10
10
10
10
10
10
10
10
10
10
10
10
10
10
10
10
10
10
10
10
10
10
10
10
10
10
10
10
10
10
10
10
10
10
10
10
10
10
10
10
10
10
10
10
10
10
10
10
10
10
10
10
10
10
10
10
10
10
10
10
10
10
10
10
10
10
10
10
10
10
10
10
10
10
10
10
10
10
10
10
10
10
10
10
10
10
10
10
10
10
10
10
10
10
10
10
10
10
10
10
10
10
10
10
10
10
10
10
10
10
10
10
10
10
10
10
10
10
10
10
10
10
10
10
10
10
10
10
10
10
10
10
10
10
10
10
10
10
10
10
10
10
10
10
10
10
10
10
10
10
10
10
10
10
10
10
10
10
10
10
10
10
10
10
10
10
10
10
10
10
10
10
10
10
10
10
10
10
10
10
10
10
10
10
10
10
10
10
10
10
10
10
10
10
10
10
10
10
10
10
10
10
10
10
10
10
10
10
10
10
10
10
10
10
10
10
10
10
10
10
10
10
10
10
10
10
10
10
10
10
10
10
10
10
10
10
10
10
10
10
10
10
10
10
10
10
10
10
10
10
10
10
10
10
10
10
10
10
10
10
10
10
10
10
10
10
10
10
10
10
10
10
10
10
10
10
10
10
10
10
10
10
10
10
10
10
10
10
10
10
10
10
10
10
10
10
10
10
10
10
10
10
10
10
10
10
10
10
10
10
10
10
10
10
10
10
10
10
10
10
10
10
10
10
10
10
10
10
10
10
10
10
10
10
10
10
10
10
10
10
10
10
10
10
10
10
10
10
10
10
10
10
10
10
10
10
10
10
10
10
10
10
10
10
10
10
10
10
10
10
10
10
10
10
10
10
10
10
10
10
10
10
10
10
10
10
10
10
10
10
10
10
10
10
10
10
10
10
10
10
10
10
10
10
10
10
10
10
10
10
10
10
10
10
10
10
10
10
10
10
10
10
10
10
10
10
10
10
10
10
10
10
10
10
10
10
10
10
10
10
10
10
10
10
10
10
10
10
10
10
10
10
10
10
10
10
10
10
10
10
10
10
10
10
10
10
10
10
10
10
10
10
10
10
10
10
10
10
10
10
10
10
10
10
10
10
10
10
10
10
10
10
10
10
10
10
10
10
10
10
10
10
10
10
10
10
10
10
10
10
10
10
10
10
10
10
10
10
10
10
10
10
10
10
10
10
10
10
10
10
10
10
10
10
10
10
10
10
10
10
10
10
10
10
10
10
10
10
10
10
10
10
10
10
10
10
10
10
10
10
10
10
10
10
10
10
10
10
10
10
10
10
10
10
10
10
10
10
10
10
10
10
10
10
10
10
10
10
10
10
10
10
10
10
10
10
10
10
10
10
10
10
10
10
10
10
10
10
10
10
10
10
10
10
10
10
10
10
10
10
10
10
10
10
10
10
10
10
10
10
10
10
10
10
10
10
10
10
10
10
10
10
10
10
10
10
10
10
10
10
10
10
10
10
10
10
10
10
10
10
10
10
10
10
10
10
10
10
10
10
10
10
10
10
10
10
10
10
10
10
10
10
10
10
10
10
10
10
10
10
10
10
10
10
10
10
10
10
10
10
10
10
10
10
10
10
10
10
10
10
10
10
10
10
10
10
10
10
10
10
10
10
10
10
10
10
10
10
10
10
10
10
10
10
10
10
10
10
10
10
10
10
10
10
10
10
10
10
10
10
10
10
10
10
10
10
10
10
10
10
10
10
10
10
10
10
10
10
10
10
10
10
10
10
10
10
10
10
10
10
10
10
10
10
10
10
10
10
10
10
10
10
10
10
10
10
10
10
10
10
10
10
10
10
10
10
10
10
10
10
10
10
10
10
10
10
10
10
10
10
10
10
10
10
10
10
10
10
10
10
10
10
10
10
10
10
10
10
10
10
10
10
10
10
10
10
10
10
10
10
10
10
10
10
10
10
10
10
10
10
10
10
10
10
10
10
10
10
10
10
10
10
10
10
10
10
10
10
10
10
10
10
10
10
10
10
10
10
10
10
10
10
10
10
10
10
10
10
10
10
10
10
10
10
10
10
10
10
10
10
10
10
10
10
10
10
10
10
10
10
10
10
10
10
10
10
10
10
10
10
10
10
10
10
10
10
10
10
10
10
10
10
10
10
10
10
10
10
10
10
10
10
10
10
10
10
10
10
10
10
10
10
10
10
10
10
10
10
10
10
10
10
10
10
10
10
10
10
10
10
10
10
10
10
10
10
10
10
10
10
10
10
10
10
10
10
10
10
10
10
10
10
10
10
10
10
10
10
10
10
10
10
10
10
10
10
10
10
10
10
10
10
10
10
10
10
10
10
10
10
10
10
10
10
10
10
10
10
10
10
10
10
10
10
10
10
10
10
10
10
10
10
10
10
10
10
10
10
10
10
10
10
10
10
10
10
10
10
10
10
10
10
10
10
10
10
10
10
10
10
10
10
10
10
10
10
10
10
10
10
10
10
10
10
10
10
10
10
10
10
10
10
10
10
10
10
10
10
10
10
10
10
10
10
10
10
10
10
10
10
10
10
10
10
10
10
10
10
10
10
10
10
10
10
10
10
10
10
10
10
10
10
10
10
10
10
10
10
10
10
10
10
10
10
10
10
10
10
10
10
10
10
10
10
10
10
10
10
10
10
10
10
10
10
10
10
10
10
10
10
10
10
10
10
10
10
10
10
10
10
10
10
10
10
10
10
10
10
10
10
10
10
10
10
10
10
10
10
10
10
10
10
10
10
10
10
10
10
10
10
10
10
10
10
10
10
10
10
10
10
10
10
10
10
10
10
10
10
10
10
10
10
10
10
10
10
10
10
10
10
10
10
10
10
10
10
10
10
10
10
10
10
10
10
10
10
10
10
10
10
10
10
10
10
10
10
10
              </DataArray>   
          </Cells>  
          <PointData>  
             <DataArray type="Float64" NumberOfComponents="3" Name="Strains" format="ascii">   
-0.00012566627725338057   0.0   -8.238872985366326e-05
-0.00012566627725338057   0.0   -8.238872985366326e-05
-0.00012566627725338057   0.0   -8.238872985366326e-05
-0.00012566627725338057   0.0   -8.238872985366326e-05
-7.997242082077933e-05   1.3932860892949649e-05   2.127414069775065e-06
-7.997242082077933e-05   1.3932860892949649e-05   2.127414069775065e-06
-7.997242082077933e-05   1.3932860892949649e-05   2.127414069775065e-06
-7.997242082077933e-05   1.3932860892949649e-05   2.127414069775065e-06
-7.839695842424538e-05   0.0   -7.774734525314232e-05
-7.839695842424538e-05   0.0   -7.774734525314232e-05
-7.839695842424538e-05   0.0   -7.774734525314232e-05
-7.839695842424538e-05   0.0   -7.774734525314232e-05
-0.0001315232909270116   1.6714681082323626e-05   7.677336020742306e-07
-0.0001315232909270116   1.6714681082323626e-05   7.677336020742306e-07
-0.0001315232909270116   1.6714681082323626e-05   7.677336020742306e-07
-0.0001315232909270116   1.6714681082323626e-05   7.677336020742306e-07
-0.00010203161783881278   3.867820500434111e-06   -4.067693852912337e-05
-0.00010203161783881278   3.867820500434111e-06   -4.067693852912337e-05
-0.00010203161783881278   3.867820500434111e-06   -4.067693852912337e-05
-0.00010203161783881278   3.867820500434111e-06   -4.067693852912337e-05
-0.00013152329092701185   0.0   -8.777615390253652e-05
-0.00013152329092701185   0.0   -8.777615390253652e-05
-0.00013152329092701185   0.0   -8.777615390253652e-05
-0.00013152329092701185   0.0   -8.777615390253652e-05
-7.839695842424538e-05   1.6714681082323653e-05   1.0796542251468428e-05
-7.839695842424538e-05   1.6714681082323653e-05   1.0796542251468428e-05
-7.839695842424538e-05   1.6714681082323653e-05   1.0796542251468428e-05
-7.839695842424538e-05   1.6714681082323653e-05   1.0796542251468428e-05
-7.862468381293244e-05   0.0   -7.965211219230607e-05
-7.862468381293244e-05   0.0   -7.965211219230607e-05
-7.862468381293244e-05   0.0   -7.965211219230607e-05
-7.862468381293244e-05   0.0   -7.965211219230607e-05
-0.00013563965890357393   1.7905773259718625e-05   4.629382336265593e-06
-0.00013563965890357393   1.7905773259718625e-05   4.629382336265593e-06
-0.00013563965890357393   1.7905773259718625e-05   4.629382336265593e-06
-0.00013563965890357393   1.7905773259718625e-05   4.629382336265593e-06
-0.00010507398736997196   6.770034758525368e-06   -3.9631960452355025e-05
-0.00010507398736997196   6.770034758525368e-06   -3.9631960452355025e-05
-0.00010507398736997196   6.770034758525368e-06   -3.9631960452355025e-05
-0.00010507398736997196   6.770034758525368e-06   -3.9631960452355025e-05
-0.00013563965890357418   0.0   -9.039557614813727e-05
-0.00013563965890357418   0.0   -9.039557614813727e-05
-0.00013563965890357418   0.0   -9.039557614813727e-05
-0.00013563965890357418   0.0   -9.039557614813727e-05
-7.86246838129323e-05   1.7905773259718625e-05   1.53728462920968e-05
-7.86246838129323e-05   1.7905773259718625e-05   1.53728462920968e-05
-7.86246838129323e-05   1.7905773259718625e-05   1.53728462920968e-05
-7.86246838129323e-05   1.7905773259718625e-05   1.53728462920968e-05
-7.859083316390911e-05   0.0   -8.014051551688714e-05
-7.859083316390911e-05   0.0   -8.014051551688714e-05
-7.859083316390911e-05   0.0   -8.014051551688714e-05
-7.859083316390911e-05   0.0   -8.014051551688714e-05
-0.00014450086792641213   2.0393697999185638e-05   1.7473323621106855e-05
-0.00014450086792641213   2.0393697999185638e-05   1.7473323621106855e-05
-0.00014450086792641213   2.0393697999185638e-05   1.7473323621106855e-05
-0.00014450086792641213   2.0393697999185638e-05   1.7473323621106855e-05
-0.00010711524603374146   8.5458838593751e-06   -3.7727357716124564e-05
-0.00010711524603374146   8.5458838593751e-06   -3.7727357716124564e-05
-0.00010711524603374146   8.5458838593751e-06   -3.7727357716124564e-05
-0.00010711524603374146   8.5458838593751e-06   -3.7727357716124564e-05
-7.997242082077948e-05   0.0   -7.402901331789345e-05
-7.997242082077948e-05   0.0   -7.402901331789345e-05
-7.997242082077948e-05   0.0   -7.402901331789345e-05
-7.997242082077948e-05   0.0   -7.402901331789345e-05
-3.641220336714089e-05   5.112234174994609e-06   1.6386896098342232e-06
-3.641220336714089e-05   5.112234174994609e-06   1.6386896098342232e-06
-3.641220336714089e-05   5.112234174994609e-06   1.6386896098342232e-06
-3.641220336714089e-05   5.112234174994609e-06   1.6386896098342232e-06
-3.502720595829065e-05   0.0   -7.338266513899505e-05
-3.502720595829065e-05   0.0   -7.338266513899505e-05
-3.502720595829065e-05   0.0   -7.338266513899505e-05
-3.502720595829065e-05   0.0   -7.338266513899505e-05
-7.839695842424538e-05   7.274466856911892e-06   -5.464424476551213e-06
-7.839695842424538e-05   7.274466856911892e-06   -5.464424476551213e-06
-7.839695842424538e-05   7.274466856911892e-06   -5.464424476551213e-06
-7.839695842424538e-05   7.274466856911892e-06   -5.464424476551213e-06
-5.749981338953499e-05   5.38623482415233e-07   -3.625149350970358e-05
-5.749981338953499e-05   5.38623482415233e-07   -3.625149350970358e-05
-5.749981338953499e-05   5.38623482415233e-07   -3.625149350970358e-05
-5.749981338953499e-05   5.38623482415233e-07   -3.625149350970358e-05
-7.839695842424531e-05   0.0   -7.774734525314225e-05
-7.839695842424531e-05   0.0   -7.774734525314225e-05
-7.839695842424531e-05   0.0   -7.774734525314225e-05
-7.839695842424531e-05   0.0   -7.774734525314225e-05
-3.502720595829065e-05   7.274466856911892e-06   -1.0997443624040758e-06
-3.502720595829065e-05   7.274466856911892e-06   -1.0997443624040758e-06
-3.502720595829065e-05   7.274466856911892e-06   -1.0997443624040758e-06
-3.502720595829065e-05   7.274466856911892e-06   -1.0997443624040758e-06
-3.4252059802798574e-05   0.0   -7.43051870893703e-05
-3.4252059802798574e-05   0.0   -7.43051870893703e-05
-3.4252059802798574e-05   0.0   -7.43051870893703e-05
-3.4252059802798574e-05   0.0   -7.43051870893703e-05
-7.862468381293244e-05   8.911541838226071e-06   -5.697738842083092e-06
-7.862468381293244e-05   8.911541838226071e-06   -5.697738842083092e-06
-7.862468381293244e-05   8.911541838226071e-06   -5.697738842083092e-06
-7.862468381293244e-05   8.911541838226071e-06   -5.697738842083092e-06
-5.6324509113521894e-05   2.8684651364765766e-06   -3.9238850653383954e-05
-5.6324509113521894e-05   2.8684651364765766e-06   -3.9238850653383954e-05
-5.6324509113521894e-05   2.8684651364765766e-06   -3.9238850653383954e-05
-5.6324509113521894e-05   2.8684651364765766e-06   -3.9238850653383954e-05
-7.862468381293244e-05   0.0   -7.965211219230607e-05
-7.862468381293244e-05   0.0   -7.965211219230607e-05
-7.862468381293244e-05   0.0   -7.965211219230607e-05
-7.862468381293244e-05   0.0   -7.965211219230607e-05
-3.4252059802798635e-05   8.911541838226071e-06   -3.508137391474304e-07
-3.4252059802798635e-05   8.911541838226071e-06   -3.508137391474304e-07
-3.4252059802798635e-05   8.911541838226071e-06   -3.508137391474304e-07
-3.4252059802798635e-05   8.911541838226071e-06   -3.508137391474304e-07
-3.3547324096918434e-05   0.0   -7.391968799241069e-05
-3.3547324096918434e-05   0.0   -7.391968799241069e-05
-3.3547324096918434e-05   0.0   -7.391968799241069e-05
-3.3547324096918434e-05   0.0   -7.391968799241069e-05
-7.859083316390891e-05   1.0368045874127298e-05   -5.068000405235984e-06
-7.859083316390891e-05   1.0368045874127298e-05   -5.068000405235984e-06
-7.859083316390891e-05   1.0368045874127298e-05   -5.068000405235984e-06
-7.859083316390891e-05   1.0368045874127298e-05   -5.068000405235984e-06
-5.6086003954925415e-05   4.777020166579424e-06   -3.922143366234672e-05
-5.6086003954925415e-05   4.777020166579424e-06   -3.922143366234672e-05
-5.6086003954925415e-05   4.777020166579424e-06   -3.922143366234672e-05
-5.6086003954925415e-05   4.777020166579424e-06   -3.922143366234672e-05
-3.6412203367140954e-05   0.0   -7.096167281289669e-05
-3.6412203367140954e-05   0.0   -7.096167281289669e-05
-3.6412203367140954e-05   0.0   -7.096167281289669e-05
-3.6412203367140954e-05   0.0   -7.096167281289669e-05
4.749687099944906e-06   -6.532899665077636e-07   -2.7504960143248425e-06
4.749687099944906e-06   -6.532899665077636e-07   -2.7504960143248425e-06
4.749687099944906e-06   -6.532899665077636e-07   -2.7504960143248425e-06
4.749687099944906e-06   -6.532899665077636e-07   -2.7504960143248425e-06
5.630654315927246e-06   0.0   -7.260930740041135e-05
5.630654315927246e-06   0.0   -7.260930740041135e-05
5.630654315927246e-06   0.0   -7.260930740041135e-05
5.630654315927246e-06   0.0   -7.260930740041135e-05
-3.502720595829065e-05   1.2889295643059463e-06   -5.619564681965217e-06
-3.502720595829065e-05   1.2889295643059463e-06   -5.619564681965217e-06
-3.502720595829065e-05   1.2889295643059463e-06   -5.619564681965217e-06
-3.502720595829065e-05   1.2889295643059463e-06   -5.619564681965217e-06
-1.5390774525606818e-05   -1.3730288229290986e-06   -3.6749775370763875e-05
-1.5390774525606818e-05   -1.3730288229290986e-06   -3.6749775370763875e-05
-1.5390774525606818e-05   -1.3730288229290986e-06   -3.6749775370763875e-05
-1.5390774525606818e-05   -1.3730288229290986e-06   -3.6749775370763875e-05
-3.5027205958290714e-05   0.0   -7.338266513899517e-05
-3.5027205958290714e-05   0.0   -7.338266513899517e-05
-3.5027205958290714e-05   0.0   -7.338266513899517e-05
-3.5027205958290714e-05   0.0   -7.338266513899517e-05
5.630654315927255e-06   1.2889295643059463e-06   -4.8462069433816415e-06
5.630654315927255e-06   1.2889295643059463e-06   -4.8462069433816415e-06
5.630654315927255e-06   1.2889295643059463e-06   -4.8462069433816415e-06
5.630654315927255e-06   1.2889295643059463e-06   -4.8462069433816415e-06
6.325092892862619e-06   0.0   -7.250593813483552e-05
6.325092892862619e-06   0.0   -7.250593813483552e-05
6.325092892862619e-06   0.0   -7.250593813483552e-05
6.325092892862619e-06   0.0   -7.250593813483552e-05
-3.425205980279852e-05   2.9987482575579523e-06   -6.676599263268303e-06
-3.425205980279852e-05   2.9987482575579523e-06   -6.676599263268303e-06
-3.425205980279852e-05   2.9987482575579523e-06   -6.676599263268303e-06
-3.425205980279852e-05   2.9987482575579523e-06   -6.676599263268303e-06
-1.4351056532714017e-05   7.306058367996066e-07   -3.848405259428754e-05
-1.4351056532714017e-05   7.306058367996066e-07   -3.848405259428754e-05
-1.4351056532714017e-05   7.306058367996066e-07   -3.848405259428754e-05
-1.4351056532714017e-05   7.306058367996066e-07   -3.848405259428754e-05
-3.4252059802798635e-05   0.0   -7.430518708937042e-05
-3.4252059802798635e-05   0.0   -7.430518708937042e-05
-3.4252059802798635e-05   0.0   -7.430518708937042e-05
-3.4252059802798635e-05   0.0   -7.430518708937042e-05
6.32509289286263e-06   2.998748257557966e-06   -4.877350308733543e-06
6.32509289286263e-06   2.998748257557966e-06   -4.877350308733543e-06
6.32509289286263e-06   2.998748257557966e-06   -4.877350308733543e-06
6.32509289286263e-06   2.998748257557966e-06   -4.877350308733543e-06
7.2616648798094675e-06   0.0   -7.093195895802341e-05
7.2616648798094675e-06   0.0   -7.093195895802341e-05
7.2616648798094675e-06   0.0   -7.093195895802341e-05
7.2616648798094675e-06   0.0   -7.093195895802341e-05
-3.3547324096918406e-05   4.979548390645361e-06   -5.9047063645308484e-06
-3.3547324096918406e-05   4.979548390645361e-06   -5.9047063645308484e-06
-3.3547324096918406e-05   4.979548390645361e-06   -5.9047063645308484e-06
-3.3547324096918406e-05   4.979548390645361e-06   -5.9047063645308484e-06
-1.3495197461494554e-05   2.8110234427890755e-06   -3.802380245485679e-05
-1.3495197461494554e-05   2.8110234427890755e-06   -3.802380245485679e-05
-1.3495197461494554e-05   2.8110234427890755e-06   -3.802380245485679e-05
-1.3495197461494554e-05   2.8110234427890755e-06   -3.802380245485679e-05
4.749687099944915e-06   0.0   -7.135364679280134e-05
4.749687099944915e-06   0.0   -7.135364679280134e-05
4.749687099944915e-06   0.0   -7.135364679280134e-05
4.749687099944915e-06   0.0   -7.135364679280134e-05
4.942465396977e-05   -5.7969721387496505e-06   -3.735519596756562e-07
4.942465396977e-05   -5.7969721387496505e-06   -3.735519596756562e-07
4.942465396977e-05   -5.7969721387496505e-06   -3.735519596756562e-07
4.942465396977e-05   -5.7969721387496505e-06   -3.735519596756562e-07
4.950345281438499e-05   0.0   -7.523251895698967e-05
4.950345281438499e-05   0.0   -7.523251895698967e-05
4.950345281438499e-05   0.0   -7.523251895698967e-05
4.950345281438499e-05   0.0   -7.523251895698967e-05
5.630654315927255e-06   -4.3720192609634346e-06   5.120234303512696e-07
5.630654315927255e-06   -4.3720192609634346e-06   5.120234303512696e-07
5.630654315927255e-06   -4.3720192609634346e-06   5.120234303512696e-07
5.630654315927255e-06   -4.3720192609634346e-06   5.120234303512696e-07
2.712656995716495e-05   -3.2323934701569476e-06   -3.599827811286209e-05
2.712656995716495e-05   -3.2323934701569476e-06   -3.599827811286209e-05
2.712656995716495e-05   -3.2323934701569476e-06   -3.599827811286209e-05
2.712656995716495e-05   -3.2323934701569476e-06   -3.599827811286209e-05
5.630654315927265e-06   0.0   -7.260930740041161e-05
5.630654315927265e-06   0.0   -7.260930740041161e-05
5.630654315927265e-06   0.0   -7.260930740041161e-05
5.630654315927265e-06   0.0   -7.260930740041161e-05
4.950345281438491e-05   -4.3720192609634346e-06   -2.1111881262267894e-06
4.950345281438491e-05   -4.3720192609634346e-06   -2.1111881262267894e-06
4.950345281438491e-05   -4.3720192609634346e-06   -2.1111881262267894e-06
4.950345281438491e-05   -4.3720192609634346e-06   -2.1111881262267894e-06
4.928360612748653e-05   0.0   -7.415816189459821e-05
4.928360612748653e-05   0.0   -7.415816189459821e-05
4.928360612748653e-05   0.0   -7.415816189459821e-05
4.928360612748653e-05   0.0   -7.415816189459821e-05
6.32509289286263e-06   -2.7537062662709363e-06   -9.084160771291584e-07
6.32509289286263e-06   -2.7537062662709363e-06   -9.084160771291584e-07
6.32509289286263e-06   -2.7537062662709363e-06   -9.084160771291584e-07
6.32509289286263e-06   -2.7537062662709363e-06   -9.084160771291584e-07
2.7457130221706897e-05   -1.2907120784888347e-06   -3.7006274804538836e-05
2.7457130221706897e-05   -1.2907120784888347e-06   -3.7006274804538836e-05
2.7457130221706897e-05   -1.2907120784888347e-06   -3.7006274804538836e-05
2.7457130221706897e-05   -1.2907120784888347e-06   -3.7006274804538836e-05
6.32509289286263e-06   0.0   -7.250593813483564e-05
6.32509289286263e-06   0.0   -7.250593813483564e-05
6.32509289286263e-06   0.0   -7.250593813483564e-05
6.32509289286263e-06   0.0   -7.250593813483564e-05
4.928360612748644e-05   -2.7537062662709363e-06   -2.5606398368917103e-06
4.928360612748644e-05   -2.7537062662709363e-06   -2.5606398368917103e-06
4.928360612748644e-05   -2.7537062662709363e-06   -2.5606398368917103e-06
4.928360612748644e-05   -2.7537062662709363e-06   -2.5606398368917103e-06
5.0230557136317744e-05   0.0   -7.127910561240412e-05
5.0230557136317744e-05   0.0   -7.127910561240412e-05
5.0230557136317744e-05   0.0   -7.127910561240412e-05
5.0230557136317744e-05   0.0   -7.127910561240412e-05
7.26166487980948e-06   -5.785777573009791e-07   6.828614694902319e-07
7.26166487980948e-06   -5.785777573009791e-07   6.828614694902319e-07
7.26166487980948e-06   -5.785777573009791e-07   6.828614694902319e-07
7.26166487980948e-06   -5.785777573009791e-07   6.828614694902319e-07
2.8277825014590187e-05   1.0223604353596098e-06   -3.530463500407393e-05
2.8277825014590187e-05   1.0223604353596098e-06   -3.530463500407393e-05
2.8277825014590187e-05   1.0223604353596098e-06   -3.530463500407393e-05
2.8277825014590187e-05   1.0223604353596098e-06   -3.530463500407393e-05
4.9424653969770176e-05   0.0   -7.483183007605114e-05
4.9424653969770176e-05   0.0   -7.483183007605114e-05
4.9424653969770176e-05   0.0   -7.483183007605114e-05
4.9424653969770176e-05   0.0   -7.483183007605114e-05
0.00011153517017766374   -1.4689184772363853e-05   1.9872186073686856e-05
0.00011153517017766374   -1.4689184772363853e-05   1.9872186073686856e-05
0.00011153517017766374   -1.4689184772363853e-05   1.9872186073686856e-05
0.00011153517017766374   -1.4689184772363853e-05   1.9872186073686856e-05
0.00010473772147075137   0.0   -8.273429378856777e-05
0.00010473772147075137   0.0   -8.273429378856777e-05
0.00010473772147075137   0.0   -8.273429378856777e-05
0.00010473772147075137   0.0   -8.273429378856777e-05
4.950345281438491e-05   -1.2502958052630159e-05   1.682459547028758e-05
4.950345281438491e-05   -1.2502958052630159e-05   1.682459547028758e-05
4.950345281438491e-05   -1.2502958052630159e-05   1.682459547028758e-05
4.950345281438491e-05   -1.2502958052630159e-05   1.682459547028758e-05
7.708118772026078e-05   -6.5853864270972086e-06   -3.2688839014825094e-05
7.708118772026078e-05   -6.5853864270972086e-06   -3.2688839014825094e-05
7.708118772026078e-05   -6.5853864270972086e-06   -3.2688839014825094e-05
7.708118772026078e-05   -6.5853864270972086e-06   -3.2688839014825094e-05
4.950345281438495e-05   0.0   -7.52325189569896e-05
4.950345281438495e-05   0.0   -7.52325189569896e-05
4.950345281438495e-05   0.0   -7.52325189569896e-05
4.950345281438495e-05   0.0   -7.52325189569896e-05
0.00010473772147075137   -1.2502958052630159e-05   9.322820638709524e-06
0.00010473772147075137   -1.2502958052630159e-05   9.322820638709524e-06
0.00010473772147075137   -1.2502958052630159e-05   9.322820638709524e-06
0.00010473772147075137   -1.2502958052630159e-05   9.322820638709524e-06
0.00010159960908630457   0.0   -8.101411670468457e-05
0.00010159960908630457   0.0   -8.101411670468457e-05
0.00010159960908630457   0.0   -8.101411670468457e-05
0.00010159960908630457   0.0   -8.101411670468457e-05
4.928360612748644e-05   -1.142659135014391e-05   1.3035176370098498e-05
4.928360612748644e-05   -1.142659135014391e-05   1.3035176370098498e-05
4.928360612748644e-05   -1.142659135014391e-05   1.3035176370098498e-05
4.928360612748644e-05   -1.142659135014391e-05   1.3035176370098498e-05
7.555153095034473e-05   -4.817998123079079e-06   -3.470985427090408e-05
7.555153095034473e-05   -4.817998123079079e-06   -3.470985427090408e-05
7.555153095034473e-05   -4.817998123079079e-06   -3.470985427090408e-05
7.555153095034473e-05   -4.817998123079079e-06   -3.470985427090408e-05
4.928360612748653e-05   0.0   -7.415816189459821e-05
4.928360612748653e-05   0.0   -7.415816189459821e-05
4.928360612748653e-05   0.0   -7.415816189459821e-05
4.928360612748653e-05   0.0   -7.415816189459821e-05
0.0001015996090863044   -1.142659135014391e-05   6.179221560012154e-06
0.0001015996090863044   -1.142659135014391e-05   6.179221560012154e-06
0.0001015996090863044   -1.142659135014391e-05   6.179221560012154e-06
0.0001015996090863044   -1.142659135014391e-05   6.179221560012154e-06
9.693331556676136e-05   0.0   -7.661110353884068e-05
9.693331556676136e-05   0.0   -7.661110353884068e-05
9.693331556676136e-05   0.0   -7.661110353884068e-05
9.693331556676136e-05   0.0   -7.661110353884068e-05
5.0230557136317616e-05   -8.88666321072761e-06   6.5588251050019555e-06
5.0230557136317616e-05   -8.88666321072761e-06   6.5588251050019555e-06
5.0230557136317616e-05   -8.88666321072761e-06   6.5588251050019555e-06
5.0230557136317616e-05   -8.88666321072761e-06   6.5588251050019555e-06
7.310846084712381e-05   -2.044118036868741e-06   -3.567654151732365e-05
7.310846084712381e-05   -2.044118036868741e-06   -3.567654151732365e-05
7.310846084712381e-05   -2.044118036868741e-06   -3.567654151732365e-05
7.310846084712381e-05   -2.044118036868741e-06   -3.567654151732365e-05
-0.00010909722178394909   1.3932860892949649e-05   -7.152449729581938e-05
-0.00010909722178394909   1.3932860892949649e-05   -7.152449729581938e-05
-0.00010909722178394909   1.3932860892949649e-05   -7.152449729581938e-05
-0.00010909722178394909   1.3932860892949649e-05   -7.152449729581938e-05
-6.987013748204358e-05   1.2533449570725492e-05   -6.9856702526446335e-06
-6.987013748204358e-05   1.2533449570725492e-05   -6.9856702526446335e-06
-6.987013748204358e-05   1.2533449570725492e-05   -6.9856702526446335e-06
-6.987013748204358e-05   1.2533449570725492e-05   -6.9856702526446335e-06
-7.163193917631295e-05   1.6714681082323626e-05   -6.006364445158163e-05
-7.163193917631295e-05   1.6714681082323626e-05   -6.006364445158163e-05
-7.163193917631295e-05   1.6714681082323626e-05   -6.006364445158163e-05
-7.163193917631295e-05   1.6714681082323626e-05   -6.006364445158163e-05
-0.0001102862516382921   1.5039470044827987e-05   5.365336274214407e-06
-0.0001102862516382921   1.5039470044827987e-05   5.365336274214407e-06
-0.0001102862516382921   1.5039470044827987e-05   5.365336274214407e-06
-0.0001102862516382921   1.5039470044827987e-05   5.365336274214407e-06
-8.664834244504849e-05   1.4551598260382901e-05   -3.373845597719157e-05
-8.664834244504849e-05   1.4551598260382901e-05   -3.373845597719157e-05
-8.664834244504849e-05   1.4551598260382901e-05   -3.373845597719157e-05
-8.664834244504849e-05   1.4551598260382901e-05   -3.373845597719157e-05
-0.0001102862516382921   1.6714681082323626e-05   -5.9058517829084235e-05
-0.0001102862516382921   1.6714681082323626e-05   -5.9058517829084235e-05
-0.0001102862516382921   1.6714681082323626e-05   -5.9058517829084235e-05
-0.0001102862516382921   1.6714681082323626e-05   -5.9058517829084235e-05
-7.16319391763132e-05   1.5039470044828042e-05   4.360209651717203e-06
-7.16319391763132e-05   1.5039470044828042e-05   4.360209651717203e-06
-7.16319391763132e-05   1.5039470044828042e-05   4.360209651717203e-06
-7.16319391763132e-05   1.5039470044828042e-05   4.360209651717203e-06
-7.200509476833706e-05   1.7905773259718598e-05   -5.3996700053569424e-05
-7.200509476833706e-05   1.7905773259718598e-05   -5.3996700053569424e-05
-7.200509476833706e-05   1.7905773259718598e-05   -5.3996700053569424e-05
-7.200509476833706e-05   1.7905773259718598e-05   -5.3996700053569424e-05
-0.0001110693491351944   1.617036973591406e-05   1.2151632672141943e-05
-0.0001110693491351944   1.617036973591406e-05   1.2151632672141943e-05
-0.0001110693491351944   1.617036973591406e-05   1.2151632672141943e-05
-0.0001110693491351944   1.617036973591406e-05   1.2151632672141943e-05
-8.92013519093771e-05   1.6127516167456735e-05   -2.4269317229812393e-05
-8.92013519093771e-05   1.6127516167456735e-05   -2.4269317229812393e-05
-8.92013519093771e-05   1.6127516167456735e-05   -2.4269317229812393e-05
-8.92013519093771e-05   1.6127516167456735e-05   -2.4269317229812393e-05
-0.00011106934913519422   1.7905773259718598e-05   -5.295545793928672e-05
-0.00011106934913519422   1.7905773259718598e-05   -5.295545793928672e-05
-0.00011106934913519422   1.7905773259718598e-05   -5.295545793928672e-05
-0.00011106934913519422   1.7905773259718598e-05   -5.295545793928672e-05
-7.200509476833719e-05   1.617036973591406e-05   1.1110390557859078e-05
-7.200509476833719e-05   1.617036973591406e-05   1.1110390557859078e-05
-7.200509476833719e-05   1.617036973591406e-05   1.1110390557859078e-05
-7.200509476833719e-05   1.617036973591406e-05   1.1110390557859078e-05
-7.160055847508579e-05   2.039369799918561e-05   -3.988514808382941e-05
-7.160055847508579e-05   2.039369799918561e-05   -3.988514808382941e-05
-7.160055847508579e-05   2.039369799918561e-05   -3.988514808382941e-05
-7.160055847508579e-05   2.039369799918561e-05   -3.988514808382941e-05
-0.00010799953986924868   1.7067740274780553e-05   2.2775395541084787e-05
-0.00010799953986924868   1.7067740274780553e-05   2.2775395541084787e-05
-0.00010799953986924868   1.7067740274780553e-05   2.2775395541084787e-05
-0.00010799953986924868   1.7067740274780553e-05   2.2775395541084787e-05
-8.688742396920941e-05   1.7687410964747823e-05   -1.2783266706294329e-05
-8.688742396920941e-05   1.7687410964747823e-05   -1.2783266706294329e-05
-8.688742396920941e-05   1.7687410964747823e-05   -1.2783266706294329e-05
-8.688742396920941e-05   1.7687410964747823e-05   -1.2783266706294329e-05
-6.987013748204358e-05   5.112234174994582e-06   -7.592020905409143e-05
-6.987013748204358e-05   5.112234174994582e-06   -7.592020905409143e-05
-6.987013748204358e-05   5.112234174994582e-06   -7.592020905409143e-05
-6.987013748204358e-05   5.112234174994582e-06   -7.592020905409143e-05
-3.309818392977625e-05   5.831885783778282e-06   -1.420182883504222e-05
-3.309818392977625e-05   5.831885783778282e-06   -1.420182883504222e-05
-3.309818392977625e-05   5.831885783778282e-06   -1.420182883504222e-05
-3.309818392977625e-05   5.831885783778282e-06   -1.420182883504222e-05
-3.389305255940668e-05   7.274466856911892e-06   -7.580744101416234e-05
-3.389305255940668e-05   7.274466856911892e-06   -7.580744101416234e-05
-3.389305255940668e-05   7.274466856911892e-06   -7.580744101416234e-05
-3.389305255940668e-05   7.274466856911892e-06   -7.580744101416234e-05
-7.163193917631295e-05   8.136417132643535e-06   -1.3426466818090643e-05
-7.163193917631295e-05   8.136417132643535e-06   -1.3426466818090643e-05
-7.163193917631295e-05   8.136417132643535e-06   -1.3426466818090643e-05
-7.163193917631295e-05   8.136417132643535e-06   -1.3426466818090643e-05
-5.197682751456712e-05   6.551858587677367e-06   -4.5234251127354244e-05
-5.197682751456712e-05   6.551858587677367e-06   -4.5234251127354244e-05
-5.197682751456712e-05   6.551858587677367e-06   -4.5234251127354244e-05
-5.197682751456712e-05   6.551858587677367e-06   -4.5234251127354244e-05
-7.163193917631288e-05   7.274466856911865e-06   -7.63246111796011e-05
-7.163193917631288e-05   7.274466856911865e-06   -7.63246111796011e-05
-7.163193917631288e-05   7.274466856911865e-06   -7.63246111796011e-05
-7.163193917631288e-05   7.274466856911865e-06   -7.63246111796011e-05
-3.389305255940663e-05   8.13641713264359e-06   -1.2909296652651521e-05
-3.389305255940663e-05   8.13641713264359e-06   -1.2909296652651521e-05
-3.389305255940663e-05   8.13641713264359e-06   -1.2909296652651521e-05
-3.389305255940663e-05   8.13641713264359e-06   -1.2909296652651521e-05
-3.4146326252283444e-05   8.911541838226071e-06   -7.438810427028817e-05
-3.4146326252283444e-05   8.911541838226071e-06   -7.438810427028817e-05
-3.4146326252283444e-05   8.911541838226071e-06   -7.438810427028817e-05
-3.4146326252283444e-05   8.911541838226071e-06   -7.438810427028817e-05
-7.200509476833706e-05   1.00435100339948e-05   -1.1969337660993086e-05
-7.200509476833706e-05   1.00435100339948e-05   -1.1969337660993086e-05
-7.200509476833706e-05   1.00435100339948e-05   -1.1969337660993086e-05
-7.200509476833706e-05   1.00435100339948e-05   -1.1969337660993086e-05
-5.238769694220865e-05   8.313882960636761e-06   -4.362722446052564e-05
-5.238769694220865e-05   8.313882960636761e-06   -4.362722446052564e-05
-5.238769694220865e-05   8.313882960636761e-06   -4.362722446052564e-05
-5.238769694220865e-05   8.313882960636761e-06   -4.362722446052564e-05
-7.200509476833706e-05   8.911541838226044e-06   -7.506728518774929e-05
-7.200509476833706e-05   8.911541838226044e-06   -7.506728518774929e-05
-7.200509476833706e-05   8.911541838226044e-06   -7.506728518774929e-05
-7.200509476833706e-05   8.911541838226044e-06   -7.506728518774929e-05
-3.414632625228349e-05   1.0043510033994855e-05   -1.1290156743532032e-05
-3.414632625228349e-05   1.0043510033994855e-05   -1.1290156743532032e-05
-3.414632625228349e-05   1.0043510033994855e-05   -1.1290156743532032e-05
-3.414632625228349e-05   1.0043510033994855e-05   -1.1290156743532032e-05
-3.406781199597744e-05   1.0368045874127298e-05   -7.362646507508717e-05
-3.406781199597744e-05   1.0368045874127298e-05   -7.362646507508717e-05
-3.406781199597744e-05   1.0368045874127298e-05   -7.362646507508717e-05
-3.406781199597744e-05   1.0368045874127298e-05   -7.362646507508717e-05
-7.160055847508586e-05   1.2095088931788039e-05   -1.2108113444502991e-05
-7.160055847508586e-05   1.2095088931788039e-05   -1.2108113444502991e-05
-7.160055847508586e-05   1.2095088931788039e-05   -1.2108113444502991e-05
-7.160055847508586e-05   1.2095088931788039e-05   -1.2108113444502991e-05
-5.270101085372886e-05   9.908692482205042e-06   -4.2295521610348156e-05
-5.270101085372886e-05   9.908692482205042e-06   -4.2295521610348156e-05
-5.270101085372886e-05   9.908692482205042e-06   -4.2295521610348156e-05
-5.270101085372886e-05   9.908692482205042e-06   -4.2295521610348156e-05
-3.3098183929776195e-05   -6.532899665077501e-07   -7.948562973307564e-05
-3.3098183929776195e-05   -6.532899665077501e-07   -7.948562973307564e-05
-3.3098183929776195e-05   -6.532899665077501e-07   -7.948562973307564e-05
-3.3098183929776195e-05   -6.532899665077501e-07   -7.948562973307564e-05
3.2106179482594137e-06   -1.726815986637922e-07   -1.8682594915643233e-05
3.2106179482594137e-06   -1.726815986637922e-07   -1.8682594915643233e-05
3.2106179482594137e-06   -1.726815986637922e-07   -1.8682594915643233e-05
3.2106179482594137e-06   -1.726815986637922e-07   -1.8682594915643233e-05
3.056664566507191e-06   1.2889295643059599e-06   -7.993037206618789e-05
3.056664566507191e-06   1.2889295643059599e-06   -7.993037206618789e-05
3.056664566507191e-06   1.2889295643059599e-06   -7.993037206618789e-05
3.056664566507191e-06   1.2889295643059599e-06   -7.993037206618789e-05
-3.389305255940663e-05   1.9504116768650354e-06   -1.8744399457200304e-05
-3.389305255940663e-05   1.9504116768650354e-06   -1.8744399457200304e-05
-3.389305255940663e-05   1.9504116768650354e-06   -1.8744399457200304e-05
-3.389305255940663e-05   1.9504116768650354e-06   -1.8744399457200304e-05
-1.5272774778068446e-05   6.472431225109699e-07   -4.899629462681817e-05
-1.5272774778068446e-05   6.472431225109699e-07   -4.899629462681817e-05
-1.5272774778068446e-05   6.472431225109699e-07   -4.899629462681817e-05
-1.5272774778068446e-05   6.472431225109699e-07   -4.899629462681817e-05
-3.389305255940663e-05   1.2889295643059599e-06   -8.032726133372337e-05
-3.389305255940663e-05   1.2889295643059599e-06   -8.032726133372337e-05
-3.389305255940663e-05   1.2889295643059599e-06   -8.032726133372337e-05
-3.389305255940663e-05   1.2889295643059599e-06   -8.032726133372337e-05
3.056664566507197e-06   1.9504116768650354e-06   -1.834751018966476e-05
3.056664566507197e-06   1.9504116768650354e-06   -1.834751018966476e-05
3.056664566507197e-06   1.9504116768650354e-06   -1.834751018966476e-05
3.056664566507197e-06   1.9504116768650354e-06   -1.834751018966476e-05
2.848363998075014e-06   2.998748257557966e-06   -8.009832271451436e-05
2.848363998075014e-06   2.998748257557966e-06   -8.009832271451436e-05
2.848363998075014e-06   2.998748257557966e-06   -8.009832271451436e-05
2.848363998075014e-06   2.998748257557966e-06   -8.009832271451436e-05
-3.4146326252283376e-05   4.024693390715546e-06   -1.9056072710478238e-05
-3.4146326252283376e-05   4.024693390715546e-06   -1.9056072710478238e-05
-3.4146326252283376e-05   4.024693390715546e-06   -1.9056072710478238e-05
-3.4146326252283376e-05   4.024693390715546e-06   -1.9056072710478238e-05
-1.5562698069944163e-05   2.4467149527127247e-06   -4.908199928490853e-05
-1.5562698069944163e-05   2.4467149527127247e-06   -4.908199928490853e-05
-1.5562698069944163e-05   2.4467149527127247e-06   -4.908199928490853e-05
-1.5562698069944163e-05   2.4467149527127247e-06   -4.908199928490853e-05
-3.4146326252283376e-05   2.998748257557966e-06   -8.071388979440891e-05
-3.4146326252283376e-05   2.998748257557966e-06   -8.071388979440891e-05
-3.4146326252283376e-05   2.998748257557966e-06   -8.071388979440891e-05
-3.4146326252283376e-05   2.998748257557966e-06   -8.071388979440891e-05
2.848363998075014e-06   4.024693390715546e-06   -1.844050563058377e-05
2.848363998075014e-06   4.024693390715546e-06   -1.844050563058377e-05
2.848363998075014e-06   4.024693390715546e-06   -1.844050563058377e-05
2.848363998075014e-06   4.024693390715546e-06   -1.844050563058377e-05
2.4340581649737486e-06   4.979548390645375e-06   -7.996009385377226e-05
2.4340581649737486e-06   4.979548390645375e-06   -7.996009385377226e-05
2.4340581649737486e-06   4.979548390645375e-06   -7.996009385377226e-05
2.4340581649737486e-06   4.979548390645375e-06   -7.996009385377226e-05
-3.406781199597742e-05   6.186056232455525e-06   -1.9847548290606454e-05
-3.406781199597742e-05   6.186056232455525e-06   -1.9847548290606454e-05
-3.406781199597742e-05   6.186056232455525e-06   -1.9847548290606454e-05
-3.406781199597742e-05   6.186056232455525e-06   -1.9847548290606454e-05
-1.5740215903121477e-05   4.295316773150759e-06   -4.9259098103116766e-05
-1.5740215903121477e-05   4.295316773150759e-06   -4.9259098103116766e-05
-1.5740215903121477e-05   4.295316773150759e-06   -4.9259098103116766e-05
-1.5740215903121477e-05   4.295316773150759e-06   -4.9259098103116766e-05
3.2106179482594137e-06   -5.7969721387496505e-06   -7.334213737447031e-05
3.2106179482594137e-06   -5.7969721387496505e-06   -7.334213737447031e-05
3.2106179482594137e-06   -5.7969721387496505e-06   -7.334213737447031e-05
3.2106179482594137e-06   -5.7969721387496505e-06   -7.334213737447031e-05
4.062758983562513e-05   -5.960198253493595e-06   -1.1078453231040458e-05
4.062758983562513e-05   -5.960198253493595e-06   -1.1078453231040458e-05
4.062758983562513e-05   -5.960198253493595e-06   -1.1078453231040458e-05
4.062758983562513e-05   -5.960198253493595e-06   -1.1078453231040458e-05
4.095509941151439e-05   -4.372019260963448e-06   -7.436803134483484e-05
4.095509941151439e-05   -4.372019260963448e-06   -7.436803134483484e-05
4.095509941151439e-05   -4.372019260963448e-06   -7.436803134483484e-05
4.095509941151439e-05   -4.372019260963448e-06   -7.436803134483484e-05
3.056664566507197e-06   -4.031835348263153e-06   -1.1408083617442976e-05
3.056664566507197e-06   -4.031835348263153e-06   -1.1408083617442976e-05
3.056664566507197e-06   -4.031835348263153e-06   -1.1408083617442976e-05
3.056664566507197e-06   -4.031835348263153e-06   -1.1408083617442976e-05
2.1681774494203144e-05   -4.825284603816529e-06   -4.197386394360423e-05
2.1681774494203144e-05   -4.825284603816529e-06   -4.197386394360423e-05
2.1681774494203144e-05   -4.825284603816529e-06   -4.197386394360423e-05
2.1681774494203144e-05   -4.825284603816529e-06   -4.197386394360423e-05
3.056664566507191e-06   -4.372019260963448e-06   -7.4572141692455e-05
3.056664566507191e-06   -4.372019260963448e-06   -7.4572141692455e-05
3.056664566507191e-06   -4.372019260963448e-06   -7.4572141692455e-05
3.056664566507191e-06   -4.372019260963448e-06   -7.4572141692455e-05
4.095509941151439e-05   -4.031835348263153e-06   -1.1203973269822666e-05
4.095509941151439e-05   -4.031835348263153e-06   -1.1203973269822666e-05
4.095509941151439e-05   -4.031835348263153e-06   -1.1203973269822666e-05
4.095509941151439e-05   -4.031835348263153e-06   -1.1203973269822666e-05
4.074685460169889e-05   -2.7537062662709227e-06   -7.576265583721533e-05
4.074685460169889e-05   -2.7537062662709227e-06   -7.576265583721533e-05
4.074685460169889e-05   -2.7537062662709227e-06   -7.576265583721533e-05
4.074685460169889e-05   -2.7537062662709227e-06   -7.576265583721533e-05
2.848363998075014e-06   -2.1424851901129206e-06   -1.2965237476870263e-05
2.848363998075014e-06   -2.1424851901129206e-06   -1.2965237476870263e-05
2.848363998075014e-06   -2.1424851901129206e-06   -1.2965237476870263e-05
2.848363998075014e-06   -2.1424851901129206e-06   -1.2965237476870263e-05
2.1444616952186126e-05   -3.2851172400369535e-06   -4.3273413170434366e-05
2.1444616952186126e-05   -3.2851172400369535e-06   -4.3273413170434366e-05
2.1444616952186126e-05   -3.2851172400369535e-06   -4.3273413170434366e-05
2.1444616952186126e-05   -3.2851172400369535e-06   -4.3273413170434366e-05
2.848363998075014e-06   -2.7537062662709363e-06   -7.612938848290997e-05
2.848363998075014e-06   -2.7537062662709363e-06   -7.612938848290997e-05
2.848363998075014e-06   -2.7537062662709363e-06   -7.612938848290997e-05
2.848363998075014e-06   -2.7537062662709363e-06   -7.612938848290997e-05
4.074685460169889e-05   -2.1424851901129206e-06   -1.2598504831175592e-05
4.074685460169889e-05   -2.1424851901129206e-06   -1.2598504831175592e-05
4.074685460169889e-05   -2.1424851901129206e-06   -1.2598504831175592e-05
4.074685460169889e-05   -2.1424851901129206e-06   -1.2598504831175592e-05
3.955092298349666e-05   -5.785777573009791e-07   -7.589614615662713e-05
3.955092298349666e-05   -5.785777573009791e-07   -7.589614615662713e-05
3.955092298349666e-05   -5.785777573009791e-07   -7.589614615662713e-05
3.955092298349666e-05   -5.785777573009791e-07   -7.589614615662713e-05
2.4340581649737486e-06   1.9493707188462505e-07   -1.4498813689933719e-05
2.4340581649737486e-06   1.9493707188462505e-07   -1.4498813689933719e-05
2.4340581649737486e-06   1.9493707188462505e-07   -1.4498813689933719e-05
2.4340581649737486e-06   1.9493707188462505e-07   -1.4498813689933719e-05
2.1204833001728026e-05   -1.4861887147228636e-06   -4.477476294589295e-05
2.1204833001728026e-05   -1.4861887147228636e-06   -4.477476294589295e-05
2.1204833001728026e-05   -1.4861887147228636e-06   -4.477476294589295e-05
2.1204833001728026e-05   -1.4861887147228636e-06   -4.477476294589295e-05
4.062758983562513e-05   -1.4689184772363799e-05   -4.438082414653588e-05
4.062758983562513e-05   -1.4689184772363799e-05   -4.438082414653588e-05
4.062758983562513e-05   -1.4689184772363799e-05   -4.438082414653588e-05
4.062758983562513e-05   -1.4689184772363799e-05   -4.438082414653588e-05
7.756557170714816e-05   -1.1081494925194006e-05   1.9347092880970997e-05
7.756557170714816e-05   -1.1081494925194006e-05   1.9347092880970997e-05
7.756557170714816e-05   -1.1081494925194006e-05   1.9347092880970997e-05
7.756557170714816e-05   -1.1081494925194006e-05   1.9347092880970997e-05
8.050133181254546e-05   -1.2502958052630159e-05   -5.396444222632324e-05
8.050133181254546e-05   -1.2502958052630159e-05   -5.396444222632324e-05
8.050133181254546e-05   -1.2502958052630159e-05   -5.396444222632324e-05
8.050133181254546e-05   -1.2502958052630159e-05   -5.396444222632324e-05
4.0955099411514465e-05   -1.0056615515967933e-05   1.0478139586731175e-05
4.0955099411514465e-05   -1.0056615515967933e-05   1.0478139586731175e-05
4.0955099411514465e-05   -1.0056615515967933e-05   1.0478139586731175e-05
4.0955099411514465e-05   -1.0056615515967933e-05   1.0478139586731175e-05
5.712633704832166e-05   -1.2032075990753914e-05   -1.528864685640925e-05
5.712633704832166e-05   -1.2032075990753914e-05   -1.528864685640925e-05
5.712633704832166e-05   -1.2032075990753914e-05   -1.528864685640925e-05
5.712633704832166e-05   -1.2032075990753914e-05   -1.528864685640925e-05
4.095509941151435e-05   -1.2502958052630132e-05   -5.543224774832035e-05
4.095509941151435e-05   -1.2502958052630132e-05   -5.543224774832035e-05
4.095509941151435e-05   -1.2502958052630132e-05   -5.543224774832035e-05
4.095509941151435e-05   -1.2502958052630132e-05   -5.543224774832035e-05
8.050133181254533e-05   -1.0056615515967933e-05   1.1945945108728605e-05
8.050133181254533e-05   -1.0056615515967933e-05   1.1945945108728605e-05
8.050133181254533e-05   -1.0056615515967933e-05   1.1945945108728605e-05
8.050133181254533e-05   -1.0056615515967933e-05   1.1945945108728605e-05
8.018955808054711e-05   -1.1426591350143937e-05   -5.869243293222855e-05
8.018955808054711e-05   -1.1426591350143937e-05   -5.869243293222855e-05
8.018955808054711e-05   -1.1426591350143937e-05   -5.869243293222855e-05
8.018955808054711e-05   -1.1426591350143937e-05   -5.869243293222855e-05
4.074685460169889e-05   -8.969246853483023e-06   5.570999501188645e-06
4.074685460169889e-05   -8.969246853483023e-06   5.570999501188645e-06
4.074685460169889e-05   -8.969246853483023e-06   5.570999501188645e-06
4.074685460169889e-05   -8.969246853483023e-06   5.570999501188645e-06
5.9113195897256534e-05   -1.0628448885826507e-05   -2.40440481053347e-05
5.9113195897256534e-05   -1.0628448885826507e-05   -2.40440481053347e-05
5.9113195897256534e-05   -1.0628448885826507e-05   -2.40440481053347e-05
5.9113195897256534e-05   -1.0628448885826507e-05   -2.40440481053347e-05
4.074685460169883e-05   -1.142659135014391e-05   -6.016683963022497e-05
4.074685460169883e-05   -1.142659135014391e-05   -6.016683963022497e-05
4.074685460169883e-05   -1.142659135014391e-05   -6.016683963022497e-05
4.074685460169883e-05   -1.142659135014391e-05   -6.016683963022497e-05
8.018955808054696e-05   -8.969246853483023e-06   7.045406199185031e-06
8.018955808054696e-05   -8.969246853483023e-06   7.045406199185031e-06
8.018955808054696e-05   -8.969246853483023e-06   7.045406199185031e-06
8.018955808054696e-05   -8.969246853483023e-06   7.045406199185031e-06
7.969248951604702e-05   -8.886663210727624e-06   -6.831840942032539e-05
7.969248951604702e-05   -8.886663210727624e-06   -6.831840942032539e-05
7.969248951604702e-05   -8.886663210727624e-06   -6.831840942032539e-05
7.969248951604702e-05   -8.886663210727624e-06   -6.831840942032539e-05
3.9550922983496624e-05   -6.628952466711734e-06   -2.7704249791508988e-06
3.9550922983496624e-05   -6.628952466711734e-06   -2.7704249791508988e-06
3.9550922983496624e-05   -6.628952466711734e-06   -2.7704249791508988e-06
3.9550922983496624e-05   -6.628952466711734e-06   -2.7704249791508988e-06
5.741304979468579e-05   -9.15342914944379e-06   -3.1025950321493626e-05
5.741304979468579e-05   -9.15342914944379e-06   -3.1025950321493626e-05
5.741304979468579e-05   -9.15342914944379e-06   -3.1025950321493626e-05
5.741304979468579e-05   -9.15342914944379e-06   -3.1025950321493626e-05
-8.695835534423601e-05   1.2533449570725492e-05   -5.998247298664029e-05
-8.695835534423601e-05   1.2533449570725492e-05   -5.998247298664029e-05
-8.695835534423601e-05   1.2533449570725492e-05   -5.998247298664029e-05
-8.695835534423601e-05   1.2533449570725492e-05   -5.998247298664029e-05
-5.699646035832372e-05   9.581361589025366e-06   -1.1817234132473268e-05
-5.699646035832372e-05   9.581361589025366e-06   -1.1817234132473268e-05
-5.699646035832372e-05   9.581361589025366e-06   -1.1817234132473268e-05
-5.699646035832372e-05   9.581361589025366e-06   -1.1817234132473268e-05
-5.727456039050609e-05   1.5039470044827933e-05   -4.980124693856273e-05
-5.727456039050609e-05   1.5039470044827933e-05   -4.980124693856273e-05
-5.727456039050609e-05   1.5039470044827933e-05   -4.980124693856273e-05
-5.727456039050609e-05   1.5039470044827933e-05   -4.980124693856273e-05
-8.564819204124244e-05   1.1588242182650871e-05   -4.411241366958547e-07
-8.564819204124244e-05   1.1588242182650871e-05   -4.411241366958547e-07
-8.564819204124244e-05   1.1588242182650871e-05   -4.411241366958547e-07
-8.564819204124244e-05   1.1588242182650871e-05   -4.411241366958547e-07
-6.868660575225168e-05   1.2743447861398314e-05   -2.9403558025595854e-05
-6.868660575225168e-05   1.2743447861398314e-05   -2.9403558025595854e-05
-6.868660575225168e-05   1.2743447861398314e-05   -2.9403558025595854e-05
-6.868660575225168e-05   1.2743447861398314e-05   -2.9403558025595854e-05
-8.564819204124244e-05   1.5039470044827933e-05   -4.77305102212565e-05
-8.564819204124244e-05   1.5039470044827933e-05   -4.77305102212565e-05
-8.564819204124244e-05   1.5039470044827933e-05   -4.77305102212565e-05
-8.564819204124244e-05   1.5039470044827933e-05   -4.77305102212565e-05
-5.727456039050609e-05   1.1588242182650871e-05   -2.5118608540021135e-06
-5.727456039050609e-05   1.1588242182650871e-05   -2.5118608540021135e-06
-5.727456039050609e-05   1.1588242182650871e-05   -2.5118608540021135e-06
-5.727456039050609e-05   1.1588242182650871e-05   -2.5118608540021135e-06
-5.7219260170912573e-05   1.617036973591406e-05   -4.260383965416152e-05
-5.7219260170912573e-05   1.617036973591406e-05   -4.260383965416152e-05
-5.7219260170912573e-05   1.617036973591406e-05   -4.260383965416152e-05
-5.7219260170912573e-05   1.617036973591406e-05   -4.260383965416152e-05
-8.436971053684436e-05   1.2469558473272814e-05   4.867397713309449e-06
-8.436971053684436e-05   1.2469558473272814e-05   4.867397713309449e-06
-8.436971053684436e-05   1.2469558473272814e-05   4.867397713309449e-06
-8.436971053684436e-05   1.2469558473272814e-05   4.867397713309449e-06
-6.92844338597009e-05   1.3906889123015066e-05   -2.1137128471774967e-05
-6.92844338597009e-05   1.3906889123015066e-05   -2.1137128471774967e-05
-6.92844338597009e-05   1.3906889123015066e-05   -2.1137128471774967e-05
-6.92844338597009e-05   1.3906889123015066e-05   -2.1137128471774967e-05
-8.436971053684436e-05   1.617036973591406e-05   -4.038335289657677e-05
-8.436971053684436e-05   1.617036973591406e-05   -4.038335289657677e-05
-8.436971053684436e-05   1.617036973591406e-05   -4.038335289657677e-05
-8.436971053684436e-05   1.617036973591406e-05   -4.038335289657677e-05
-5.721926017091271e-05   1.2469558473272814e-05   2.646910955724985e-06
-5.721926017091271e-05   1.2469558473272814e-05   2.646910955724985e-06
-5.721926017091271e-05   1.2469558473272814e-05   2.646910955724985e-06
-5.721926017091271e-05   1.2469558473272814e-05   2.646910955724985e-06
-5.727958485360782e-05   1.7067740274780553e-05   -3.252163017485282e-05
-5.727958485360782e-05   1.7067740274780553e-05   -3.252163017485282e-05
-5.727958485360782e-05   1.7067740274780553e-05   -3.252163017485282e-05
-5.727958485360782e-05   1.7067740274780553e-05   -3.252163017485282e-05
-8.269826528781523e-05   1.3335653644817261e-05   1.2082089193470654e-05
-8.269826528781523e-05   1.3335653644817261e-05   1.2082089193470654e-05
-8.269826528781523e-05   1.3335653644817261e-05   1.2082089193470654e-05
-8.269826528781523e-05   1.3335653644817261e-05   1.2082089193470654e-05
-6.770975434564254e-05   1.4518009080163419e-05   -1.3608175638024082e-05
-6.770975434564254e-05   1.4518009080163419e-05   -1.3608175638024082e-05
-6.770975434564254e-05   1.4518009080163419e-05   -1.3608175638024082e-05
-6.770975434564254e-05   1.4518009080163419e-05   -1.3608175638024082e-05
-5.699646035832372e-05   5.831885783778282e-06   -6.940167532332819e-05
-5.699646035832372e-05   5.831885783778282e-06   -6.940167532332819e-05
-5.699646035832372e-05   5.831885783778282e-06   -6.940167532332819e-05
-5.699646035832372e-05   5.831885783778282e-06   -6.940167532332819e-05
-2.8995364739190676e-05   4.775848544350718e-06   -2.3366804968429593e-05
-2.8995364739190676e-05   4.775848544350718e-06   -2.3366804968429593e-05
-2.8995364739190676e-05   4.775848544350718e-06   -2.3366804968429593e-05
-2.8995364739190676e-05   4.775848544350718e-06   -2.3366804968429593e-05
-2.9349718210767463e-05   8.13641713264359e-06   -6.842023284351874e-05
-2.9349718210767463e-05   8.13641713264359e-06   -6.842023284351874e-05
-2.9349718210767463e-05   8.13641713264359e-06   -6.842023284351874e-05
-2.9349718210767463e-05   8.13641713264359e-06   -6.842023284351874e-05
-5.727456039050609e-05   6.749234740729688e-06   -2.104651977547276e-05
-5.727456039050609e-05   6.749234740729688e-06   -2.104651977547276e-05
-5.727456039050609e-05   6.749234740729688e-06   -2.104651977547276e-05
-5.727456039050609e-05   6.749234740729688e-06   -2.104651977547276e-05
-4.278485524606806e-05   6.723592306725622e-06   -4.518064288913363e-05
-4.278485524606806e-05   6.723592306725622e-06   -4.518064288913363e-05
-4.278485524606806e-05   6.723592306725622e-06   -4.518064288913363e-05
-4.278485524606806e-05   6.723592306725622e-06   -4.518064288913363e-05
-5.727456039050601e-05   8.13641713264359e-06   -6.758792340837025e-05
-5.727456039050601e-05   8.13641713264359e-06   -6.758792340837025e-05
-5.727456039050601e-05   8.13641713264359e-06   -6.758792340837025e-05
-5.727456039050601e-05   8.13641713264359e-06   -6.758792340837025e-05
-2.9349718210767504e-05   6.749234740729688e-06   -2.187882921062109e-05
-2.9349718210767504e-05   6.749234740729688e-06   -2.187882921062109e-05
-2.9349718210767504e-05   6.749234740729688e-06   -2.187882921062109e-05
-2.9349718210767504e-05   6.749234740729688e-06   -2.187882921062109e-05
-2.9580262323446614e-05   1.00435100339948e-05   -6.66085385853127e-05
-2.9580262323446614e-05   1.00435100339948e-05   -6.66085385853127e-05
-2.9580262323446614e-05   1.00435100339948e-05   -6.66085385853127e-05
-2.9580262323446614e-05   1.00435100339948e-05   -6.66085385853127e-05
-5.7219260170912573e-05   8.501892180163358e-06   -1.9618571460570516e-05
-5.7219260170912573e-05   8.501892180163358e-06   -1.9618571460570516e-05
-5.7219260170912573e-05   8.501892180163358e-06   -1.9618571460570516e-05
-5.7219260170912573e-05   8.501892180163358e-06   -1.9618571460570516e-05
-4.286603463531307e-05   8.346737820136074e-06   -4.344752140388646e-05
-4.286603463531307e-05   8.346737820136074e-06   -4.344752140388646e-05
-4.286603463531307e-05   8.346737820136074e-06   -4.344752140388646e-05
-4.286603463531307e-05   8.346737820136074e-06   -4.344752140388646e-05
-5.7219260170912573e-05   1.00435100339948e-05   -6.568356787301379e-05
-5.7219260170912573e-05   1.00435100339948e-05   -6.568356787301379e-05
-5.7219260170912573e-05   1.00435100339948e-05   -6.568356787301379e-05
-5.7219260170912573e-05   1.00435100339948e-05   -6.568356787301379e-05
-2.958026232344668e-05   8.501892180163466e-06   -2.0543542172869232e-05
-2.958026232344668e-05   8.501892180163466e-06   -2.0543542172869232e-05
-2.958026232344668e-05   8.501892180163466e-06   -2.0543542172869232e-05
-2.958026232344668e-05   8.501892180163466e-06   -2.0543542172869232e-05
-2.9877773756834076e-05   1.2095088931788039e-05   -6.644718598287816e-05
-2.9877773756834076e-05   1.2095088931788039e-05   -6.644718598287816e-05
-2.9877773756834076e-05   1.2095088931788039e-05   -6.644718598287816e-05
-2.9877773756834076e-05   1.2095088931788039e-05   -6.644718598287816e-05
-5.7279584853607796e-05   1.0365719836653528e-05   -1.973987936450803e-05
-5.7279584853607796e-05   1.0365719836653528e-05   -1.973987936450803e-05
-5.7279584853607796e-05   1.0365719836653528e-05   -1.973987936450803e-05
-5.7279584853607796e-05   1.0365719836653528e-05   -1.973987936450803e-05
-4.337608545391753e-05   9.953974641460845e-06   -4.266533124687576e-05
-4.337608545391753e-05   9.953974641460845e-06   -4.266533124687576e-05
-4.337608545391753e-05   9.953974641460845e-06   -4.266533124687576e-05
-4.337608545391753e-05   9.953974641460845e-06   -4.266533124687576e-05
-2.8995364739190622e-05   -1.726815986637922e-07   -7.480442876829212e-05
-2.8995364739190622e-05   -1.726815986637922e-07   -7.480442876829212e-05
-2.8995364739190622e-05   -1.726815986637922e-07   -7.480442876829212e-05
-2.8995364739190622e-05   -1.726815986637922e-07   -7.480442876829212e-05
-1.309851328987429e-06   2.539306507788521e-07   -2.8405939068287903e-05
-1.309851328987429e-06   2.539306507788521e-07   -2.8405939068287903e-05
-1.309851328987429e-06   2.539306507788521e-07   -2.8405939068287903e-05
-1.309851328987429e-06   2.539306507788521e-07   -2.8405939068287903e-05
-1.5944487310354553e-06   1.9504116768650354e-06   -7.410800808050553e-05
-1.5944487310354553e-06   1.9504116768650354e-06   -7.410800808050553e-05
-1.5944487310354553e-06   1.9504116768650354e-06   -7.410800808050553e-05
-1.5944487310354553e-06   1.9504116768650354e-06   -7.410800808050553e-05
-2.9349718210767395e-05   2.195957622801452e-06   -2.7996553181847356e-05
-2.9349718210767395e-05   2.195957622801452e-06   -2.7996553181847356e-05
-2.9349718210767395e-05   2.195957622801452e-06   -2.7996553181847356e-05
-2.9349718210767395e-05   2.195957622801452e-06   -2.7996553181847356e-05
-1.5226464207607883e-05   1.279097480297298e-06   -5.0985193768277574e-05
-1.5226464207607883e-05   1.279097480297298e-06   -5.0985193768277574e-05
-1.5226464207607883e-05   1.279097480297298e-06   -5.0985193768277574e-05
-1.5226464207607883e-05   1.279097480297298e-06   -5.0985193768277574e-05
-2.9349718210767463e-05   1.9504116768650354e-06   -7.42553356480674e-05
-2.9349718210767463e-05   1.9504116768650354e-06   -7.42553356480674e-05
-2.9349718210767463e-05   1.9504116768650354e-06   -7.42553356480674e-05
-2.9349718210767463e-05   1.9504116768650354e-06   -7.42553356480674e-05
-1.5944487310354553e-06   2.195957622801452e-06   -2.7849225614285538e-05
-1.5944487310354553e-06   2.195957622801452e-06   -2.7849225614285538e-05
-1.5944487310354553e-06   2.195957622801452e-06   -2.7849225614285538e-05
-1.5944487310354553e-06   2.195957622801452e-06   -2.7849225614285538e-05
-1.8008542978673902e-06   4.024693390715546e-06   -7.43099822269732e-05
-1.8008542978673902e-06   4.024693390715546e-06   -7.43099822269732e-05
-1.8008542978673902e-06   4.024693390715546e-06   -7.43099822269732e-05
-1.8008542978673902e-06   4.024693390715546e-06   -7.43099822269732e-05
-2.9580262323446614e-05   4.132147266191978e-06   -2.807544117629365e-05
-2.9580262323446614e-05   4.132147266191978e-06   -2.807544117629365e-05
-2.9580262323446614e-05   4.132147266191978e-06   -2.807544117629365e-05
-2.9580262323446614e-05   4.132147266191978e-06   -2.807544117629365e-05
-1.559315348137349e-05   2.9916449043023363e-06   -5.070298782928177e-05
-1.559315348137349e-05   2.9916449043023363e-06   -5.070298782928177e-05
-1.559315348137349e-05   2.9916449043023363e-06   -5.070298782928177e-05
-1.559315348137349e-05   2.9916449043023363e-06   -5.070298782928177e-05
-2.9580262323446614e-05   4.024693390715546e-06   -7.437445455225902e-05
-2.9580262323446614e-05   4.024693390715546e-06   -7.437445455225902e-05
-2.9580262323446614e-05   4.024693390715546e-06   -7.437445455225902e-05
-2.9580262323446614e-05   4.024693390715546e-06   -7.437445455225902e-05
-1.8008542978673902e-06   4.132147266191978e-06   -2.801096885100761e-05
-1.8008542978673902e-06   4.132147266191978e-06   -2.801096885100761e-05
-1.8008542978673902e-06   4.132147266191978e-06   -2.801096885100761e-05
-1.8008542978673902e-06   4.132147266191978e-06   -2.801096885100761e-05
-2.1239146452681823e-06   6.18605623245558e-06   -7.52664400631078e-05
-2.1239146452681823e-06   6.18605623245558e-06   -7.52664400631078e-05
-2.1239146452681823e-06   6.18605623245558e-06   -7.52664400631078e-05
-2.1239146452681823e-06   6.18605623245558e-06   -7.52664400631078e-05
-2.9877773756834103e-05   6.113400566572832e-06   -2.896641481096854e-05
-2.9877773756834103e-05   6.113400566572832e-06   -2.896641481096854e-05
-2.9877773756834103e-05   6.113400566572832e-06   -2.896641481096854e-05
-2.9877773756834103e-05   6.113400566572832e-06   -2.896641481096854e-05
-1.598258038852767e-05   4.724531064129308e-06   -5.129174872334605e-05
-1.598258038852767e-05   4.724531064129308e-06   -5.129174872334605e-05
-1.598258038852767e-05   4.724531064129308e-06   -5.129174872334605e-05
-1.598258038852767e-05   4.724531064129308e-06   -5.129174872334605e-05
-1.3098513289874325e-06   -5.960198253493595e-06   -6.684638406517736e-05
-1.3098513289874325e-06   -5.960198253493595e-06   -6.684638406517736e-05
-1.3098513289874325e-06   -5.960198253493595e-06   -6.684638406517736e-05
-1.3098513289874325e-06   -5.960198253493595e-06   -6.684638406517736e-05
2.623953440597549e-05   -3.9993528657833325e-06   -1.975423394094645e-05
2.623953440597549e-05   -3.9993528657833325e-06   -1.975423394094645e-05
2.623953440597549e-05   -3.9993528657833325e-06   -1.975423394094645e-05
2.623953440597549e-05   -3.9993528657833325e-06   -1.975423394094645e-05
2.6217229226945405e-05   -4.031835348263153e-06   -6.608142721674072e-05
2.6217229226945405e-05   -4.031835348263153e-06   -6.608142721674072e-05
2.6217229226945405e-05   -4.031835348263153e-06   -6.608142721674072e-05
2.6217229226945405e-05   -4.031835348263153e-06   -6.608142721674072e-05
-1.5944487310354553e-06   -2.2199115290249226e-06   -2.0815784911648897e-05
-1.5944487310354553e-06   -2.2199115290249226e-06   -2.0815784911648897e-05
-1.5944487310354553e-06   -2.2199115290249226e-06   -2.0815784911648897e-05
-1.5944487310354553e-06   -2.2199115290249226e-06   -2.0815784911648897e-05
1.2293336242115964e-05   -3.913128574783851e-06   -4.294616297277921e-05
1.2293336242115964e-05   -3.913128574783851e-06   -4.294616297277921e-05
1.2293336242115964e-05   -3.913128574783851e-06   -4.294616297277921e-05
1.2293336242115964e-05   -3.913128574783851e-06   -4.294616297277921e-05
-1.5944487310354553e-06   -4.031835348263153e-06   -6.716858150828368e-05
-1.5944487310354553e-06   -4.031835348263153e-06   -6.716858150828368e-05
-1.5944487310354553e-06   -4.031835348263153e-06   -6.716858150828368e-05
-1.5944487310354553e-06   -4.031835348263153e-06   -6.716858150828368e-05
2.621722922694546e-05   -2.2199115290249226e-06   -1.9728630620105992e-05
2.621722922694546e-05   -2.2199115290249226e-06   -1.9728630620105992e-05
2.621722922694546e-05   -2.2199115290249226e-06   -1.9728630620105992e-05
2.621722922694546e-05   -2.2199115290249226e-06   -1.9728630620105992e-05
2.6338045644051355e-05   -2.1424851901129206e-06   -6.78317089495614e-05
2.6338045644051355e-05   -2.1424851901129206e-06   -6.78317089495614e-05
2.6338045644051355e-05   -2.1424851901129206e-06   -6.78317089495614e-05
2.6338045644051355e-05   -2.1424851901129206e-06   -6.78317089495614e-05
-1.8008542978673928e-06   -4.7080998394897263e-07   -2.1936547503395283e-05
-1.8008542978673928e-06   -4.7080998394897263e-07   -2.1936547503395283e-05
-1.8008542978673928e-06   -4.7080998394897263e-07   -2.1936547503395283e-05
-1.8008542978673928e-06   -4.7080998394897263e-07   -2.1936547503395283e-05
1.1914683703899338e-05   -2.3700032685622255e-06   -4.3656261535571795e-05
1.1914683703899338e-05   -2.3700032685622255e-06   -4.3656261535571795e-05
1.1914683703899338e-05   -2.3700032685622255e-06   -4.3656261535571795e-05
1.1914683703899338e-05   -2.3700032685622255e-06   -4.3656261535571795e-05
-1.8008542978673902e-06   -2.1424851901129206e-06   -6.883471407325971e-05
-1.8008542978673902e-06   -2.1424851901129206e-06   -6.883471407325971e-05
-1.8008542978673902e-06   -2.1424851901129206e-06   -6.883471407325971e-05
-1.8008542978673902e-06   -2.1424851901129206e-06   -6.883471407325971e-05
2.6338045644051395e-05   -4.7080998394897263e-07   -2.093354237969671e-05
2.6338045644051395e-05   -4.7080998394897263e-07   -2.093354237969671e-05
2.6338045644051395e-05   -4.7080998394897263e-07   -2.093354237969671e-05
2.6338045644051395e-05   -4.7080998394897263e-07   -2.093354237969671e-05
2.6133359526435507e-05   1.9493707188462505e-07   -6.981364073872196e-05
2.6133359526435507e-05   1.9493707188462505e-07   -6.981364073872196e-05
2.6133359526435507e-05   1.9493707188462505e-07   -6.981364073872196e-05
2.6133359526435507e-05   1.9493707188462505e-07   -6.981364073872196e-05
-2.1239146452681856e-06   1.5748861198834792e-06   -2.354615321468201e-05
-2.1239146452681856e-06   1.5748861198834792e-06   -2.354615321468201e-05
-2.1239146452681856e-06   1.5748861198834792e-06   -2.354615321468201e-05
-2.1239146452681856e-06   1.5748861198834792e-06   -2.354615321468201e-05
1.1780629232675749e-05   -7.183702203091642e-07   -4.534443920713933e-05
1.1780629232675749e-05   -7.183702203091642e-07   -4.534443920713933e-05
1.1780629232675749e-05   -7.183702203091642e-07   -4.534443920713933e-05
1.1780629232675749e-05   -7.183702203091642e-07   -4.534443920713933e-05
2.6239534405975436e-05   -1.108149492519406e-05   -3.740894462884157e-05
2.6239534405975436e-05   -1.108149492519406e-05   -3.740894462884157e-05
2.6239534405975436e-05   -1.108149492519406e-05   -3.740894462884157e-05
2.6239534405975436e-05   -1.108149492519406e-05   -3.740894462884157e-05
5.20499884641397e-05   -7.257726285489854e-06   7.902739985254882e-06
5.20499884641397e-05   -7.257726285489854e-06   7.902739985254882e-06
5.20499884641397e-05   -7.257726285489854e-06   7.902739985254882e-06
5.20499884641397e-05   -7.257726285489854e-06   7.902739985254882e-06
5.3797483153472376e-05   -1.0056615515967933e-05   -4.210535554710047e-05
5.3797483153472376e-05   -1.0056615515967933e-05   -4.210535554710047e-05
5.3797483153472376e-05   -1.0056615515967933e-05   -4.210535554710047e-05
5.3797483153472376e-05   -1.0056615515967933e-05   -4.210535554710047e-05
2.6217229226945405e-05   -6.233350827490884e-06   1.567775517358292e-06
2.6217229226945405e-05   -6.233350827490884e-06   1.567775517358292e-06
2.6217229226945405e-05   -6.233350827490884e-06   1.567775517358292e-06
2.6217229226945405e-05   -6.233350827490884e-06   1.567775517358292e-06
3.7884510268714155e-05   -8.55495734410308e-06   -1.6484728975622352e-05
3.7884510268714155e-05   -8.55495734410308e-06   -1.6484728975622352e-05
3.7884510268714155e-05   -8.55495734410308e-06   -1.6484728975622352e-05
3.7884510268714155e-05   -8.55495734410308e-06   -1.6484728975622352e-05
2.621722922694539e-05   -1.0056615515967933e-05   -4.4399314360186624e-05
2.621722922694539e-05   -1.0056615515967933e-05   -4.4399314360186624e-05
2.621722922694539e-05   -1.0056615515967933e-05   -4.4399314360186624e-05
2.621722922694539e-05   -1.0056615515967933e-05   -4.4399314360186624e-05
5.3797483153472376e-05   -6.233350827490776e-06   3.861734330444511e-06
5.3797483153472376e-05   -6.233350827490776e-06   3.861734330444511e-06
5.3797483153472376e-05   -6.233350827490776e-06   3.861734330444511e-06
5.3797483153472376e-05   -6.233350827490776e-06   3.861734330444511e-06
5.513926125833238e-05   -8.969246853483023e-06   -4.7492829529764756e-05
5.513926125833238e-05   -8.969246853483023e-06   -4.7492829529764756e-05
5.513926125833238e-05   -8.969246853483023e-06   -4.7492829529764756e-05
5.513926125833238e-05   -8.969246853483023e-06   -4.7492829529764756e-05
2.63380456440513e-05   -5.353621707762028e-06   -1.6601785933955868e-06
2.63380456440513e-05   -5.353621707762028e-06   -1.6601785933955868e-06
2.63380456440513e-05   -5.353621707762028e-06   -1.6601785933955868e-06
2.63380456440513e-05   -5.353621707762028e-06   -1.6601785933955868e-06
3.916734793277325e-05   -7.893923520858339e-06   -2.1518167986740905e-05
3.916734793277325e-05   -7.893923520858339e-06   -2.1518167986740905e-05
3.916734793277325e-05   -7.893923520858339e-06   -2.1518167986740905e-05
3.916734793277325e-05   -7.893923520858339e-06   -2.1518167986740905e-05
2.6338045644051355e-05   -8.969246853483023e-06   -4.966220461719728e-05
2.6338045644051355e-05   -8.969246853483023e-06   -4.966220461719728e-05
2.6338045644051355e-05   -8.969246853483023e-06   -4.966220461719728e-05
2.6338045644051355e-05   -8.969246853483023e-06   -4.966220461719728e-05
5.51392612583323e-05   -5.3536217077621365e-06   5.091964940371783e-07
5.51392612583323e-05   -5.3536217077621365e-06   5.091964940371783e-07
5.51392612583323e-05   -5.3536217077621365e-06   5.091964940371783e-07
5.51392612583323e-05   -5.3536217077621365e-06   5.091964940371783e-07
5.656794323754248e-05   -6.628952466711734e-06   -5.665605328155157e-05
5.656794323754248e-05   -6.628952466711734e-06   -5.665605328155157e-05
5.656794323754248e-05   -6.628952466711734e-06   -5.665605328155157e-05
5.656794323754248e-05   -6.628952466711734e-06   -5.665605328155157e-05
2.613335952643544e-05   -3.473439726880273e-06   -7.825054740272198e-06
2.613335952643544e-05   -3.473439726880273e-06   -7.825054740272198e-06
2.613335952643544e-05   -3.473439726880273e-06   -7.825054740272198e-06
2.613335952643544e-05   -3.473439726880273e-06   -7.825054740272198e-06
3.8995803703460854e-05   -6.801777054458611e-06   -2.726545930543411e-05
3.8995803703460854e-05   -6.801777054458611e-06   -2.726545930543411e-05
3.8995803703460854e-05   -6.801777054458611e-06   -2.726545930543411e-05
3.8995803703460854e-05   -6.801777054458611e-06   -2.726545930543411e-05
-6.253237589006405e-05   9.581361589025366e-06   -4.754661189744627e-05
-6.253237589006405e-05   9.581361589025366e-06   -4.754661189744627e-05
-6.253237589006405e-05   9.581361589025366e-06   -4.754661189744627e-05
-6.253237589006405e-05   9.581361589025366e-06   -4.754661189744627e-05
-4.2561829011018864e-05   6.0991375735461664e-06   -1.6351701508325062e-05
-4.2561829011018864e-05   6.0991375735461664e-06   -1.6351701508325062e-05
-4.2561829011018864e-05   6.0991375735461664e-06   -1.6351701508325062e-05
-4.2561829011018864e-05   6.0991375735461664e-06   -1.6351701508325062e-05
-4.240722225141264e-05   1.1588242182650871e-05   -4.039201588542079e-05
-4.240722225141264e-05   1.1588242182650871e-05   -4.039201588542079e-05
-4.240722225141264e-05   1.1588242182650871e-05   -4.039201588542079e-05
-4.240722225141264e-05   1.1588242182650871e-05   -4.039201588542079e-05
-6.0665930851019965e-05   7.761225777418038e-06   -7.664625042935649e-06
-6.0665930851019965e-05   7.761225777418038e-06   -7.664625042935649e-06
-6.0665930851019965e-05   7.761225777418038e-06   -7.664625042935649e-06
-6.0665930851019965e-05   7.761225777418038e-06   -7.664625042935649e-06
-4.9834078623206806e-05   9.225519541605017e-06   -2.6596288347803053e-05
-4.9834078623206806e-05   9.225519541605017e-06   -2.6596288347803053e-05
-4.9834078623206806e-05   9.225519541605017e-06   -2.6596288347803053e-05
-4.9834078623206806e-05   9.225519541605017e-06   -2.6596288347803053e-05
-6.0665930851019965e-05   1.1588242182650871e-05   -3.809580604228108e-05
-6.0665930851019965e-05   1.1588242182650871e-05   -3.809580604228108e-05
-6.0665930851019965e-05   1.1588242182650871e-05   -3.809580604228108e-05
-6.0665930851019965e-05   1.1588242182650871e-05   -3.809580604228108e-05
-4.2407222251412724e-05   7.761225777418038e-06   -9.960834886075419e-06
-4.2407222251412724e-05   7.761225777418038e-06   -9.960834886075419e-06
-4.2407222251412724e-05   7.761225777418038e-06   -9.960834886075419e-06
-4.2407222251412724e-05   7.761225777418038e-06   -9.960834886075419e-06
-4.208583223170201e-05   1.2469558473272814e-05   -3.5221390539752224e-05
-4.208583223170201e-05   1.2469558473272814e-05   -3.5221390539752224e-05
-4.208583223170201e-05   1.2469558473272814e-05   -3.5221390539752224e-05
-4.208583223170201e-05   1.2469558473272814e-05   -3.5221390539752224e-05
-5.927003989865349e-05   8.53511202169254e-06   -4.220376557218495e-06
-5.927003989865349e-05   8.53511202169254e-06   -4.220376557218495e-06
-5.927003989865349e-05   8.53511202169254e-06   -4.220376557218495e-06
-5.927003989865349e-05   8.53511202169254e-06   -4.220376557218495e-06
-4.983817993738668e-05   1.0152853235695944e-05   -2.0910787887731844e-05
-4.983817993738668e-05   1.0152853235695944e-05   -2.0910787887731844e-05
-4.983817993738668e-05   1.0152853235695944e-05   -2.0910787887731844e-05
-4.983817993738668e-05   1.0152853235695944e-05   -2.0910787887731844e-05
-5.927003989865349e-05   1.2469558473272814e-05   -3.2860722668804146e-05
-5.927003989865349e-05   1.2469558473272814e-05   -3.2860722668804146e-05
-5.927003989865349e-05   1.2469558473272814e-05   -3.2860722668804146e-05
-5.927003989865349e-05   1.2469558473272814e-05   -3.2860722668804146e-05
-4.2085832231702065e-05   8.53511202169254e-06   -6.5810444281663445e-06
-4.2085832231702065e-05   8.53511202169254e-06   -6.5810444281663445e-06
-4.2085832231702065e-05   8.53511202169254e-06   -6.5810444281663445e-06
-4.2085832231702065e-05   8.53511202169254e-06   -6.5810444281663445e-06
-4.195673925386169e-05   1.333565364481737e-05   -2.8061950173702754e-05
-4.195673925386169e-05   1.333565364481737e-05   -2.8061950173702754e-05
-4.195673925386169e-05   1.333565364481737e-05   -2.8061950173702754e-05
-4.195673925386169e-05   1.333565364481737e-05   -2.8061950173702754e-05
-5.7442850093169845e-05   9.507456175632603e-06   4.5153039988346435e-08
-5.7442850093169845e-05   9.507456175632603e-06   4.5153039988346435e-08
-5.7442850093169845e-05   9.507456175632603e-06   4.5153039988346435e-08
-5.7442850093169845e-05   9.507456175632603e-06   4.5153039988346435e-08
-4.836438119253626e-05   1.0654337627959251e-05   -1.5773757332463478e-05
-4.836438119253626e-05   1.0654337627959251e-05   -1.5773757332463478e-05
-4.836438119253626e-05   1.0654337627959251e-05   -1.5773757332463478e-05
-4.836438119253626e-05   1.0654337627959251e-05   -1.5773757332463478e-05
-4.256182901101881e-05   4.775848544350718e-06   -6.0551894799033476e-05
-4.256182901101881e-05   4.775848544350718e-06   -6.0551894799033476e-05
-4.256182901101881e-05   4.775848544350718e-06   -6.0551894799033476e-05
-4.256182901101881e-05   4.775848544350718e-06   -6.0551894799033476e-05
-2.4465431212137426e-05   3.150634795015539e-06   -3.136636005049903e-05
-2.4465431212137426e-05   3.150634795015539e-06   -3.136636005049903e-05
-2.4465431212137426e-05   3.150634795015539e-06   -3.136636005049903e-05
-2.4465431212137426e-05   3.150634795015539e-06   -3.136636005049903e-05
-2.4477158634184188e-05   6.749234740729688e-06   -6.003322229084689e-05
-2.4477158634184188e-05   6.749234740729688e-06   -6.003322229084689e-05
-2.4477158634184188e-05   6.749234740729688e-06   -6.003322229084689e-05
-2.4477158634184188e-05   6.749234740729688e-06   -6.003322229084689e-05
-4.240722225141264e-05   4.904988934137291e-06   -2.904323544484404e-05
-4.240722225141264e-05   4.904988934137291e-06   -2.904323544484404e-05
-4.240722225141264e-05   4.904988934137291e-06   -2.904323544484404e-05
-4.240722225141264e-05   4.904988934137291e-06   -2.904323544484404e-05
-3.316938650382121e-05   5.222248402750502e-06   -4.4629984038664324e-05
-3.316938650382121e-05   5.222248402750502e-06   -4.4629984038664324e-05
-3.316938650382121e-05   5.222248402750502e-06   -4.4629984038664324e-05
-3.316938650382121e-05   5.222248402750502e-06   -4.4629984038664324e-05
-4.240722225141267e-05   6.749234740729688e-06   -5.892667480689127e-05
-4.240722225141267e-05   6.749234740729688e-06   -5.892667480689127e-05
-4.240722225141267e-05   6.749234740729688e-06   -5.892667480689127e-05
-4.240722225141267e-05   6.749234740729688e-06   -5.892667480689127e-05
-2.4477158634184188e-05   4.904988934137508e-06   -3.0149782928799468e-05
-2.4477158634184188e-05   4.904988934137508e-06   -3.0149782928799468e-05
-2.4477158634184188e-05   4.904988934137508e-06   -3.0149782928799468e-05
-2.4477158634184188e-05   4.904988934137508e-06   -3.0149782928799468e-05
-2.4458803052560175e-05   8.501892180163358e-06   -5.868752206612219e-05
-2.4458803052560175e-05   8.501892180163358e-06   -5.868752206612219e-05
-2.4458803052560175e-05   8.501892180163358e-06   -5.868752206612219e-05
-2.4458803052560175e-05   8.501892180163358e-06   -5.868752206612219e-05
-4.208583223170201e-05   6.500810330039176e-06   -2.8108490990811372e-05
-4.208583223170201e-05   6.500810330039176e-06   -2.8108490990811372e-05
-4.208583223170201e-05   6.500810330039176e-06   -2.8108490990811372e-05
-4.208583223170201e-05   6.500810330039176e-06   -2.8108490990811372e-05
-3.301455809645942e-05   6.66248364573495e-06   -4.3324285205632705e-05
-3.301455809645942e-05   6.66248364573495e-06   -4.3324285205632705e-05
-3.301455809645942e-05   6.66248364573495e-06   -4.3324285205632705e-05
-3.301455809645942e-05   6.66248364573495e-06   -4.3324285205632705e-05
-4.208583223170201e-05   8.501892180163358e-06   -5.7486872956047656e-05
-4.208583223170201e-05   8.501892180163358e-06   -5.7486872956047656e-05
-4.208583223170201e-05   8.501892180163358e-06   -5.7486872956047656e-05
-4.208583223170201e-05   8.501892180163358e-06   -5.7486872956047656e-05
-2.4458803052560175e-05   6.500810330039176e-06   -2.9309140100885632e-05
-2.4458803052560175e-05   6.500810330039176e-06   -2.9309140100885632e-05
-2.4458803052560175e-05   6.500810330039176e-06   -2.9309140100885632e-05
-2.4458803052560175e-05   6.500810330039176e-06   -2.9309140100885632e-05
-2.4477988239709293e-05   1.0365719836653419e-05   -5.8923890697669054e-05
-2.4477988239709293e-05   1.0365719836653419e-05   -5.8923890697669054e-05
-2.4477988239709293e-05   1.0365719836653419e-05   -5.8923890697669054e-05
-2.4477988239709293e-05   1.0365719836653419e-05   -5.8923890697669054e-05
-4.195673925386163e-05   8.233679930044193e-06   -2.8513415063449407e-05
-4.195673925386163e-05   8.233679930044193e-06   -2.8513415063449407e-05
-4.195673925386163e-05   8.233679930044193e-06   -2.8513415063449407e-05
-4.195673925386163e-05   8.233679930044193e-06   -2.8513415063449407e-05
-3.3228072101095955e-05   8.086740849808072e-06   -4.297303020325068e-05
-3.3228072101095955e-05   8.086740849808072e-06   -4.297303020325068e-05
-3.3228072101095955e-05   8.086740849808072e-06   -4.297303020325068e-05
-3.3228072101095955e-05   8.086740849808072e-06   -4.297303020325068e-05
-2.4465431212137466e-05   2.539306507787437e-07   -6.682212449815846e-05
-2.4465431212137466e-05   2.539306507787437e-07   -6.682212449815846e-05
-2.4465431212137466e-05   2.539306507787437e-07   -6.682212449815846e-05
-2.4465431212137466e-05   2.539306507787437e-07   -6.682212449815846e-05
-6.62290891241238e-06   5.40784605734812e-07   -3.691247495897645e-05
-6.62290891241238e-06   5.40784605734812e-07   -3.691247495897645e-05
-6.62290891241238e-06   5.40784605734812e-07   -3.691247495897645e-05
-6.62290891241238e-06   5.40784605734812e-07   -3.691247495897645e-05
-6.635217936953965e-06   2.195957622801452e-06   -6.608605429565047e-05
-6.635217936953965e-06   2.195957622801452e-06   -6.608605429565047e-05
-6.635217936953965e-06   2.195957622801452e-06   -6.608605429565047e-05
-6.635217936953965e-06   2.195957622801452e-06   -6.608605429565047e-05
-2.4477158634184188e-05   2.3041109001725735e-06   -3.6414378433356125e-05
-2.4477158634184188e-05   2.3041109001725735e-06   -3.6414378433356125e-05
-2.4477158634184188e-05   2.3041109001725735e-06   -3.6414378433356125e-05
-2.4477158634184188e-05   2.3041109001725735e-06   -3.6414378433356125e-05
-1.544700401227615e-05   1.5513344103535473e-06   -5.1012970242644845e-05
-1.544700401227615e-05   1.5513344103535473e-06   -5.1012970242644845e-05
-1.544700401227615e-05   1.5513344103535473e-06   -5.1012970242644845e-05
-1.544700401227615e-05   1.5513344103535473e-06   -5.1012970242644845e-05
-2.447715863418423e-05   2.195957622801452e-06   -6.61509462620732e-05
-2.447715863418423e-05   2.195957622801452e-06   -6.61509462620732e-05
-2.447715863418423e-05   2.195957622801452e-06   -6.61509462620732e-05
-2.447715863418423e-05   2.195957622801452e-06   -6.61509462620732e-05
-6.635217936953965e-06   2.3041109001725735e-06   -3.634948646693344e-05
-6.635217936953965e-06   2.3041109001725735e-06   -3.634948646693344e-05
-6.635217936953965e-06   2.3041109001725735e-06   -3.634948646693344e-05
-6.635217936953965e-06   2.3041109001725735e-06   -3.634948646693344e-05
-6.61153867539753e-06   4.132147266191978e-06   -6.625487001453803e-05
-6.61153867539753e-06   4.132147266191978e-06   -6.625487001453803e-05
-6.61153867539753e-06   4.132147266191978e-06   -6.625487001453803e-05
-6.61153867539753e-06   4.132147266191978e-06   -6.625487001453803e-05
-2.4458803052560175e-05   4.073065691206001e-06   -3.647398044094211e-05
-2.4458803052560175e-05   4.073065691206001e-06   -3.647398044094211e-05
-2.4458803052560175e-05   4.073065691206001e-06   -3.647398044094211e-05
-2.4458803052560175e-05   4.073065691206001e-06   -3.647398044094211e-05
-1.5550146608923337e-05   3.0935547455883524e-06   -5.0734034612966253e-05
-1.5550146608923337e-05   3.0935547455883524e-06   -5.0734034612966253e-05
-1.5550146608923337e-05   3.0935547455883524e-06   -5.0734034612966253e-05
-1.5550146608923337e-05   3.0935547455883524e-06   -5.0734034612966253e-05
-2.4458803052560175e-05   4.132147266191978e-06   -6.621942106954646e-05
-2.4458803052560175e-05   4.132147266191978e-06   -6.621942106954646e-05
-2.4458803052560175e-05   4.132147266191978e-06   -6.621942106954646e-05
-2.4458803052560175e-05   4.132147266191978e-06   -6.621942106954646e-05
-6.61153867539753e-06   4.073065691206001e-06   -3.650942938593349e-05
-6.61153867539753e-06   4.073065691206001e-06   -3.650942938593349e-05
-6.61153867539753e-06   4.073065691206001e-06   -3.650942938593349e-05
-6.61153867539753e-06   4.073065691206001e-06   -3.650942938593349e-05
-6.621817368392956e-06   6.113400566572832e-06   -6.725707550159514e-05
-6.621817368392956e-06   6.113400566572832e-06   -6.725707550159514e-05
-6.621817368392956e-06   6.113400566572832e-06   -6.725707550159514e-05
-6.621817368392956e-06   6.113400566572832e-06   -6.725707550159514e-05
-2.4477988239709307e-05   5.872949208995774e-06   -3.735251990152129e-05
-2.4477988239709307e-05   5.872949208995774e-06   -3.735251990152129e-05
-2.4477988239709307e-05   5.872949208995774e-06   -3.735251990152129e-05
-2.4477988239709307e-05   5.872949208995774e-06   -3.735251990152129e-05
-1.568357657165349e-05   4.656024004055597e-06   -5.127971755865043e-05
-1.568357657165349e-05   4.656024004055597e-06   -5.127971755865043e-05
-1.568357657165349e-05   4.656024004055597e-06   -5.127971755865043e-05
-1.568357657165349e-05   4.656024004055597e-06   -5.127971755865043e-05
-6.622908912412369e-06   -3.999352865783224e-06   -5.917481423046964e-05
-6.622908912412369e-06   -3.999352865783224e-06   -5.917481423046964e-05
-6.622908912412369e-06   -3.999352865783224e-06   -5.917481423046964e-05
-6.622908912412369e-06   -3.999352865783224e-06   -5.917481423046964e-05
1.0963625162492706e-05   -1.8465020008046496e-06   -2.8572213586640816e-05
1.0963625162492706e-05   -1.8465020008046496e-06   -2.8572213586640816e-05
1.0963625162492706e-05   -1.8465020008046496e-06   -2.8572213586640816e-05
1.0963625162492706e-05   -1.8465020008046496e-06   -2.8572213586640816e-05
1.1107350224176578e-05   -2.2199115290249226e-06   -5.783237503658226e-05
1.1107350224176578e-05   -2.2199115290249226e-06   -5.783237503658226e-05
1.1107350224176578e-05   -2.2199115290249226e-06   -5.783237503658226e-05
1.1107350224176578e-05   -2.2199115290249226e-06   -5.783237503658226e-05
-6.635217936953954e-06   -1.861806016390053e-07   -2.9481666657796225e-05
-6.635217936953954e-06   -1.861806016390053e-07   -2.9481666657796225e-05
-6.635217936953954e-06   -1.861806016390053e-07   -2.9481666657796225e-05
-6.635217936953954e-06   -1.861806016390053e-07   -2.9481666657796225e-05
2.213014060528079e-06   -1.9098034376256994e-06   -4.3194546285341026e-05
2.213014060528079e-06   -1.9098034376256994e-06   -4.3194546285341026e-05
2.213014060528079e-06   -1.9098034376256994e-06   -4.3194546285341026e-05
2.213014060528079e-06   -1.9098034376256994e-06   -4.3194546285341026e-05
-6.635217936953965e-06   -2.2199115290249226e-06   -5.9052613593013885e-05
-6.635217936953965e-06   -2.2199115290249226e-06   -5.9052613593013885e-05
-6.635217936953965e-06   -2.2199115290249226e-06   -5.9052613593013885e-05
-6.635217936953965e-06   -2.2199115290249226e-06   -5.9052613593013885e-05
1.1107350224176592e-05   -1.8618060163878847e-07   -2.8261428101364707e-05
1.1107350224176592e-05   -1.8618060163878847e-07   -2.8261428101364707e-05
1.1107350224176592e-05   -1.8618060163878847e-07   -2.8261428101364707e-05
1.1107350224176592e-05   -1.8618060163878847e-07   -2.8261428101364707e-05
1.144517322472689e-05   -4.7080998394897263e-07   -5.9050989842310275e-05
1.144517322472689e-05   -4.7080998394897263e-07   -5.9050989842310275e-05
1.144517322472689e-05   -4.7080998394897263e-07   -5.9050989842310275e-05
1.144517322472689e-05   -4.7080998394897263e-07   -5.9050989842310275e-05
-6.611538675397519e-06   1.411621390409604e-06   -3.008592883338478e-05
-6.611538675397519e-06   1.411621390409604e-06   -3.008592883338478e-05
-6.611538675397519e-06   1.411621390409604e-06   -3.008592883338478e-05
-6.611538675397519e-06   1.411621390409604e-06   -3.008592883338478e-05
2.1114738832467918e-06   -5.287194069014743e-07   -4.346007861940528e-05
2.1114738832467918e-06   -5.287194069014743e-07   -4.346007861940528e-05
2.1114738832467918e-06   -5.287194069014743e-07   -4.346007861940528e-05
2.1114738832467918e-06   -5.287194069014743e-07   -4.346007861940528e-05
-6.61153867539753e-06   -4.7080998394897263e-07   -6.0180448666925454e-05
-6.61153867539753e-06   -4.7080998394897263e-07   -6.0180448666925454e-05
-6.61153867539753e-06   -4.7080998394897263e-07   -6.0180448666925454e-05
-6.61153867539753e-06   -4.7080998394897263e-07   -6.0180448666925454e-05
1.1445173224726904e-05   1.4116213904098208e-06   -2.895647000876933e-05
1.1445173224726904e-05   1.4116213904098208e-06   -2.895647000876933e-05
1.1445173224726904e-05   1.4116213904098208e-06   -2.895647000876933e-05
1.1445173224726904e-05   1.4116213904098208e-06   -2.895647000876933e-05
1.161027748829305e-05   1.5748861198834792e-06   -6.079205101006954e-05
1.161027748829305e-05   1.5748861198834792e-06   -6.079205101006954e-05
1.161027748829305e-05   1.5748861198834792e-06   -6.079205101006954e-05
1.161027748829305e-05   1.5748861198834792e-06   -6.079205101006954e-05
-6.621817368392956e-06   3.243501946065654e-06   -3.14063957446354e-05
-6.621817368392956e-06   3.243501946065654e-06   -3.14063957446354e-05
-6.621817368392956e-06   3.243501946065654e-06   -3.14063957446354e-05
-6.621817368392956e-06   3.243501946065654e-06   -3.14063957446354e-05
2.1729331397319263e-06   9.491368562244669e-07   -4.468769420427218e-05
2.1729331397319263e-06   9.491368562244669e-07   -4.468769420427218e-05
2.1729331397319263e-06   9.491368562244669e-07   -4.468769420427218e-05
2.1729331397319263e-06   9.491368562244669e-07   -4.468769420427218e-05
1.0963625162492693e-05   -7.257726285489962e-06   -3.252039096910379e-05
1.0963625162492693e-05   -7.257726285489962e-06   -3.252039096910379e-05
1.0963625162492693e-05   -7.257726285489962e-06   -3.252039096910379e-05
1.0963625162492693e-05   -7.257726285489962e-06   -3.252039096910379e-05
2.6596544133119002e-05   -3.39625245065903e-06   -4.148641717161331e-06
2.6596544133119002e-05   -3.39625245065903e-06   -4.148641717161331e-06
2.6596544133119002e-05   -3.39625245065903e-06   -4.148641717161331e-06
2.6596544133119002e-05   -3.39625245065903e-06   -4.148641717161331e-06
2.844851619158211e-05   -6.233350827490884e-06   -3.4159398852365546e-05
2.844851619158211e-05   -6.233350827490884e-06   -3.4159398852365546e-05
2.844851619158211e-05   -6.233350827490884e-06   -3.4159398852365546e-05
2.844851619158211e-05   -6.233350827490884e-06   -3.4159398852365546e-05
1.1107350224176578e-05   -2.272400749570025e-06   -7.634025620108752e-06
1.1107350224176578e-05   -2.272400749570025e-06   -7.634025620108752e-06
1.1107350224176578e-05   -2.272400749570025e-06   -7.634025620108752e-06
1.1107350224176578e-05   -2.272400749570025e-06   -7.634025620108752e-06
1.8456972100209032e-05   -4.6416601902407985e-06   -1.8461839749093733e-05
1.8456972100209032e-05   -4.6416601902407985e-06   -1.8461839749093733e-05
1.8456972100209032e-05   -4.6416601902407985e-06   -1.8461839749093733e-05
1.8456972100209032e-05   -4.6416601902407985e-06   -1.8461839749093733e-05
1.1107350224176564e-05   -6.233350827490884e-06   -3.653596889911776e-05
1.1107350224176564e-05   -6.233350827490884e-06   -3.653596889911776e-05
1.1107350224176564e-05   -6.233350827490884e-06   -3.653596889911776e-05
1.1107350224176564e-05   -6.233350827490884e-06   -3.653596889911776e-05
2.844851619158211e-05   -2.272400749570025e-06   -5.257455573356323e-06
2.844851619158211e-05   -2.272400749570025e-06   -5.257455573356323e-06
2.844851619158211e-05   -2.272400749570025e-06   -5.257455573356323e-06
2.844851619158211e-05   -2.272400749570025e-06   -5.257455573356323e-06
2.9873451374497027e-05   -5.3536217077621365e-06   -3.74629856772727e-05
2.9873451374497027e-05   -5.3536217077621365e-06   -3.74629856772727e-05
2.9873451374497027e-05   -5.3536217077621365e-06   -3.74629856772727e-05
2.9873451374497027e-05   -5.3536217077621365e-06   -3.74629856772727e-05
1.1445173224726904e-05   -1.495887743201878e-06   -9.063829139725483e-06
1.1445173224726904e-05   -1.495887743201878e-06   -9.063829139725483e-06
1.1445173224726904e-05   -1.495887743201878e-06   -9.063829139725483e-06
1.1445173224726904e-05   -1.495887743201878e-06   -9.063829139725483e-06
1.95899843333481e-05   -4.0648433994538665e-06   -2.1097140927009433e-05
1.95899843333481e-05   -4.0648433994538665e-06   -2.1097140927009433e-05
1.95899843333481e-05   -4.0648433994538665e-06   -2.1097140927009433e-05
1.95899843333481e-05   -4.0648433994538665e-06   -2.1097140927009433e-05
1.144517322472689e-05   -5.3536217077621365e-06   -3.9777626056008964e-05
1.144517322472689e-05   -5.3536217077621365e-06   -3.9777626056008964e-05
1.144517322472689e-05   -5.3536217077621365e-06   -3.9777626056008964e-05
1.144517322472689e-05   -5.3536217077621365e-06   -3.9777626056008964e-05
2.9873451374496946e-05   -1.495887743201878e-06   -6.7491887609891655e-06
2.9873451374496946e-05   -1.495887743201878e-06   -6.7491887609891655e-06
2.9873451374496946e-05   -1.495887743201878e-06   -6.7491887609891655e-06
2.9873451374496946e-05   -1.495887743201878e-06   -6.7491887609891655e-06
3.176632448952514e-05   -3.473439726880273e-06   -4.379575603147428e-05
3.176632448952514e-05   -3.473439726880273e-06   -4.379575603147428e-05
3.176632448952514e-05   -3.473439726880273e-06   -4.379575603147428e-05
3.176632448952514e-05   -3.473439726880273e-06   -4.379575603147428e-05
1.1610277488293064e-05   3.1836828095046024e-08   -1.2305510295738823e-05
1.1610277488293064e-05   3.1836828095046024e-08   -1.2305510295738823e-05
1.1610277488293064e-05   3.1836828095046024e-08   -1.2305510295738823e-05
1.1610277488293064e-05   3.1836828095046024e-08   -1.2305510295738823e-05
1.9965242168202988e-05   -3.205009338755674e-06   -2.4288343728811997e-05
1.9965242168202988e-05   -3.205009338755674e-06   -2.4288343728811997e-05
1.9965242168202988e-05   -3.205009338755674e-06   -2.4288343728811997e-05
1.9965242168202988e-05   -3.205009338755674e-06   -2.4288343728811997e-05
-3.7888165455578844e-05   6.0991375735461664e-06   -3.548384397914834e-05
-3.7888165455578844e-05   6.0991375735461664e-06   -3.548384397914834e-05
-3.7888165455578844e-05   6.0991375735461664e-06   -3.548384397914834e-05
-3.7888165455578844e-05   6.0991375735461664e-06   -3.548384397914834e-05
-2.7956843999928853e-05   2.4881619807828794e-06   -2.1098226908722924e-05
-2.7956843999928853e-05   2.4881619807828794e-06   -2.1098226908722924e-05
-2.7956843999928853e-05   2.4881619807828794e-06   -2.1098226908722924e-05
-2.7956843999928853e-05   2.4881619807828794e-06   -2.1098226908722924e-05
-2.754460335455583e-05   7.761225777417821e-06   -3.1303041307059656e-05
-2.754460335455583e-05   7.761225777417821e-06   -3.1303041307059656e-05
-2.754460335455583e-05   7.761225777417821e-06   -3.1303041307059656e-05
-2.754460335455583e-05   7.761225777417821e-06   -3.1303041307059656e-05
-3.583177349626704e-05   3.871870305116728e-06   -1.5157477787493398e-05
-3.583177349626704e-05   3.871870305116728e-06   -1.5157477787493398e-05
-3.583177349626704e-05   3.871870305116728e-06   -1.5157477787493398e-05
-3.583177349626704e-05   3.871870305116728e-06   -1.5157477787493398e-05
-3.093658309725485e-05   5.470291380520122e-06   -2.4275181097757078e-05
-3.093658309725485e-05   5.470291380520122e-06   -2.4275181097757078e-05
-3.093658309725485e-05   5.470291380520122e-06   -2.4275181097757078e-05
-3.093658309725485e-05   5.470291380520122e-06   -2.4275181097757078e-05
-3.583177349626704e-05   7.761225777417821e-06   -2.8969428023679054e-05
-3.583177349626704e-05   7.761225777417821e-06   -2.8969428023679054e-05
-3.583177349626704e-05   7.761225777417821e-06   -2.8969428023679054e-05
-3.583177349626704e-05   7.761225777417821e-06   -2.8969428023679054e-05
-2.754460335455594e-05   3.871870305116945e-06   -1.749109107087419e-05
-2.754460335455594e-05   3.871870305116945e-06   -1.749109107087419e-05
-2.754460335455594e-05   3.871870305116945e-06   -1.749109107087419e-05
-2.754460335455594e-05   3.871870305116945e-06   -1.749109107087419e-05
-2.6956562400058236e-05   8.53511202169254e-06   -2.7952362553915417e-05
-2.6956562400058236e-05   8.53511202169254e-06   -2.7952362553915417e-05
-2.6956562400058236e-05   8.53511202169254e-06   -2.7952362553915417e-05
-2.6956562400058236e-05   8.53511202169254e-06   -2.7952362553915417e-05
-3.4190523093382543e-05   4.570411407719922e-06   -1.3516941029991219e-05
-3.4190523093382543e-05   4.570411407719922e-06   -1.3516941029991219e-05
-3.4190523093382543e-05   4.570411407719922e-06   -1.3516941029991219e-05
-3.4190523093382543e-05   4.570411407719922e-06   -1.3516941029991219e-05
-3.039371681051625e-05   6.2166925197846504e-06   -2.0832720168674078e-05
-3.039371681051625e-05   6.2166925197846504e-06   -2.0832720168674078e-05
-3.039371681051625e-05   6.2166925197846504e-06   -2.0832720168674078e-05
-3.039371681051625e-05   6.2166925197846504e-06   -2.0832720168674078e-05
-3.4190523093382435e-05   8.53511202169254e-06   -2.5573542185531966e-05
-3.4190523093382435e-05   8.53511202169254e-06   -2.5573542185531966e-05
-3.4190523093382435e-05   8.53511202169254e-06   -2.5573542185531966e-05
-3.4190523093382435e-05   8.53511202169254e-06   -2.5573542185531966e-05
-2.6956562400058236e-05   4.570411407719922e-06   -1.5895761398374968e-05
-2.6956562400058236e-05   4.570411407719922e-06   -1.5895761398374968e-05
-2.6956562400058236e-05   4.570411407719922e-06   -1.5895761398374968e-05
-2.6956562400058236e-05   4.570411407719922e-06   -1.5895761398374968e-05
-2.6555093449876193e-05   9.507456175632603e-06   -2.3652643646914287e-05
-2.6555093449876193e-05   9.507456175632603e-06   -2.3652643646914287e-05
-2.6555093449876193e-05   9.507456175632603e-06   -2.3652643646914287e-05
-2.6555093449876193e-05   9.507456175632603e-06   -2.3652643646914287e-05
-3.210039682800266e-05   5.676648080338992e-06   -1.2111986492860903e-05
-3.210039682800266e-05   5.676648080338992e-06   -1.2111986492860903e-05
-3.210039682800266e-05   5.676648080338992e-06   -1.2111986492860903e-05
-3.210039682800266e-05   5.676648080338992e-06   -1.2111986492860903e-05
-2.8972848301729798e-05   6.733255186678298e-06   -1.7958531633785842e-05
-2.8972848301729798e-05   6.733255186678298e-06   -1.7958531633785842e-05
-2.8972848301729798e-05   6.733255186678298e-06   -1.7958531633785842e-05
-2.8972848301729798e-05   6.733255186678298e-06   -1.7958531633785842e-05
-2.7956843999928853e-05   3.150634795015539e-06   -5.168995962737913e-05
-2.7956843999928853e-05   3.150634795015539e-06   -5.168995962737913e-05
-2.7956843999928853e-05   3.150634795015539e-06   -5.168995962737913e-05
-2.7956843999928853e-05   3.150634795015539e-06   -5.168995962737913e-05
-1.9889804579749815e-05   1.425378190376362e-06   -3.928004788986437e-05
-1.9889804579749815e-05   1.425378190376362e-06   -3.928004788986437e-05
-1.9889804579749815e-05   1.425378190376362e-06   -3.928004788986437e-05
-1.9889804579749815e-05   1.425378190376362e-06   -3.928004788986437e-05
-1.961916612587913e-05   4.904988934137291e-06   -5.152141569102881e-05
-1.961916612587913e-05   4.904988934137291e-06   -5.152141569102881e-05
-1.961916612587913e-05   4.904988934137291e-06   -5.152141569102881e-05
-1.961916612587913e-05   4.904988934137291e-06   -5.152141569102881e-05
-2.754460335455594e-05   3.0116992254700884e-06   -3.7176379818033346e-05
-2.754460335455594e-05   3.0116992254700884e-06   -3.7176379818033346e-05
-2.754460335455594e-05   3.0116992254700884e-06   -3.7176379818033346e-05
-2.754460335455594e-05   3.0116992254700884e-06   -3.7176379818033346e-05
-2.3521064834950187e-05   3.426764511662477e-06   -4.4131316522426285e-05
-2.3521064834950187e-05   3.426764511662477e-06   -4.4131316522426285e-05
-2.3521064834950187e-05   3.426764511662477e-06   -4.4131316522426285e-05
-2.3521064834950187e-05   3.426764511662477e-06   -4.4131316522426285e-05
-2.7544603354555776e-05   4.904988934137508e-06   -5.038544186582796e-05
-2.7544603354555776e-05   4.904988934137508e-06   -5.038544186582796e-05
-2.7544603354555776e-05   4.904988934137508e-06   -5.038544186582796e-05
-2.7544603354555776e-05   4.904988934137508e-06   -5.038544186582796e-05
-1.9619166125879183e-05   3.0116992254700884e-06   -3.831235364323398e-05
-1.9619166125879183e-05   3.0116992254700884e-06   -3.831235364323398e-05
-1.9619166125879183e-05   3.0116992254700884e-06   -3.831235364323398e-05
-1.9619166125879183e-05   3.0116992254700884e-06   -3.831235364323398e-05
-1.93203688598716e-05   6.500810330039176e-06   -5.068854943800303e-05
-1.93203688598716e-05   6.500810330039176e-06   -5.068854943800303e-05
-1.93203688598716e-05   6.500810330039176e-06   -5.068854943800303e-05
-1.93203688598716e-05   6.500810330039176e-06   -5.068854943800303e-05
-2.695656240005829e-05   4.486243127635372e-06   -3.675281988291582e-05
-2.695656240005829e-05   4.486243127635372e-06   -3.675281988291582e-05
-2.695656240005829e-05   4.486243127635372e-06   -3.675281988291582e-05
-2.695656240005829e-05   4.486243127635372e-06   -3.675281988291582e-05
-2.316554877073015e-05   4.70881738726624e-06   -4.320472048757447e-05
-2.316554877073015e-05   4.70881738726624e-06   -4.320472048757447e-05
-2.316554877073015e-05   4.70881738726624e-06   -4.320472048757447e-05
-2.316554877073015e-05   4.70881738726624e-06   -4.320472048757447e-05
-2.6956562400058236e-05   6.500810330039176e-06   -4.9479809116560216e-05
-2.6956562400058236e-05   6.500810330039176e-06   -4.9479809116560216e-05
-2.6956562400058236e-05   6.500810330039176e-06   -4.9479809116560216e-05
-2.6956562400058236e-05   6.500810330039176e-06   -4.9479809116560216e-05
-1.93203688598716e-05   4.486243127635372e-06   -3.79615602043582e-05
-1.93203688598716e-05   4.486243127635372e-06   -3.79615602043582e-05
-1.93203688598716e-05   4.486243127635372e-06   -3.79615602043582e-05
-1.93203688598716e-05   4.486243127635372e-06   -3.79615602043582e-05
-1.90543635047227e-05   8.233679930043977e-06   -5.117995743605984e-05
-1.90543635047227e-05   8.233679930043977e-06   -5.117995743605984e-05
-1.90543635047227e-05   8.233679930043977e-06   -5.117995743605984e-05
-1.90543635047227e-05   8.233679930043977e-06   -5.117995743605984e-05
-2.65550934498763e-05   6.124239651346657e-06   -3.7413076693585106e-05
-2.65550934498763e-05   6.124239651346657e-06   -3.7413076693585106e-05
-2.65550934498763e-05   6.124239651346657e-06   -3.7413076693585106e-05
-2.65550934498763e-05   6.124239651346657e-06   -3.7413076693585106e-05
-2.3025763900275478e-05   6.006846385694952e-06   -4.322485665019554e-05
-2.3025763900275478e-05   6.006846385694952e-06   -4.322485665019554e-05
-2.3025763900275478e-05   6.006846385694952e-06   -4.322485665019554e-05
-2.3025763900275478e-05   6.006846385694952e-06   -4.322485665019554e-05
-1.9889804579749734e-05   5.40784605734812e-07   -5.8443340871613734e-05
-1.9889804579749734e-05   5.40784605734812e-07   -5.8443340871613734e-05
-1.9889804579749734e-05   5.40784605734812e-07   -5.8443340871613734e-05
-1.9889804579749734e-05   5.40784605734812e-07   -5.8443340871613734e-05
-1.2030802005647813e-05   8.148465261280814e-07   -4.5180566095874846e-05
-1.2030802005647813e-05   8.148465261280814e-07   -4.5180566095874846e-05
-1.2030802005647813e-05   8.148465261280814e-07   -4.5180566095874846e-05
-1.2030802005647813e-05   8.148465261280814e-07   -4.5180566095874846e-05
-1.176687425896845e-05   2.3041109001725735e-06   -5.7710478641891084e-05
-1.176687425896845e-05   2.3041109001725735e-06   -5.7710478641891084e-05
-1.176687425896845e-05   2.3041109001725735e-06   -5.7710478641891084e-05
-1.176687425896845e-05   2.3041109001725735e-06   -5.7710478641891084e-05
-1.961916612587913e-05   2.429998489662886e-06   -4.469885808406726e-05
-1.961916612587913e-05   2.429998489662886e-06   -4.469885808406726e-05
-1.961916612587913e-05   2.429998489662886e-06   -4.469885808406726e-05
-1.961916612587913e-05   2.429998489662886e-06   -4.469885808406726e-05
-1.5725309658336993e-05   1.7469724971044993e-06   -5.0778803267770083e-05
-1.5725309658336993e-05   1.7469724971044993e-06   -5.0778803267770083e-05
-1.5725309658336993e-05   1.7469724971044993e-06   -5.0778803267770083e-05
-1.5725309658336993e-05   1.7469724971044993e-06   -5.0778803267770083e-05
-1.96191661258791e-05   2.3041109001725735e-06   -5.778601119558515e-05
-1.96191661258791e-05   2.3041109001725735e-06   -5.778601119558515e-05
-1.96191661258791e-05   2.3041109001725735e-06   -5.778601119558515e-05
-1.96191661258791e-05   2.3041109001725735e-06   -5.778601119558515e-05
-1.176687425896843e-05   2.429998489662886e-06   -4.462332553037288e-05
-1.176687425896843e-05   2.429998489662886e-06   -4.462332553037288e-05
-1.176687425896843e-05   2.429998489662886e-06   -4.462332553037288e-05
-1.176687425896843e-05   2.429998489662886e-06   -4.462332553037288e-05
-1.1470237855416727e-05   4.073065691206001e-06   -5.78616342651186e-05
-1.1470237855416727e-05   4.073065691206001e-06   -5.78616342651186e-05
-1.1470237855416727e-05   4.073065691206001e-06   -5.78616342651186e-05
-1.1470237855416727e-05   4.073065691206001e-06   -5.78616342651186e-05
-1.9320368859871573e-05   4.059324879440241e-06   -4.476983810396736e-05
-1.9320368859871573e-05   4.059324879440241e-06   -4.476983810396736e-05
-1.9320368859871573e-05   4.059324879440241e-06   -4.476983810396736e-05
-1.9320368859871573e-05   4.059324879440241e-06   -4.476983810396736e-05
-1.5547838104814192e-05   3.1342804993180146e-06   -5.0502362734323113e-05
-1.5547838104814192e-05   3.1342804993180146e-06   -5.0502362734323113e-05
-1.5547838104814192e-05   3.1342804993180146e-06   -5.0502362734323113e-05
-1.5547838104814192e-05   3.1342804993180146e-06   -5.0502362734323113e-05
-1.9320368859871546e-05   4.073065691206001e-06   -5.785338977805892e-05
-1.9320368859871546e-05   4.073065691206001e-06   -5.785338977805892e-05
-1.9320368859871546e-05   4.073065691206001e-06   -5.785338977805892e-05
-1.9320368859871546e-05   4.073065691206001e-06   -5.785338977805892e-05
-1.1470237855416707e-05   4.059324879440241e-06   -4.4778082591026775e-05
-1.1470237855416707e-05   4.059324879440241e-06   -4.4778082591026775e-05
-1.1470237855416707e-05   4.059324879440241e-06   -4.4778082591026775e-05
-1.1470237855416707e-05   4.059324879440241e-06   -4.4778082591026775e-05
-1.1203645585539492e-05   5.872949208995774e-06   -5.8835680976959204e-05
-1.1203645585539492e-05   5.872949208995774e-06   -5.8835680976959204e-05
-1.1203645585539492e-05   5.872949208995774e-06   -5.8835680976959204e-05
-1.1203645585539492e-05   5.872949208995774e-06   -5.8835680976959204e-05
-1.9054363504722726e-05   5.713211464340468e-06   -4.5655308464860665e-05
-1.9054363504722726e-05   5.713211464340468e-06   -4.5655308464860665e-05
-1.9054363504722726e-05   5.713211464340468e-06   -4.5655308464860665e-05
-1.9054363504722726e-05   5.713211464340468e-06   -4.5655308464860665e-05
-1.5400820336805607e-05   4.540023434628621e-06   -5.104063426022873e-05
-1.5400820336805607e-05   4.540023434628621e-06   -5.104063426022873e-05
-1.5400820336805607e-05   4.540023434628621e-06   -5.104063426022873e-05
-1.5400820336805607e-05   4.540023434628621e-06   -5.104063426022873e-05
-1.2030802005647772e-05   -1.8465020008048665e-06   -5.123035286602921e-05
-1.2030802005647772e-05   -1.8465020008048665e-06   -5.123035286602921e-05
-1.2030802005647772e-05   -1.8465020008048665e-06   -5.123035286602921e-05
-1.2030802005647772e-05   -1.8465020008048665e-06   -5.123035286602921e-05
-4.405374650843439e-06   3.4459607884903577e-07   -3.720664842689651e-05
-4.405374650843439e-06   3.4459607884903577e-07   -3.720664842689651e-05
-4.405374650843439e-06   3.4459607884903577e-07   -3.720664842689651e-05
-4.405374650843439e-06   3.4459607884903577e-07   -3.720664842689651e-05
-4.0117522799036805e-06   -1.861806016390053e-07   -4.9585722498740625e-05
-4.0117522799036805e-06   -1.861806016390053e-07   -4.9585722498740625e-05
-4.0117522799036805e-06   -1.861806016390053e-07   -4.9585722498740625e-05
-4.0117522799036805e-06   -1.861806016390053e-07   -4.9585722498740625e-05
-1.176687425896843e-05   1.9087132883835543e-06   -3.7917455534312145e-05
-1.176687425896843e-05   1.9087132883835543e-06   -3.7917455534312145e-05
-1.176687425896843e-05   1.9087132883835543e-06   -3.7917455534312145e-05
-1.176687425896843e-05   1.9087132883835543e-06   -3.7917455534312145e-05
-7.97246669501702e-06   2.1859942774351583e-07   -4.322739982451487e-05
-7.97246669501702e-06   2.1859942774351583e-07   -4.322739982451487e-05
-7.97246669501702e-06   2.1859942774351583e-07   -4.322739982451487e-05
-7.97246669501702e-06   2.1859942774351583e-07   -4.322739982451487e-05
-1.1766874258968409e-05   -1.861806016390053e-07   -5.084265883275392e-05
-1.1766874258968409e-05   -1.861806016390053e-07   -5.084265883275392e-05
-1.1766874258968409e-05   -1.861806016390053e-07   -5.084265883275392e-05
-1.1766874258968409e-05   -1.861806016390053e-07   -5.084265883275392e-05
-4.0117522799036805e-06   1.9087132883835543e-06   -3.666051920029917e-05
-4.0117522799036805e-06   1.9087132883835543e-06   -3.666051920029917e-05
-4.0117522799036805e-06   1.9087132883835543e-06   -3.666051920029917e-05
-4.0117522799036805e-06   1.9087132883835543e-06   -3.666051920029917e-05
-3.428507050336541e-06   1.4116213904098208e-06   -5.025525922155137e-05
-3.428507050336541e-06   1.4116213904098208e-06   -5.025525922155137e-05
-3.428507050336541e-06   1.4116213904098208e-06   -5.025525922155137e-05
-3.428507050336541e-06   1.4116213904098208e-06   -5.025525922155137e-05
-1.1470237855416707e-05   3.3830788754398485e-06   -3.803524903743581e-05
-1.1470237855416707e-05   3.3830788754398485e-06   -3.803524903743581e-05
-1.1470237855416707e-05   3.3830788754398485e-06   -3.803524903743581e-05
-1.1470237855416707e-05   3.3830788754398485e-06   -3.803524903743581e-05
-7.734122545795225e-06   1.4811975457838843e-06   -4.3120979089011425e-05
-7.734122545795225e-06   1.4811975457838843e-06   -4.3120979089011425e-05
-7.734122545795225e-06   1.4811975457838843e-06   -4.3120979089011425e-05
-7.734122545795225e-06   1.4811975457838843e-06   -4.3120979089011425e-05
-1.1470237855416688e-05   1.411621390409604e-06   -5.143813371256934e-05
-1.1470237855416688e-05   1.411621390409604e-06   -5.143813371256934e-05
-1.1470237855416688e-05   1.411621390409604e-06   -5.143813371256934e-05
-1.1470237855416688e-05   1.411621390409604e-06   -5.143813371256934e-05
-3.428507050336541e-06   3.3830788754398485e-06   -3.685237454641784e-05
-3.428507050336541e-06   3.3830788754398485e-06   -3.685237454641784e-05
-3.428507050336541e-06   3.3830788754398485e-06   -3.685237454641784e-05
-3.428507050336541e-06   3.3830788754398485e-06   -3.685237454641784e-05
-3.021087256556388e-06   3.243501946065871e-06   -5.1660949531542075e-05
-3.021087256556388e-06   3.243501946065871e-06   -5.1660949531542075e-05
-3.021087256556388e-06   3.243501946065871e-06   -5.1660949531542075e-05
-3.021087256556388e-06   3.243501946065871e-06   -5.1660949531542075e-05
-1.1203645585539492e-05   5.05072940270722e-06   -3.910768879055479e-05
-1.1203645585539492e-05   5.05072940270722e-06   -3.910768879055479e-05
-1.1203645585539492e-05   5.05072940270722e-06   -3.910768879055479e-05
-1.1203645585539492e-05   5.05072940270722e-06   -3.910768879055479e-05
-7.484407344421599e-06   2.805061786969134e-06   -4.395901862297533e-05
-7.484407344421599e-06   2.805061786969134e-06   -4.395901862297533e-05
-7.484407344421599e-06   2.805061786969134e-06   -4.395901862297533e-05
-7.484407344421599e-06   2.805061786969134e-06   -4.395901862297533e-05
-4.405374650843439e-06   -3.39625245065903e-06   -2.7809006449656026e-05
-4.405374650843439e-06   -3.39625245065903e-06   -2.7809006449656026e-05
-4.405374650843439e-06   -3.39625245065903e-06   -2.7809006449656026e-05
-4.405374650843439e-06   -3.39625245065903e-06   -2.7809006449656026e-05
1.2499421414072492e-06   4.737066012928514e-07   -1.6061503031400328e-05
1.2499421414072492e-06   4.737066012928514e-07   -1.6061503031400328e-05
1.2499421414072492e-06   4.737066012928514e-07   -1.6061503031400328e-05
1.2499421414072492e-06   4.737066012928514e-07   -1.6061503031400328e-05
3.3192941934005976e-06   -2.272400749570025e-06   -2.6569217134307383e-05
3.3192941934005976e-06   -2.272400749570025e-06   -2.6569217134307383e-05
3.3192941934005976e-06   -2.272400749570025e-06   -2.6569217134307383e-05
3.3192941934005976e-06   -2.272400749570025e-06   -2.6569217134307383e-05
-4.0117522799036805e-06   1.7094373890584776e-06   -1.6739909228643646e-05
-4.0117522799036805e-06   1.7094373890584776e-06   -1.6739909228643646e-05
-4.0117522799036805e-06   1.7094373890584776e-06   -1.6739909228643646e-05
-4.0117522799036805e-06   1.7094373890584776e-06   -1.6739909228643646e-05
-9.380153071602128e-07   -7.04015841661884e-07   -2.041473224478462e-05
-9.380153071602128e-07   -7.04015841661884e-07   -2.041473224478462e-05
-9.380153071602128e-07   -7.04015841661884e-07   -2.041473224478462e-05
-9.380153071602128e-07   -7.04015841661884e-07   -2.041473224478462e-05
-4.0117522799036805e-06   -2.272400749570025e-06   -2.895832001748418e-05
-4.0117522799036805e-06   -2.272400749570025e-06   -2.895832001748418e-05
-4.0117522799036805e-06   -2.272400749570025e-06   -2.895832001748418e-05
-4.0117522799036805e-06   -2.272400749570025e-06   -2.895832001748418e-05
3.3192941934005976e-06   1.7094373890584776e-06   -1.435080634546674e-05
3.3192941934005976e-06   1.7094373890584776e-06   -1.435080634546674e-05
3.3192941934005976e-06   1.7094373890584776e-06   -1.435080634546674e-05
3.3192941934005976e-06   1.7094373890584776e-06   -1.435080634546674e-05
4.953071742048369e-06   -1.495887743201878e-06   -2.802227046951565e-05
4.953071742048369e-06   -1.495887743201878e-06   -2.802227046951565e-05
4.953071742048369e-06   -1.495887743201878e-06   -2.802227046951565e-05
4.953071742048369e-06   -1.495887743201878e-06   -2.802227046951565e-05
-3.428507050336541e-06   2.40469206178452e-06   -1.639332036519885e-05
-3.428507050336541e-06   2.40469206178452e-06   -1.639332036519885e-05
-3.428507050336541e-06   2.40469206178452e-06   -1.639332036519885e-05
-3.428507050336541e-06   2.40469206178452e-06   -1.639332036519885e-05
1.1379935626592967e-07   -1.1282413750544722e-07   -2.0786654656629132e-05
1.1379935626592967e-07   -1.1282413750544722e-07   -2.0786654656629132e-05
1.1379935626592967e-07   -1.1282413750544722e-07   -2.0786654656629132e-05
1.1379935626592967e-07   -1.1282413750544722e-07   -2.0786654656629132e-05
-3.428507050336541e-06   -1.4958877432016612e-06   -3.0362618352507305e-05
-3.428507050336541e-06   -1.4958877432016612e-06   -3.0362618352507305e-05
-3.428507050336541e-06   -1.4958877432016612e-06   -3.0362618352507305e-05
-3.428507050336541e-06   -1.4958877432016612e-06   -3.0362618352507305e-05
4.953071742048369e-06   2.40469206178452e-06   -1.4052972482207033e-05
4.953071742048369e-06   2.40469206178452e-06   -1.4052972482207033e-05
4.953071742048369e-06   2.40469206178452e-06   -1.4052972482207033e-05
4.953071742048369e-06   2.40469206178452e-06   -1.4052972482207033e-05
7.013489632084818e-06   3.1836828094829184e-08   -3.139696248059766e-05
7.013489632084818e-06   3.1836828094829184e-08   -3.139696248059766e-05
7.013489632084818e-06   3.1836828094829184e-08   -3.139696248059766e-05
7.013489632084818e-06   3.1836828094829184e-08   -3.139696248059766e-05
-3.021087256556388e-06   3.6389553243569833e-06   -1.683693876395264e-05
-3.021087256556388e-06   3.6389553243569833e-06   -1.683693876395264e-05
-3.021087256556388e-06   3.6389553243569833e-06   -1.683693876395264e-05
-3.021087256556388e-06   3.6389553243569833e-06   -1.683693876395264e-05
1.0158690276820803e-06   5.633051667940439e-07   -2.1719809143145837e-05
1.0158690276820803e-06   5.633051667940439e-07   -2.1719809143145837e-05
1.0158690276820803e-06   5.633051667940439e-07   -2.1719809143145837e-05
1.0158690276820803e-06   5.633051667940439e-07   -2.1719809143145837e-05
-1.3235010356456257e-05   2.4881619807828794e-06   -2.3679142363891537e-05
-1.3235010356456257e-05   2.4881619807828794e-06   -2.3679142363891537e-05
-1.3235010356456257e-05   2.4881619807828794e-06   -2.3679142363891537e-05
-1.3235010356456257e-05   2.4881619807828794e-06   -2.3679142363891537e-05
-1.3378684223409518e-05   -1.1520200140736556e-06   -2.610270800572725e-05
-1.3378684223409518e-05   -1.1520200140736556e-06   -2.610270800572725e-05
-1.3378684223409518e-05   -1.1520200140736556e-06   -2.610270800572725e-05
-1.3378684223409518e-05   -1.1520200140736556e-06   -2.610270800572725e-05
-1.2706575992584381e-05   3.871870305116728e-06   -2.2247437749638166e-05
-1.2706575992584381e-05   3.871870305116728e-06   -2.2247437749638166e-05
-1.2706575992584381e-05   3.871870305116728e-06   -2.2247437749638166e-05
-1.2706575992584381e-05   3.871870305116728e-06   -2.2247437749638166e-05
-1.092892311610347e-05   -3.198137562112138e-08   -2.2867881535330176e-05
-1.092892311610347e-05   -3.198137562112138e-08   -2.2867881535330176e-05
-1.092892311610347e-05   -3.198137562112138e-08   -2.2867881535330176e-05
-1.092892311610347e-05   -3.198137562112138e-08   -2.2867881535330176e-05
-1.2013067523677196e-05   1.7127542913736781e-06   -2.210781558957184e-05
-1.2013067523677196e-05   1.7127542913736781e-06   -2.210781558957184e-05
-1.2013067523677196e-05   1.7127542913736781e-06   -2.210781558957184e-05
-1.2013067523677196e-05   1.7127542913736781e-06   -2.210781558957184e-05
-1.0928923116103415e-05   3.871870305116728e-06   -1.990512674119536e-05
-1.0928923116103415e-05   3.871870305116728e-06   -1.990512674119536e-05
-1.0928923116103415e-05   3.871870305116728e-06   -1.990512674119536e-05
-1.0928923116103415e-05   3.871870305116728e-06   -1.990512674119536e-05
-1.2706575992584436e-05   -3.1981375621555064e-08   -2.521019254377309e-05
-1.2706575992584436e-05   -3.1981375621555064e-08   -2.521019254377309e-05
-1.2706575992584436e-05   -3.1981375621555064e-08   -2.521019254377309e-05
-1.2706575992584436e-05   -3.1981375621555064e-08   -2.521019254377309e-05
-1.1859163114813726e-05   4.570411407719922e-06   -2.0646099355294207e-05
-1.1859163114813726e-05   4.570411407719922e-06   -2.0646099355294207e-05
-1.1859163114813726e-05   4.570411407719922e-06   -2.0646099355294207e-05
-1.1859163114813726e-05   4.570411407719922e-06   -2.0646099355294207e-05
-9.020752569107934e-06   6.009429889632968e-07   -2.299510254688314e-05
-9.020752569107934e-06   6.009429889632968e-07   -2.299510254688314e-05
-9.020752569107934e-06   6.009429889632968e-07   -2.299510254688314e-05
-9.020752569107934e-06   6.009429889632968e-07   -2.299510254688314e-05
-1.0920196702005579e-05   2.2874236406324622e-06   -2.0841250716389502e-05
-1.0920196702005579e-05   2.2874236406324622e-06   -2.0841250716389502e-05
-1.0920196702005579e-05   2.2874236406324622e-06   -2.0841250716389502e-05
-1.0920196702005579e-05   2.2874236406324622e-06   -2.0841250716389502e-05
-9.020752569107934e-06   4.570411407719922e-06   -1.826441830404021e-05
-9.020752569107934e-06   4.570411407719922e-06   -1.826441830404021e-05
-9.020752569107934e-06   4.570411407719922e-06   -1.826441830404021e-05
-9.020752569107934e-06   4.570411407719922e-06   -1.826441830404021e-05
-1.185916311481378e-05   6.009429889632968e-07   -2.5376783598136975e-05
-1.185916311481378e-05   6.009429889632968e-07   -2.5376783598136975e-05
-1.185916311481378e-05   6.009429889632968e-07   -2.5376783598136975e-05
-1.185916311481378e-05   6.009429889632968e-07   -2.5376783598136975e-05
-1.1197254063290813e-05   5.676648080338992e-06   -1.9155788160629076e-05
-1.1197254063290813e-05   5.676648080338992e-06   -1.9155788160629076e-05
-1.1197254063290813e-05   5.676648080338992e-06   -1.9155788160629076e-05
-1.1197254063290813e-05   5.676648080338992e-06   -1.9155788160629076e-05
-6.66477635053673e-06   1.8635002491250614e-06   -2.4422028983157634e-05
-6.66477635053673e-06   1.8635002491250614e-06   -2.4422028983157634e-05
-6.66477635053673e-06   1.8635002491250614e-06   -2.4422028983157634e-05
-6.66477635053673e-06   1.8635002491250614e-06   -2.4422028983157634e-05
-9.55337200389875e-06   2.8373012182601872e-06   -2.0191983475700885e-05
-9.55337200389875e-06   2.8373012182601872e-06   -2.0191983475700885e-05
-9.55337200389875e-06   2.8373012182601872e-06   -2.0191983475700885e-05
-9.55337200389875e-06   2.8373012182601872e-06   -2.0191983475700885e-05
-1.337868422340941e-05   1.425378190376362e-06   -4.3009918579162924e-05
-1.337868422340941e-05   1.425378190376362e-06   -4.3009918579162924e-05
-1.337868422340941e-05   1.425378190376362e-06   -4.3009918579162924e-05
-1.337868422340941e-05   1.425378190376362e-06   -4.3009918579162924e-05
-1.538846472919574e-05   -2.517332439188648e-07   -4.736581961605076e-05
-1.538846472919574e-05   -2.517332439188648e-07   -4.736581961605076e-05
-1.538846472919574e-05   -2.517332439188648e-07   -4.736581961605076e-05
-1.538846472919574e-05   -2.517332439188648e-07   -4.736581961605076e-05
-1.4844667752776815e-05   3.0116992254700884e-06   -4.304312361994608e-05
-1.4844667752776815e-05   3.0116992254700884e-06   -4.304312361994608e-05
-1.4844667752776815e-05   3.0116992254700884e-06   -4.304312361994608e-05
-1.4844667752776815e-05   3.0116992254700884e-06   -4.304312361994608e-05
-1.2706575992584436e-05   1.1610373535555357e-06   -4.549621276378447e-05
-1.2706575992584436e-05   1.1610373535555357e-06   -4.549621276378447e-05
-1.2706575992584436e-05   1.1610373535555357e-06   -4.549621276378447e-05
-1.2706575992584436e-05   1.1610373535555357e-06   -4.549621276378447e-05
-1.391553685589045e-05   1.6460369178180907e-06   -4.377227773016615e-05
-1.391553685589045e-05   1.6460369178180907e-06   -4.377227773016615e-05
-1.391553685589045e-05   1.6460369178180907e-06   -4.377227773016615e-05
-1.391553685589045e-05   1.6460369178180907e-06   -4.377227773016615e-05
-1.2706575992584436e-05   3.0116992254700884e-06   -4.1932726496797214e-05
-1.2706575992584436e-05   3.0116992254700884e-06   -4.1932726496797214e-05
-1.2706575992584436e-05   3.0116992254700884e-06   -4.1932726496797214e-05
-1.2706575992584436e-05   3.0116992254700884e-06   -4.1932726496797214e-05
-1.4844667752776788e-05   1.1610373535559694e-06   -4.660660988693331e-05
-1.4844667752776788e-05   1.1610373535559694e-06   -4.660660988693331e-05
-1.4844667752776788e-05   1.1610373535559694e-06   -4.660660988693331e-05
-1.4844667752776788e-05   1.1610373535559694e-06   -4.660660988693331e-05
-1.4279160201994889e-05   4.486243127635155e-06   -4.268243554768629e-05
-1.4279160201994889e-05   4.486243127635155e-06   -4.268243554768629e-05
-1.4279160201994889e-05   4.486243127635155e-06   -4.268243554768629e-05
-1.4279160201994889e-05   4.486243127635155e-06   -4.268243554768629e-05
-1.185916311481378e-05   2.5207802812161548e-06   -4.553648631846986e-05
-1.185916311481378e-05   2.5207802812161548e-06   -4.553648631846986e-05
-1.185916311481378e-05   2.5207802812161548e-06   -4.553648631846986e-05
-1.185916311481378e-05   2.5207802812161548e-06   -4.553648631846986e-05
-1.3370552605051036e-05   2.7844483779264004e-06   -4.317570469276736e-05
-1.3370552605051036e-05   2.7844483779264004e-06   -4.317570469276736e-05
-1.3370552605051036e-05   2.7844483779264004e-06   -4.317570469276736e-05
-1.3370552605051036e-05   2.7844483779264004e-06   -4.317570469276736e-05
-1.1859163114813726e-05   4.486243127635155e-06   -4.150315783983484e-05
-1.1859163114813726e-05   4.486243127635155e-06   -4.150315783983484e-05
-1.1859163114813726e-05   4.486243127635155e-06   -4.150315783983484e-05
-1.1859163114813726e-05   4.486243127635155e-06   -4.150315783983484e-05
-1.4279160201994862e-05   2.5207802812161548e-06   -4.6715764026321175e-05
-1.4279160201994862e-05   2.5207802812161548e-06   -4.6715764026321175e-05
-1.4279160201994862e-05   2.5207802812161548e-06   -4.6715764026321175e-05
-1.4279160201994862e-05   2.5207802812161548e-06   -4.6715764026321175e-05
-1.3746293371413453e-05   6.124239651346657e-06   -4.338913249403746e-05
-1.3746293371413453e-05   6.124239651346657e-06   -4.338913249403746e-05
-1.3746293371413453e-05   6.124239651346657e-06   -4.338913249403746e-05
-1.3746293371413453e-05   6.124239651346657e-06   -4.338913249403746e-05
-1.1197254063290813e-05   4.073008001579705e-06   -4.6406792351047976e-05
-1.1197254063290813e-05   4.073008001579705e-06   -4.6406792351047976e-05
-1.1197254063290813e-05   4.073008001579705e-06   -4.6406792351047976e-05
-1.1197254063290813e-05   4.073008001579705e-06   -4.6406792351047976e-05
-1.2890760988515197e-05   3.978131248216256e-06   -4.352735475698894e-05
-1.2890760988515197e-05   3.978131248216256e-06   -4.352735475698894e-05
-1.2890760988515197e-05   3.978131248216256e-06   -4.352735475698894e-05
-1.2890760988515197e-05   3.978131248216256e-06   -4.352735475698894e-05
-1.538846472919566e-05   8.148465261280814e-07   -5.0081140797986345e-05
-1.538846472919566e-05   8.148465261280814e-07   -5.0081140797986345e-05
-1.538846472919566e-05   8.148465261280814e-07   -5.0081140797986345e-05
-1.538846472919566e-05   8.148465261280814e-07   -5.0081140797986345e-05
-1.7508384339840995e-05   1.1685615000068227e-06   -5.340211116473489e-05
-1.7508384339840995e-05   1.1685615000068227e-06   -5.340211116473489e-05
-1.7508384339840995e-05   1.1685615000068227e-06   -5.340211116473489e-05
-1.7508384339840995e-05   1.1685615000068227e-06   -5.340211116473489e-05
-1.697378566166046e-05   2.4299984896631027e-06   -4.931070171600334e-05
-1.697378566166046e-05   2.4299984896631027e-06   -4.931070171600334e-05
-1.697378566166046e-05   2.4299984896631027e-06   -4.931070171600334e-05
-1.697378566166046e-05   2.4299984896631027e-06   -4.931070171600334e-05
-1.4844667752776788e-05   2.6282090642899304e-06   -5.2978157908918654e-05
-1.4844667752776788e-05   2.6282090642899304e-06   -5.2978157908918654e-05
-1.4844667752776788e-05   2.6282090642899304e-06   -5.2978157908918654e-05
-1.4844667752776788e-05   2.6282090642899304e-06   -5.2978157908918654e-05
-1.6081450788001556e-05   1.987581722251593e-06   -5.053247644498844e-05
-1.6081450788001556e-05   1.987581722251593e-06   -5.053247644498844e-05
-1.6081450788001556e-05   1.987581722251593e-06   -5.053247644498844e-05
-1.6081450788001556e-05   1.987581722251593e-06   -5.053247644498844e-05
-1.484466775277676e-05   2.4299984896631027e-06   -4.942962806077941e-05
-1.484466775277676e-05   2.4299984896631027e-06   -4.942962806077941e-05
-1.484466775277676e-05   2.4299984896631027e-06   -4.942962806077941e-05
-1.484466775277676e-05   2.4299984896631027e-06   -4.942962806077941e-05
-1.697378566166046e-05   2.6282090642899304e-06   -5.285923156414269e-05
-1.697378566166046e-05   2.6282090642899304e-06   -5.285923156414269e-05
-1.697378566166046e-05   2.6282090642899304e-06   -5.285923156414269e-05
-1.697378566166046e-05   2.6282090642899304e-06   -5.285923156414269e-05
-1.6411771431710296e-05   4.059324879440241e-06   -4.945428779043297e-05
-1.6411771431710296e-05   4.059324879440241e-06   -4.945428779043297e-05
-1.6411771431710296e-05   4.059324879440241e-06   -4.945428779043297e-05
-1.6411771431710296e-05   4.059324879440241e-06   -4.945428779043297e-05
-1.4279160201994862e-05   4.120034307544471e-06   -5.3045065496820794e-05
-1.4279160201994862e-05   4.120034307544471e-06   -5.3045065496820794e-05
-1.4279160201994862e-05   4.120034307544471e-06   -5.3045065496820794e-05
-1.4279160201994862e-05   4.120034307544471e-06   -5.3045065496820794e-05
-1.5632436137637726e-05   3.2358245359345164e-06   -5.0259079741117715e-05
-1.5632436137637726e-05   3.2358245359345164e-06   -5.0259079741117715e-05
-1.5632436137637726e-05   3.2358245359345164e-06   -5.0259079741117715e-05
-1.5632436137637726e-05   3.2358245359345164e-06   -5.0259079741117715e-05
-1.4279160201994835e-05   4.059324879440241e-06   -4.9490713447295466e-05
-1.4279160201994835e-05   4.059324879440241e-06   -4.9490713447295466e-05
-1.4279160201994835e-05   4.059324879440241e-06   -4.9490713447295466e-05
-1.4279160201994835e-05   4.059324879440241e-06   -4.9490713447295466e-05
-1.641177143171027e-05   4.120034307544471e-06   -5.3008639839958256e-05
-1.641177143171027e-05   4.120034307544471e-06   -5.3008639839958256e-05
-1.641177143171027e-05   4.120034307544471e-06   -5.3008639839958256e-05
-1.641177143171027e-05   4.120034307544471e-06   -5.3008639839958256e-05
-1.5881647179489225e-05   5.713211464340468e-06   -5.041414975410206e-05
-1.5881647179489225e-05   5.713211464340468e-06   -5.041414975410206e-05
-1.5881647179489225e-05   5.713211464340468e-06   -5.041414975410206e-05
-1.5881647179489225e-05   5.713211464340468e-06   -5.041414975410206e-05
-1.3746293371413453e-05   5.632462037660942e-06   -5.3924623111554115e-05
-1.3746293371413453e-05   5.632462037660942e-06   -5.3924623111554115e-05
-1.3746293371413453e-05   5.632462037660942e-06   -5.3924623111554115e-05
-1.3746293371413453e-05   5.632462037660942e-06   -5.3924623111554115e-05
-1.521892334747792e-05   4.501514740485441e-06   -5.07916714398073e-05
-1.521892334747792e-05   4.501514740485441e-06   -5.07916714398073e-05
-1.521892334747792e-05   4.501514740485441e-06   -5.07916714398073e-05
-1.521892334747792e-05   4.501514740485441e-06   -5.07916714398073e-05
-1.7508384339840965e-05   3.4459607884903577e-07   -4.320965299247338e-05
-1.7508384339840965e-05   3.4459607884903577e-07   -4.320965299247338e-05
-1.7508384339840965e-05   3.4459607884903577e-07   -4.320965299247338e-05
-1.7508384339840965e-05   3.4459607884903577e-07   -4.320965299247338e-05
-1.974437505401979e-05   2.5984842646439334e-06   -4.558397127129438e-05
-1.974437505401979e-05   2.5984842646439334e-06   -4.558397127129438e-05
-1.974437505401979e-05   2.5984842646439334e-06   -4.558397127129438e-05
-1.974437505401979e-05   2.5984842646439334e-06   -4.558397127129438e-05
-1.9098033958481086e-05   1.9087132883833374e-06   -4.131240415338139e-05
-1.9098033958481086e-05   1.9087132883833374e-06   -4.131240415338139e-05
-1.9098033958481086e-05   1.9087132883833374e-06   -4.131240415338139e-05
-1.9098033958481086e-05   1.9087132883833374e-06   -4.131240415338139e-05
-1.697378566166046e-05   4.062759232652431e-06   -4.614524554797696e-05
-1.697378566166046e-05   4.062759232652431e-06   -4.614524554797696e-05
-1.697378566166046e-05   4.062759232652431e-06   -4.614524554797696e-05
-1.697378566166046e-05   4.062759232652431e-06   -4.614524554797696e-05
-1.8189551389272143e-05   2.3919793831672555e-06   -4.311650142560053e-05
-1.8189551389272143e-05   2.3919793831672555e-06   -4.311650142560053e-05
-1.8189551389272143e-05   2.3919793831672555e-06   -4.311650142560053e-05
-1.8189551389272143e-05   2.3919793831672555e-06   -4.311650142560053e-05
-1.697378566166043e-05   1.9087132883833374e-06   -4.2604831719942525e-05
-1.697378566166043e-05   1.9087132883833374e-06   -4.2604831719942525e-05
-1.697378566166043e-05   1.9087132883833374e-06   -4.2604831719942525e-05
-1.697378566166043e-05   1.9087132883833374e-06   -4.2604831719942525e-05
-1.9098033958481086e-05   4.0627592326519975e-06   -4.485281798141585e-05
-1.9098033958481086e-05   4.0627592326519975e-06   -4.485281798141585e-05
-1.9098033958481086e-05   4.0627592326519975e-06   -4.485281798141585e-05
-1.9098033958481086e-05   4.0627592326519975e-06   -4.485281798141585e-05
-1.82639348439674e-05   3.3830788754398485e-06   -4.149293646335463e-05
-1.82639348439674e-05   3.3830788754398485e-06   -4.149293646335463e-05
-1.82639348439674e-05   3.3830788754398485e-06   -4.149293646335463e-05
-1.82639348439674e-05   3.3830788754398485e-06   -4.149293646335463e-05
-1.641177143171027e-05   5.413941831251996e-06   -4.579839325727006e-05
-1.641177143171027e-05   5.413941831251996e-06   -4.579839325727006e-05
-1.641177143171027e-05   5.413941831251996e-06   -4.579839325727006e-05
-1.641177143171027e-05   5.413941831251996e-06   -4.579839325727006e-05
-1.761198773094895e-05   3.553385123887206e-06   -4.2681698734120836e-05
-1.761198773094895e-05   3.553385123887206e-06   -4.2681698734120836e-05
-1.761198773094895e-05   3.553385123887206e-06   -4.2681698734120836e-05
-1.761198773094895e-05   3.553385123887206e-06   -4.2681698734120836e-05
-1.6411771431710242e-05   3.3830788754398485e-06   -4.27114542368419e-05
-1.6411771431710242e-05   3.3830788754398485e-06   -4.27114542368419e-05
-1.6411771431710242e-05   3.3830788754398485e-06   -4.27114542368419e-05
-1.6411771431710242e-05   3.3830788754398485e-06   -4.27114542368419e-05
-1.826393484396744e-05   5.413941831251996e-06   -4.4579875483782795e-05
-1.826393484396744e-05   5.413941831251996e-06   -4.4579875483782795e-05
-1.826393484396744e-05   5.413941831251996e-06   -4.4579875483782795e-05
-1.826393484396744e-05   5.413941831251996e-06   -4.4579875483782795e-05
-1.760837518088355e-05   5.05072940270722e-06   -4.2643858094538e-05
-1.760837518088355e-05   5.05072940270722e-06   -4.2643858094538e-05
-1.760837518088355e-05   5.05072940270722e-06   -4.2643858094538e-05
-1.760837518088355e-05   5.05072940270722e-06   -4.2643858094538e-05
-1.5881647179489225e-05   6.928778300149818e-06   -4.664856743532718e-05
-1.5881647179489225e-05   6.928778300149818e-06   -4.664856743532718e-05
-1.5881647179489225e-05   6.928778300149818e-06   -4.664856743532718e-05
-1.5881647179489225e-05   6.928778300149818e-06   -4.664856743532718e-05
-1.7178404332780497e-05   4.740820442337588e-06   -4.317453079848735e-05
-1.7178404332780497e-05   4.740820442337588e-06   -4.317453079848735e-05
-1.7178404332780497e-05   4.740820442337588e-06   -4.317453079848735e-05
-1.7178404332780497e-05   4.740820442337588e-06   -4.317453079848735e-05
-1.9744375054019708e-05   4.737066012928514e-07   -2.3034150116671382e-05
-1.9744375054019708e-05   4.737066012928514e-07   -2.3034150116671382e-05
-1.9744375054019708e-05   4.737066012928514e-07   -2.3034150116671382e-05
-1.9744375054019708e-05   4.737066012928514e-07   -2.3034150116671382e-05
-2.389064593642993e-05   4.364322075418609e-06   -2.7610232302879584e-05
-2.389064593642993e-05   4.364322075418609e-06   -2.7610232302879584e-05
-2.389064593642993e-05   4.364322075418609e-06   -2.7610232302879584e-05
-2.389064593642993e-05   4.364322075418609e-06   -2.7610232302879584e-05
-2.1602535079866714e-05   1.7094373890586944e-06   -1.900266443429974e-05
-2.1602535079866714e-05   1.7094373890586944e-06   -1.900266443429974e-05
-2.1602535079866714e-05   1.7094373890586944e-06   -1.900266443429974e-05
-2.1602535079866714e-05   1.7094373890586944e-06   -1.900266443429974e-05
-1.9098033958481046e-05   5.691320301436358e-06   -2.5565962717368895e-05
-1.9098033958481046e-05   5.691320301436358e-06   -2.5565962717368895e-05
-1.9098033958481046e-05   5.691320301436358e-06   -2.5565962717368895e-05
-1.9098033958481046e-05   5.691320301436358e-06   -2.5565962717368895e-05
-2.0230565304855188e-05   3.220894058018225e-06   -2.219615472736139e-05
-2.0230565304855188e-05   3.220894058018225e-06   -2.219615472736139e-05
-2.0230565304855188e-05   3.220894058018225e-06   -2.219615472736139e-05
-2.0230565304855188e-05   3.220894058018225e-06   -2.219615472736139e-05
-1.9098033958481005e-05   1.7094373890584776e-06   -2.139179418172586e-05
-1.9098033958481005e-05   1.7094373890584776e-06   -2.139179418172586e-05
-1.9098033958481005e-05   1.7094373890584776e-06   -2.139179418172586e-05
-1.9098033958481005e-05   1.7094373890584776e-06   -2.139179418172586e-05
-2.1602535079866714e-05   5.691320301436358e-06   -2.3176832969942556e-05
-2.1602535079866714e-05   5.691320301436358e-06   -2.3176832969942556e-05
-2.1602535079866714e-05   5.691320301436358e-06   -2.3176832969942556e-05
-2.1602535079866714e-05   5.691320301436358e-06   -2.3176832969942556e-05
-1.9741476184971702e-05   2.40469206178452e-06   -1.8697321217398303e-05
-1.9741476184971702e-05   2.40469206178452e-06   -1.8697321217398303e-05
-1.9741476184971702e-05   2.40469206178452e-06   -1.8697321217398303e-05
-1.9741476184971702e-05   2.40469206178452e-06   -1.8697321217398303e-05
-1.82639348439674e-05   6.298960503013998e-06   -2.3496451183809518e-05
-1.82639348439674e-05   6.298960503013998e-06   -2.3496451183809518e-05
-1.82639348439674e-05   6.298960503013998e-06   -2.3496451183809518e-05
-1.82639348439674e-05   6.298960503013998e-06   -2.3496451183809518e-05
-1.9251349286992446e-05   3.834665015877304e-06   -2.037218315315264e-05
-1.9251349286992446e-05   3.834665015877304e-06   -2.037218315315264e-05
-1.9251349286992446e-05   3.834665015877304e-06   -2.037218315315264e-05
-1.9251349286992446e-05   3.834665015877304e-06   -2.037218315315264e-05
-1.8263934843967372e-05   2.40469206178452e-06   -2.1033882282135913e-05
-1.8263934843967372e-05   2.40469206178452e-06   -2.1033882282135913e-05
-1.8263934843967372e-05   2.40469206178452e-06   -2.1033882282135913e-05
-1.8263934843967372e-05   2.40469206178452e-06   -2.1033882282135913e-05
-1.9741476184971702e-05   6.298960503013998e-06   -2.1159890119071744e-05
-1.9741476184971702e-05   6.298960503013998e-06   -2.1159890119071744e-05
-1.9741476184971702e-05   6.298960503013998e-06   -2.1159890119071744e-05
-1.9741476184971702e-05   6.298960503013998e-06   -2.1159890119071744e-05
-1.7466564797063554e-05   3.6389553243572e-06   -1.9295667392598553e-05
-1.7466564797063554e-05   3.6389553243572e-06   -1.9295667392598553e-05
-1.7466564797063554e-05   3.6389553243572e-06   -1.9295667392598553e-05
-1.7466564797063554e-05   3.6389553243572e-06   -1.9295667392598553e-05
-1.7608375180883538e-05   7.241917239894126e-06   -2.1221093902220396e-05
-1.7608375180883538e-05   7.241917239894126e-06   -2.1221093902220396e-05
-1.7608375180883538e-05   7.241917239894126e-06   -2.1221093902220396e-05
-1.7608375180883538e-05   7.241917239894126e-06   -2.1221093902220396e-05
-1.7815373035579387e-05   4.331789476197303e-06   -1.913002081950938e-05
-1.7815373035579387e-05   4.331789476197303e-06   -1.913002081950938e-05
-1.7815373035579387e-05   4.331789476197303e-06   -1.913002081950938e-05
-1.7815373035579387e-05   4.331789476197303e-06   -1.913002081950938e-05
1.1637786695088085e-05   -1.1520200140736556e-06   -1.2021123698255278e-05
1.1637786695088085e-05   -1.1520200140736556e-06   -1.2021123698255278e-05
1.1637786695088085e-05   -1.1520200140736556e-06   -1.2021123698255278e-05
1.1637786695088085e-05   -1.1520200140736556e-06   -1.2021123698255278e-05
1.1877765455374956e-06   -4.860236748685954e-06   -3.166273732160699e-05
1.1877765455374956e-06   -4.860236748685954e-06   -3.166273732160699e-05
1.1877765455374956e-06   -4.860236748685954e-06   -3.166273732160699e-05
1.1877765455374956e-06   -4.860236748685954e-06   -3.166273732160699e-05
2.1096926833337904e-06   -3.198137562112138e-08   -1.3273318479971406e-05
2.1096926833337904e-06   -3.198137562112138e-08   -1.3273318479971406e-05
2.1096926833337904e-06   -3.198137562112138e-08   -1.3273318479971406e-05
2.1096926833337904e-06   -3.198137562112138e-08   -1.3273318479971406e-05
1.4206736798724035e-05   -3.993225135990892e-06   -3.105831241606658e-05
1.4206736798724035e-05   -3.993225135990892e-06   -3.105831241606658e-05
1.4206736798724035e-05   -3.993225135990892e-06   -3.105831241606658e-05
1.4206736798724035e-05   -3.993225135990892e-06   -3.105831241606658e-05
7.014475835290127e-06   -2.026430085386383e-06   -2.0251287840706233e-05
7.014475835290127e-06   -2.026430085386383e-06   -2.0251287840706233e-05
7.014475835290127e-06   -2.026430085386383e-06   -2.0251287840706233e-05
7.014475835290127e-06   -2.026430085386383e-06   -2.0251287840706233e-05
1.420673679872409e-05   -3.198137562112138e-08   -1.089657222374976e-05
1.420673679872409e-05   -3.198137562112138e-08   -1.089657222374976e-05
1.420673679872409e-05   -3.198137562112138e-08   -1.089657222374976e-05
1.420673679872409e-05   -3.198137562112138e-08   -1.089657222374976e-05
2.1096926833337904e-06   -3.993225135990458e-06   -3.343505867228877e-05
2.1096926833337904e-06   -3.993225135990458e-06   -3.343505867228877e-05
2.1096926833337904e-06   -3.993225135990458e-06   -3.343505867228877e-05
2.1096926833337904e-06   -3.993225135990458e-06   -3.343505867228877e-05
3.1961172949360943e-06   6.009429889632968e-07   -1.337253592285188e-05
3.1961172949360943e-06   6.009429889632968e-07   -1.337253592285188e-05
3.1961172949360943e-06   6.009429889632968e-07   -1.337253592285188e-05
3.1961172949360943e-06   6.009429889632968e-07   -1.337253592285188e-05
1.637936894703521e-05   -3.4159896221811793e-06   -3.293446244299631e-05
1.637936894703521e-05   -3.4159896221811793e-06   -3.293446244299631e-05
1.637936894703521e-05   -3.4159896221811793e-06   -3.293446244299631e-05
1.637936894703521e-05   -3.4159896221811793e-06   -3.293446244299631e-05
8.64489462567067e-06   -1.621787772694127e-06   -2.1120193017082204e-05
8.64489462567067e-06   -1.621787772694127e-06   -2.1120193017082204e-05
8.64489462567067e-06   -1.621787772694127e-06   -2.1120193017082204e-05
8.64489462567067e-06   -1.621787772694127e-06   -2.1120193017082204e-05
1.637936894703521e-05   6.009429889632968e-07   -1.0962376356164598e-05
1.637936894703521e-05   6.009429889632968e-07   -1.0962376356164598e-05
1.637936894703521e-05   6.009429889632968e-07   -1.0962376356164598e-05
1.637936894703521e-05   6.009429889632968e-07   -1.0962376356164598e-05
3.1961172949360943e-06   -3.415989622181613e-06   -3.534462200968332e-05
3.1961172949360943e-06   -3.415989622181613e-06   -3.534462200968332e-05
3.1961172949360943e-06   -3.415989622181613e-06   -3.534462200968332e-05
3.1961172949360943e-06   -3.415989622181613e-06   -3.534462200968332e-05
4.091381277522316e-06   1.8635002491254951e-06   -1.4646302699293902e-05
4.091381277522316e-06   1.8635002491254951e-06   -1.4646302699293902e-05
4.091381277522316e-06   1.8635002491254951e-06   -1.4646302699293902e-05
4.091381277522316e-06   1.8635002491254951e-06   -1.4646302699293902e-05
1.8989142390682433e-05   -1.9607332270069576e-06   -3.7181364468881354e-05
1.8989142390682433e-05   -1.9607332270069576e-06   -3.7181364468881354e-05
1.8989142390682433e-05   -1.9607332270069576e-06   -3.7181364468881354e-05
1.8989142390682433e-05   -1.9607332270069576e-06   -3.7181364468881354e-05
9.943972841055214e-06   -1.0282662468313625e-06   -2.266556207427471e-05
9.943972841055214e-06   -1.0282662468313625e-06   -2.266556207427471e-05
9.943972841055214e-06   -1.0282662468313625e-06   -2.266556207427471e-05
9.943972841055214e-06   -1.0282662468313625e-06   -2.266556207427471e-05
1.1877765455375498e-06   -2.517332439188648e-07   -3.4502898488769336e-05
1.1877765455375498e-06   -2.517332439188648e-07   -3.4502898488769336e-05
1.1877765455375498e-06   -2.517332439188648e-07   -3.4502898488769336e-05
1.1877765455375498e-06   -2.517332439188648e-07   -3.4502898488769336e-05
-1.1021962676884337e-05   -1.925697089980201e-06   -5.585684216710869e-05
-1.1021962676884337e-05   -1.925697089980201e-06   -5.585684216710869e-05
-1.1021962676884337e-05   -1.925697089980201e-06   -5.585684216710869e-05
-1.1021962676884337e-05   -1.925697089980201e-06   -5.585684216710869e-05
-1.021259360731901e-05   1.1610373535559694e-06   -3.4698677149621205e-05
-1.021259360731901e-05   1.1610373535559694e-06   -3.4698677149621205e-05
-1.021259360731901e-05   1.1610373535559694e-06   -3.4698677149621205e-05
-1.021259360731901e-05   1.1610373535559694e-06   -3.4698677149621205e-05
2.1096926833337904e-06   -7.378600625075442e-07   -5.409648251773779e-05
2.1096926833337904e-06   -7.378600625075442e-07   -5.409648251773779e-05
2.1096926833337904e-06   -7.378600625075442e-07   -5.409648251773779e-05
2.1096926833337904e-06   -7.378600625075442e-07   -5.409648251773779e-05
-4.3804250258911185e-06   -7.511767644604976e-08   -4.3677265100666403e-05
-4.3804250258911185e-06   -7.511767644604976e-08   -4.3677265100666403e-05
-4.3804250258911185e-06   -7.511767644604976e-08   -4.3677265100666403e-05
-4.3804250258911185e-06   -7.511767644604976e-08   -4.3677265100666403e-05
2.1096926833337904e-06   1.1610373535555357e-06   -3.3559338699982945e-05
2.1096926833337904e-06   1.1610373535555357e-06   -3.3559338699982945e-05
2.1096926833337904e-06   1.1610373535555357e-06   -3.3559338699982945e-05
2.1096926833337904e-06   1.1610373535555357e-06   -3.3559338699982945e-05
-1.021259360731901e-05   -7.378600625075442e-07   -5.523582096737616e-05
-1.021259360731901e-05   -7.378600625075442e-07   -5.523582096737616e-05
-1.021259360731901e-05   -7.378600625075442e-07   -5.523582096737616e-05
-1.021259360731901e-05   -7.378600625075442e-07   -5.523582096737616e-05
-9.39863719179158e-06   2.5207802812161548e-06   -3.475063864242741e-05
-9.39863719179158e-06   2.5207802812161548e-06   -3.475063864242741e-05
-9.39863719179158e-06   2.5207802812161548e-06   -3.475063864242741e-05
-9.39863719179158e-06   2.5207802812161548e-06   -3.475063864242741e-05
3.1961172949360943e-06   4.901136158113294e-07   -5.4523496121063834e-05
3.1961172949360943e-06   4.901136158113294e-07   -5.4523496121063834e-05
3.1961172949360943e-06   4.901136158113294e-07   -5.4523496121063834e-05
3.1961172949360943e-06   4.901136158113294e-07   -5.4523496121063834e-05
-3.6631094254846192e-06   8.999287855033199e-07   -4.3337340688844386e-05
-3.6631094254846192e-06   8.999287855033199e-07   -4.3337340688844386e-05
-3.6631094254846192e-06   8.999287855033199e-07   -4.3337340688844386e-05
-3.6631094254846192e-06   8.999287855033199e-07   -4.3337340688844386e-05
3.1961172949360943e-06   2.5207802812161548e-06   -3.353223864318455e-05
3.1961172949360943e-06   2.5207802812161548e-06   -3.353223864318455e-05
3.1961172949360943e-06   2.5207802812161548e-06   -3.353223864318455e-05
3.1961172949360943e-06   2.5207802812161548e-06   -3.353223864318455e-05
-9.39863719179158e-06   4.901136158113294e-07   -5.574189612030675e-05
-9.39863719179158e-06   4.901136158113294e-07   -5.574189612030675e-05
-9.39863719179158e-06   4.901136158113294e-07   -5.574189612030675e-05
-9.39863719179158e-06   4.901136158113294e-07   -5.574189612030675e-05
-8.62068093565886e-06   4.073008001579705e-06   -3.56206288785767e-05
-8.62068093565886e-06   4.073008001579705e-06   -3.56206288785767e-05
-8.62068093565886e-06   4.073008001579705e-06   -3.56206288785767e-05
-8.62068093565886e-06   4.073008001579705e-06   -3.56206288785767e-05
4.091381277522316e-06   1.943922151378605e-06   -5.5529947723758103e-05
4.091381277522316e-06   1.943922151378605e-06   -5.5529947723758103e-05
4.091381277522316e-06   1.943922151378605e-06   -5.5529947723758103e-05
4.091381277522316e-06   1.943922151378605e-06   -5.5529947723758103e-05
-2.864835676233716e-06   1.980329655994076e-06   -4.395809730360081e-05
-2.864835676233716e-06   1.980329655994076e-06   -4.395809730360081e-05
-2.864835676233716e-06   1.980329655994076e-06   -4.395809730360081e-05
-2.864835676233716e-06   1.980329655994076e-06   -4.395809730360081e-05
-1.1021962676884337e-05   1.1685615000068227e-06   -4.1755797329417045e-05
-1.1021962676884337e-05   1.1685615000068227e-06   -4.1755797329417045e-05
-1.1021962676884337e-05   1.1685615000068227e-06   -4.1755797329417045e-05
-1.1021962676884337e-05   1.1685615000068227e-06   -4.1755797329417045e-05
-2.3126945383303107e-05   1.4732575205653013e-06   -6.174795089444653e-05
-2.3126945383303107e-05   1.4732575205653013e-06   -6.174795089444653e-05
-2.3126945383303107e-05   1.4732575205653013e-06   -6.174795089444653e-05
-2.3126945383303107e-05   1.4732575205653013e-06   -6.174795089444653e-05
-2.231167304409888e-05   2.628209064290364e-06   -4.1009473150499954e-05
-2.231167304409888e-05   2.628209064290364e-06   -4.1009473150499954e-05
-2.231167304409888e-05   2.628209064290364e-06   -4.1009473150499954e-05
-2.231167304409888e-05   2.628209064290364e-06   -4.1009473150499954e-05
-1.0212593607319037e-05   2.7294624328011788e-06   -6.123535756624005e-05
-1.0212593607319037e-05   2.7294624328011788e-06   -6.123535756624005e-05
-1.0212593607319037e-05   2.7294624328011788e-06   -6.123535756624005e-05
-1.0212593607319037e-05   2.7294624328011788e-06   -6.123535756624005e-05
-1.657174260218428e-05   2.2562241581700667e-06   -5.035283294335235e-05
-1.657174260218428e-05   2.2562241581700667e-06   -5.035283294335235e-05
-1.657174260218428e-05   2.2562241581700667e-06   -5.035283294335235e-05
-1.657174260218428e-05   2.2562241581700667e-06   -5.035283294335235e-05
-1.0212593607319037e-05   2.628209064290364e-06   -4.107022517160694e-05
-1.0212593607319037e-05   2.628209064290364e-06   -4.107022517160694e-05
-1.0212593607319037e-05   2.628209064290364e-06   -4.107022517160694e-05
-1.0212593607319037e-05   2.628209064290364e-06   -4.107022517160694e-05
-2.2311673044098844e-05   2.7294624328011788e-06   -6.117460554513334e-05
-2.2311673044098844e-05   2.7294624328011788e-06   -6.117460554513334e-05
-2.2311673044098844e-05   2.7294624328011788e-06   -6.117460554513334e-05
-2.2311673044098844e-05   2.7294624328011788e-06   -6.117460554513334e-05
-2.148351691235449e-05   4.120034307544904e-06   -4.111614785330328e-05
-2.148351691235449e-05   4.120034307544904e-06   -4.111614785330328e-05
-2.148351691235449e-05   4.120034307544904e-06   -4.111614785330328e-05
-2.148351691235449e-05   4.120034307544904e-06   -4.111614785330328e-05
-9.398637191791607e-06   4.059688073584488e-06   -6.122140631386556e-05
-9.398637191791607e-06   4.059688073584488e-06   -6.122140631386556e-05
-9.398637191791607e-06   4.059688073584488e-06   -6.122140631386556e-05
-9.398637191791607e-06   4.059688073584488e-06   -6.122140631386556e-05
-1.585401846564682e-05   3.352417245086007e-06   -5.003807502700845e-05
-1.585401846564682e-05   3.352417245086007e-06   -5.003807502700845e-05
-1.585401846564682e-05   3.352417245086007e-06   -5.003807502700845e-05
-1.585401846564682e-05   3.352417245086007e-06   -5.003807502700845e-05
-9.398637191791607e-06   4.120034307544904e-06   -4.107994011292718e-05
-9.398637191791607e-06   4.120034307544904e-06   -4.107994011292718e-05
-9.398637191791607e-06   4.120034307544904e-06   -4.107994011292718e-05
-9.398637191791607e-06   4.120034307544904e-06   -4.107994011292718e-05
-2.148351691235445e-05   4.059688073584488e-06   -6.125761405424137e-05
-2.148351691235445e-05   4.059688073584488e-06   -6.125761405424137e-05
-2.148351691235445e-05   4.059688073584488e-06   -6.125761405424137e-05
-2.148351691235445e-05   4.059688073584488e-06   -6.125761405424137e-05
-2.0693779683415412e-05   5.632462037660942e-06   -4.20394711272312e-05
-2.0693779683415412e-05   5.632462037660942e-06   -4.20394711272312e-05
-2.0693779683415412e-05   5.632462037660942e-06   -4.20394711272312e-05
-2.0693779683415412e-05   5.632462037660942e-06   -4.20394711272312e-05
-8.62068093565886e-06   5.412877907646531e-06   -6.202955189548343e-05
-8.62068093565886e-06   5.412877907646531e-06   -6.202955189548343e-05
-8.62068093565886e-06   5.412877907646531e-06   -6.202955189548343e-05
-8.62068093565886e-06   5.412877907646531e-06   -6.202955189548343e-05
-1.5186099383519602e-05   4.465224954894494e-06   -5.0518596044064196e-05
-1.5186099383519602e-05   4.465224954894494e-06   -5.0518596044064196e-05
-1.5186099383519602e-05   4.465224954894494e-06   -5.0518596044064196e-05
-1.5186099383519602e-05   4.465224954894494e-06   -5.0518596044064196e-05
-2.312694538330315e-05   2.598484264644367e-06   -3.510717273511868e-05
-2.312694538330315e-05   2.598484264644367e-06   -3.510717273511868e-05
-2.312694538330315e-05   2.598484264644367e-06   -3.510717273511868e-05
-2.312694538330315e-05   2.598484264644367e-06   -3.510717273511868e-05
-3.508303928603623e-05   4.770849815307395e-06   -5.3730576575942686e-05
-3.508303928603623e-05   4.770849815307395e-06   -5.3730576575942686e-05
-3.508303928603623e-05   4.770849815307395e-06   -5.3730576575942686e-05
-3.508303928603623e-05   4.770849815307395e-06   -5.3730576575942686e-05
-3.4151886549449716e-05   4.062759232652431e-06   -3.306613311214999e-05
-3.4151886549449716e-05   4.062759232652431e-06   -3.306613311214999e-05
-3.4151886549449716e-05   4.062759232652431e-06   -3.306613311214999e-05
-3.4151886549449716e-05   4.062759232652431e-06   -3.306613311214999e-05
-2.2311673044098844e-05   6.111682602959884e-06   -5.402917630991928e-05
-2.2311673044098844e-05   6.111682602959884e-06   -5.402917630991928e-05
-2.2311673044098844e-05   6.111682602959884e-06   -5.402917630991928e-05
-2.2311673044098844e-05   6.111682602959884e-06   -5.402917630991928e-05
-2.846988699780842e-05   4.560574299544359e-06   -4.2834821405020665e-05
-2.846988699780842e-05   4.560574299544359e-06   -4.2834821405020665e-05
-2.846988699780842e-05   4.560574299544359e-06   -4.2834821405020665e-05
-2.846988699780842e-05   4.560574299544359e-06   -4.2834821405020665e-05
-2.231167304409888e-05   4.0627592326519975e-06   -3.4295487134334386e-05
-2.231167304409888e-05   4.0627592326519975e-06   -3.4295487134334386e-05
-2.231167304409888e-05   4.0627592326519975e-06   -3.4295487134334386e-05
-2.231167304409888e-05   4.0627592326519975e-06   -3.4295487134334386e-05
-3.415188654944977e-05   6.11168260295945e-06   -5.279982228773494e-05
-3.415188654944977e-05   6.11168260295945e-06   -5.279982228773494e-05
-3.415188654944977e-05   6.11168260295945e-06   -5.279982228773494e-05
-3.415188654944977e-05   6.11168260295945e-06   -5.279982228773494e-05
-3.303806561474834e-05   5.413941831251996e-06   -3.27624218396539e-05
-3.303806561474834e-05   5.413941831251996e-06   -3.27624218396539e-05
-3.303806561474834e-05   5.413941831251996e-06   -3.27624218396539e-05
-3.303806561474834e-05   5.413941831251996e-06   -3.27624218396539e-05
-2.148351691235449e-05   7.319740882854187e-06   -5.3163482441271346e-05
-2.148351691235449e-05   7.319740882854187e-06   -5.3163482441271346e-05
-2.148351691235449e-05   7.319740882854187e-06   -5.3163482441271346e-05
-2.148351691235449e-05   7.319740882854187e-06   -5.3163482441271346e-05
-2.7531954365276908e-05   5.618918932666275e-06   -4.206226018295541e-05
-2.7531954365276908e-05   5.618918932666275e-06   -4.206226018295541e-05
-2.7531954365276908e-05   5.618918932666275e-06   -4.206226018295541e-05
-2.7531954365276908e-05   5.618918932666275e-06   -4.206226018295541e-05
-2.148351691235449e-05   5.413941831251996e-06   -3.3905901270615005e-05
-2.148351691235449e-05   5.413941831251996e-06   -3.3905901270615005e-05
-2.148351691235449e-05   5.413941831251996e-06   -3.3905901270615005e-05
-2.148351691235449e-05   5.413941831251996e-06   -3.3905901270615005e-05
-3.303806561474834e-05   7.319740882854187e-06   -5.202000301031016e-05
-3.303806561474834e-05   7.319740882854187e-06   -5.202000301031016e-05
-3.303806561474834e-05   7.319740882854187e-06   -5.202000301031016e-05
-3.303806561474834e-05   7.319740882854187e-06   -5.202000301031016e-05
-3.2109840477862844e-05   6.9287783001493845e-06   -3.3669023169597594e-05
-3.2109840477862844e-05   6.9287783001493845e-06   -3.3669023169597594e-05
-3.2109840477862844e-05   6.9287783001493845e-06   -3.3669023169597594e-05
-3.2109840477862844e-05   6.9287783001493845e-06   -3.3669023169597594e-05
-2.0693779683415412e-05   8.672016009147934e-06   -5.374173378574262e-05
-2.0693779683415412e-05   8.672016009147934e-06   -5.374173378574262e-05
-2.0693779683415412e-05   8.672016009147934e-06   -5.374173378574262e-05
-2.0693779683415412e-05   8.672016009147934e-06   -5.374173378574262e-05
-2.6902292016160846e-05   6.66212881947131e-06   -4.218828091736063e-05
-2.6902292016160846e-05   6.66212881947131e-06   -4.218828091736063e-05
-2.6902292016160846e-05   6.66212881947131e-06   -4.218828091736063e-05
-2.6902292016160846e-05   6.66212881947131e-06   -4.218828091736063e-05
-3.508303928603623e-05   4.364322075418609e-06   -1.816438372078164e-05
-3.508303928603623e-05   4.364322075418609e-06   -1.816438372078164e-05
-3.508303928603623e-05   4.364322075418609e-06   -1.816438372078164e-05
-3.508303928603623e-05   4.364322075418609e-06   -1.816438372078164e-05
-4.8704112287442284e-05   8.201338384237079e-06   -3.85639622711674e-05
-4.8704112287442284e-05   8.201338384237079e-06   -3.85639622711674e-05
-4.8704112287442284e-05   8.201338384237079e-06   -3.85639622711674e-05
-4.8704112287442284e-05   8.201338384237079e-06   -3.85639622711674e-05
-4.615174354248217e-05   5.691320301436358e-06   -1.1438338779199472e-05
-4.615174354248217e-05   5.691320301436358e-06   -1.1438338779199472e-05
-4.615174354248217e-05   5.691320301436358e-06   -1.1438338779199472e-05
-4.615174354248217e-05   5.691320301436358e-06   -1.1438338779199472e-05
-3.4151886549449716e-05   9.592885416275562e-06   -3.3779039503157096e-05
-3.4151886549449716e-05   9.592885416275562e-06   -3.3779039503157096e-05
-3.4151886549449716e-05   9.592885416275562e-06   -3.3779039503157096e-05
-3.4151886549449716e-05   9.592885416275562e-06   -3.3779039503157096e-05
-3.935361677165895e-05   7.122373521411965e-06   -2.362718199589017e-05
-3.935361677165895e-05   7.122373521411965e-06   -2.362718199589017e-05
-3.935361677165895e-05   7.122373521411965e-06   -2.362718199589017e-05
-3.935361677165895e-05   7.122373521411965e-06   -2.362718199589017e-05
-3.415188654944974e-05   5.691320301436358e-06   -1.3779277848102983e-05
-3.415188654944974e-05   5.691320301436358e-06   -1.3779277848102983e-05
-3.415188654944974e-05   5.691320301436358e-06   -1.3779277848102983e-05
-3.415188654944974e-05   5.691320301436358e-06   -1.3779277848102983e-05
-4.6151743542482005e-05   9.592885416275562e-06   -3.143810043425353e-05
-4.6151743542482005e-05   9.592885416275562e-06   -3.143810043425353e-05
-4.6151743542482005e-05   9.592885416275562e-06   -3.143810043425353e-05
-4.6151743542482005e-05   9.592885416275562e-06   -3.143810043425353e-05
-4.4042145216484694e-05   6.298960503013998e-06   -9.403581321380848e-06
-4.4042145216484694e-05   6.298960503013998e-06   -9.403581321380848e-06
-4.4042145216484694e-05   6.298960503013998e-06   -9.403581321380848e-06
-4.4042145216484694e-05   6.298960503013998e-06   -9.403581321380848e-06
-3.3038065614748286e-05   1.0091320866845947e-05   -3.0019130209240795e-05
-3.3038065614748286e-05   1.0091320866845947e-05   -3.0019130209240795e-05
-3.3038065614748286e-05   1.0091320866845947e-05   -3.0019130209240795e-05
-3.3038065614748286e-05   1.0091320866845947e-05   -3.0019130209240795e-05
-3.841513020804262e-05   7.747427299701704e-06   -1.9651019746797166e-05
-3.841513020804262e-05   7.747427299701704e-06   -1.9651019746797166e-05
-3.841513020804262e-05   7.747427299701704e-06   -1.9651019746797166e-05
-3.841513020804262e-05   7.747427299701704e-06   -1.9651019746797166e-05
-3.303806561474834e-05   6.298960503013998e-06   -1.16789975396803e-05
-3.303806561474834e-05   6.298960503013998e-06   -1.16789975396803e-05
-3.303806561474834e-05   6.298960503013998e-06   -1.16789975396803e-05
-3.303806561474834e-05   6.298960503013998e-06   -1.16789975396803e-05
-4.404214521648461e-05   1.0091320866845947e-05   -2.774371399094167e-05
-4.404214521648461e-05   1.0091320866845947e-05   -2.774371399094167e-05
-4.404214521648461e-05   1.0091320866845947e-05   -2.774371399094167e-05
-4.404214521648461e-05   1.0091320866845947e-05   -2.774371399094167e-05
-4.154870332361899e-05   7.2419172398945596e-06   -7.2785555996735755e-06
-4.154870332361899e-05   7.2419172398945596e-06   -7.2785555996735755e-06
-4.154870332361899e-05   7.2419172398945596e-06   -7.2785555996735755e-06
-4.154870332361899e-05   7.2419172398945596e-06   -7.2785555996735755e-06
-3.210984047786282e-05   1.0724956198698496e-05   -2.5099817051216396e-05
-3.210984047786282e-05   1.0724956198698496e-05   -2.5099817051216396e-05
-3.210984047786282e-05   1.0724956198698496e-05   -2.5099817051216396e-05
-3.210984047786282e-05   1.0724956198698496e-05   -2.5099817051216396e-05
-3.643383182183542e-05   8.049827578825771e-06   -1.6288087639338973e-05
-3.643383182183542e-05   8.049827578825771e-06   -1.6288087639338973e-05
-3.643383182183542e-05   8.049827578825771e-06   -1.6288087639338973e-05
-3.643383182183542e-05   8.049827578825771e-06   -1.6288087639338973e-05
3.703391687534757e-05   -4.860236748686388e-06   -3.3642259526740553e-07
3.703391687534757e-05   -4.860236748686388e-06   -3.3642259526740553e-07
3.703391687534757e-05   -4.860236748686388e-06   -3.3642259526740553e-07
3.703391687534757e-05   -4.860236748686388e-06   -3.3642259526740553e-07
1.5793118975711718e-05   -8.774785539538386e-06   -3.8086481702505033e-05
1.5793118975711718e-05   -8.774785539538386e-06   -3.8086481702505033e-05
1.5793118975711718e-05   -8.774785539538386e-06   -3.8086481702505033e-05
1.5793118975711718e-05   -8.774785539538386e-06   -3.8086481702505033e-05
1.6917926312487463e-05   -3.993225135990458e-06   -4.2371276488557125e-06
1.6917926312487463e-05   -3.993225135990458e-06   -4.2371276488557125e-06
1.6917926312487463e-05   -3.993225135990458e-06   -4.2371276488557125e-06
1.6917926312487463e-05   -3.993225135990458e-06   -4.2371276488557125e-06
3.984510800109233e-05   -8.159718819867982e-06   -3.9949200919537796e-05
3.984510800109233e-05   -8.159718819867982e-06   -3.9949200919537796e-05
3.984510800109233e-05   -8.159718819867982e-06   -3.9949200919537796e-05
3.984510800109233e-05   -8.159718819867982e-06   -3.9949200919537796e-05
2.6293140757076825e-05   -5.780705051327368e-06   -1.878999710730288e-05
2.6293140757076825e-05   -5.780705051327368e-06   -1.878999710730288e-05
2.6293140757076825e-05   -5.780705051327368e-06   -1.878999710730288e-05
2.6293140757076825e-05   -5.780705051327368e-06   -1.878999710730288e-05
3.984510800109233e-05   -3.993225135990458e-06   -1.7372314385296099e-06
3.984510800109233e-05   -3.993225135990458e-06   -1.7372314385296099e-06
3.984510800109233e-05   -3.993225135990458e-06   -1.7372314385296099e-06
3.984510800109233e-05   -3.993225135990458e-06   -1.7372314385296099e-06
1.6917926312487355e-05   -8.159718819867982e-06   -4.2449097129864007e-05
1.6917926312487355e-05   -8.159718819867982e-06   -4.2449097129864007e-05
1.6917926312487355e-05   -8.159718819867982e-06   -4.2449097129864007e-05
1.6917926312487355e-05   -8.159718819867982e-06   -4.2449097129864007e-05
1.8163659834404314e-05   -3.415989622181613e-06   -5.945682578339592e-06
1.8163659834404314e-05   -3.415989622181613e-06   -5.945682578339592e-06
1.8163659834404314e-05   -3.415989622181613e-06   -5.945682578339592e-06
1.8163659834404314e-05   -3.415989622181613e-06   -5.945682578339592e-06
4.220792666242431e-05   -7.632254703671387e-06   -4.3489701576145774e-05
4.220792666242431e-05   -7.632254703671387e-06   -4.3489701576145774e-05
4.220792666242431e-05   -7.632254703671387e-06   -4.3489701576145774e-05
4.220792666242431e-05   -7.632254703671387e-06   -4.3489701576145774e-05
2.8404747728234467e-05   -5.545993913611382e-06   -2.173615982653201e-05
2.8404747728234467e-05   -5.545993913611382e-06   -2.173615982653201e-05
2.8404747728234467e-05   -5.545993913611382e-06   -2.173615982653201e-05
2.8404747728234467e-05   -5.545993913611382e-06   -2.173615982653201e-05
4.220792666242442e-05   -3.415989622181613e-06   -3.4159235294457823e-06
4.220792666242442e-05   -3.415989622181613e-06   -3.4159235294457823e-06
4.220792666242442e-05   -3.415989622181613e-06   -3.4159235294457823e-06
4.220792666242442e-05   -3.415989622181613e-06   -3.4159235294457823e-06
1.816365983440426e-05   -7.63225470367182e-06   -4.6019460625039855e-05
1.816365983440426e-05   -7.63225470367182e-06   -4.6019460625039855e-05
1.816365983440426e-05   -7.63225470367182e-06   -4.6019460625039855e-05
1.816365983440426e-05   -7.63225470367182e-06   -4.6019460625039855e-05
1.9194378765664984e-05   -1.9607332270069576e-06   -9.89270223304738e-06
1.9194378765664984e-05   -1.9607332270069576e-06   -9.89270223304738e-06
1.9194378765664984e-05   -1.9607332270069576e-06   -9.89270223304738e-06
1.9194378765664984e-05   -1.9607332270069576e-06   -9.89270223304738e-06
4.49512441969399e-05   -5.962926074016498e-06   -5.0419495576966514e-05
4.49512441969399e-05   -5.962926074016498e-06   -5.0419495576966514e-05
4.49512441969399e-05   -5.962926074016498e-06   -5.0419495576966514e-05
4.49512441969399e-05   -5.962926074016498e-06   -5.0419495576966514e-05
2.9552495712290624e-05   -4.894963117169429e-06   -2.5395692543327478e-05
2.9552495712290624e-05   -4.894963117169429e-06   -2.5395692543327478e-05
2.9552495712290624e-05   -4.894963117169429e-06   -2.5395692543327478e-05
2.9552495712290624e-05   -4.894963117169429e-06   -2.5395692543327478e-05
1.5793118975711718e-05   -1.9256970899797672e-06   -2.587487840764388e-05
1.5793118975711718e-05   -1.9256970899797672e-06   -2.587487840764388e-05
1.5793118975711718e-05   -1.9256970899797672e-06   -2.587487840764388e-05
1.5793118975711718e-05   -1.9256970899797672e-06   -2.587487840764388e-05
-6.7019775405840044e-06   -4.11517868999017e-06   -6.468039489480903e-05
-6.7019775405840044e-06   -4.11517868999017e-06   -6.468039489480903e-05
-6.7019775405840044e-06   -4.11517868999017e-06   -6.468039489480903e-05
-6.7019775405840044e-06   -4.11517868999017e-06   -6.468039489480903e-05
-5.65472717106949e-06   -7.378600625075442e-07   -2.641343467318924e-05
-5.65472717106949e-06   -7.378600625075442e-07   -2.641343467318924e-05
-5.65472717106949e-06   -7.378600625075442e-07   -2.641343467318924e-05
-5.65472717106949e-06   -7.378600625075442e-07   -2.641343467318924e-05
1.6917926312487463e-05   -3.262665360648058e-06   -6.251964063356684e-05
1.6917926312487463e-05   -3.262665360648058e-06   -6.251964063356684e-05
1.6917926312487463e-05   -3.262665360648058e-06   -6.251964063356684e-05
1.6917926312487463e-05   -3.262665360648058e-06   -6.251964063356684e-05
5.144905873205228e-06   -1.990880938876642e-06   -4.366101055449268e-05
5.144905873205228e-06   -1.990880938876642e-06   -4.366101055449268e-05
5.144905873205228e-06   -1.990880938876642e-06   -4.366101055449268e-05
5.144905873205228e-06   -1.990880938876642e-06   -4.366101055449268e-05
1.691792631248741e-05   -7.378600625075442e-07   -2.48985514943049e-05
1.691792631248741e-05   -7.378600625075442e-07   -2.48985514943049e-05
1.691792631248741e-05   -7.378600625075442e-07   -2.48985514943049e-05
1.691792631248741e-05   -7.378600625075442e-07   -2.48985514943049e-05
-5.65472717106949e-06   -3.2626653606476243e-06   -6.403452381245059e-05
-5.65472717106949e-06   -3.2626653606476243e-06   -6.403452381245059e-05
-5.65472717106949e-06   -3.2626653606476243e-06   -6.403452381245059e-05
-5.65472717106949e-06   -3.2626653606476243e-06   -6.403452381245059e-05
-4.6547936718252146e-06   4.901136158113294e-07   -2.675087570569814e-05
-4.6547936718252146e-06   4.901136158113294e-07   -2.675087570569814e-05
-4.6547936718252146e-06   4.901136158113294e-07   -2.675087570569814e-05
-4.6547936718252146e-06   4.901136158113294e-07   -2.675087570569814e-05
1.816365983440426e-05   -2.2204180774856516e-06   -6.315531253343627e-05
1.816365983440426e-05   -2.2204180774856516e-06   -6.315531253343627e-05
1.816365983440426e-05   -2.2204180774856516e-06   -6.315531253343627e-05
1.816365983440426e-05   -2.2204180774856516e-06   -6.315531253343627e-05
5.976695051037922e-06   -1.2372787625833988e-06   -4.343358815009899e-05
5.976695051037922e-06   -1.2372787625833988e-06   -4.343358815009899e-05
5.976695051037922e-06   -1.2372787625833988e-06   -4.343358815009899e-05
5.976695051037922e-06   -1.2372787625833988e-06   -4.343358815009899e-05
1.8163659834404314e-05   4.901136158113294e-07   -2.5124556689720104e-05
1.8163659834404314e-05   4.901136158113294e-07   -2.5124556689720104e-05
1.8163659834404314e-05   4.901136158113294e-07   -2.5124556689720104e-05
1.8163659834404314e-05   4.901136158113294e-07   -2.5124556689720104e-05
-4.6547936718252146e-06   -2.220418077485218e-06   -6.478163154941441e-05
-4.6547936718252146e-06   -2.220418077485218e-06   -6.478163154941441e-05
-4.6547936718252146e-06   -2.220418077485218e-06   -6.478163154941441e-05
-4.6547936718252146e-06   -2.220418077485218e-06   -6.478163154941441e-05
-3.7152982261810016e-06   1.943922151378605e-06   -2.7658747933206104e-05
-3.7152982261810016e-06   1.943922151378605e-06   -2.7658747933206104e-05
-3.7152982261810016e-06   1.943922151378605e-06   -2.7658747933206104e-05
-3.7152982261810016e-06   1.943922151378605e-06   -2.7658747933206104e-05
1.919437876566493e-05   -9.094154002240937e-07   -6.412954038865506e-05
1.919437876566493e-05   -9.094154002240937e-07   -6.412954038865506e-05
1.919437876566493e-05   -9.094154002240937e-07   -6.412954038865506e-05
1.919437876566493e-05   -9.094154002240937e-07   -6.412954038865506e-05
7.012973085012585e-06   -3.081200440362055e-07   -4.418797480128104e-05
7.012973085012585e-06   -3.081200440362055e-07   -4.418797480128104e-05
7.012973085012585e-06   -3.081200440362055e-07   -4.418797480128104e-05
7.012973085012585e-06   -3.081200440362055e-07   -4.418797480128104e-05
-6.7019775405840044e-06   1.4732575205648676e-06   -3.3262493707322645e-05
-6.7019775405840044e-06   1.4732575205648676e-06   -3.3262493707322645e-05
-6.7019775405840044e-06   1.4732575205648676e-06   -3.3262493707322645e-05
-6.7019775405840044e-06   1.4732575205648676e-06   -3.3262493707322645e-05
-2.880089513667968e-05   7.373993307783003e-07   -7.05355379480208e-05
-2.880089513667968e-05   7.373993307783003e-07   -7.05355379480208e-05
-2.880089513667968e-05   7.373993307783003e-07   -7.05355379480208e-05
-2.880089513667968e-05   7.373993307783003e-07   -7.05355379480208e-05
-2.76735960044025e-05   2.7294624328011788e-06   -3.303395695390546e-05
-2.76735960044025e-05   2.7294624328011788e-06   -3.303395695390546e-05
-2.76735960044025e-05   2.7294624328011788e-06   -3.303395695390546e-05
-2.76735960044025e-05   2.7294624328011788e-06   -3.303395695390546e-05
-5.65472717106949e-06   1.6944862963807691e-06   -6.911108599427502e-05
-5.65472717106949e-06   1.6944862963807691e-06   -6.911108599427502e-05
-5.65472717106949e-06   1.6944862963807691e-06   -6.911108599427502e-05
-5.65472717106949e-06   1.6944862963807691e-06   -6.911108599427502e-05
-1.708975987936646e-05   2.0195103458452504e-06   -5.024771257679196e-05
-1.708975987936646e-05   2.0195103458452504e-06   -5.024771257679196e-05
-1.708975987936646e-05   2.0195103458452504e-06   -5.024771257679196e-05
-1.708975987936646e-05   2.0195103458452504e-06   -5.024771257679196e-05
-5.65472717106949e-06   2.7294624328011788e-06   -3.2412971272053346e-05
-5.65472717106949e-06   2.7294624328011788e-06   -3.2412971272053346e-05
-5.65472717106949e-06   2.7294624328011788e-06   -3.2412971272053346e-05
-5.65472717106949e-06   2.7294624328011788e-06   -3.2412971272053346e-05
-2.76735960044025e-05   1.6944862963807691e-06   -6.973207167612736e-05
-2.76735960044025e-05   1.6944862963807691e-06   -6.973207167612736e-05
-2.76735960044025e-05   1.6944862963807691e-06   -6.973207167612736e-05
-2.76735960044025e-05   1.6944862963807691e-06   -6.973207167612736e-05
-2.6586446193805935e-05   4.059688073584488e-06   -3.298414797948414e-05
-2.6586446193805935e-05   4.059688073584488e-06   -3.298414797948414e-05
-2.6586446193805935e-05   4.059688073584488e-06   -3.298414797948414e-05
-2.6586446193805935e-05   4.059688073584488e-06   -3.298414797948414e-05
-4.6547936718252146e-06   2.8034179398723873e-06   -6.878314010255802e-05
-4.6547936718252146e-06   2.8034179398723873e-06   -6.878314010255802e-05
-4.6547936718252146e-06   2.8034179398723873e-06   -6.878314010255802e-05
-4.6547936718252146e-06   2.8034179398723873e-06   -6.878314010255802e-05
-1.6119450030139293e-05   2.9154372961715316e-06   -4.974259111914731e-05
-1.6119450030139293e-05   2.9154372961715316e-06   -4.974259111914731e-05
-1.6119450030139293e-05   2.9154372961715316e-06   -4.974259111914731e-05
-1.6119450030139293e-05   2.9154372961715316e-06   -4.974259111914731e-05
-4.6547936718252146e-06   4.059688073584488e-06   -3.223038589925673e-05
-4.6547936718252146e-06   4.059688073584488e-06   -3.223038589925673e-05
-4.6547936718252146e-06   4.059688073584488e-06   -3.223038589925673e-05
-4.6547936718252146e-06   4.059688073584488e-06   -3.223038589925673e-05
-2.6586446193805935e-05   2.8034179398719536e-06   -6.953690218278533e-05
-2.6586446193805935e-05   2.8034179398719536e-06   -6.953690218278533e-05
-2.6586446193805935e-05   2.8034179398719536e-06   -6.953690218278533e-05
-2.6586446193805935e-05   2.8034179398719536e-06   -6.953690218278533e-05
-2.558183542119976e-05   5.412877907646531e-06   -3.375888129504264e-05
-2.558183542119976e-05   5.412877907646531e-06   -3.375888129504264e-05
-2.558183542119976e-05   5.412877907646531e-06   -3.375888129504264e-05
-2.558183542119976e-05   5.412877907646531e-06   -3.375888129504264e-05
-3.7152982261810016e-06   3.949576740593704e-06   -6.932512925317551e-05
-3.7152982261810016e-06   3.949576740593704e-06   -6.932512925317551e-05
-3.7152982261810016e-06   3.949576740593704e-06   -6.932512925317551e-05
-3.7152982261810016e-06   3.949576740593704e-06   -6.932512925317551e-05
-1.5252315006025383e-05   3.834760326106414e-06   -5.002787810474334e-05
-1.5252315006025383e-05   3.834760326106414e-06   -5.002787810474334e-05
-1.5252315006025383e-05   3.834760326106414e-06   -5.002787810474334e-05
-1.5252315006025383e-05   3.834760326106414e-06   -5.002787810474334e-05
-2.880089513667972e-05   4.770849815307395e-06   -2.699005363308838e-05
-2.880089513667972e-05   4.770849815307395e-06   -2.699005363308838e-05
-2.880089513667972e-05   4.770849815307395e-06   -2.699005363308838e-05
-2.880089513667972e-05   4.770849815307395e-06   -2.699005363308838e-05
-5.0483853682875364e-05   5.763378011413613e-06   -6.253280095908412e-05
-5.0483853682875364e-05   5.763378011413613e-06   -6.253280095908412e-05
-5.0483853682875364e-05   5.763378011413613e-06   -6.253280095908412e-05
-5.0483853682875364e-05   5.763378011413613e-06   -6.253280095908412e-05
-4.912552095058348e-05   6.11168260295945e-06   -2.536781857411896e-05
-4.912552095058348e-05   6.11168260295945e-06   -2.536781857411896e-05
-4.912552095058348e-05   6.11168260295945e-06   -2.536781857411896e-05
-4.912552095058348e-05   6.11168260295945e-06   -2.536781857411896e-05
-2.7673596004402546e-05   6.979531177247859e-06   -6.164173596232654e-05
-2.7673596004402546e-05   6.979531177247859e-06   -6.164173596232654e-05
-2.7673596004402546e-05   6.979531177247859e-06   -6.164173596232654e-05
-2.7673596004402546e-05   6.979531177247859e-06   -6.164173596232654e-05
-3.873573887637251e-05   6.161269960332921e-06   -4.2713874445561096e-05
-3.873573887637251e-05   6.161269960332921e-06   -4.2713874445561096e-05
-3.873573887637251e-05   6.161269960332921e-06   -4.2713874445561096e-05
-3.873573887637251e-05   6.161269960332921e-06   -4.2713874445561096e-05
-2.7673596004402546e-05   6.11168260295945e-06   -2.5888527718691682e-05
-2.7673596004402546e-05   6.11168260295945e-06   -2.5888527718691682e-05
-2.7673596004402546e-05   6.11168260295945e-06   -2.5888527718691682e-05
-2.7673596004402546e-05   6.11168260295945e-06   -2.5888527718691682e-05
-4.912552095058348e-05   6.979531177247859e-06   -6.112102681775388e-05
-4.912552095058348e-05   6.979531177247859e-06   -6.112102681775388e-05
-4.912552095058348e-05   6.979531177247859e-06   -6.112102681775388e-05
-4.912552095058348e-05   6.979531177247859e-06   -6.112102681775388e-05
-4.7623378546629265e-05   7.319740882854187e-06   -2.4465663197992607e-05
-4.7623378546629265e-05   7.319740882854187e-06   -2.4465663197992607e-05
-4.7623378546629265e-05   7.319740882854187e-06   -2.4465663197992607e-05
-4.7623378546629265e-05   7.319740882854187e-06   -2.4465663197992607e-05
-2.658644619380597e-05   8.026996163723078e-06   -5.995157028788629e-05
-2.658644619380597e-05   8.026996163723078e-06   -5.995157028788629e-05
-2.658644619380597e-05   8.026996163723078e-06   -5.995157028788629e-05
-2.658644619380597e-05   8.026996163723078e-06   -5.995157028788629e-05
-3.736273990989068e-05   7.107689494530384e-06   -4.1439496759562624e-05
-3.736273990989068e-05   7.107689494530384e-06   -4.1439496759562624e-05
-3.736273990989068e-05   7.107689494530384e-06   -4.1439496759562624e-05
-3.736273990989068e-05   7.107689494530384e-06   -4.1439496759562624e-05
-2.658644619380597e-05   7.319740882854187e-06   -2.4890016366514156e-05
-2.658644619380597e-05   7.319740882854187e-06   -2.4890016366514156e-05
-2.658644619380597e-05   7.319740882854187e-06   -2.4890016366514156e-05
-2.658644619380597e-05   7.319740882854187e-06   -2.4890016366514156e-05
-4.7623378546629265e-05   8.026996163723078e-06   -5.952721711936521e-05
-4.7623378546629265e-05   8.026996163723078e-06   -5.952721711936521e-05
-4.7623378546629265e-05   8.026996163723078e-06   -5.952721711936521e-05
-4.7623378546629265e-05   8.026996163723078e-06   -5.952721711936521e-05
-4.635383003645571e-05   8.672016009147934e-06   -2.503069042341711e-05
-4.635383003645571e-05   8.672016009147934e-06   -2.503069042341711e-05
-4.635383003645571e-05   8.672016009147934e-06   -2.503069042341711e-05
-4.635383003645571e-05   8.672016009147934e-06   -2.503069042341711e-05
-2.558183542119982e-05   9.186386482274572e-06   -5.995930373271937e-05
-2.558183542119982e-05   9.186386482274572e-06   -5.995930373271937e-05
-2.558183542119982e-05   9.186386482274572e-06   -5.995930373271937e-05
-2.558183542119982e-05   9.186386482274572e-06   -5.995930373271937e-05
-3.650650748220985e-05   7.979676084911335e-06   -4.102749072595218e-05
-3.650650748220985e-05   7.979676084911335e-06   -4.102749072595218e-05
-3.650650748220985e-05   7.979676084911335e-06   -4.102749072595218e-05
-3.650650748220985e-05   7.979676084911335e-06   -4.102749072595218e-05
-5.0483853682875364e-05   8.201338384237079e-06   -1.353013219594065e-05
-5.0483853682875364e-05   8.201338384237079e-06   -1.353013219594065e-05
-5.0483853682875364e-05   8.201338384237079e-06   -1.353013219594065e-05
-5.0483853682875364e-05   8.201338384237079e-06   -1.353013219594065e-05
-7.331386510976197e-05   1.1336558710985708e-05   -4.969901904470272e-05
-7.331386510976197e-05   1.1336558710985708e-05   -4.969901904470272e-05
-7.331386510976197e-05   1.1336558710985708e-05   -4.969901904470272e-05
-7.331386510976197e-05   1.1336558710985708e-05   -4.969901904470272e-05
-7.020031946673849e-05   9.592885416275562e-06   -4.331373862131354e-06
-7.020031946673849e-05   9.592885416275562e-06   -4.331373862131354e-06
-7.020031946673849e-05   9.592885416275562e-06   -4.331373862131354e-06
-7.020031946673849e-05   9.592885416275562e-06   -4.331373862131354e-06
-4.91255209505834e-05   1.2952321961959366e-05   -4.1471699983133044e-05
-4.91255209505834e-05   1.2952321961959366e-05   -4.1471699983133044e-05
-4.91255209505834e-05   1.2952321961959366e-05   -4.1471699983133044e-05
-4.91255209505834e-05   1.2952321961959366e-05   -4.1471699983133044e-05
-5.8267703928019705e-05   1.0800569826244395e-05   -2.4943677072643646e-05
-5.8267703928019705e-05   1.0800569826244395e-05   -2.4943677072643646e-05
-5.8267703928019705e-05   1.0800569826244395e-05   -2.4943677072643646e-05
-5.8267703928019705e-05   1.0800569826244395e-05   -2.4943677072643646e-05
-4.9125520950583434e-05   9.592885416275995e-06   -6.347035789541224e-06
-4.9125520950583434e-05   9.592885416275995e-06   -6.347035789541224e-06
-4.9125520950583434e-05   9.592885416275995e-06   -6.347035789541224e-06
-4.9125520950583434e-05   9.592885416275995e-06   -6.347035789541224e-06
-7.020031946673838e-05   1.2952321961959366e-05   -3.9456038055723066e-05
-7.020031946673838e-05   1.2952321961959366e-05   -3.9456038055723066e-05
-7.020031946673838e-05   1.2952321961959366e-05   -3.9456038055723066e-05
-7.020031946673838e-05   1.2952321961959366e-05   -3.9456038055723066e-05
-6.76380818518616e-05   1.009132086684638e-05   -4.933965642159917e-07
-6.76380818518616e-05   1.009132086684638e-05   -4.933965642159917e-07
-6.76380818518616e-05   1.009132086684638e-05   -4.933965642159917e-07
-6.76380818518616e-05   1.009132086684638e-05   -4.933965642159917e-07
-4.7623378546629265e-05   1.3376977254692373e-05   -3.582262923897757e-05
-4.7623378546629265e-05   1.3376977254692373e-05   -3.582262923897757e-05
-4.7623378546629265e-05   1.3376977254692373e-05   -3.582262923897757e-05
-4.7623378546629265e-05   1.3376977254692373e-05   -3.582262923897757e-05
-5.720202703064992e-05   1.1442984799963545e-05   -1.8697819626105295e-05
-5.720202703064992e-05   1.1442984799963545e-05   -1.8697819626105295e-05
-5.720202703064992e-05   1.1442984799963545e-05   -1.8697819626105295e-05
-5.720202703064992e-05   1.1442984799963545e-05   -1.8697819626105295e-05
-4.7623378546629265e-05   1.009132086684638e-05   -2.46479039692362e-06
-4.7623378546629265e-05   1.009132086684638e-05   -2.46479039692362e-06
-4.7623378546629265e-05   1.009132086684638e-05   -2.46479039692362e-06
-4.7623378546629265e-05   1.009132086684638e-05   -2.46479039692362e-06
-6.763808185186138e-05   1.3376977254692373e-05   -3.3851235406270105e-05
-6.763808185186138e-05   1.3376977254692373e-05   -3.3851235406270105e-05
-6.763808185186138e-05   1.3376977254692373e-05   -3.3851235406270105e-05
-6.763808185186138e-05   1.3376977254692373e-05   -3.3851235406270105e-05
-6.487545691767472e-05   1.0724956198698496e-05   4.377075518927119e-06
-6.487545691767472e-05   1.0724956198698496e-05   4.377075518927119e-06
-6.487545691767472e-05   1.0724956198698496e-05   4.377075518927119e-06
-6.487545691767472e-05   1.0724956198698496e-05   4.377075518927119e-06
-4.635383003645567e-05   1.3744609254060826e-05   -2.830409444965539e-05
-4.635383003645567e-05   1.3744609254060826e-05   -2.830409444965539e-05
-4.635383003645567e-05   1.3744609254060826e-05   -2.830409444965539e-05
-4.635383003645567e-05   1.3744609254060826e-05   -2.830409444965539e-05
-5.460725670681355e-05   1.1548135058928998e-05   -1.3230498815314392e-05
-5.460725670681355e-05   1.1548135058928998e-05   -1.3230498815314392e-05
-5.460725670681355e-05   1.1548135058928998e-05   -1.3230498815314392e-05
-5.460725670681355e-05   1.1548135058928998e-05   -1.3230498815314392e-05
6.29035460069654e-05   -8.774785539538386e-06   1.2412609976843723e-05
6.29035460069654e-05   -8.774785539538386e-06   1.2412609976843723e-05
6.29035460069654e-05   -8.774785539538386e-06   1.2412609976843723e-05
6.29035460069654e-05   -8.774785539538386e-06   1.2412609976843723e-05
3.032724749787107e-05   -1.3001740456483786e-05   -4.441739382181342e-05
3.032724749787107e-05   -1.3001740456483786e-05   -4.441739382181342e-05
3.032724749787107e-05   -1.3001740456483786e-05   -4.441739382181342e-05
3.032724749787107e-05   -1.3001740456483786e-05   -4.441739382181342e-05
3.1574184646034065e-05   -8.159718819867549e-06   5.9551116183857375e-06
3.1574184646034065e-05   -8.159718819867549e-06   5.9551116183857375e-06
3.1574184646034065e-05   -8.159718819867549e-06   5.9551116183857375e-06
3.1574184646034065e-05   -8.159718819867549e-06   5.9551116183857375e-06
6.579317157744694e-05   -1.2697058419963627e-05   -4.835412950724501e-05
6.579317157744694e-05   -1.2697058419963627e-05   -4.835412950724501e-05
6.579317157744694e-05   -1.2697058419963627e-05   -4.835412950724501e-05
6.579317157744694e-05   -1.2697058419963627e-05   -4.835412950724501e-05
4.5712892595174475e-05   -9.609687669181848e-06   -1.6739420320593425e-05
4.5712892595174475e-05   -9.609687669181848e-06   -1.6739420320593425e-05
4.5712892595174475e-05   -9.609687669181848e-06   -1.6739420320593425e-05
4.5712892595174475e-05   -9.609687669181848e-06   -1.6739420320593425e-05
6.579317157744705e-05   -8.159718819867549e-06   8.677515378443222e-06
6.579317157744705e-05   -8.159718819867549e-06   8.677515378443222e-06
6.579317157744705e-05   -8.159718819867549e-06   8.677515378443222e-06
6.579317157744705e-05   -8.159718819867549e-06   8.677515378443222e-06
3.157418464603401e-05   -1.2697058419963627e-05   -5.107653326730244e-05
3.157418464603401e-05   -1.2697058419963627e-05   -5.107653326730244e-05
3.157418464603401e-05   -1.2697058419963627e-05   -5.107653326730244e-05
3.157418464603401e-05   -1.2697058419963627e-05   -5.107653326730244e-05
3.281447496592831e-05   -7.63225470367182e-06   2.7982918817280253e-06
3.281447496592831e-05   -7.63225470367182e-06   2.7982918817280253e-06
3.281447496592831e-05   -7.63225470367182e-06   2.7982918817280253e-06
3.281447496592831e-05   -7.63225470367182e-06   2.7982918817280253e-06
6.80119822075432e-05   -1.2256604550643039e-05   -5.308961027944751e-05
6.80119822075432e-05   -1.2256604550643039e-05   -5.308961027944751e-05
6.80119822075432e-05   -1.2256604550643039e-05   -5.308961027944751e-05
6.80119822075432e-05   -1.2256604550643039e-05   -5.308961027944751e-05
4.8145644512466164e-05   -9.5781764556397e-06   -2.1586104311321496e-05
4.8145644512466164e-05   -9.5781764556397e-06   -2.1586104311321496e-05
4.8145644512466164e-05   -9.5781764556397e-06   -2.1586104311321496e-05
4.8145644512466164e-05   -9.5781764556397e-06   -2.1586104311321496e-05
6.80119822075432e-05   -7.63225470367182e-06   5.5729017899106155e-06
6.80119822075432e-05   -7.63225470367182e-06   5.5729017899106155e-06
6.80119822075432e-05   -7.63225470367182e-06   5.5729017899106155e-06
6.80119822075432e-05   -7.63225470367182e-06   5.5729017899106155e-06
3.281447496592831e-05   -1.2256604550643039e-05   -5.5864220187630586e-05
3.281447496592831e-05   -1.2256604550643039e-05   -5.5864220187630586e-05
3.281447496592831e-05   -1.2256604550643039e-05   -5.5864220187630586e-05
3.281447496592831e-05   -1.2256604550643039e-05   -5.5864220187630586e-05
3.3657784378406065e-05   -5.962926074016498e-06   -3.5643865453375764e-06
3.3657784378406065e-05   -5.962926074016498e-06   -3.5643865453375764e-06
3.3657784378406065e-05   -5.962926074016498e-06   -3.5643865453375764e-06
3.3657784378406065e-05   -5.962926074016498e-06   -3.5643865453375764e-06
7.035793323256838e-05   -1.0537350013121918e-05   -6.198664693881132e-05
7.035793323256838e-05   -1.0537350013121918e-05   -6.198664693881132e-05
7.035793323256838e-05   -1.0537350013121918e-05   -6.198664693881132e-05
7.035793323256838e-05   -1.0537350013121918e-05   -6.198664693881132e-05
4.8829926989593284e-05   -8.842674269936984e-06   -2.7123441979764627e-05
4.8829926989593284e-05   -8.842674269936984e-06   -2.7123441979764627e-05
4.8829926989593284e-05   -8.842674269936984e-06   -2.7123441979764627e-05
4.8829926989593284e-05   -8.842674269936984e-06   -2.7123441979764627e-05
3.0327247497871098e-05   -4.115178689989736e-06   -1.5403787205621315e-05
3.0327247497871098e-05   -4.115178689989736e-06   -1.5403787205621315e-05
3.0327247497871098e-05   -4.115178689989736e-06   -1.5403787205621315e-05
3.0327247497871098e-05   -4.115178689989736e-06   -1.5403787205621315e-05
-1.8112200426884703e-06   -8.440547657739654e-06   -7.156312115387054e-05
-1.8112200426884703e-06   -8.440547657739654e-06   -7.156312115387054e-05
-1.8112200426884703e-06   -8.440547657739654e-06   -7.156312115387054e-05
-1.8112200426884703e-06   -8.440547657739654e-06   -7.156312115387054e-05
-5.307161172917103e-07   -3.2626653606476243e-06   -1.6980956125275514e-05
-5.307161172917103e-07   -3.2626653606476243e-06   -1.6980956125275514e-05
-5.307161172917103e-07   -3.2626653606476243e-06   -1.6980956125275514e-05
-5.307161172917103e-07   -3.2626653606476243e-06   -1.6980956125275514e-05
3.1574184646034065e-05   -8.038539093912014e-06   -6.762359982419352e-05
3.1574184646034065e-05   -8.038539093912014e-06   -6.762359982419352e-05
3.1574184646034065e-05   -8.038539093912014e-06   -6.762359982419352e-05
3.1574184646034065e-05   -8.038539093912014e-06   -6.762359982419352e-05
1.493519717754322e-05   -5.105816922957055e-06   -4.1651587345948216e-05
1.493519717754322e-05   -5.105816922957055e-06   -4.1651587345948216e-05
1.493519717754322e-05   -5.105816922957055e-06   -4.1651587345948216e-05
1.493519717754322e-05   -5.105816922957055e-06   -4.1651587345948216e-05
3.157418464603401e-05   -3.2626653606476243e-06   -1.4115431885316772e-05
3.157418464603401e-05   -3.2626653606476243e-06   -1.4115431885316772e-05
3.157418464603401e-05   -3.2626653606476243e-06   -1.4115431885316772e-05
3.157418464603401e-05   -3.2626653606476243e-06   -1.4115431885316772e-05
-5.307161172917103e-07   -8.038539093912014e-06   -7.048912406415172e-05
-5.307161172917103e-07   -8.038539093912014e-06   -7.048912406415172e-05
-5.307161172917103e-07   -8.038539093912014e-06   -7.048912406415172e-05
-5.307161172917103e-07   -8.038539093912014e-06   -7.048912406415172e-05
5.976358260667591e-07   -2.220418077485218e-06   -1.7378447571958847e-05
5.976358260667591e-07   -2.220418077485218e-06   -1.7378447571958847e-05
5.976358260667591e-07   -2.220418077485218e-06   -1.7378447571958847e-05
5.976358260667591e-07   -2.220418077485218e-06   -1.7378447571958847e-05
3.281447496592831e-05   -7.288563986302798e-06   -6.803229192643766e-05
3.281447496592831e-05   -7.288563986302798e-06   -6.803229192643766e-05
3.281447496592831e-05   -7.288563986302798e-06   -6.803229192643766e-05
3.281447496592831e-05   -7.288563986302798e-06   -6.803229192643766e-05
1.580813895542095e-05   -4.689134567297188e-06   -4.124805622699444e-05
1.580813895542095e-05   -4.689134567297188e-06   -4.124805622699444e-05
1.580813895542095e-05   -4.689134567297188e-06   -4.124805622699444e-05
1.580813895542095e-05   -4.689134567297188e-06   -4.124805622699444e-05
3.281447496592831e-05   -2.2204180774856516e-06   -1.4337560026668494e-05
3.281447496592831e-05   -2.2204180774856516e-06   -1.4337560026668494e-05
3.281447496592831e-05   -2.2204180774856516e-06   -1.4337560026668494e-05
3.281447496592831e-05   -2.2204180774856516e-06   -1.4337560026668494e-05
5.97635826066732e-07   -7.288563986302798e-06   -7.107317947172812e-05
5.97635826066732e-07   -7.288563986302798e-06   -7.107317947172812e-05
5.97635826066732e-07   -7.288563986302798e-06   -7.107317947172812e-05
5.97635826066732e-07   -7.288563986302798e-06   -7.107317947172812e-05
1.4014932503050436e-06   -9.0941540022366e-07   -1.8060448919470905e-05
1.4014932503050436e-06   -9.0941540022366e-07   -1.8060448919470905e-05
1.4014932503050436e-06   -9.0941540022366e-07   -1.8060448919470905e-05
1.4014932503050436e-06   -9.0941540022366e-07   -1.8060448919470905e-05
3.365778437840617e-05   -6.2216375179761745e-06   -6.863360086232172e-05
3.365778437840617e-05   -6.2216375179761745e-06   -6.863360086232172e-05
3.365778437840617e-05   -6.2216375179761745e-06   -6.863360086232172e-05
3.365778437840617e-05   -6.2216375179761745e-06   -6.863360086232172e-05
1.685116464620931e-05   -3.953936755337695e-06   -4.198318843291076e-05
1.685116464620931e-05   -3.953936755337695e-06   -4.198318843291076e-05
1.685116464620931e-05   -3.953936755337695e-06   -4.198318843291076e-05
1.685116464620931e-05   -3.953936755337695e-06   -4.198318843291076e-05
-1.8112200426884703e-06   7.373993307783003e-07   -2.3412636725610522e-05
-1.8112200426884703e-06   7.373993307783003e-07   -2.3412636725610522e-05
-1.8112200426884703e-06   7.373993307783003e-07   -2.3412636725610522e-05
-1.8112200426884703e-06   7.373993307783003e-07   -2.3412636725610522e-05
-3.3474856447768565e-05   -4.4553468909625665e-06   -7.93010118004553e-05
-3.3474856447768565e-05   -4.4553468909625665e-06   -7.93010118004553e-05
-3.3474856447768565e-05   -4.4553468909625665e-06   -7.93010118004553e-05
-3.3474856447768565e-05   -4.4553468909625665e-06   -7.93010118004553e-05
-3.193869149390058e-05   1.6944862963807691e-06   -2.5463608957447276e-05
-3.193869149390058e-05   1.6944862963807691e-06   -2.5463608957447276e-05
-3.193869149390058e-05   1.6944862963807691e-06   -2.5463608957447276e-05
-3.193869149390058e-05   1.6944862963807691e-06   -2.5463608957447276e-05
-5.307161172917103e-07   -3.982331454198754e-06   -7.440414393478111e-05
-5.307161172917103e-07   -3.982331454198754e-06   -7.440414393478111e-05
-5.307161172917103e-07   -3.982331454198754e-06   -7.440414393478111e-05
-5.307161172917103e-07   -3.982331454198754e-06   -7.440414393478111e-05
-1.673690449378637e-05   -8.766764754736429e-07   -4.9257222961191643e-05
-1.673690449378637e-05   -8.766764754736429e-07   -4.9257222961191643e-05
-1.673690449378637e-05   -8.766764754736429e-07   -4.9257222961191643e-05
-1.673690449378637e-05   -8.766764754736429e-07   -4.9257222961191643e-05
-5.307161172917103e-07   1.6944862963807691e-06   -2.205751830709979e-05
-5.307161172917103e-07   1.6944862963807691e-06   -2.205751830709979e-05
-5.307161172917103e-07   1.6944862963807691e-06   -2.205751830709979e-05
-5.307161172917103e-07   1.6944862963807691e-06   -2.205751830709979e-05
-3.193869149390058e-05   -3.982331454198754e-06   -7.781023458512887e-05
-3.193869149390058e-05   -3.982331454198754e-06   -7.781023458512887e-05
-3.193869149390058e-05   -3.982331454198754e-06   -7.781023458512887e-05
-3.193869149390058e-05   -3.982331454198754e-06   -7.781023458512887e-05
-3.0529314500165634e-05   2.8034179398723873e-06   -2.5008265609625414e-05
-3.0529314500165634e-05   2.8034179398723873e-06   -2.5008265609625414e-05
-3.0529314500165634e-05   2.8034179398723873e-06   -2.5008265609625414e-05
-3.0529314500165634e-05   2.8034179398723873e-06   -2.5008265609625414e-05
5.97635826066732e-07   -3.2437645343325397e-06   -7.325820666882342e-05
5.97635826066732e-07   -3.2437645343325397e-06   -7.325820666882342e-05
5.97635826066732e-07   -3.2437645343325397e-06   -7.325820666882342e-05
5.97635826066732e-07   -3.2437645343325397e-06   -7.325820666882342e-05
-1.5485270500754098e-05   -3.3429510057424e-07   -4.8199044451043504e-05
-1.5485270500754098e-05   -3.3429510057424e-07   -4.8199044451043504e-05
-1.5485270500754098e-05   -3.3429510057424e-07   -4.8199044451043504e-05
-1.5485270500754098e-05   -3.3429510057424e-07   -4.8199044451043504e-05
5.97635826066732e-07   2.8034179398723873e-06   -2.1379956125102756e-05
5.97635826066732e-07   2.8034179398723873e-06   -2.1379956125102756e-05
5.97635826066732e-07   2.8034179398723873e-06   -2.1379956125102756e-05
5.97635826066732e-07   2.8034179398723873e-06   -2.1379956125102756e-05
-3.0529314500165634e-05   -3.2437645343325397e-06   -7.68865161533466e-05
-3.0529314500165634e-05   -3.2437645343325397e-06   -7.68865161533466e-05
-3.0529314500165634e-05   -3.2437645343325397e-06   -7.68865161533466e-05
-3.0529314500165634e-05   -3.2437645343325397e-06   -7.68865161533466e-05
-2.9578849511808914e-05   3.9495767405932705e-06   -2.544000015708035e-05
-2.9578849511808914e-05   3.9495767405932705e-06   -2.544000015708035e-05
-2.9578849511808914e-05   3.9495767405932705e-06   -2.544000015708035e-05
-2.9578849511808914e-05   3.9495767405932705e-06   -2.544000015708035e-05
1.4014932503050707e-06   -2.54369809948949e-06   -7.317793985655392e-05
1.4014932503050707e-06   -2.54369809948949e-06   -7.317793985655392e-05
1.4014932503050707e-06   -2.54369809948949e-06   -7.317793985655392e-05
1.4014932503050707e-06   -2.54369809948949e-06   -7.317793985655392e-05
-1.4592049638903026e-05   2.7491285811676557e-07   -4.821320161577168e-05
-1.4592049638903026e-05   2.7491285811676557e-07   -4.821320161577168e-05
-1.4592049638903026e-05   2.7491285811676557e-07   -4.821320161577168e-05
-1.4592049638903026e-05   2.7491285811676557e-07   -4.821320161577168e-05
-3.3474856447768565e-05   5.763378011413179e-06   -1.9121064387381903e-05
-3.3474856447768565e-05   5.763378011413179e-06   -1.9121064387381903e-05
-3.3474856447768565e-05   5.763378011413179e-06   -1.9121064387381903e-05
-3.3474856447768565e-05   5.763378011413179e-06   -1.9121064387381903e-05
-6.557690555802026e-05   1.0809966171695246e-06   -7.543390840768151e-05
-6.557690555802026e-05   1.0809966171695246e-06   -7.543390840768151e-05
-6.557690555802026e-05   1.0809966171695246e-06   -7.543390840768151e-05
-6.557690555802026e-05   1.0809966171695246e-06   -7.543390840768151e-05
-6.339024825865119e-05   6.979531177247426e-06   -2.0385732049174685e-05
-6.339024825865119e-05   6.979531177247426e-06   -2.0385732049174685e-05
-6.339024825865119e-05   6.979531177247426e-06   -2.0385732049174685e-05
-6.339024825865119e-05   6.979531177247426e-06   -2.0385732049174685e-05
-3.193869149390058e-05   1.958766501366973e-06   -6.979253451823062e-05
-3.193869149390058e-05   1.958766501366973e-06   -6.979253451823062e-05
-3.193869149390058e-05   1.958766501366973e-06   -6.979253451823062e-05
-3.193869149390058e-05   1.958766501366973e-06   -6.979253451823062e-05
-4.808956638594344e-05   4.364826078207332e-06   -4.431804544426359e-05
-4.808956638594344e-05   4.364826078207332e-06   -4.431804544426359e-05
-4.808956638594344e-05   4.364826078207332e-06   -4.431804544426359e-05
-4.808956638594344e-05   4.364826078207332e-06   -4.431804544426359e-05
-3.193869149390058e-05   6.979531177247426e-06   -1.737327324364645e-05
-3.193869149390058e-05   6.979531177247426e-06   -1.737327324364645e-05
-3.193869149390058e-05   6.979531177247426e-06   -1.737327324364645e-05
-3.193869149390058e-05   6.979531177247426e-06   -1.737327324364645e-05
-6.33902482586513e-05   1.958766501366973e-06   -7.280499332375928e-05
-6.33902482586513e-05   1.958766501366973e-06   -7.280499332375928e-05
-6.33902482586513e-05   1.958766501366973e-06   -7.280499332375928e-05
-6.33902482586513e-05   1.958766501366973e-06   -7.280499332375928e-05
-6.12774582820117e-05   8.026996163723512e-06   -1.8578849914313187e-05
-6.12774582820117e-05   8.026996163723512e-06   -1.8578849914313187e-05
-6.12774582820117e-05   8.026996163723512e-06   -1.8578849914313187e-05
-6.12774582820117e-05   8.026996163723512e-06   -1.8578849914313187e-05
-3.05293145001657e-05   2.7671358310793308e-06   -6.666984001780347e-05
-3.05293145001657e-05   2.7671358310793308e-06   -6.666984001780347e-05
-3.05293145001657e-05   2.7671358310793308e-06   -6.666984001780347e-05
-3.05293145001657e-05   2.7671358310793308e-06   -6.666984001780347e-05
-4.61148312256521e-05   5.128495160752105e-06   -4.211079440646307e-05
-4.61148312256521e-05   5.128495160752105e-06   -4.211079440646307e-05
-4.61148312256521e-05   5.128495160752105e-06   -4.211079440646307e-05
-4.61148312256521e-05   5.128495160752105e-06   -4.211079440646307e-05
-3.0529314500165634e-05   8.026996163723512e-06   -1.542293371472672e-05
-3.0529314500165634e-05   8.026996163723512e-06   -1.542293371472672e-05
-3.0529314500165634e-05   8.026996163723512e-06   -1.542293371472672e-05
-3.0529314500165634e-05   8.026996163723512e-06   -1.542293371472672e-05
-6.12774582820118e-05   2.767135831078897e-06   -6.982575621739006e-05
-6.12774582820118e-05   2.767135831078897e-06   -6.982575621739006e-05
-6.12774582820118e-05   2.767135831078897e-06   -6.982575621739006e-05
-6.12774582820118e-05   2.767135831078897e-06   -6.982575621739006e-05
-5.967324896328874e-05   9.186386482275006e-06   -1.863704710855312e-05
-5.967324896328874e-05   9.186386482275006e-06   -1.863704710855312e-05
-5.967324896328874e-05   9.186386482275006e-06   -1.863704710855312e-05
-5.967324896328874e-05   9.186386482275006e-06   -1.863704710855312e-05
-2.9578849511808955e-05   3.4516311953405876e-06   -6.535352635552599e-05
-2.9578849511808955e-05   3.4516311953405876e-06   -6.535352635552599e-05
-2.9578849511808955e-05   3.4516311953405876e-06   -6.535352635552599e-05
-2.9578849511808955e-05   3.4516311953405876e-06   -6.535352635552599e-05
-4.50051822300225e-05   5.661320434518233e-06   -4.096878536867705e-05
-4.50051822300225e-05   5.661320434518233e-06   -4.096878536867705e-05
-4.50051822300225e-05   5.661320434518233e-06   -4.096878536867705e-05
-4.50051822300225e-05   5.661320434518233e-06   -4.096878536867705e-05
-6.557690555802026e-05   1.1336558710985708e-05   -1.0977843505596493e-05
-6.557690555802026e-05   1.1336558710985708e-05   -1.0977843505596493e-05
-6.557690555802026e-05   1.1336558710985708e-05   -1.0977843505596493e-05
-6.557690555802026e-05   1.1336558710985708e-05   -1.0977843505596493e-05
-9.91077853324226e-05   1.0692943175890333e-05   -6.724881245065819e-05
-9.91077853324226e-05   1.0692943175890333e-05   -6.724881245065819e-05
-9.91077853324226e-05   1.0692943175890333e-05   -6.724881245065819e-05
-9.91077853324226e-05   1.0692943175890333e-05   -6.724881245065819e-05
-9.480232744820313e-05   1.2952321961959366e-05   -3.7805127604643995e-07
-9.480232744820313e-05   1.2952321961959366e-05   -3.7805127604643995e-07
-9.480232744820313e-05   1.2952321961959366e-05   -3.7805127604643995e-07
-9.480232744820313e-05   1.2952321961959366e-05   -3.7805127604643995e-07
-6.339024825865108e-05   1.354957852613874e-05   -5.3089870530473966e-05
-6.339024825865108e-05   1.354957852613874e-05   -5.3089870530473966e-05
-6.339024825865108e-05   1.354957852613874e-05   -5.3089870530473966e-05
-6.339024825865108e-05   1.354957852613874e-05   -5.3089870530473966e-05
-7.723762740095863e-05   1.277763079956108e-05   -2.9547736657348396e-05
-7.723762740095863e-05   1.277763079956108e-05   -2.9547736657348396e-05
-7.723762740095863e-05   1.277763079956108e-05   -2.9547736657348396e-05
-7.723762740095863e-05   1.277763079956108e-05   -2.9547736657348396e-05
-6.339024825865124e-05   1.2952321961959366e-05   -7.364052145540374e-07
-6.339024825865124e-05   1.2952321961959366e-05   -7.364052145540374e-07
-6.339024825865124e-05   1.2952321961959366e-05   -7.364052145540374e-07
-6.339024825865124e-05   1.2952321961959366e-05   -7.364052145540374e-07
-9.480232744820296e-05   1.354957852613874e-05   -5.273151659196634e-05
-9.480232744820296e-05   1.354957852613874e-05   -5.273151659196634e-05
-9.480232744820296e-05   1.354957852613874e-05   -5.273151659196634e-05
-9.480232744820296e-05   1.354957852613874e-05   -5.273151659196634e-05
-9.123016019998992e-05   1.337697725469194e-05   5.614142917012132e-06
-9.123016019998992e-05   1.337697725469194e-05   5.614142917012132e-06
-9.123016019998992e-05   1.337697725469194e-05   5.614142917012132e-06
-9.123016019998992e-05   1.337697725469194e-05   5.614142917012132e-06
-6.12774582820117e-05   1.4190985506255024e-05   -4.4795431897222664e-05
-6.12774582820117e-05   1.4190985506255024e-05   -4.4795431897222664e-05
-6.12774582820117e-05   1.4190985506255024e-05   -4.4795431897222664e-05
-6.12774582820117e-05   1.4190985506255024e-05   -4.4795431897222664e-05
-7.56003822532865e-05   1.3707267562314057e-05   -2.0633661178732685e-05
-7.56003822532865e-05   1.3707267562314057e-05   -2.0633661178732685e-05
-7.56003822532865e-05   1.3707267562314057e-05   -2.0633661178732685e-05
-7.56003822532865e-05   1.3707267562314057e-05   -2.0633661178732685e-05
-6.12774582820118e-05   1.337697725469194e-05   5.125737966074238e-06
-6.12774582820118e-05   1.337697725469194e-05   5.125737966074238e-06
-6.12774582820118e-05   1.337697725469194e-05   5.125737966074238e-06
-6.12774582820118e-05   1.337697725469194e-05   5.125737966074238e-06
-9.123016019999008e-05   1.4190985506255024e-05   -4.430702694628542e-05
-9.123016019999008e-05   1.4190985506255024e-05   -4.430702694628542e-05
-9.123016019999008e-05   1.4190985506255024e-05   -4.430702694628542e-05
-9.123016019999008e-05   1.4190985506255024e-05   -4.430702694628542e-05
-8.749551033781041e-05   1.3744609254060392e-05   1.364065957017136e-05
-8.749551033781041e-05   1.3744609254060392e-05   1.364065957017136e-05
-8.749551033781041e-05   1.3744609254060392e-05   1.364065957017136e-05
-8.749551033781041e-05   1.3744609254060392e-05   1.364065957017136e-05
-5.9673248963288796e-05   1.529647538662084e-05   -3.3660895733568074e-05
-5.9673248963288796e-05   1.529647538662084e-05   -3.3660895733568074e-05
-5.9673248963288796e-05   1.529647538662084e-05   -3.3660895733568074e-05
-5.9673248963288796e-05   1.529647538662084e-05   -3.3660895733568074e-05
-7.199778507256617e-05   1.4021285598497888e-05   -1.2354888345232997e-05
-7.199778507256617e-05   1.4021285598497888e-05   -1.2354888345232997e-05
-7.199778507256617e-05   1.4021285598497888e-05   -1.2354888345232997e-05
-7.199778507256617e-05   1.4021285598497888e-05   -1.2354888345232997e-05
8.652106461291937e-05   -1.3001740456483352e-05   2.9470322562452037e-05
8.652106461291937e-05   -1.3001740456483352e-05   2.9470322562452037e-05
8.652106461291937e-05   -1.3001740456483352e-05   2.9470322562452037e-05
8.652106461291937e-05   -1.3001740456483352e-05   2.9470322562452037e-05
4.350491095346962e-05   -1.6449746327581744e-05   -4.4292070392622966e-05
4.350491095346962e-05   -1.6449746327581744e-05   -4.4292070392622966e-05
4.350491095346962e-05   -1.6449746327581744e-05   -4.4292070392622966e-05
4.350491095346962e-05   -1.6449746327581744e-05   -4.4292070392622966e-05
4.457260699958408e-05   -1.2697058419963627e-05   2.1127776764250268e-05
4.457260699958408e-05   -1.2697058419963627e-05   2.1127776764250268e-05
4.457260699958408e-05   -1.2697058419963627e-05   2.1127776764250268e-05
4.457260699958408e-05   -1.2697058419963627e-05   2.1127776764250268e-05
8.868321648696615e-05   -1.6861205976488863e-05   -4.9891417180804266e-05
8.868321648696615e-05   -1.6861205976488863e-05   -4.9891417180804266e-05
8.868321648696615e-05   -1.6861205976488863e-05   -4.9891417180804266e-05
8.868321648696615e-05   -1.6861205976488863e-05   -4.9891417180804266e-05
6.31995188637672e-05   -1.3281196096490361e-05   -9.56659373680562e-06
6.31995188637672e-05   -1.3281196096490361e-05   -9.56659373680562e-06
6.31995188637672e-05   -1.3281196096490361e-05   -9.56659373680562e-06
6.31995188637672e-05   -1.3281196096490361e-05   -9.56659373680562e-06
8.868321648696615e-05   -1.2697058419963627e-05   2.3626265298165605e-05
8.868321648696615e-05   -1.2697058419963627e-05   2.3626265298165605e-05
8.868321648696615e-05   -1.2697058419963627e-05   2.3626265298165605e-05
8.868321648696615e-05   -1.2697058419963627e-05   2.3626265298165605e-05
4.457260699958408e-05   -1.6861205976488863e-05   -5.238990571471993e-05
4.457260699958408e-05   -1.6861205976488863e-05   -5.238990571471993e-05
4.457260699958408e-05   -1.6861205976488863e-05   -5.238990571471993e-05
4.457260699958408e-05   -1.6861205976488863e-05   -5.238990571471993e-05
4.547518483873092e-05   -1.2256604550643039e-05   1.6664803899357674e-05
4.547518483873092e-05   -1.2256604550643039e-05   1.6664803899357674e-05
4.547518483873092e-05   -1.2256604550643039e-05   1.6664803899357674e-05
4.547518483873092e-05   -1.2256604550643039e-05   1.6664803899357674e-05
9.003117408551176e-05   -1.670937873357852e-05   -5.492351366884977e-05
9.003117408551176e-05   -1.670937873357852e-05   -5.492351366884977e-05
9.003117408551176e-05   -1.670937873357852e-05   -5.492351366884977e-05
9.003117408551176e-05   -1.670937873357852e-05   -5.492351366884977e-05
6.54317617485262e-05   -1.370183011119232e-05   -1.5729022280638405e-05
6.54317617485262e-05   -1.370183011119232e-05   -1.5729022280638405e-05
6.54317617485262e-05   -1.370183011119232e-05   -1.5729022280638405e-05
6.54317617485262e-05   -1.370183011119232e-05   -1.5729022280638405e-05
9.003117408551176e-05   -1.2256604550643039e-05   1.9336468409118356e-05
9.003117408551176e-05   -1.2256604550643039e-05   1.9336468409118356e-05
9.003117408551176e-05   -1.2256604550643039e-05   1.9336468409118356e-05
9.003117408551176e-05   -1.2256604550643039e-05   1.9336468409118356e-05
4.547518483873092e-05   -1.670937873357852e-05   -5.7595178178610667e-05
4.547518483873092e-05   -1.670937873357852e-05   -5.7595178178610667e-05
4.547518483873092e-05   -1.670937873357852e-05   -5.7595178178610667e-05
4.547518483873092e-05   -1.670937873357852e-05   -5.7595178178610667e-05
4.641886818595e-05   -1.0537350013121918e-05   7.999636776456504e-06
4.641886818595e-05   -1.0537350013121918e-05   7.999636776456504e-06
4.641886818595e-05   -1.0537350013121918e-05   7.999636776456504e-06
4.641886818595e-05   -1.0537350013121918e-05   7.999636776456504e-06
9.1358391534758e-05   -1.5782510683544273e-05   -6.375247240263658e-05
9.1358391534758e-05   -1.5782510683544273e-05   -6.375247240263658e-05
9.1358391534758e-05   -1.5782510683544273e-05   -6.375247240263658e-05
9.1358391534758e-05   -1.5782510683544273e-05   -6.375247240263658e-05
6.546874402607567e-05   -1.3188011671169805e-05   -2.215975929559103e-05
6.546874402607567e-05   -1.3188011671169805e-05   -2.215975929559103e-05
6.546874402607567e-05   -1.3188011671169805e-05   -2.215975929559103e-05
6.546874402607567e-05   -1.3188011671169805e-05   -2.215975929559103e-05
4.350491095346962e-05   -8.440547657739654e-06   2.8510130883863897e-06
4.350491095346962e-05   -8.440547657739654e-06   2.8510130883863897e-06
4.350491095346962e-05   -8.440547657739654e-06   2.8510130883863897e-06
4.350491095346962e-05   -8.440547657739654e-06   2.8510130883863897e-06
5.2003896319867404e-06   -1.6539442310444658e-05   -6.584919257237513e-05
5.2003896319867404e-06   -1.6539442310444658e-05   -6.584919257237513e-05
5.2003896319867404e-06   -1.6539442310444658e-05   -6.584919257237513e-05
5.2003896319867404e-06   -1.6539442310444658e-05   -6.584919257237513e-05
6.445240934702931e-06   -8.038539093912014e-06   -4.699217595327543e-07
6.445240934702931e-06   -8.038539093912014e-06   -4.699217595327543e-07
6.445240934702931e-06   -8.038539093912014e-06   -4.699217595327543e-07
6.445240934702931e-06   -8.038539093912014e-06   -4.699217595327543e-07
4.4572606999584134e-05   -1.6456259038733368e-05   -5.896489990077532e-05
4.4572606999584134e-05   -1.6456259038733368e-05   -5.896489990077532e-05
4.4572606999584134e-05   -1.6456259038733368e-05   -5.896489990077532e-05
4.4572606999584134e-05   -1.6456259038733368e-05   -5.896489990077532e-05
2.502879081995674e-05   -1.1156197070954187e-05   -2.9571910115397263e-05
2.502879081995674e-05   -1.1156197070954187e-05   -2.9571910115397263e-05
2.502879081995674e-05   -1.1156197070954187e-05   -2.9571910115397263e-05
2.502879081995674e-05   -1.1156197070954187e-05   -2.9571910115397263e-05
4.4572606999584025e-05   -8.038539093912014e-06   4.580710207359787e-06
4.4572606999584025e-05   -8.038539093912014e-06   4.580710207359787e-06
4.4572606999584025e-05   -8.038539093912014e-06   4.580710207359787e-06
4.4572606999584025e-05   -8.038539093912014e-06   4.580710207359787e-06
6.445240934702931e-06   -1.6456259038733368e-05   -6.401553186766813e-05
6.445240934702931e-06   -1.6456259038733368e-05   -6.401553186766813e-05
6.445240934702931e-06   -1.6456259038733368e-05   -6.401553186766813e-05
6.445240934702931e-06   -1.6456259038733368e-05   -6.401553186766813e-05
7.568981783612937e-06   -7.288563986302798e-06   -8.726937670037668e-07
7.568981783612937e-06   -7.288563986302798e-06   -8.726937670037668e-07
7.568981783612937e-06   -7.288563986302798e-06   -8.726937670037668e-07
7.568981783612937e-06   -7.288563986302798e-06   -8.726937670037668e-07
4.547518483873092e-05   -1.6237607198892404e-05   -5.868027293131316e-05
4.547518483873092e-05   -1.6237607198892404e-05   -5.868027293131316e-05
4.547518483873092e-05   -1.6237607198892404e-05   -5.868027293131316e-05
4.547518483873092e-05   -1.6237607198892404e-05   -5.868027293131316e-05
2.57370539227012e-05   -1.1280997994028577e-05   -2.875735359418065e-05
2.57370539227012e-05   -1.1280997994028577e-05   -2.875735359418065e-05
2.57370539227012e-05   -1.1280997994028577e-05   -2.875735359418065e-05
2.57370539227012e-05   -1.1280997994028577e-05   -2.875735359418065e-05
4.547518483873092e-05   -7.288563986302798e-06   4.496732160550062e-06
4.547518483873092e-05   -7.288563986302798e-06   4.496732160550062e-06
4.547518483873092e-05   -7.288563986302798e-06   4.496732160550062e-06
4.547518483873092e-05   -7.288563986302798e-06   4.496732160550062e-06
7.568981783612937e-06   -1.6237607198892404e-05   -6.404969885886688e-05
7.568981783612937e-06   -1.6237607198892404e-05   -6.404969885886688e-05
7.568981783612937e-06   -1.6237607198892404e-05   -6.404969885886688e-05
7.568981783612937e-06   -1.6237607198892404e-05   -6.404969885886688e-05
9.245751573220905e-06   -6.2216375179761745e-06   -1.6492732571142532e-06
9.245751573220905e-06   -6.2216375179761745e-06   -1.6492732571142532e-06
9.245751573220905e-06   -6.2216375179761745e-06   -1.6492732571142532e-06
9.245751573220905e-06   -6.2216375179761745e-06   -1.6492732571142532e-06
4.6418868185949945e-05   -1.579932164051537e-05   -5.7857857138138595e-05
4.6418868185949945e-05   -1.579932164051537e-05   -5.7857857138138595e-05
4.6418868185949945e-05   -1.579932164051537e-05   -5.7857857138138595e-05
4.6418868185949945e-05   -1.579932164051537e-05   -5.7857857138138595e-05
2.7083922749948782e-05   -1.1108590111228887e-05   -2.8447386995708937e-05
2.7083922749948782e-05   -1.1108590111228887e-05   -2.8447386995708937e-05
2.7083922749948782e-05   -1.1108590111228887e-05   -2.8447386995708937e-05
2.7083922749948782e-05   -1.1108590111228887e-05   -2.8447386995708937e-05
5.2003896319867404e-06   -4.4553468909625665e-06   -6.630566616777487e-06
5.2003896319867404e-06   -4.4553468909625665e-06   -6.630566616777487e-06
5.2003896319867404e-06   -4.4553468909625665e-06   -6.630566616777487e-06
5.2003896319867404e-06   -4.4553468909625665e-06   -6.630566616777487e-06
-3.270967397906715e-05   -1.999135812784207e-05   -7.913561271066143e-05
-3.270967397906715e-05   -1.999135812784207e-05   -7.913561271066143e-05
-3.270967397906715e-05   -1.999135812784207e-05   -7.913561271066143e-05
-3.270967397906715e-05   -1.999135812784207e-05   -7.913561271066143e-05
-3.077099749332354e-05   -3.982331454198754e-06   -1.4257217168675129e-05
-3.077099749332354e-05   -3.982331454198754e-06   -1.4257217168675129e-05
-3.077099749332354e-05   -3.982331454198754e-06   -1.4257217168675129e-05
-3.077099749332354e-05   -3.982331454198754e-06   -1.4257217168675129e-05
6.445240934702931e-06   -2.0436124018387118e-05   -6.641200567687289e-05
6.445240934702931e-06   -2.0436124018387118e-05   -6.641200567687289e-05
6.445240934702931e-06   -2.0436124018387118e-05   -6.641200567687289e-05
6.445240934702931e-06   -2.0436124018387118e-05   -6.641200567687289e-05
-1.2519422141924667e-05   -1.1312941823450693e-05   -4.0278143199455694e-05
-1.2519422141924667e-05   -1.1312941823450693e-05   -4.0278143199455694e-05
-1.2519422141924667e-05   -1.1312941823450693e-05   -4.0278143199455694e-05
-1.2519422141924667e-05   -1.1312941823450693e-05   -4.0278143199455694e-05
6.445240934702931e-06   -3.982331454198754e-06   -4.384941630162343e-06
6.445240934702931e-06   -3.982331454198754e-06   -4.384941630162343e-06
6.445240934702931e-06   -3.982331454198754e-06   -4.384941630162343e-06
6.445240934702931e-06   -3.982331454198754e-06   -4.384941630162343e-06
-3.077099749332358e-05   -2.0436124018386684e-05   -7.62842812153863e-05
-3.077099749332358e-05   -2.0436124018386684e-05   -7.62842812153863e-05
-3.077099749332358e-05   -2.0436124018386684e-05   -7.62842812153863e-05
-3.077099749332358e-05   -2.0436124018386684e-05   -7.62842812153863e-05
-2.9100875466029616e-05   -3.2437645343329734e-06   -1.3317693174497072e-05
-2.9100875466029616e-05   -3.2437645343329734e-06   -1.3317693174497072e-05
-2.9100875466029616e-05   -3.2437645343329734e-06   -1.3317693174497072e-05
-2.9100875466029616e-05   -3.2437645343329734e-06   -1.3317693174497072e-05
7.568981783612937e-06   -2.034371821832935e-05   -6.417414971350306e-05
7.568981783612937e-06   -2.034371821832935e-05   -6.417414971350306e-05
7.568981783612937e-06   -2.034371821832935e-05   -6.417414971350306e-05
7.568981783612937e-06   -2.034371821832935e-05   -6.417414971350306e-05
-1.1142559932500549e-05   -1.1571611317774547e-05   -3.8251510993646915e-05
-1.1142559932500549e-05   -1.1571611317774547e-05   -3.8251510993646915e-05
-1.1142559932500549e-05   -1.1571611317774547e-05   -3.8251510993646915e-05
-1.1142559932500549e-05   -1.1571611317774547e-05   -3.8251510993646915e-05
7.568981783612937e-06   -3.2437645343325397e-06   -3.057720964098773e-06
7.568981783612937e-06   -3.2437645343325397e-06   -3.057720964098773e-06
7.568981783612937e-06   -3.2437645343325397e-06   -3.057720964098773e-06
7.568981783612937e-06   -3.2437645343325397e-06   -3.057720964098773e-06
-2.910087546602971e-05   -2.0343718218328918e-05   -7.443412192390127e-05
-2.910087546602971e-05   -2.0343718218328918e-05   -7.443412192390127e-05
-2.910087546602971e-05   -2.0343718218328918e-05   -7.443412192390127e-05
-2.910087546602971e-05   -2.0343718218328918e-05   -7.443412192390127e-05
-2.621960194606217e-05   -2.54369809948949e-06   -1.3260523611735315e-05
-2.621960194606217e-05   -2.54369809948949e-06   -1.3260523611735315e-05
-2.621960194606217e-05   -2.54369809948949e-06   -1.3260523611735315e-05
-2.621960194606217e-05   -2.54369809948949e-06   -1.3260523611735315e-05
9.245751573220905e-06   -1.963410581789062e-05   -6.21152015128335e-05
9.245751573220905e-06   -1.963410581789062e-05   -6.21152015128335e-05
9.245751573220905e-06   -1.963410581789062e-05   -6.21152015128335e-05
9.245751573220905e-06   -1.963410581789062e-05   -6.21152015128335e-05
-9.353449095197367e-06   -1.131790292890596e-05   -3.610625546552682e-05
-9.353449095197367e-06   -1.131790292890596e-05   -3.610625546552682e-05
-9.353449095197367e-06   -1.131790292890596e-05   -3.610625546552682e-05
-9.353449095197367e-06   -1.131790292890596e-05   -3.610625546552682e-05
-3.27096739790671e-05   1.0809966171695246e-06   -9.275641129584462e-06
-3.27096739790671e-05   1.0809966171695246e-06   -9.275641129584462e-06
-3.27096739790671e-05   1.0809966171695246e-06   -9.275641129584462e-06
-3.27096739790671e-05   1.0809966171695246e-06   -9.275641129584462e-06
-7.502068415371678e-05   -2.4964278744596998e-05   -9.542115663772714e-05
-7.502068415371678e-05   -2.4964278744596998e-05   -9.542115663772714e-05
-7.502068415371678e-05   -2.4964278744596998e-05   -9.542115663772714e-05
-7.502068415371678e-05   -2.4964278744596998e-05   -9.542115663772714e-05
-7.270839581260328e-05   1.958766501366973e-06   -2.41305213011158e-05
-7.270839581260328e-05   1.958766501366973e-06   -2.41305213011158e-05
-7.270839581260328e-05   1.958766501366973e-06   -2.41305213011158e-05
-7.270839581260328e-05   1.958766501366973e-06   -2.41305213011158e-05
-3.077099749332354e-05   -2.785957383086334e-05   -7.613518096724332e-05
-3.077099749332354e-05   -2.785957383086334e-05   -7.613518096724332e-05
-3.077099749332354e-05   -2.785957383086334e-05   -7.613518096724332e-05
-3.077099749332354e-05   -2.785957383086334e-05   -7.613518096724332e-05
-5.204080275581825e-05   -1.2715385639277188e-05   -4.9772018444704325e-05
-5.204080275581825e-05   -1.2715385639277188e-05   -4.9772018444704325e-05
-5.204080275581825e-05   -1.2715385639277188e-05   -4.9772018444704325e-05
-5.204080275581825e-05   -1.2715385639277188e-05   -4.9772018444704325e-05
-3.077099749332354e-05   1.958766501366973e-06   -6.2395171017773105e-06
-3.077099749332354e-05   1.958766501366973e-06   -6.2395171017773105e-06
-3.077099749332354e-05   1.958766501366973e-06   -6.2395171017773105e-06
-3.077099749332354e-05   1.958766501366973e-06   -6.2395171017773105e-06
-7.270839581260342e-05   -2.785957383086334e-05   -9.402618516658203e-05
-7.270839581260342e-05   -2.785957383086334e-05   -9.402618516658203e-05
-7.270839581260342e-05   -2.785957383086334e-05   -9.402618516658203e-05
-7.270839581260342e-05   -2.785957383086334e-05   -9.402618516658203e-05
-7.049152415573062e-05   2.767135831078897e-06   -2.1572251645314046e-05
-7.049152415573062e-05   2.767135831078897e-06   -2.1572251645314046e-05
-7.049152415573062e-05   2.767135831078897e-06   -2.1572251645314046e-05
-7.049152415573062e-05   2.767135831078897e-06   -2.1572251645314046e-05
-2.9100875466029656e-05   -2.8018255179520623e-05   -7.208543152178895e-05
-2.9100875466029656e-05   -2.8018255179520623e-05   -7.208543152178895e-05
-2.9100875466029656e-05   -2.8018255179520623e-05   -7.208543152178895e-05
-2.9100875466029656e-05   -2.8018255179520623e-05   -7.208543152178895e-05
-4.9786310670770767e-05   -1.2761411380491543e-05   -4.6763812459971166e-05
-4.9786310670770767e-05   -1.2761411380491543e-05   -4.6763812459971166e-05
-4.9786310670770767e-05   -1.2761411380491543e-05   -4.6763812459971166e-05
-4.9786310670770767e-05   -1.2761411380491543e-05   -4.6763812459971166e-05
-2.9100875466029656e-05   2.767135831078897e-06   -3.1010170389539164e-06
-2.9100875466029656e-05   2.767135831078897e-06   -3.1010170389539164e-06
-2.9100875466029656e-05   2.767135831078897e-06   -3.1010170389539164e-06
-2.9100875466029656e-05   2.767135831078897e-06   -3.1010170389539164e-06
-7.049152415573075e-05   -2.8018255179520623e-05   -9.055666612814905e-05
-7.049152415573075e-05   -2.8018255179520623e-05   -9.055666612814905e-05
-7.049152415573075e-05   -2.8018255179520623e-05   -9.055666612814905e-05
-7.049152415573075e-05   -2.8018255179520623e-05   -9.055666612814905e-05
-6.686014849965335e-05   3.4516311953405876e-06   -1.896457853319206e-05
-6.686014849965335e-05   3.4516311953405876e-06   -1.896457853319206e-05
-6.686014849965335e-05   3.4516311953405876e-06   -1.896457853319206e-05
-6.686014849965335e-05   3.4516311953405876e-06   -1.896457853319206e-05
-2.6219601946062278e-05   -2.5589091015550472e-05   -6.927438946264229e-05
-2.6219601946062278e-05   -2.5589091015550472e-05   -6.927438946264229e-05
-2.6219601946062278e-05   -2.5589091015550472e-05   -6.927438946264229e-05
-2.6219601946062278e-05   -2.5589091015550472e-05   -6.927438946264229e-05
-4.75575403159537e-05   -1.1285172362232544e-05   -4.229351003814767e-05
-4.75575403159537e-05   -1.1285172362232544e-05   -4.229351003814767e-05
-4.75575403159537e-05   -1.1285172362232544e-05   -4.229351003814767e-05
-4.75575403159537e-05   -1.1285172362232544e-05   -4.229351003814767e-05
-7.502068415371678e-05   1.0692943175890333e-05   -1.6331541068564163e-05
-7.502068415371678e-05   1.0692943175890333e-05   -1.6331541068564163e-05
-7.502068415371678e-05   1.0692943175890333e-05   -1.6331541068564163e-05
-7.502068415371678e-05   1.0692943175890333e-05   -1.6331541068564163e-05
-0.0001292458763112293   0.0   -0.00011312262723661964
-0.0001292458763112293   0.0   -0.00011312262723661964
-0.0001292458763112293   0.0   -0.00011312262723661964
-0.0001292458763112293   0.0   -0.00011312262723661964
-0.00012585995245104054   1.354957852613874e-05   -1.254514562351399e-05
-0.00012585995245104054   1.354957852613874e-05   -1.254514562351399e-05
-0.00012585995245104054   1.354957852613874e-05   -1.254514562351399e-05
-0.00012585995245104054   1.354957852613874e-05   -1.254514562351399e-05
-7.270839581260328e-05   0.0   -9.300132623855993e-05
-7.270839581260328e-05   0.0   -9.300132623855993e-05
-7.270839581260328e-05   0.0   -9.300132623855993e-05
-7.270839581260328e-05   0.0   -9.300132623855993e-05
-9.642892890780023e-05   4.1338420702832085e-06   -5.5947409655401166e-05
-9.642892890780023e-05   4.1338420702832085e-06   -5.5947409655401166e-05
-9.642892890780023e-05   4.1338420702832085e-06   -5.5947409655401166e-05
-9.642892890780023e-05   4.1338420702832085e-06   -5.5947409655401166e-05
-7.270839581260335e-05   1.354957852613874e-05   -4.415398507830458e-06
-7.270839581260335e-05   1.354957852613874e-05   -4.415398507830458e-06
-7.270839581260335e-05   1.354957852613874e-05   -4.415398507830458e-06
-7.270839581260335e-05   1.354957852613874e-05   -4.415398507830458e-06
-0.00012585995245104032   0.0   -0.00010113107335424257
-0.00012585995245104032   0.0   -0.00010113107335424257
-0.00012585995245104032   0.0   -0.00010113107335424257
-0.00012585995245104032   0.0   -0.00010113107335424257
-0.0001229972867712175   1.4190985506255024e-05   -5.056518628899619e-06
-0.0001229972867712175   1.4190985506255024e-05   -5.056518628899619e-06
-0.0001229972867712175   1.4190985506255024e-05   -5.056518628899619e-06
-0.0001229972867712175   1.4190985506255024e-05   -5.056518628899619e-06
-7.049152415573075e-05   0.0   -8.405153168429156e-05
-7.049152415573075e-05   0.0   -8.405153168429156e-05
-7.049152415573075e-05   0.0   -8.405153168429156e-05
-7.049152415573075e-05   0.0   -8.405153168429156e-05
-9.541333068008942e-05   6.5595968824700476e-06   -4.645094560650799e-05
-9.541333068008942e-05   6.5595968824700476e-06   -4.645094560650799e-05
-9.541333068008942e-05   6.5595968824700476e-06   -4.645094560650799e-05
-9.541333068008942e-05   6.5595968824700476e-06   -4.645094560650799e-05
-7.049152415573075e-05   1.4190985506255024e-05   3.4580726748531754e-06
-7.049152415573075e-05   1.4190985506255024e-05   3.4580726748531754e-06
-7.049152415573075e-05   1.4190985506255024e-05   3.4580726748531754e-06
-7.049152415573075e-05   1.4190985506255024e-05   3.4580726748531754e-06
-0.00012299728677121728   0.0   -9.256612298804432e-05
-0.00012299728677121728   0.0   -9.256612298804432e-05
-0.00012299728677121728   0.0   -9.256612298804432e-05
-0.00012299728677121728   0.0   -9.256612298804432e-05
-0.00011728737762780151   1.529647538662084e-05   6.991020028953351e-06
-0.00011728737762780151   1.529647538662084e-05   6.991020028953351e-06
-0.00011728737762780151   1.529647538662084e-05   6.991020028953351e-06
-0.00011728737762780151   1.529647538662084e-05   6.991020028953351e-06
-6.68601484996534e-05   0.0   -6.787647661932097e-05
-6.68601484996534e-05   0.0   -6.787647661932097e-05
-6.68601484996534e-05   0.0   -6.787647661932097e-05
-6.68601484996534e-05   0.0   -6.787647661932097e-05
-9.043553138269293e-05   8.093632382984986e-06   -3.34403512440469e-05
-9.043553138269293e-05   8.093632382984986e-06   -3.34403512440469e-05
-9.043553138269293e-05   8.093632382984986e-06   -3.34403512440469e-05
-9.043553138269293e-05   8.093632382984986e-06   -3.34403512440469e-05
9.572282351626534e-05   -1.6449746327581744e-05   5.7162468720701174e-05
9.572282351626534e-05   -1.6449746327581744e-05   5.7162468720701174e-05
9.572282351626534e-05   -1.6449746327581744e-05   5.7162468720701174e-05
9.572282351626534e-05   -1.6449746327581744e-05   5.7162468720701174e-05
4.968010949648783e-05   -1.2663705813475805e-05   -1.7303763670464736e-05
4.968010949648783e-05   -1.2663705813475805e-05   -1.7303763670464736e-05
4.968010949648783e-05   -1.2663705813475805e-05   -1.7303763670464736e-05
4.968010949648783e-05   -1.2663705813475805e-05   -1.7303763670464736e-05
4.842704728736275e-05   -1.6861205976488863e-05   5.049920684671062e-05
4.842704728736275e-05   -1.6861205976488863e-05   5.049920684671062e-05
4.842704728736275e-05   -1.6861205976488863e-05   5.049920684671062e-05
4.842704728736275e-05   -1.6861205976488863e-05   5.049920684671062e-05
9.469455947091107e-05   -1.392554588824143e-05   -2.8374709512152436e-05
9.469455947091107e-05   -1.392554588824143e-05   -2.8374709512152436e-05
9.469455947091107e-05   -1.392554588824143e-05   -2.8374709512152436e-05
9.469455947091107e-05   -1.392554588824143e-05   -2.8374709512152436e-05
6.918039054536334e-05   -1.4167792001331747e-05   1.4294253031614632e-05
6.918039054536334e-05   -1.4167792001331747e-05   1.4294253031614632e-05
6.918039054536334e-05   -1.4167792001331747e-05   1.4294253031614632e-05
6.918039054536334e-05   -1.4167792001331747e-05   1.4294253031614632e-05
9.469455947091107e-05   -1.6861205976488863e-05   4.873781079376148e-05
9.469455947091107e-05   -1.6861205976488863e-05   4.873781079376148e-05
9.469455947091107e-05   -1.6861205976488863e-05   4.873781079376148e-05
9.469455947091107e-05   -1.6861205976488863e-05   4.873781079376148e-05
4.842704728736275e-05   -1.392554588824143e-05   -2.6613313459203456e-05
4.842704728736275e-05   -1.392554588824143e-05   -2.6613313459203456e-05
4.842704728736275e-05   -1.392554588824143e-05   -2.6613313459203456e-05
4.842704728736275e-05   -1.392554588824143e-05   -2.6613313459203456e-05
4.729379711215578e-05   -1.670937873357852e-05   4.5346915353235845e-05
4.729379711215578e-05   -1.670937873357852e-05   4.5346915353235845e-05
4.729379711215578e-05   -1.670937873357852e-05   4.5346915353235845e-05
4.729379711215578e-05   -1.670937873357852e-05   4.5346915353235845e-05
9.350649606243213e-05   -1.4042546712493553e-05   -3.3274348776541956e-05
9.350649606243213e-05   -1.4042546712493553e-05   -3.3274348776541956e-05
9.350649606243213e-05   -1.4042546712493553e-05   -3.3274348776541956e-05
9.350649606243213e-05   -1.4042546712493553e-05   -3.3274348776541956e-05
6.912404949751166e-05   -1.4416236349855654e-05   7.587275947409217e-06
6.912404949751166e-05   -1.4416236349855654e-05   7.587275947409217e-06
6.912404949751166e-05   -1.4416236349855654e-05   7.587275947409217e-06
6.912404949751166e-05   -1.4416236349855654e-05   7.587275947409217e-06
9.35064960624323e-05   -1.6709378733578088e-05   4.374681614058523e-05
9.35064960624323e-05   -1.6709378733578088e-05   4.374681614058523e-05
9.35064960624323e-05   -1.6709378733578088e-05   4.374681614058523e-05
9.35064960624323e-05   -1.6709378733578088e-05   4.374681614058523e-05
4.729379711215578e-05   -1.4042546712493553e-05   -3.1674249563891236e-05
4.729379711215578e-05   -1.4042546712493553e-05   -3.1674249563891236e-05
4.729379711215578e-05   -1.4042546712493553e-05   -3.1674249563891236e-05
4.729379711215578e-05   -1.4042546712493553e-05   -3.1674249563891236e-05
4.591136349394698e-05   -1.5782510683544273e-05   3.696463409568265e-05
4.591136349394698e-05   -1.5782510683544273e-05   3.696463409568265e-05
4.591136349394698e-05   -1.5782510683544273e-05   3.696463409568265e-05
4.591136349394698e-05   -1.5782510683544273e-05   3.696463409568265e-05
9.164511643815035e-05   -1.3752565289046597e-05   -4.047625471468794e-05
9.164511643815035e-05   -1.3752565289046597e-05   -4.047625471468794e-05
9.164511643815035e-05   -1.3752565289046597e-05   -4.047625471468794e-05
9.164511643815035e-05   -1.3752565289046597e-05   -4.047625471468794e-05
6.67608856175208e-05   -1.3708751521899912e-05   9.711750594065338e-07
6.67608856175208e-05   -1.3708751521899912e-05   9.711750594065338e-07
6.67608856175208e-05   -1.3708751521899912e-05   9.711750594065338e-07
6.67608856175208e-05   -1.3708751521899912e-05   9.711750594065338e-07
4.968010949648783e-05   -1.6539442310444658e-05   4.273630764103567e-05
4.968010949648783e-05   -1.6539442310444658e-05   4.273630764103567e-05
4.968010949648783e-05   -1.6539442310444658e-05   4.273630764103567e-05
4.968010949648783e-05   -1.6539442310444658e-05   4.273630764103567e-05
1.0626754732397201e-05   -7.844135294554546e-06   -1.7135432756247657e-05
1.0626754732397201e-05   -7.844135294554546e-06   -1.7135432756247657e-05
1.0626754732397201e-05   -7.844135294554546e-06   -1.7135432756247657e-05
1.0626754732397201e-05   -7.844135294554546e-06   -1.7135432756247657e-05
8.64354180080663e-06   -1.6456259038733368e-05   4.880550452877278e-05
8.64354180080663e-06   -1.6456259038733368e-05   4.880550452877278e-05
8.64354180080663e-06   -1.6456259038733368e-05   4.880550452877278e-05
8.64354180080663e-06   -1.6456259038733368e-05   4.880550452877278e-05
4.842704728736275e-05   -8.320772591868548e-06   -2.2381629816938756e-05
4.842704728736275e-05   -8.320772591868548e-06   -2.2381629816938756e-05
4.842704728736275e-05   -8.320772591868548e-06   -2.2381629816938756e-05
4.842704728736275e-05   -8.320772591868548e-06   -2.2381629816938756e-05
2.9304118152818546e-05   -1.1835443557506016e-05   1.1598721320016988e-05
2.9304118152818546e-05   -1.1835443557506016e-05   1.1598721320016988e-05
2.9304118152818546e-05   -1.1835443557506016e-05   1.1598721320016988e-05
2.9304118152818546e-05   -1.1835443557506016e-05   1.1598721320016988e-05
4.8427047287362694e-05   -1.6456259038733368e-05   4.3924212660654855e-05
4.8427047287362694e-05   -1.6456259038733368e-05   4.3924212660654855e-05
4.8427047287362694e-05   -1.6456259038733368e-05   4.3924212660654855e-05
4.8427047287362694e-05   -1.6456259038733368e-05   4.3924212660654855e-05
8.64354180080663e-06   -8.320772591868981e-06   -1.7500337948820558e-05
8.64354180080663e-06   -8.320772591868981e-06   -1.7500337948820558e-05
8.64354180080663e-06   -8.320772591868981e-06   -1.7500337948820558e-05
8.64354180080663e-06   -8.320772591868981e-06   -1.7500337948820558e-05
7.229779726480439e-06   -1.6237607198892404e-05   4.8884056166677986e-05
7.229779726480439e-06   -1.6237607198892404e-05   4.8884056166677986e-05
7.229779726480439e-06   -1.6237607198892404e-05   4.8884056166677986e-05
7.229779726480439e-06   -1.6237607198892404e-05   4.8884056166677986e-05
4.729379711215578e-05   -8.53388125531809e-06   -2.251154170892578e-05
4.729379711215578e-05   -8.53388125531809e-06   -2.251154170892578e-05
4.729379711215578e-05   -8.53388125531809e-06   -2.251154170892578e-05
4.729379711215578e-05   -8.53388125531809e-06   -2.251154170892578e-05
2.7605254542905814e-05   -1.1593844185971407e-05   1.2138673664884156e-05
2.7605254542905814e-05   -1.1593844185971407e-05   1.2138673664884156e-05
2.7605254542905814e-05   -1.1593844185971407e-05   1.2138673664884156e-05
2.7605254542905814e-05   -1.1593844185971407e-05   1.2138673664884156e-05
4.729379711215586e-05   -1.6237607198892837e-05   4.426182060053346e-05
4.729379711215586e-05   -1.6237607198892837e-05   4.426182060053346e-05
4.729379711215586e-05   -1.6237607198892837e-05   4.426182060053346e-05
4.729379711215586e-05   -1.6237607198892837e-05   4.426182060053346e-05
7.229779726480439e-06   -8.53388125531809e-06   -1.788930614278093e-05
7.229779726480439e-06   -8.53388125531809e-06   -1.788930614278093e-05
7.229779726480439e-06   -8.53388125531809e-06   -1.788930614278093e-05
7.229779726480439e-06   -8.53388125531809e-06   -1.788930614278093e-05
5.656904245274268e-06   -1.579932164051537e-05   5.047982325569666e-05
5.656904245274268e-06   -1.579932164051537e-05   5.047982325569666e-05
5.656904245274268e-06   -1.579932164051537e-05   5.047982325569666e-05
5.656904245274268e-06   -1.579932164051537e-05   5.047982325569666e-05
4.591136349394695e-05   -8.343525818411881e-06   -2.1084419652020805e-05
4.591136349394695e-05   -8.343525818411881e-06   -2.1084419652020805e-05
4.591136349394695e-05   -8.343525818411881e-06   -2.1084419652020805e-05
4.591136349394695e-05   -8.343525818411881e-06   -2.1084419652020805e-05
2.656534844388243e-05   -1.1086789332533575e-05   1.2804896873226451e-05
2.656534844388243e-05   -1.1086789332533575e-05   1.2804896873226451e-05
2.656534844388243e-05   -1.1086789332533575e-05   1.2804896873226451e-05
2.656534844388243e-05   -1.1086789332533575e-05   1.2804896873226451e-05
1.0626754732397228e-05   -1.999135812784207e-05   4.3988678454411154e-05
1.0626754732397228e-05   -1.999135812784207e-05   4.3988678454411154e-05
1.0626754732397228e-05   -1.999135812784207e-05   4.3988678454411154e-05
1.0626754732397228e-05   -1.999135812784207e-05   4.3988678454411154e-05
-2.6885723305293844e-05   -3.3198985320954076e-06   -8.529242517625515e-06
-2.6885723305293844e-05   -3.3198985320954076e-06   -8.529242517625515e-06
-2.6885723305293844e-05   -3.3198985320954076e-06   -8.529242517625515e-06
-2.6885723305293844e-05   -3.3198985320954076e-06   -8.529242517625515e-06
-2.99712093018903e-05   -2.0436124018386684e-05   5.6566917751398396e-05
-2.99712093018903e-05   -2.0436124018386684e-05   5.6566917751398396e-05
-2.99712093018903e-05   -2.0436124018386684e-05   5.6566917751398396e-05
-2.99712093018903e-05   -2.0436124018386684e-05   5.6566917751398396e-05
8.64354180080663e-06   -3.506312298669906e-06   -1.7948887784927006e-05
8.64354180080663e-06   -3.506312298669906e-06   -1.7948887784927006e-05
8.64354180080663e-06   -3.506312298669906e-06   -1.7948887784927006e-05
8.64354180080663e-06   -3.506312298669906e-06   -1.7948887784927006e-05
-9.05943290448912e-06   -1.1434081604118265e-05   1.6312731640501753e-05
-9.05943290448912e-06   -1.1434081604118265e-05   1.6312731640501753e-05
-9.05943290448912e-06   -1.1434081604118265e-05   1.6312731640501753e-05
-9.05943290448912e-06   -1.1434081604118265e-05   1.6312731640501753e-05
8.64354180080663e-06   -2.0436124018387118e-05   4.640903071956808e-05
8.64354180080663e-06   -2.0436124018387118e-05   4.640903071956808e-05
8.64354180080663e-06   -2.0436124018387118e-05   4.640903071956808e-05
8.64354180080663e-06   -2.0436124018387118e-05   4.640903071956808e-05
-2.9971209301890247e-05   -3.5063122986703395e-06   -7.791000753096635e-06
-2.9971209301890247e-05   -3.5063122986703395e-06   -7.791000753096635e-06
-2.9971209301890247e-05   -3.5063122986703395e-06   -7.791000753096635e-06
-2.9971209301890247e-05   -3.5063122986703395e-06   -7.791000753096635e-06
-3.185627339401785e-05   -2.0343718218328918e-05   5.872524396632363e-05
-3.185627339401785e-05   -2.0343718218328918e-05   5.872524396632363e-05
-3.185627339401785e-05   -2.0343718218328918e-05   5.872524396632363e-05
-3.185627339401785e-05   -2.0343718218328918e-05   5.872524396632363e-05
7.229779726480439e-06   -3.7343204611927673e-06   -1.638381655545522e-05
7.229779726480439e-06   -3.7343204611927673e-06   -1.638381655545522e-05
7.229779726480439e-06   -3.7343204611927673e-06   -1.638381655545522e-05
7.229779726480439e-06   -3.7343204611927673e-06   -1.638381655545522e-05
-1.1147917874250815e-05   -1.1399876530380874e-05   1.8845013087276244e-05
-1.1147917874250815e-05   -1.1399876530380874e-05   1.8845013087276244e-05
-1.1147917874250815e-05   -1.1399876530380874e-05   1.8845013087276244e-05
-1.1147917874250815e-05   -1.1399876530380874e-05   1.8845013087276244e-05
7.229779726480412e-06   -2.0343718218328918e-05   4.875960531204154e-05
7.229779726480412e-06   -2.0343718218328918e-05   4.875960531204154e-05
7.229779726480412e-06   -2.0343718218328918e-05   4.875960531204154e-05
7.229779726480412e-06   -2.0343718218328918e-05   4.875960531204154e-05
-3.1856273394017794e-05   -3.7343204611927673e-06   -6.418177901173399e-06
-3.1856273394017794e-05   -3.7343204611927673e-06   -6.418177901173399e-06
-3.1856273394017794e-05   -3.7343204611927673e-06   -6.418177901173399e-06
-3.1856273394017794e-05   -3.7343204611927673e-06   -6.418177901173399e-06
-3.407432880337812e-05   -1.963410581789062e-05   6.15211693168337e-05
-3.407432880337812e-05   -1.963410581789062e-05   6.15211693168337e-05
-3.407432880337812e-05   -1.963410581789062e-05   6.15211693168337e-05
-3.407432880337812e-05   -1.963410581789062e-05   6.15211693168337e-05
5.656904245274268e-06   -3.7139725473757726e-06   -1.4249632393228528e-05
5.656904245274268e-06   -3.7139725473757726e-06   -1.4249632393228528e-05
5.656904245274268e-06   -3.7139725473757726e-06   -1.4249632393228528e-05
5.656904245274268e-06   -3.7139725473757726e-06   -1.4249632393228528e-05
-1.2848161687241812e-05   -1.0949033267468973e-05   2.0933180593021004e-05
-1.2848161687241812e-05   -1.0949033267468973e-05   2.0933180593021004e-05
-1.2848161687241812e-05   -1.0949033267468973e-05   2.0933180593021004e-05
-1.2848161687241812e-05   -1.0949033267468973e-05   2.0933180593021004e-05
-2.68857233052939e-05   -2.4964278744596998e-05   5.333317550185399e-05
-2.68857233052939e-05   -2.4964278744596998e-05   5.333317550185399e-05
-2.68857233052939e-05   -2.4964278744596998e-05   5.333317550185399e-05
-2.68857233052939e-05   -2.4964278744596998e-05   5.333317550185399e-05
-6.962632696296052e-05   3.508914851074827e-06   -8.172477701871416e-07
-6.962632696296052e-05   3.508914851074827e-06   -8.172477701871416e-07
-6.962632696296052e-05   3.508914851074827e-06   -8.172477701871416e-07
-6.962632696296052e-05   3.508914851074827e-06   -8.172477701871416e-07
-7.33311291052471e-05   -2.785957383086334e-05   7.54080739445882e-05
-7.33311291052471e-05   -2.785957383086334e-05   7.54080739445882e-05
-7.33311291052471e-05   -2.785957383086334e-05   7.54080739445882e-05
-7.33311291052471e-05   -2.785957383086334e-05   7.54080739445882e-05
-2.9971209301890247e-05   3.293852744215651e-06   -1.5550515006053887e-05
-2.9971209301890247e-05   3.293852744215651e-06   -1.5550515006053887e-05
-2.9971209301890247e-05   3.293852744215651e-06   -1.5550515006053887e-05
-2.9971209301890247e-05   3.293852744215651e-06   -1.5550515006053887e-05
-4.925338813756866e-05   -1.0391283329067892e-05   2.4797531364046852e-05
-4.925338813756866e-05   -1.0391283329067892e-05   2.4797531364046852e-05
-4.925338813756866e-05   -1.0391283329067892e-05   2.4797531364046852e-05
-4.925338813756866e-05   -1.0391283329067892e-05   2.4797531364046852e-05
-2.9971209301890247e-05   -2.785957383086334e-05   5.671601799954072e-05
-2.9971209301890247e-05   -2.785957383086334e-05   5.671601799954072e-05
-2.9971209301890247e-05   -2.785957383086334e-05   5.671601799954072e-05
-2.9971209301890247e-05   -2.785957383086334e-05   5.671601799954072e-05
-7.333112910524698e-05   3.293852744215651e-06   3.141540938993593e-06
-7.333112910524698e-05   3.293852744215651e-06   3.141540938993593e-06
-7.333112910524698e-05   3.293852744215651e-06   3.141540938993593e-06
-7.333112910524698e-05   3.293852744215651e-06   3.141540938993593e-06
-7.5589839815576e-05   -2.8018255179520623e-05   7.962565441859727e-05
-7.5589839815576e-05   -2.8018255179520623e-05   7.962565441859727e-05
-7.5589839815576e-05   -2.8018255179520623e-05   7.962565441859727e-05
-7.5589839815576e-05   -2.8018255179520623e-05   7.962565441859727e-05
-3.1856273394017794e-05   2.901278237414477e-06   -1.1815343000827483e-05
-3.1856273394017794e-05   2.901278237414477e-06   -1.1815343000827483e-05
-3.1856273394017794e-05   2.901278237414477e-06   -1.1815343000827483e-05
-3.1856273394017794e-05   2.901278237414477e-06   -1.1815343000827483e-05
-5.166219959018735e-05   -1.195400906860546e-05   3.010770637640011e-05
-5.166219959018735e-05   -1.195400906860546e-05   3.010770637640011e-05
-5.166219959018735e-05   -1.195400906860546e-05   3.010770637640011e-05
-5.166219959018735e-05   -1.195400906860546e-05   3.010770637640011e-05
-3.1856273394017794e-05   -2.8018255179520623e-05   6.107393436843592e-05
-3.1856273394017794e-05   -2.8018255179520623e-05   6.107393436843592e-05
-3.1856273394017794e-05   -2.8018255179520623e-05   6.107393436843592e-05
-3.1856273394017794e-05   -2.8018255179520623e-05   6.107393436843592e-05
-7.558983981557587e-05   2.901278237414477e-06   6.736377049333404e-06
-7.558983981557587e-05   2.901278237414477e-06   6.736377049333404e-06
-7.558983981557587e-05   2.901278237414477e-06   6.736377049333404e-06
-7.558983981557587e-05   2.901278237414477e-06   6.736377049333404e-06
-7.802281406014783e-05   -2.5589091015550472e-05   8.144405958521433e-05
-7.802281406014783e-05   -2.5589091015550472e-05   8.144405958521433e-05
-7.802281406014783e-05   -2.5589091015550472e-05   8.144405958521433e-05
-7.802281406014783e-05   -2.5589091015550472e-05   8.144405958521433e-05
-3.407432880337812e-05   2.4572982963637184e-06   -8.631249429884563e-06
-3.407432880337812e-05   2.4572982963637184e-06   -8.631249429884563e-06
-3.407432880337812e-05   2.4572982963637184e-06   -8.631249429884563e-06
-3.407432880337812e-05   2.4572982963637184e-06   -8.631249429884563e-06
-5.414152099214002e-05   -1.2045298569505949e-05   3.351562900424129e-05
-5.414152099214002e-05   -1.2045298569505949e-05   3.351562900424129e-05
-5.414152099214002e-05   -1.2045298569505949e-05   3.351562900424129e-05
-5.414152099214002e-05   -1.2045298569505949e-05   3.351562900424129e-05
-6.962632696296027e-05   0.0   5.9131386965898344e-05
-6.962632696296027e-05   0.0   5.9131386965898344e-05
-6.962632696296027e-05   0.0   5.9131386965898344e-05
-6.962632696296027e-05   0.0   5.9131386965898344e-05
-0.00012269829284448935   1.608003036010974e-05   -1.9673871287251114e-05
-0.00012269829284448935   1.608003036010974e-05   -1.9673871287251114e-05
-0.00012269829284448935   1.608003036010974e-05   -1.9673871287251114e-05
-0.00012269829284448935   1.608003036010974e-05   -1.9673871287251114e-05
-0.00012781324146948542   0.0   8.574081358665676e-05
-0.00012781324146948542   0.0   8.574081358665676e-05
-0.00012781324146948542   0.0   8.574081358665676e-05
-0.00012781324146948542   0.0   8.574081358665676e-05
-7.333112910524698e-05   1.551313452341019e-05   -1.4370587734453648e-05
-7.333112910524698e-05   1.551313452341019e-05   -1.4370587734453648e-05
-7.333112910524698e-05   1.551313452341019e-05   -1.4370587734453648e-05
-7.333112910524698e-05   1.551313452341019e-05   -1.4370587734453648e-05
-9.417157706210683e-05   9.54061342253146e-06   2.3947004854173344e-05
-9.417157706210683e-05   9.54061342253146e-06   2.3947004854173344e-05
-9.417157706210683e-05   9.54061342253146e-06   2.3947004854173344e-05
-9.417157706210683e-05   9.54061342253146e-06   2.3947004854173344e-05
-7.333112910524691e-05   0.0   7.643293287261073e-05
-7.333112910524691e-05   0.0   7.643293287261073e-05
-7.333112910524691e-05   0.0   7.643293287261073e-05
-7.333112910524691e-05   0.0   7.643293287261073e-05
-0.00012781324146948563   1.551313452341019e-05   -5.062707020407186e-06
-0.00012781324146948563   1.551313452341019e-05   -5.062707020407186e-06
-0.00012781324146948563   1.551313452341019e-05   -5.062707020407186e-06
-0.00012781324146948563   1.551313452341019e-05   -5.062707020407186e-06
-0.0001303899862926578   0.0   9.519848439152809e-05
-0.0001303899862926578   0.0   9.519848439152809e-05
-0.0001303899862926578   0.0   9.519848439152809e-05
-0.0001303899862926578   0.0   9.519848439152809e-05
-7.558983981557587e-05   1.5112825881789891e-05   -5.202788599349608e-06
-7.558983981557587e-05   1.5112825881789891e-05   -5.202788599349608e-06
-7.558983981557587e-05   1.5112825881789891e-05   -5.202788599349608e-06
-7.558983981557587e-05   1.5112825881789891e-05   -5.202788599349608e-06
-9.909815007565631e-05   7.964605089941972e-06   3.826666097589426e-05
-9.909815007565631e-05   7.964605089941972e-06   3.826666097589426e-05
-9.909815007565631e-05   7.964605089941972e-06   3.826666097589426e-05
-9.909815007565631e-05   7.964605089941972e-06   3.826666097589426e-05
-7.558983981557587e-05   0.0   8.613078886245411e-05
-7.558983981557587e-05   0.0   8.613078886245411e-05
-7.558983981557587e-05   0.0   8.613078886245411e-05
-7.558983981557587e-05   0.0   8.613078886245411e-05
-0.00013038998629265805   1.5112825881789891e-05   3.864906929724804e-06
-0.00013038998629265805   1.5112825881789891e-05   3.864906929724804e-06
-0.00013038998629265805   1.5112825881789891e-05   3.864906929724804e-06
-0.00013038998629265805   1.5112825881789891e-05   3.864906929724804e-06
-0.00013326200579436202   0.0   0.00010781151397949284
-0.00013326200579436202   0.0   0.00010781151397949284
-0.00013326200579436202   0.0   0.00010781151397949284
-0.00013326200579436202   0.0   0.00010781151397949284
-7.802281406014779e-05   1.2575180374037234e-05   8.201086198046312e-06
-7.802281406014779e-05   1.2575180374037234e-05   8.201086198046312e-06
-7.802281406014779e-05   1.2575180374037234e-05   8.201086198046312e-06
-7.802281406014779e-05   1.2575180374037234e-05   8.201086198046312e-06
-9.993273655222666e-05   5.586198006580882e-06   4.89110131053174e-05
-9.993273655222666e-05   5.586198006580882e-06   4.89110131053174e-05
-9.993273655222666e-05   5.586198006580882e-06   4.89110131053174e-05
-9.993273655222666e-05   5.586198006580882e-06   4.89110131053174e-05
8.41404201175822e-05   -1.2663705813475371e-05   5.978249497624367e-05
8.41404201175822e-05   -1.2663705813475371e-05   5.978249497624367e-05
8.41404201175822e-05   -1.2663705813475371e-05   5.978249497624367e-05
8.41404201175822e-05   -1.2663705813475371e-05   5.978249497624367e-05
4.256580403046551e-05   -9.541044749456374e-06   -7.634935197205987e-06
4.256580403046551e-05   -9.541044749456374e-06   -7.634935197205987e-06
4.256580403046551e-05   -9.541044749456374e-06   -7.634935197205987e-06
4.256580403046551e-05   -9.541044749456374e-06   -7.634935197205987e-06
4.143941113279691e-05   -1.392554588824143e-05   5.219278593256984e-05
4.143941113279691e-05   -1.392554588824143e-05   5.219278593256984e-05
4.143941113279691e-05   -1.392554588824143e-05   5.219278593256984e-05
4.143941113279691e-05   -1.392554588824143e-05   5.219278593256984e-05
8.212805047267362e-05   -1.0816335868655668e-05   -1.748713897897639e-05
8.212805047267362e-05   -1.0816335868655668e-05   -1.748713897897639e-05
8.212805047267362e-05   -1.0816335868655668e-05   -1.748713897897639e-05
8.212805047267362e-05   -1.0816335868655668e-05   -1.748713897897639e-05
5.9782971686853475e-05   -1.1266761336319736e-05   2.002491427798936e-05
5.9782971686853475e-05   -1.1266761336319736e-05   2.002491427798936e-05
5.9782971686853475e-05   -1.1266761336319736e-05   2.002491427798936e-05
5.9782971686853475e-05   -1.1266761336319736e-05   2.002491427798936e-05
8.212805047267348e-05   -1.392554588824143e-05   5.032725992081818e-05
8.212805047267348e-05   -1.392554588824143e-05   5.032725992081818e-05
8.212805047267348e-05   -1.392554588824143e-05   5.032725992081818e-05
8.212805047267348e-05   -1.392554588824143e-05   5.032725992081818e-05
4.143941113279698e-05   -1.0816335868655668e-05   -1.562161296722489e-05
4.143941113279698e-05   -1.0816335868655668e-05   -1.562161296722489e-05
4.143941113279698e-05   -1.0816335868655668e-05   -1.562161296722489e-05
4.143941113279698e-05   -1.0816335868655668e-05   -1.562161296722489e-05
3.998792525684882e-05   -1.4042546712493553e-05   4.685447231862197e-05
3.998792525684882e-05   -1.4042546712493553e-05   4.685447231862197e-05
3.998792525684882e-05   -1.4042546712493553e-05   4.685447231862197e-05
3.998792525684882e-05   -1.4042546712493553e-05   4.685447231862197e-05
8.009343881299421e-05   -1.1006548360946965e-05   -2.1809649285881808e-05
8.009343881299421e-05   -1.1006548360946965e-05   -2.1809649285881808e-05
8.009343881299421e-05   -1.1006548360946965e-05   -2.1809649285881808e-05
8.009343881299421e-05   -1.1006548360946965e-05   -2.1809649285881808e-05
5.9215265687375334e-05   -1.1759363253903811e-05   1.3438994859257098e-05
5.9215265687375334e-05   -1.1759363253903811e-05   1.3438994859257098e-05
5.9215265687375334e-05   -1.1759363253903811e-05   1.3438994859257098e-05
5.9215265687375334e-05   -1.1759363253903811e-05   1.3438994859257098e-05
8.009343881299421e-05   -1.4042546712493553e-05   4.503287330769398e-05
8.009343881299421e-05   -1.4042546712493553e-05   4.503287330769398e-05
8.009343881299421e-05   -1.4042546712493553e-05   4.503287330769398e-05
8.009343881299421e-05   -1.4042546712493553e-05   4.503287330769398e-05
3.998792525684882e-05   -1.1006548360946965e-05   -1.998805027495377e-05
3.998792525684882e-05   -1.1006548360946965e-05   -1.998805027495377e-05
3.998792525684882e-05   -1.1006548360946965e-05   -1.998805027495377e-05
3.998792525684882e-05   -1.1006548360946965e-05   -1.998805027495377e-05
3.846529303658605e-05   -1.375256528904703e-05   3.8938367539783844e-05
3.846529303658605e-05   -1.375256528904703e-05   3.8938367539783844e-05
3.846529303658605e-05   -1.375256528904703e-05   3.8938367539783844e-05
3.846529303658605e-05   -1.375256528904703e-05   3.8938367539783844e-05
7.754673477036964e-05   -1.0939831205399823e-05   -2.7885009133376843e-05
7.754673477036964e-05   -1.0939831205399823e-05   -2.7885009133376843e-05
7.754673477036964e-05   -1.0939831205399823e-05   -2.7885009133376843e-05
7.754673477036964e-05   -1.0939831205399823e-05   -2.7885009133376843e-05
5.6570794767158005e-05   -1.1452502036159943e-05   7.382493370432946e-06
5.6570794767158005e-05   -1.1452502036159943e-05   7.382493370432946e-06
5.6570794767158005e-05   -1.1452502036159943e-05   7.382493370432946e-06
5.6570794767158005e-05   -1.1452502036159943e-05   7.382493370432946e-06
4.256580403046551e-05   -7.844135294554546e-06   5.660723831933754e-05
4.256580403046551e-05   -7.844135294554546e-06   5.660723831933754e-05
4.256580403046551e-05   -7.844135294554546e-06   5.660723831933754e-05
4.256580403046551e-05   -7.844135294554546e-06   5.660723831933754e-05
4.693434580127449e-06   -3.3699562004274597e-06   -3.828869974749566e-06
4.693434580127449e-06   -3.3699562004274597e-06   -3.828869974749566e-06
4.693434580127449e-06   -3.3699562004274597e-06   -3.828869974749566e-06
4.693434580127449e-06   -3.3699562004274597e-06   -3.828869974749566e-06
3.574805578673894e-06   -8.320772591868548e-06   5.898340329529156e-05
3.574805578673894e-06   -8.320772591868548e-06   5.898340329529156e-05
3.574805578673894e-06   -8.320772591868548e-06   5.898340329529156e-05
3.574805578673894e-06   -8.320772591868548e-06   5.898340329529156e-05
4.143941113279698e-05   -4.05588305777381e-06   -6.683206348704566e-06
4.143941113279698e-05   -4.05588305777381e-06   -6.683206348704566e-06
4.143941113279698e-05   -4.05588305777381e-06   -6.683206348704566e-06
4.143941113279698e-05   -4.05588305777381e-06   -6.683206348704566e-06
2.2847521947508238e-05   -5.4834751936347955e-06   2.515983090829385e-05
2.2847521947508238e-05   -5.4834751936347955e-06   2.515983090829385e-05
2.2847521947508238e-05   -5.4834751936347955e-06   2.515983090829385e-05
2.2847521947508238e-05   -5.4834751936347955e-06   2.515983090829385e-05
4.143941113279696e-05   -8.320772591868548e-06   5.642446957483416e-05
4.143941113279696e-05   -8.320772591868548e-06   5.642446957483416e-05
4.143941113279696e-05   -8.320772591868548e-06   5.642446957483416e-05
4.143941113279696e-05   -8.320772591868548e-06   5.642446957483416e-05
3.574805578673894e-06   -4.05588305777381e-06   -4.124272628246899e-06
3.574805578673894e-06   -4.05588305777381e-06   -4.124272628246899e-06
3.574805578673894e-06   -4.05588305777381e-06   -4.124272628246899e-06
3.574805578673894e-06   -4.05588305777381e-06   -4.124272628246899e-06
2.1465034369775877e-06   -8.53388125531809e-06   5.8433594968747976e-05
2.1465034369775877e-06   -8.53388125531809e-06   5.8433594968747976e-05
2.1465034369775877e-06   -8.53388125531809e-06   5.8433594968747976e-05
2.1465034369775877e-06   -8.53388125531809e-06   5.8433594968747976e-05
3.998792525684882e-05   -4.506523263383619e-06   -7.051856192864109e-06
3.998792525684882e-05   -4.506523263383619e-06   -7.051856192864109e-06
3.998792525684882e-05   -4.506523263383619e-06   -7.051856192864109e-06
3.998792525684882e-05   -4.506523263383619e-06   -7.051856192864109e-06
2.14295423713119e-05   -5.743569890955501e-06   2.4621009926241205e-05
2.14295423713119e-05   -5.743569890955501e-06   2.4621009926241205e-05
2.14295423713119e-05   -5.743569890955501e-06   2.4621009926241205e-05
2.14295423713119e-05   -5.743569890955501e-06   2.4621009926241205e-05
3.9987925256848754e-05   -8.53388125531809e-06   5.601718017358764e-05
3.9987925256848754e-05   -8.53388125531809e-06   5.601718017358764e-05
3.9987925256848754e-05   -8.53388125531809e-06   5.601718017358764e-05
3.9987925256848754e-05   -8.53388125531809e-06   5.601718017358764e-05
2.1465034369775877e-06   -4.506523263383619e-06   -4.63544139770399e-06
2.1465034369775877e-06   -4.506523263383619e-06   -4.63544139770399e-06
2.1465034369775877e-06   -4.506523263383619e-06   -4.63544139770399e-06
2.1465034369775877e-06   -4.506523263383619e-06   -4.63544139770399e-06
5.686385189248796e-07   -8.343525818411881e-06   5.9297858532733876e-05
5.686385189248796e-07   -8.343525818411881e-06   5.9297858532733876e-05
5.686385189248796e-07   -8.343525818411881e-06   5.9297858532733876e-05
5.686385189248796e-07   -8.343525818411881e-06   5.9297858532733876e-05
3.846529303658602e-05   -4.700820540110527e-06   -6.048855497016361e-06
3.846529303658602e-05   -4.700820540110527e-06   -6.048855497016361e-06
3.846529303658602e-05   -4.700820540110527e-06   -6.048855497016361e-06
3.846529303658602e-05   -4.700820540110527e-06   -6.048855497016361e-06
2.027305872155552e-05   -5.690296108877254e-06   2.4865220369295945e-05
2.027305872155552e-05   -5.690296108877254e-06   2.4865220369295945e-05
2.027305872155552e-05   -5.690296108877254e-06   2.4865220369295945e-05
2.027305872155552e-05   -5.690296108877254e-06   2.4865220369295945e-05
4.693434580127476e-06   -3.3198985320954076e-06   5.789506025698823e-05
4.693434580127476e-06   -3.3198985320954076e-06   5.789506025698823e-05
4.693434580127476e-06   -3.3198985320954076e-06   5.789506025698823e-05
4.693434580127476e-06   -3.3198985320954076e-06   5.789506025698823e-05
-3.199403474311109e-05   2.987577847477201e-06   5.337638793341797e-07
-3.199403474311109e-05   2.987577847477201e-06   5.337638793341797e-07
-3.199403474311109e-05   2.987577847477201e-06   5.337638793341797e-07
-3.199403474311109e-05   2.987577847477201e-06   5.337638793341797e-07
-3.3254286627046944e-05   -3.5063122986703395e-06   6.211555865955412e-05
-3.3254286627046944e-05   -3.5063122986703395e-06   6.211555865955412e-05
-3.3254286627046944e-05   -3.5063122986703395e-06   6.211555865955412e-05
-3.3254286627046944e-05   -3.5063122986703395e-06   6.211555865955412e-05
3.574805578673894e-06   2.4615297019446765e-06   -2.846966883682852e-06
3.574805578673894e-06   2.4615297019446765e-06   -2.846966883682852e-06
3.574805578673894e-06   2.4615297019446765e-06   -2.846966883682852e-06
3.574805578673894e-06   2.4615297019446765e-06   -2.846966883682852e-06
-1.4218768175705234e-05   -6.729521256237415e-08   2.8326284322319987e-05
-1.4218768175705234e-05   -6.729521256237415e-08   2.8326284322319987e-05
-1.4218768175705234e-05   -6.729521256237415e-08   2.8326284322319987e-05
-1.4218768175705234e-05   -6.729521256237415e-08   2.8326284322319987e-05
3.574805578673894e-06   -3.5063122986703395e-06   5.85348534591856e-05
3.574805578673894e-06   -3.5063122986703395e-06   5.85348534591856e-05
3.574805578673894e-06   -3.5063122986703395e-06   5.85348534591856e-05
3.574805578673894e-06   -3.5063122986703395e-06   5.85348534591856e-05
-3.3254286627046944e-05   2.4615297019446765e-06   7.337383166859408e-07
-3.3254286627046944e-05   2.4615297019446765e-06   7.337383166859408e-07
-3.3254286627046944e-05   2.4615297019446765e-06   7.337383166859408e-07
-3.3254286627046944e-05   2.4615297019446765e-06   7.337383166859408e-07
-3.494458609265452e-05   -3.734320461193201e-06   6.336277514838035e-05
-3.494458609265452e-05   -3.734320461193201e-06   6.336277514838035e-05
-3.494458609265452e-05   -3.734320461193201e-06   6.336277514838035e-05
-3.494458609265452e-05   -3.734320461193201e-06   6.336277514838035e-05
2.1465034369775877e-06   1.971830525984708e-06   -1.8793979933129888e-06
2.1465034369775877e-06   1.971830525984708e-06   -1.8793979933129888e-06
2.1465034369775877e-06   1.971830525984708e-06   -1.8793979933129888e-06
2.1465034369775877e-06   1.971830525984708e-06   -1.8793979933129888e-06
-1.5462093343536238e-05   -2.1592862075236682e-07   2.8780918795585572e-05
-1.5462093343536238e-05   -2.1592862075236682e-07   2.8780918795585572e-05
-1.5462093343536238e-05   -2.1592862075236682e-07   2.8780918795585572e-05
-1.5462093343536238e-05   -2.1592862075236682e-07   2.8780918795585572e-05
2.1465034369775877e-06   -3.7343204611927673e-06   5.993908455607369e-05
2.1465034369775877e-06   -3.7343204611927673e-06   5.993908455607369e-05
2.1465034369775877e-06   -3.7343204611927673e-06   5.993908455607369e-05
2.1465034369775877e-06   -3.7343204611927673e-06   5.993908455607369e-05
-3.494458609265452e-05   1.971830525984708e-06   1.544292598993453e-06
-3.494458609265452e-05   1.971830525984708e-06   1.544292598993453e-06
-3.494458609265452e-05   1.971830525984708e-06   1.544292598993453e-06
-3.494458609265452e-05   1.971830525984708e-06   1.544292598993453e-06
-3.6745497052739464e-05   -3.7139725473757726e-06   6.485885714098286e-05
-3.6745497052739464e-05   -3.7139725473757726e-06   6.485885714098286e-05
-3.6745497052739464e-05   -3.7139725473757726e-06   6.485885714098286e-05
-3.6745497052739464e-05   -3.7139725473757726e-06   6.485885714098286e-05
5.686385189248796e-07   1.618842190489328e-06   -5.310576545103016e-07
5.686385189248796e-07   1.618842190489328e-06   -5.310576545103016e-07
5.686385189248796e-07   1.618842190489328e-06   -5.310576545103016e-07
5.686385189248796e-07   1.618842190489328e-06   -5.310576545103016e-07
-1.7047973920750973e-05   -3.2301070333122343e-07   2.999507481457576e-05
-1.7047973920750973e-05   -3.2301070333122343e-07   2.999507481457576e-05
-1.7047973920750973e-05   -3.2301070333122343e-07   2.999507481457576e-05
-1.7047973920750973e-05   -3.2301070333122343e-07   2.999507481457576e-05
-3.1994034743110955e-05   3.508914851074827e-06   5.230762467476642e-05
-3.1994034743110955e-05   3.508914851074827e-06   5.230762467476642e-05
-3.1994034743110955e-05   3.508914851074827e-06   5.230762467476642e-05
-3.1994034743110955e-05   3.508914851074827e-06   5.230762467476642e-05
-6.792716957107099e-05   9.742269564303255e-06   -3.840920543896282e-06
-6.792716957107099e-05   9.742269564303255e-06   -3.840920543896282e-06
-6.792716957107099e-05   9.742269564303255e-06   -3.840920543896282e-06
-6.792716957107099e-05   9.742269564303255e-06   -3.840920543896282e-06
-6.976419828921902e-05   3.293852744215651e-06   5.790832096322753e-05
-6.976419828921902e-05   3.293852744215651e-06   5.790832096322753e-05
-6.976419828921902e-05   3.293852744215651e-06   5.790832096322753e-05
-6.976419828921902e-05   3.293852744215651e-06   5.790832096322753e-05
-3.325428662704689e-05   9.21431367193349e-06   -6.4938083636899985e-06
-3.325428662704689e-05   9.21431367193349e-06   -6.4938083636899985e-06
-3.325428662704689e-05   9.21431367193349e-06   -6.4938083636899985e-06
-3.325428662704689e-05   9.21431367193349e-06   -6.4938083636899985e-06
-5.0333736521308224e-05   6.553686274538353e-06   2.3568317898516175e-05
-5.0333736521308224e-05   6.553686274538353e-06   2.3568317898516175e-05
-5.0333736521308224e-05   6.553686274538353e-06   2.3568317898516175e-05
-5.0333736521308224e-05   6.553686274538353e-06   2.3568317898516175e-05
-3.3254286627046944e-05   3.293852744215651e-06   5.435604440659692e-05
-3.3254286627046944e-05   3.293852744215651e-06   5.435604440659692e-05
-3.3254286627046944e-05   3.293852744215651e-06   5.435604440659692e-05
-3.3254286627046944e-05   3.293852744215651e-06   5.435604440659692e-05
-6.976419828921891e-05   9.21431367193349e-06   -2.9415318070589048e-06
-6.976419828921891e-05   9.21431367193349e-06   -2.9415318070589048e-06
-6.976419828921891e-05   9.21431367193349e-06   -2.9415318070589048e-06
-6.976419828921891e-05   9.21431367193349e-06   -2.9415318070589048e-06
-7.201495104134354e-05   2.901278237414477e-06   6.14607866173452e-05
-7.201495104134354e-05   2.901278237414477e-06   6.14607866173452e-05
-7.201495104134354e-05   2.901278237414477e-06   6.14607866173452e-05
-7.201495104134354e-05   2.901278237414477e-06   6.14607866173452e-05
-3.494458609265452e-05   8.726572518445545e-06   -3.818331532421792e-06
-3.494458609265452e-05   8.726572518445545e-06   -3.818331532421792e-06
-3.494458609265452e-05   8.726572518445545e-06   -3.818331532421792e-06
-3.494458609265452e-05   8.726572518445545e-06   -3.818331532421792e-06
-5.170311717475024e-05   6.430679390202277e-06   2.5490089481350364e-05
-5.170311717475024e-05   6.430679390202277e-06   2.5490089481350364e-05
-5.170311717475024e-05   6.430679390202277e-06   2.5490089481350364e-05
-5.170311717475024e-05   6.430679390202277e-06   2.5490089481350364e-05
-3.494458609265452e-05   2.901278237414477e-06   5.796561004872626e-05
-3.494458609265452e-05   2.901278237414477e-06   5.796561004872626e-05
-3.494458609265452e-05   2.901278237414477e-06   5.796561004872626e-05
-3.494458609265452e-05   2.901278237414477e-06   5.796561004872626e-05
-7.201495104134343e-05   8.726572518445545e-06   -3.231549638028474e-07
-7.201495104134343e-05   8.726572518445545e-06   -3.231549638028474e-07
-7.201495104134343e-05   8.726572518445545e-06   -3.231549638028474e-07
-7.201495104134343e-05   8.726572518445545e-06   -3.231549638028474e-07
-7.439703649375268e-05   2.4572982963637184e-06   6.429368839438922e-05
-7.439703649375268e-05   2.4572982963637184e-06   6.429368839438922e-05
-7.439703649375268e-05   2.4572982963637184e-06   6.429368839438922e-05
-7.439703649375268e-05   2.4572982963637184e-06   6.429368839438922e-05
-3.674549705273944e-05   8.07151205031503e-06   -1.827405593003012e-06
-3.674549705273944e-05   8.07151205031503e-06   -1.827405593003012e-06
-3.674549705273944e-05   8.07151205031503e-06   -1.827405593003012e-06
-3.674549705273944e-05   8.07151205031503e-06   -1.827405593003012e-06
-5.3980247975866534e-05   6.034455451229062e-06   2.8119413238327515e-05
-5.3980247975866534e-05   6.034455451229062e-06   2.8119413238327515e-05
-5.3980247975866534e-05   6.034455451229062e-06   2.8119413238327515e-05
-5.3980247975866534e-05   6.034455451229062e-06   2.8119413238327515e-05
-6.792716957107099e-05   1.608003036010974e-05   2.754299576957403e-05
-6.792716957107099e-05   1.608003036010974e-05   2.754299576957403e-05
-6.792716957107099e-05   1.608003036010974e-05   2.754299576957403e-05
-6.792716957107099e-05   1.608003036010974e-05   2.754299576957403e-05
-0.0001023300958667062   1.5844063361476757e-05   -2.9936794922330806e-05
-0.0001023300958667062   1.5844063361476757e-05   -2.9936794922330806e-05
-0.0001023300958667062   1.5844063361476757e-05   -2.9936794922330806e-05
-0.0001023300958667062   1.5844063361476757e-05   -2.9936794922330806e-05
-0.00010562687626970412   1.551313452341019e-05   4.0775481862974274e-05
-0.00010562687626970412   1.551313452341019e-05   4.0775481862974274e-05
-0.00010562687626970412   1.551313452341019e-05   4.0775481862974274e-05
-0.00010562687626970412   1.551313452341019e-05   4.0775481862974274e-05
-6.976419828921891e-05   1.6145283812067125e-05   -1.9374937677695426e-05
-6.976419828921891e-05   1.6145283812067125e-05   -1.9374937677695426e-05
-6.976419828921891e-05   1.6145283812067125e-05   -1.9374937677695426e-05
-6.976419828921891e-05   1.6145283812067125e-05   -1.9374937677695426e-05
-8.293388900762624e-05   1.6148282206367116e-05   2.572747816403367e-06
-8.293388900762624e-05   1.6148282206367116e-05   2.572747816403367e-06
-8.293388900762624e-05   1.6148282206367116e-05   2.572747816403367e-06
-8.293388900762624e-05   1.6148282206367116e-05   2.572747816403367e-06
-6.976419828921886e-05   1.551313452341019e-05   4.039619228978023e-05
-6.976419828921886e-05   1.551313452341019e-05   4.039619228978023e-05
-6.976419828921886e-05   1.551313452341019e-05   4.039619228978023e-05
-6.976419828921886e-05   1.551313452341019e-05   4.039619228978023e-05
-0.00010562687626970412   1.6145283812067125e-05   -1.8995648104501222e-05
-0.00010562687626970412   1.6145283812067125e-05   -1.8995648104501222e-05
-0.00010562687626970412   1.6145283812067125e-05   -1.8995648104501222e-05
-0.00010562687626970412   1.6145283812067125e-05   -1.8995648104501222e-05
-0.00010885992732830187   1.5112825881789891e-05   5.007077115192502e-05
-0.00010885992732830187   1.5112825881789891e-05   5.007077115192502e-05
-0.00010885992732830187   1.5112825881789891e-05   5.007077115192502e-05
-0.00010885992732830187   1.5112825881789891e-05   5.007077115192502e-05
-7.201495104134343e-05   1.6028076187228797e-05   -1.1886672842935462e-05
-7.201495104134343e-05   1.6028076187228797e-05   -1.1886672842935462e-05
-7.201495104134343e-05   1.6028076187228797e-05   -1.1886672842935462e-05
-7.201495104134343e-05   1.6028076187228797e-05   -1.1886672842935462e-05
-8.670867224188595e-05   1.6143488790847788e-05   1.2533614929131605e-05
-8.670867224188595e-05   1.6143488790847788e-05   1.2533614929131605e-05
-8.670867224188595e-05   1.6143488790847788e-05   1.2533614929131605e-05
-8.670867224188595e-05   1.6143488790847788e-05   1.2533614929131605e-05
-7.201495104134343e-05   1.5112825881789891e-05   4.952162096866236e-05
-7.201495104134343e-05   1.5112825881789891e-05   4.952162096866236e-05
-7.201495104134343e-05   1.5112825881789891e-05   4.952162096866236e-05
-7.201495104134343e-05   1.5112825881789891e-05   4.952162096866236e-05
-0.00010885992732830203   1.6028076187228797e-05   -1.1337522659672639e-05
-0.00010885992732830203   1.6028076187228797e-05   -1.1337522659672639e-05
-0.00010885992732830203   1.6028076187228797e-05   -1.1337522659672639e-05
-0.00010885992732830203   1.6028076187228797e-05   -1.1337522659672639e-05
-0.00011267237781987339   1.2575180374037234e-05   6.560441370627489e-05
-0.00011267237781987339   1.2575180374037234e-05   6.560441370627489e-05
-0.00011267237781987339   1.2575180374037234e-05   6.560441370627489e-05
-0.00011267237781987339   1.2575180374037234e-05   6.560441370627489e-05
-7.43970364937526e-05   1.4752219159211433e-05   5.059548916354177e-07
-7.43970364937526e-05   1.4752219159211433e-05   5.059548916354177e-07
-7.43970364937526e-05   1.4752219159211433e-05   5.059548916354177e-07
-7.43970364937526e-05   1.4752219159211433e-05   5.059548916354177e-07
-8.807000080643233e-05   1.5375042564325092e-05   2.2920534703033645e-05
-8.807000080643233e-05   1.5375042564325092e-05   2.2920534703033645e-05
-8.807000080643233e-05   1.5375042564325092e-05   2.2920534703033645e-05
-8.807000080643233e-05   1.5375042564325092e-05   2.2920534703033645e-05
6.81813491589104e-05   -9.541044749456374e-06   5.266045297724919e-05
6.81813491589104e-05   -9.541044749456374e-06   5.266045297724919e-05
6.81813491589104e-05   -9.541044749456374e-06   5.266045297724919e-05
6.81813491589104e-05   -9.541044749456374e-06   5.266045297724919e-05
3.376520264123845e-05   -6.9874551650197896e-06   -3.167637468209179e-06
3.376520264123845e-05   -6.9874551650197896e-06   -3.167637468209179e-06
3.376520264123845e-05   -6.9874551650197896e-06   -3.167637468209179e-06
3.376520264123845e-05   -6.9874551650197896e-06   -3.167637468209179e-06
3.2467860832763985e-05   -1.0816335868655668e-05   4.580059877032816e-05
3.2467860832763985e-05   -1.0816335868655668e-05   4.580059877032816e-05
3.2467860832763985e-05   -1.0816335868655668e-05   4.580059877032816e-05
3.2467860832763985e-05   -1.0816335868655668e-05   4.580059877032816e-05
6.579495651005425e-05   -8.109821974572676e-06   -1.1368469028271615e-05
6.579495651005425e-05   -8.109821974572676e-06   -1.1368469028271615e-05
6.579495651005425e-05   -8.109821974572676e-06   -1.1368469028271615e-05
6.579495651005425e-05   -8.109821974572676e-06   -1.1368469028271615e-05
4.776064943112107e-05   -8.773136690611852e-06   1.9086698266240374e-05
4.776064943112107e-05   -8.773136690611852e-06   1.9086698266240374e-05
4.776064943112107e-05   -8.773136690611852e-06   1.9086698266240374e-05
4.776064943112107e-05   -8.773136690611852e-06   1.9086698266240374e-05
6.579495651005415e-05   -1.0816335868655668e-05   4.41766904338786e-05
6.579495651005415e-05   -1.0816335868655668e-05   4.41766904338786e-05
6.579495651005415e-05   -1.0816335868655668e-05   4.41766904338786e-05
6.579495651005415e-05   -1.0816335868655668e-05   4.41766904338786e-05
3.246786083276409e-05   -8.109821974572676e-06   -9.744560691821863e-06
3.246786083276409e-05   -8.109821974572676e-06   -9.744560691821863e-06
3.246786083276409e-05   -8.109821974572676e-06   -9.744560691821863e-06
3.246786083276409e-05   -8.109821974572676e-06   -9.744560691821863e-06
3.102653703595378e-05   -1.1006548360946965e-05   4.1050414579133984e-05
3.102653703595378e-05   -1.1006548360946965e-05   4.1050414579133984e-05
3.102653703595378e-05   -1.1006548360946965e-05   4.1050414579133984e-05
3.102653703595378e-05   -1.1006548360946965e-05   4.1050414579133984e-05
6.363456747309924e-05   -8.33575797667659e-06   -1.4898777046670666e-05
6.363456747309924e-05   -8.33575797667659e-06   -1.4898777046670666e-05
6.363456747309924e-05   -8.33575797667659e-06   -1.4898777046670666e-05
6.363456747309924e-05   -8.33575797667659e-06   -1.4898777046670666e-05
4.6859587487483804e-05   -9.207896200643436e-06   1.3582805863735165e-05
4.6859587487483804e-05   -9.207896200643436e-06   1.3582805863735165e-05
4.6859587487483804e-05   -9.207896200643436e-06   1.3582805863735165e-05
4.6859587487483804e-05   -9.207896200643436e-06   1.3582805863735165e-05
6.363456747309902e-05   -1.1006548360946965e-05   3.944794034857157e-05
6.363456747309902e-05   -1.1006548360946965e-05   3.944794034857157e-05
6.363456747309902e-05   -1.1006548360946965e-05   3.944794034857157e-05
6.363456747309902e-05   -1.1006548360946965e-05   3.944794034857157e-05
3.102653703595383e-05   -8.33575797667659e-06   -1.329630281610844e-05
3.102653703595383e-05   -8.33575797667659e-06   -1.329630281610844e-05
3.102653703595383e-05   -8.33575797667659e-06   -1.329630281610844e-05
3.102653703595383e-05   -8.33575797667659e-06   -1.329630281610844e-05
2.964052426388604e-05   -1.0939831205399823e-05   3.443010052718576e-05
2.964052426388604e-05   -1.0939831205399823e-05   3.443010052718576e-05
2.964052426388604e-05   -1.0939831205399823e-05   3.443010052718576e-05
2.964052426388604e-05   -1.0939831205399823e-05   3.443010052718576e-05
6.11882795960564e-05   -8.429415933469426e-06   -1.9655740856256267e-05
6.11882795960564e-05   -8.429415933469426e-06   -1.9655740856256267e-05
6.11882795960564e-05   -8.429415933469426e-06   -1.9655740856256267e-05
6.11882795960564e-05   -8.429415933469426e-06   -1.9655740856256267e-05
4.44410106220413e-05   -9.053236171962164e-06   8.630666243532054e-06
4.44410106220413e-05   -9.053236171962164e-06   8.630666243532054e-06
4.44410106220413e-05   -9.053236171962164e-06   8.630666243532054e-06
4.44410106220413e-05   -9.053236171962164e-06   8.630666243532054e-06
3.376520264123845e-05   -3.3699562004274597e-06   5.53141644938911e-05
3.376520264123845e-05   -3.3699562004274597e-06   5.53141644938911e-05
3.376520264123845e-05   -3.3699562004274597e-06   5.53141644938911e-05
3.376520264123845e-05   -3.3699562004274597e-06   5.53141644938911e-05
1.4609000819856182e-06   -1.335562950690282e-06   2.6942961783122613e-06
1.4609000819856182e-06   -1.335562950690282e-06   2.6942961783122613e-06
1.4609000819856182e-06   -1.335562950690282e-06   2.6942961783122613e-06
1.4609000819856182e-06   -1.335562950690282e-06   2.6942961783122613e-06
2.1577539748046009e-07   -4.05588305777381e-06   5.589333200052863e-05
2.1577539748046009e-07   -4.05588305777381e-06   5.589333200052863e-05
2.1577539748046009e-07   -4.05588305777381e-06   5.589333200052863e-05
2.1577539748046009e-07   -4.05588305777381e-06   5.589333200052863e-05
3.246786083276409e-05   -2.132005371640374e-06   9.855296633763146e-07
3.246786083276409e-05   -2.132005371640374e-06   9.855296633763146e-07
3.246786083276409e-05   -2.132005371640374e-06   9.855296633763146e-07
3.246786083276409e-05   -2.132005371640374e-06   9.855296633763146e-07
1.6771588110405487e-05   -2.6222219598080396e-06   2.7440114153541107e-05
1.6771588110405487e-05   -2.6222219598080396e-06   2.7440114153541107e-05
1.6771588110405487e-05   -2.6222219598080396e-06   2.7440114153541107e-05
1.6771588110405487e-05   -2.6222219598080396e-06   2.7440114153541107e-05
3.2467860832764066e-05   -4.05588305777381e-06   5.473900538884908e-05
3.2467860832764066e-05   -4.05588305777381e-06   5.473900538884908e-05
3.2467860832764066e-05   -4.05588305777381e-06   5.473900538884908e-05
3.2467860832764066e-05   -4.05588305777381e-06   5.473900538884908e-05
2.1577539748046009e-07   -2.132005371640374e-06   2.139856275056246e-06
2.1577539748046009e-07   -2.132005371640374e-06   2.139856275056246e-06
2.1577539748046009e-07   -2.132005371640374e-06   2.139856275056246e-06
2.1577539748046009e-07   -2.132005371640374e-06   2.139856275056246e-06
-1.0784313053685958e-06   -4.506523263383619e-06   5.5055896935917933e-05
-1.0784313053685958e-06   -4.506523263383619e-06   5.5055896935917933e-05
-1.0784313053685958e-06   -4.506523263383619e-06   5.5055896935917933e-05
-1.0784313053685958e-06   -4.506523263383619e-06   5.5055896935917933e-05
3.102653703595383e-05   -2.7243761388929914e-06   4.783280923524851e-07
3.102653703595383e-05   -2.7243761388929914e-06   4.783280923524851e-07
3.102653703595383e-05   -2.7243761388929914e-06   4.783280923524851e-07
3.102653703595383e-05   -2.7243761388929914e-06   4.783280923524851e-07
1.534289171724825e-05   -3.0398406312170164e-06   2.680701565225738e-05
1.534289171724825e-05   -3.0398406312170164e-06   2.680701565225738e-05
1.534289171724825e-05   -3.0398406312170164e-06   2.680701565225738e-05
1.534289171724825e-05   -3.0398406312170164e-06   2.680701565225738e-05
3.102653703595378e-05   -4.5065232633840525e-06   5.398660866122332e-05
3.102653703595378e-05   -4.5065232633840525e-06   5.398660866122332e-05
3.102653703595378e-05   -4.5065232633840525e-06   5.398660866122332e-05
3.102653703595378e-05   -4.5065232633840525e-06   5.398660866122332e-05
-1.0784313053685958e-06   -2.7243761388929914e-06   1.5476163670472085e-06
-1.0784313053685958e-06   -2.7243761388929914e-06   1.5476163670472085e-06
-1.0784313053685958e-06   -2.7243761388929914e-06   1.5476163670472085e-06
-1.0784313053685958e-06   -2.7243761388929914e-06   1.5476163670472085e-06
-2.4257830650554167e-06   -4.700820540110527e-06   5.5483574172739136e-05
-2.4257830650554167e-06   -4.700820540110527e-06   5.5483574172739136e-05
-2.4257830650554167e-06   -4.700820540110527e-06   5.5483574172739136e-05
-2.4257830650554167e-06   -4.700820540110527e-06   5.5483574172739136e-05
2.9640524263886122e-05   -3.192553107809505e-06   1.134768165122731e-06
2.9640524263886122e-05   -3.192553107809505e-06   1.134768165122731e-06
2.9640524263886122e-05   -3.192553107809505e-06   1.134768165122731e-06
2.9640524263886122e-05   -3.192553107809505e-06   1.134768165122731e-06
1.4267537470222873e-05   -3.26497976652052e-06   2.679986881645583e-05
1.4267537470222873e-05   -3.26497976652052e-06   2.679986881645583e-05
1.4267537470222873e-05   -3.26497976652052e-06   2.679986881645583e-05
1.4267537470222873e-05   -3.26497976652052e-06   2.679986881645583e-05
1.4609000819856182e-06   2.987577847477635e-06   5.711294847007343e-05
1.4609000819856182e-06   2.987577847477635e-06   5.711294847007343e-05
1.4609000819856182e-06   2.987577847477635e-06   5.711294847007343e-05
1.4609000819856182e-06   2.987577847477635e-06   5.711294847007343e-05
-2.9897873554714975e-05   4.342447513125576e-06   5.661247541627942e-06
-2.9897873554714975e-05   4.342447513125576e-06   5.661247541627942e-06
-2.9897873554714975e-05   4.342447513125576e-06   5.661247541627942e-06
-2.9897873554714975e-05   4.342447513125576e-06   5.661247541627942e-06
-3.1198668739694366e-05   2.4615297019446765e-06   5.790103726099113e-05
-3.1198668739694366e-05   2.4615297019446765e-06   5.790103726099113e-05
-3.1198668739694366e-05   2.4615297019446765e-06   5.790103726099113e-05
-3.1198668739694366e-05   2.4615297019446765e-06   5.790103726099113e-05
2.1577539748046009e-07   3.6788622284414374e-06   4.81323084980151e-06
2.1577539748046009e-07   3.6788622284414374e-06   4.81323084980151e-06
2.1577539748046009e-07   3.6788622284414374e-06   4.81323084980151e-06
2.1577539748046009e-07   3.6788622284414374e-06   4.81323084980151e-06
-1.4878037922341064e-05   3.4067210823833256e-06   3.0132871070472577e-05
-1.4878037922341064e-05   3.4067210823833256e-06   3.0132871070472577e-05
-1.4878037922341064e-05   3.4067210823833256e-06   3.0132871070472577e-05
-1.4878037922341064e-05   3.4067210823833256e-06   3.0132871070472577e-05
2.1577539748046009e-07   2.4615297019446765e-06   5.717063774509306e-05
2.1577539748046009e-07   2.4615297019446765e-06   5.717063774509306e-05
2.1577539748046009e-07   2.4615297019446765e-06   5.717063774509306e-05
2.1577539748046009e-07   2.4615297019446765e-06   5.717063774509306e-05
-3.1198668739694366e-05   3.6788622284414374e-06   5.543630365699957e-06
-3.1198668739694366e-05   3.6788622284414374e-06   5.543630365699957e-06
-3.1198668739694366e-05   3.6788622284414374e-06   5.543630365699957e-06
-3.1198668739694366e-05   3.6788622284414374e-06   5.543630365699957e-06
-3.257249598495924e-05   1.971830525984708e-06   5.8449531949241514e-05
-3.257249598495924e-05   1.971830525984708e-06   5.8449531949241514e-05
-3.257249598495924e-05   1.971830525984708e-06   5.8449531949241514e-05
-3.257249598495924e-05   1.971830525984708e-06   5.8449531949241514e-05
-1.0784313053685958e-06   3.0344832075393686e-06   5.321832540991197e-06
-1.0784313053685958e-06   3.0344832075393686e-06   5.321832540991197e-06
-1.0784313053685958e-06   3.0344832075393686e-06   5.321832540991197e-06
-1.0784313053685958e-06   3.0344832075393686e-06   5.321832540991197e-06
-1.6086562042240936e-05   3.0274301410370026e-06   3.033961560901309e-05
-1.6086562042240936e-05   3.0274301410370026e-06   3.033961560901309e-05
-1.6086562042240936e-05   3.0274301410370026e-06   3.033961560901309e-05
-1.6086562042240936e-05   3.0274301410370026e-06   3.033961560901309e-05
-1.0784313053685958e-06   1.971830525984708e-06   5.781194034030899e-05
-1.0784313053685958e-06   1.971830525984708e-06   5.781194034030899e-05
-1.0784313053685958e-06   1.971830525984708e-06   5.781194034030899e-05
-1.0784313053685958e-06   1.971830525984708e-06   5.781194034030899e-05
-3.257249598495924e-05   3.0344832075393686e-06   5.959424149923776e-06
-3.257249598495924e-05   3.0344832075393686e-06   5.959424149923776e-06
-3.257249598495924e-05   3.0344832075393686e-06   5.959424149923776e-06
-3.257249598495924e-05   3.0344832075393686e-06   5.959424149923776e-06
-3.399029644782743e-05   1.6188421904897617e-06   5.9320956992481647e-05
-3.399029644782743e-05   1.6188421904897617e-06   5.9320956992481647e-05
-3.399029644782743e-05   1.6188421904897617e-06   5.9320956992481647e-05
-3.399029644782743e-05   1.6188421904897617e-06   5.9320956992481647e-05
-2.4257830650554167e-06   2.4608557641857785e-06   6.208226543643822e-06
-2.4257830650554167e-06   2.4608557641857785e-06   6.208226543643822e-06
-2.4257830650554167e-06   2.4608557641857785e-06   6.208226543643822e-06
-2.4257830650554167e-06   2.4608557641857785e-06   6.208226543643822e-06
-1.7394364010484193e-05   2.6639617180664824e-06   3.1033997880364574e-05
-1.7394364010484193e-05   2.6639617180664824e-06   3.1033997880364574e-05
-1.7394364010484193e-05   2.6639617180664824e-06   3.1033997880364574e-05
-1.7394364010484193e-05   2.6639617180664824e-06   3.1033997880364574e-05
-2.9897873554715084e-05   9.742269564303688e-06   4.981117301829498e-05
-2.9897873554715084e-05   9.742269564303688e-06   4.981117301829498e-05
-2.9897873554715084e-05   9.742269564303688e-06   4.981117301829498e-05
-2.9897873554715084e-05   9.742269564303688e-06   4.981117301829498e-05
-6.026033538057755e-05   9.86537281323337e-06   -7.190680754512457e-07
-6.026033538057755e-05   9.86537281323337e-06   -7.190680754512457e-07
-6.026033538057755e-05   9.86537281323337e-06   -7.190680754512457e-07
-6.026033538057755e-05   9.86537281323337e-06   -7.190680754512457e-07
-6.177058126120952e-05   9.21431367193349e-06   5.068346315795658e-05
-6.177058126120952e-05   9.21431367193349e-06   5.068346315795658e-05
-6.177058126120952e-05   9.21431367193349e-06   5.068346315795658e-05
-6.177058126120952e-05   9.21431367193349e-06   5.068346315795658e-05
-3.119866873969442e-05   9.230934634168932e-06   -2.796969552428148e-07
-3.119866873969442e-05   9.230934634168932e-06   -2.796969552428148e-07
-3.119866873969442e-05   9.230934634168932e-06   -2.796969552428148e-07
-3.119866873969442e-05   9.230934634168932e-06   -2.796969552428148e-07
-4.557723583021141e-05   9.49133457408451e-06   2.3528341565002718e-05
-4.557723583021141e-05   9.49133457408451e-06   2.3528341565002718e-05
-4.557723583021141e-05   9.49133457408451e-06   2.3528341565002718e-05
-4.557723583021141e-05   9.49133457408451e-06   2.3528341565002718e-05
-3.119866873969442e-05   9.21431367193349e-06   5.067349058061551e-05
-3.119866873969442e-05   9.21431367193349e-06   5.067349058061551e-05
-3.119866873969442e-05   9.21431367193349e-06   5.067349058061551e-05
-3.119866873969442e-05   9.21431367193349e-06   5.067349058061551e-05
-6.177058126120952e-05   9.230934634168932e-06   -2.6972437790185287e-07
-6.177058126120952e-05   9.230934634168932e-06   -2.6972437790185287e-07
-6.177058126120952e-05   9.230934634168932e-06   -2.6972437790185287e-07
-6.177058126120952e-05   9.230934634168932e-06   -2.6972437790185287e-07
-6.344482625077625e-05   8.726572518445545e-06   5.303899126675362e-05
-6.344482625077625e-05   8.726572518445545e-06   5.303899126675362e-05
-6.344482625077625e-05   8.726572518445545e-06   5.303899126675362e-05
-6.344482625077625e-05   8.726572518445545e-06   5.303899126675362e-05
-3.257249598495929e-05   8.646711599991346e-06   1.6330240414643652e-06
-3.257249598495929e-05   8.646711599991346e-06   1.6330240414643652e-06
-3.257249598495929e-05   8.646711599991346e-06   1.6330240414643652e-06
-3.257249598495929e-05   8.646711599991346e-06   1.6330240414643652e-06
-4.667047247904868e-05   9.132596399786348e-06   2.4838120651736765e-05
-4.667047247904868e-05   9.132596399786348e-06   2.4838120651736765e-05
-4.667047247904868e-05   9.132596399786348e-06   2.4838120651736765e-05
-4.667047247904868e-05   9.132596399786348e-06   2.4838120651736765e-05
-3.257249598495929e-05   8.726572518445979e-06   5.308690781782605e-05
-3.257249598495929e-05   8.726572518445979e-06   5.308690781782605e-05
-3.257249598495929e-05   8.726572518445979e-06   5.308690781782605e-05
-3.257249598495929e-05   8.726572518445979e-06   5.308690781782605e-05
-6.344482625077625e-05   8.646711599991346e-06   1.5851074903919325e-06
-6.344482625077625e-05   8.646711599991346e-06   1.5851074903919325e-06
-6.344482625077625e-05   8.646711599991346e-06   1.5851074903919325e-06
-6.344482625077625e-05   8.646711599991346e-06   1.5851074903919325e-06
-6.504070271990265e-05   8.071512050314596e-06   5.4742314724466525e-05
-6.504070271990265e-05   8.071512050314596e-06   5.4742314724466525e-05
-6.504070271990265e-05   8.071512050314596e-06   5.4742314724466525e-05
-6.504070271990265e-05   8.071512050314596e-06   5.4742314724466525e-05
-3.399029644782743e-05   7.933836238975967e-06   3.074243091144048e-06
-3.399029644782743e-05   7.933836238975967e-06   3.074243091144048e-06
-3.399029644782743e-05   7.933836238975967e-06   3.074243091144048e-06
-3.399029644782743e-05   7.933836238975967e-06   3.074243091144048e-06
-4.8406623281256085e-05   8.667503397762674e-06   2.666125418492114e-05
-4.8406623281256085e-05   8.667503397762674e-06   2.666125418492114e-05
-4.8406623281256085e-05   8.667503397762674e-06   2.666125418492114e-05
-4.8406623281256085e-05   8.667503397762674e-06   2.666125418492114e-05
-6.0260335380577445e-05   1.5844063361476757e-05   2.3930740788397878e-05
-6.0260335380577445e-05   1.5844063361476757e-05   2.3930740788397878e-05
-6.0260335380577445e-05   1.5844063361476757e-05   2.3930740788397878e-05
-6.0260335380577445e-05   1.5844063361476757e-05   2.3930740788397878e-05
-8.909544045652523e-05   1.4196112495413766e-05   -2.5116538191152825e-05
-8.909544045652523e-05   1.4196112495413766e-05   -2.5116538191152825e-05
-8.909544045652523e-05   1.4196112495413766e-05   -2.5116538191152825e-05
-8.909544045652523e-05   1.4196112495413766e-05   -2.5116538191152825e-05
-9.147355330079625e-05   1.6145283812067125e-05   3.3169404928109266e-05
-9.147355330079625e-05   1.6145283812067125e-05   3.3169404928109266e-05
-9.147355330079625e-05   1.6145283812067125e-05   3.3169404928109266e-05
-9.147355330079625e-05   1.6145283812067125e-05   3.3169404928109266e-05
-6.177058126120952e-05   1.4344196546715437e-05   -1.5254896111991387e-05
-6.177058126120952e-05   1.4344196546715437e-05   -1.5254896111991387e-05
-6.177058126120952e-05   1.4344196546715437e-05   -1.5254896111991387e-05
-6.177058126120952e-05   1.4344196546715437e-05   -1.5254896111991387e-05
-7.275368627035055e-05   1.5045621285597176e-05   2.6294240599151987e-06
-7.275368627035055e-05   1.5045621285597176e-05   2.6294240599151987e-06
-7.275368627035055e-05   1.5045621285597176e-05   2.6294240599151987e-06
-7.275368627035055e-05   1.5045621285597176e-05   2.6294240599151987e-06
-6.177058126120936e-05   1.6145283812067125e-05   3.425005728732028e-05
-6.177058126120936e-05   1.6145283812067125e-05   3.425005728732028e-05
-6.177058126120936e-05   1.6145283812067125e-05   3.425005728732028e-05
-6.177058126120936e-05   1.6145283812067125e-05   3.425005728732028e-05
-9.147355330079636e-05   1.4344196546715003e-05   -1.6335548471202183e-05
-9.147355330079636e-05   1.4344196546715003e-05   -1.6335548471202183e-05
-9.147355330079636e-05   1.4344196546715003e-05   -1.6335548471202183e-05
-9.147355330079636e-05   1.4344196546715003e-05   -1.6335548471202183e-05
-9.37962755380185e-05   1.6028076187228363e-05   4.037000189377818e-05
-9.37962755380185e-05   1.6028076187228363e-05   4.037000189377818e-05
-9.37962755380185e-05   1.6028076187228363e-05   4.037000189377818e-05
-9.37962755380185e-05   1.6028076187228363e-05   4.037000189377818e-05
-6.344482625077625e-05   1.4185623697490681e-05   -9.110275424449631e-06
-6.344482625077625e-05   1.4185623697490681e-05   -9.110275424449631e-06
-6.344482625077625e-05   1.4185623697490681e-05   -9.110275424449631e-06
-6.344482625077625e-05   1.4185623697490681e-05   -9.110275424449631e-06
-7.567118698597599e-05   1.5319296578258012e-05   1.0586788739090787e-05
-7.567118698597599e-05   1.5319296578258012e-05   1.0586788739090787e-05
-7.567118698597599e-05   1.5319296578258012e-05   1.0586788739090787e-05
-7.567118698597599e-05   1.5319296578258012e-05   1.0586788739090787e-05
-6.344482625077625e-05   1.6028076187228363e-05   4.147547338762122e-05
-6.344482625077625e-05   1.6028076187228363e-05   4.147547338762122e-05
-6.344482625077625e-05   1.6028076187228363e-05   4.147547338762122e-05
-6.344482625077625e-05   1.6028076187228363e-05   4.147547338762122e-05
-9.379627553801867e-05   1.4185623697490681e-05   -1.0215746918292457e-05
-9.379627553801867e-05   1.4185623697490681e-05   -1.0215746918292457e-05
-9.379627553801867e-05   1.4185623697490681e-05   -1.0215746918292457e-05
-9.379627553801867e-05   1.4185623697490681e-05   -1.0215746918292457e-05
-9.650955680965784e-05   1.4752219159211433e-05   5.270983098245013e-05
-9.650955680965784e-05   1.4752219159211433e-05   5.270983098245013e-05
-9.650955680965784e-05   1.4752219159211433e-05   5.270983098245013e-05
-9.650955680965784e-05   1.4752219159211433e-05   5.270983098245013e-05
-6.50407027199026e-05   1.3090025868738031e-05   1.2590568071418722e-06
-6.50407027199026e-05   1.3090025868738031e-05   1.2590568071418722e-06
-6.50407027199026e-05   1.3090025868738031e-05   1.2590568071418722e-06
-6.50407027199026e-05   1.3090025868738031e-05   1.2590568071418722e-06
-7.6418710425622e-05   1.4867442600592466e-05   1.9155952944228494e-05
-7.6418710425622e-05   1.4867442600592466e-05   1.9155952944228494e-05
-7.6418710425622e-05   1.4867442600592466e-05   1.9155952944228494e-05
-7.6418710425622e-05   1.4867442600592466e-05   1.9155952944228494e-05
5.170040802256823e-05   -6.9874551650197896e-06   4.392502062489705e-05
5.170040802256823e-05   -6.9874551650197896e-06   4.392502062489705e-05
5.170040802256823e-05   -6.9874551650197896e-06   4.392502062489705e-05
5.170040802256823e-05   -6.9874551650197896e-06   4.392502062489705e-05
2.4344592712864706e-05   -4.610560420566234e-06   -2.41868044603211e-07
2.4344592712864706e-05   -4.610560420566234e-06   -2.41868044603211e-07
2.4344592712864706e-05   -4.610560420566234e-06   -2.41868044603211e-07
2.4344592712864706e-05   -4.610560420566234e-06   -2.41868044603211e-07
2.3186401386652368e-05   -8.109821974572676e-06   3.860152809710129e-05
2.3186401386652368e-05   -8.109821974572676e-06   3.860152809710129e-05
2.3186401386652368e-05   -8.109821974572676e-06   3.860152809710129e-05
2.3186401386652368e-05   -8.109821974572676e-06   3.860152809710129e-05
4.945997847874539e-05   -5.598690310740315e-06   -6.694446054686257e-06
4.945997847874539e-05   -5.598690310740315e-06   -6.694446054686257e-06
4.945997847874539e-05   -5.598690310740315e-06   -6.694446054686257e-06
4.945997847874539e-05   -5.598690310740315e-06   -6.694446054686257e-06
3.542397456008513e-05   -6.375354163722742e-06   1.7164892121536977e-05
3.542397456008513e-05   -6.375354163722742e-06   1.7164892121536977e-05
3.542397456008513e-05   -6.375354163722742e-06   1.7164892121536977e-05
3.542397456008513e-05   -6.375354163722742e-06   1.7164892121536977e-05
4.945997847874531e-05   -8.109821974572676e-06   3.709484909880206e-05
4.945997847874531e-05   -8.109821974572676e-06   3.709484909880206e-05
4.945997847874531e-05   -8.109821974572676e-06   3.709484909880206e-05
4.945997847874531e-05   -8.109821974572676e-06   3.709484909880206e-05
2.3186401386652402e-05   -5.598690310740315e-06   -5.187767056386754e-06
2.3186401386652402e-05   -5.598690310740315e-06   -5.187767056386754e-06
2.3186401386652402e-05   -5.598690310740315e-06   -5.187767056386754e-06
2.3186401386652402e-05   -5.598690310740315e-06   -5.187767056386754e-06
2.1908471710902667e-05   -8.33575797667659e-06   3.485886702509996e-05
2.1908471710902667e-05   -8.33575797667659e-06   3.485886702509996e-05
2.1908471710902667e-05   -8.33575797667659e-06   3.485886702509996e-05
2.1908471710902667e-05   -8.33575797667659e-06   3.485886702509996e-05
4.74970263357103e-05   -5.863076117237995e-06   -9.272333131909267e-06
4.74970263357103e-05   -5.863076117237995e-06   -9.272333131909267e-06
4.74970263357103e-05   -5.863076117237995e-06   -9.272333131909267e-06
4.74970263357103e-05   -5.863076117237995e-06   -9.272333131909267e-06
3.449259842937621e-05   -6.776034299686793e-06   1.2949488288117677e-05
3.449259842937621e-05   -6.776034299686793e-06   1.2949488288117677e-05
3.449259842937621e-05   -6.776034299686793e-06   1.2949488288117677e-05
3.449259842937621e-05   -6.776034299686793e-06   1.2949488288117677e-05
4.749702633571022e-05   -8.33575797667659e-06   3.3375257909436766e-05
4.749702633571022e-05   -8.33575797667659e-06   3.3375257909436766e-05
4.749702633571022e-05   -8.33575797667659e-06   3.3375257909436766e-05
4.749702633571022e-05   -8.33575797667659e-06   3.3375257909436766e-05
2.19084717109027e-05   -5.863076117237995e-06   -7.788724016246154e-06
2.19084717109027e-05   -5.863076117237995e-06   -7.788724016246154e-06
2.19084717109027e-05   -5.863076117237995e-06   -7.788724016246154e-06
2.19084717109027e-05   -5.863076117237995e-06   -7.788724016246154e-06
2.0728718877921203e-05   -8.429415933469426e-06   2.97938325302539e-05
2.0728718877921203e-05   -8.429415933469426e-06   2.97938325302539e-05
2.0728718877921203e-05   -8.429415933469426e-06   2.97938325302539e-05
2.0728718877921203e-05   -8.429415933469426e-06   2.97938325302539e-05
4.5304629483918724e-05   -6.11205242250553e-06   -1.255643658631977e-05
4.5304629483918724e-05   -6.11205242250553e-06   -1.255643658631977e-05
4.5304629483918724e-05   -6.11205242250553e-06   -1.255643658631977e-05
4.5304629483918724e-05   -6.11205242250553e-06   -1.255643658631977e-05
3.244647491285198e-05   -6.738225621158965e-06   9.249524951316702e-06
3.244647491285198e-05   -6.738225621158965e-06   9.249524951316702e-06
3.244647491285198e-05   -6.738225621158965e-06   9.249524951316702e-06
3.244647491285198e-05   -6.738225621158965e-06   9.249524951316702e-06
2.4344592712864618e-05   -1.335562950690282e-06   4.999245516824815e-05
2.4344592712864618e-05   -1.335562950690282e-06   4.999245516824815e-05
2.4344592712864618e-05   -1.335562950690282e-06   4.999245516824815e-05
2.4344592712864618e-05   -1.335562950690282e-06   4.999245516824815e-05
-1.5512229978905518e-06   -1.9768232855342516e-08   7.62223914769003e-06
-1.5512229978905518e-06   -1.9768232855342516e-08   7.62223914769003e-06
-1.5512229978905518e-06   -1.9768232855342516e-08   7.62223914769003e-06
-1.5512229978905518e-06   -1.9768232855342516e-08   7.62223914769003e-06
-2.6398430507312213e-06   -2.132005371640374e-06   5.00828268224843e-05
-2.6398430507312213e-06   -2.132005371640374e-06   5.00828268224843e-05
-2.6398430507312213e-06   -2.132005371640374e-06   5.00828268224843e-05
-2.6398430507312213e-06   -2.132005371640374e-06   5.00828268224843e-05
2.3186401386652402e-05   -8.799914213322539e-07   6.287877723326965e-06
2.3186401386652402e-05   -8.799914213322539e-07   6.287877723326965e-06
2.3186401386652402e-05   -8.799914213322539e-07   6.287877723326965e-06
2.3186401386652402e-05   -8.799914213322539e-07   6.287877723326965e-06
1.0659582484097367e-05   -1.1229401521645546e-06   2.7311678466084444e-05
1.0659582484097367e-05   -1.1229401521645546e-06   2.7311678466084444e-05
1.0659582484097367e-05   -1.1229401521645546e-06   2.7311678466084444e-05
1.0659582484097367e-05   -1.1229401521645546e-06   2.7311678466084444e-05
2.31864013866523e-05   -2.1320053716399404e-06   4.9331618452299415e-05
2.31864013866523e-05   -2.1320053716399404e-06   4.9331618452299415e-05
2.31864013866523e-05   -2.1320053716399404e-06   4.9331618452299415e-05
2.31864013866523e-05   -2.1320053716399404e-06   4.9331618452299415e-05
-2.6398430507312213e-06   -8.799914213322539e-07   7.039086093511794e-06
-2.6398430507312213e-06   -8.799914213322539e-07   7.039086093511794e-06
-2.6398430507312213e-06   -8.799914213322539e-07   7.039086093511794e-06
-2.6398430507312213e-06   -8.799914213322539e-07   7.039086093511794e-06
-3.7515259558241934e-06   -2.7243761388929914e-06   4.933286107976979e-05
-3.7515259558241934e-06   -2.7243761388929914e-06   4.933286107976979e-05
-3.7515259558241934e-06   -2.7243761388929914e-06   4.933286107976979e-05
-3.7515259558241934e-06   -2.7243761388929914e-06   4.933286107976979e-05
2.19084717109027e-05   -1.5587708952114095e-06   5.866835155682879e-06
2.19084717109027e-05   -1.5587708952114095e-06   5.866835155682879e-06
2.19084717109027e-05   -1.5587708952114095e-06   5.866835155682879e-06
2.19084717109027e-05   -1.5587708952114095e-06   5.866835155682879e-06
9.439173215945238e-06   -1.6541982894040155e-06   2.670625575046273e-05
9.439173215945238e-06   -1.6541982894040155e-06   2.670625575046273e-05
9.439173215945238e-06   -1.6541982894040155e-06   2.670625575046273e-05
9.439173215945238e-06   -1.6541982894040155e-06   2.670625575046273e-05
2.1908471710902667e-05   -2.7243761388929914e-06   4.8633497933560723e-05
2.1908471710902667e-05   -2.7243761388929914e-06   4.8633497933560723e-05
2.1908471710902667e-05   -2.7243761388929914e-06   4.8633497933560723e-05
2.1908471710902667e-05   -2.7243761388929914e-06   4.8633497933560723e-05
-3.7515259558241934e-06   -1.5587708952114095e-06   6.566198301891785e-06
-3.7515259558241934e-06   -1.5587708952114095e-06   6.566198301891785e-06
-3.7515259558241934e-06   -1.5587708952114095e-06   6.566198301891785e-06
-3.7515259558241934e-06   -1.5587708952114095e-06   6.566198301891785e-06
-4.869179427585349e-06   -3.192553107809505e-06   4.968064587829147e-05
-4.869179427585349e-06   -3.192553107809505e-06   4.968064587829147e-05
-4.869179427585349e-06   -3.192553107809505e-06   4.968064587829147e-05
-4.869179427585349e-06   -3.192553107809505e-06   4.968064587829147e-05
2.072871887792121e-05   -2.188297291448593e-06   6.414928545963585e-06
2.072871887792121e-05   -2.188297291448593e-06   6.414928545963585e-06
2.072871887792121e-05   -2.188297291448593e-06   6.414928545963585e-06
2.072871887792121e-05   -2.188297291448593e-06   6.414928545963585e-06
8.506137132622765e-06   -2.0483163109760467e-06   2.6701909533177683e-05
8.506137132622765e-06   -2.0483163109760467e-06   2.6701909533177683e-05
8.506137132622765e-06   -2.0483163109760467e-06   2.6701909533177683e-05
8.506137132622765e-06   -2.0483163109760467e-06   2.6701909533177683e-05
-1.5512229978905518e-06   4.342447513125576e-06   5.293596156287576e-05
-1.5512229978905518e-06   4.342447513125576e-06   5.293596156287576e-05
-1.5512229978905518e-06   4.342447513125576e-06   5.293596156287576e-05
-1.5512229978905518e-06   4.342447513125576e-06   5.293596156287576e-05
-2.6903832482578555e-05   4.468091050778989e-06   1.0756998544321234e-05
-2.6903832482578555e-05   4.468091050778989e-06   1.0756998544321234e-05
-2.6903832482578555e-05   4.468091050778989e-06   1.0756998544321234e-05
-2.6903832482578555e-05   4.468091050778989e-06   1.0756998544321234e-05
-2.7998071454926393e-05   3.6788622284414374e-06   5.2775742277550754e-05
-2.7998071454926393e-05   3.6788622284414374e-06   5.2775742277550754e-05
-2.7998071454926393e-05   3.6788622284414374e-06   5.2775742277550754e-05
-2.7998071454926393e-05   3.6788622284414374e-06   5.2775742277550754e-05
-2.6398430507312213e-06   3.7114303623095833e-06   1.0492487390237944e-05
-2.6398430507312213e-06   3.7114303623095833e-06   1.0492487390237944e-05
-2.6398430507312213e-06   3.7114303623095833e-06   1.0492487390237944e-05
-2.6398430507312213e-06   3.7114303623095833e-06   1.0492487390237944e-05
-1.4811636070132238e-05   3.9798855878011e-06   3.061773595394474e-05
-1.4811636070132238e-05   3.9798855878011e-06   3.061773595394474e-05
-1.4811636070132238e-05   3.9798855878011e-06   3.061773595394474e-05
-1.4811636070132238e-05   3.9798855878011e-06   3.061773595394474e-05
-2.6398430507312213e-06   3.6788622284414374e-06   5.2756201397230105e-05
-2.6398430507312213e-06   3.6788622284414374e-06   5.2756201397230105e-05
-2.6398430507312213e-06   3.6788622284414374e-06   5.2756201397230105e-05
-2.6398430507312213e-06   3.6788622284414374e-06   5.2756201397230105e-05
-2.7998071454926393e-05   3.7114303623095833e-06   1.0512028270558485e-05
-2.7998071454926393e-05   3.7114303623095833e-06   1.0512028270558485e-05
-2.7998071454926393e-05   3.7114303623095833e-06   1.0512028270558485e-05
-2.7998071454926393e-05   3.7114303623095833e-06   1.0512028270558485e-05
-2.91197669117811e-05   3.0344832075393686e-06   5.306643227034869e-05
-2.91197669117811e-05   3.0344832075393686e-06   5.306643227034869e-05
-2.91197669117811e-05   3.0344832075393686e-06   5.306643227034869e-05
-2.91197669117811e-05   3.0344832075393686e-06   5.306643227034869e-05
-3.7515259558241934e-06   2.966741568597841e-06   1.0826675660452088e-05
-3.7515259558241934e-06   2.966741568597841e-06   1.0826675660452088e-05
-3.7515259558241934e-06   2.966741568597841e-06   1.0826675660452088e-05
-3.7515259558241934e-06   2.966741568597841e-06   1.0826675660452088e-05
-1.58278170009656e-05   3.4707873892282463e-06   3.065139990997745e-05
-1.58278170009656e-05   3.4707873892282463e-06   3.065139990997745e-05
-1.58278170009656e-05   3.4707873892282463e-06   3.065139990997745e-05
-1.58278170009656e-05   3.4707873892282463e-06   3.065139990997745e-05
-3.7515259558241934e-06   3.0344832075393686e-06   5.310707725371378e-05
-3.7515259558241934e-06   3.0344832075393686e-06   5.310707725371378e-05
-3.7515259558241934e-06   3.0344832075393686e-06   5.310707725371378e-05
-3.7515259558241934e-06   3.0344832075393686e-06   5.310707725371378e-05
-2.9119766911781127e-05   2.966741568597841e-06   1.0786030677087215e-05
-2.9119766911781127e-05   2.966741568597841e-06   1.0786030677087215e-05
-2.9119766911781127e-05   2.966741568597841e-06   1.0786030677087215e-05
-2.9119766911781127e-05   2.966741568597841e-06   1.0786030677087215e-05
-3.0241135947196233e-05   2.4608557641857785e-06   5.3728649839058064e-05
-3.0241135947196233e-05   2.4608557641857785e-06   5.3728649839058064e-05
-3.0241135947196233e-05   2.4608557641857785e-06   5.3728649839058064e-05
-3.0241135947196233e-05   2.4608557641857785e-06   5.3728649839058064e-05
-4.869179427585349e-06   2.260032500229093e-06   1.1562549598080271e-05
-4.869179427585349e-06   2.260032500229093e-06   1.1562549598080271e-05
-4.869179427585349e-06   2.260032500229093e-06   1.1562549598080271e-05
-4.869179427585349e-06   2.260032500229093e-06   1.1562549598080271e-05
-1.6891555436987065e-05   2.9746035444186414e-06   3.1171100320569645e-05
-1.6891555436987065e-05   2.9746035444186414e-06   3.1171100320569645e-05
-1.6891555436987065e-05   2.9746035444186414e-06   3.1171100320569645e-05
-1.6891555436987065e-05   2.9746035444186414e-06   3.1171100320569645e-05
-2.6903832482578528e-05   9.865372813232937e-06   4.6557170119030755e-05
-2.6903832482578528e-05   9.865372813232937e-06   4.6557170119030755e-05
-2.6903832482578528e-05   9.865372813232937e-06   4.6557170119030755e-05
-2.6903832482578528e-05   9.865372813232937e-06   4.6557170119030755e-05
-5.168962236239453e-05   8.785759847664693e-06   4.599752539996126e-06
-5.168962236239453e-05   8.785759847664693e-06   4.599752539996126e-06
-5.168962236239453e-05   8.785759847664693e-06   4.599752539996126e-06
-5.168962236239453e-05   8.785759847664693e-06   4.599752539996126e-06
-5.286684129710402e-05   9.230934634168932e-06   4.6250098473480956e-05
-5.286684129710402e-05   9.230934634168932e-06   4.6250098473480956e-05
-5.286684129710402e-05   9.230934634168932e-06   4.6250098473480956e-05
-5.286684129710402e-05   9.230934634168932e-06   4.6250098473480956e-05
-2.7998071454926474e-05   8.0604071622907e-06   5.504465219645068e-06
-2.7998071454926474e-05   8.0604071622907e-06   5.504465219645068e-06
-2.7998071454926474e-05   8.0604071622907e-06   5.504465219645068e-06
-2.7998071454926474e-05   8.0604071622907e-06   5.504465219645068e-06
-3.973307065991674e-05   8.869298935952705e-06   2.4577462163765285e-05
-3.973307065991674e-05   8.869298935952705e-06   2.4577462163765285e-05
-3.973307065991674e-05   8.869298935952705e-06   2.4577462163765285e-05
-3.973307065991674e-05   8.869298935952705e-06   2.4577462163765285e-05
-2.7998071454926393e-05   9.230934634169366e-06   4.695241495660787e-05
-2.7998071454926393e-05   9.230934634169366e-06   4.695241495660787e-05
-2.7998071454926393e-05   9.230934634169366e-06   4.695241495660787e-05
-2.7998071454926393e-05   9.230934634169366e-06   4.695241495660787e-05
-5.2866841297103913e-05   8.0604071622907e-06   4.802148736518259e-06
-5.2866841297103913e-05   8.0604071622907e-06   4.802148736518259e-06
-5.2866841297103913e-05   8.0604071622907e-06   4.802148736518259e-06
-5.2866841297103913e-05   8.0604071622907e-06   4.802148736518259e-06
-5.416311271069286e-05   8.646711599991346e-06   4.798313676470387e-05
-5.416311271069286e-05   8.646711599991346e-06   4.798313676470387e-05
-5.416311271069286e-05   8.646711599991346e-06   4.798313676470387e-05
-5.416311271069286e-05   8.646711599991346e-06   4.798313676470387e-05
-2.9119766911781127e-05   7.3852192713488515e-06   7.001122497036789e-06
-2.9119766911781127e-05   7.3852192713488515e-06   7.001122497036789e-06
-2.9119766911781127e-05   7.3852192713488515e-06   7.001122497036789e-06
-2.9119766911781127e-05   7.3852192713488515e-06   7.001122497036789e-06
-4.057952593877393e-05   8.405907557062662e-06   2.5488307903931027e-05
-4.057952593877393e-05   8.405907557062662e-06   2.5488307903931027e-05
-4.057952593877393e-05   8.405907557062662e-06   2.5488307903931027e-05
-4.057952593877393e-05   8.405907557062662e-06   2.5488307903931027e-05
-2.9119766911781127e-05   8.646711599991346e-06   4.8740032161889496e-05
-2.9119766911781127e-05   8.646711599991346e-06   4.8740032161889496e-05
-2.9119766911781127e-05   8.646711599991346e-06   4.8740032161889496e-05
-2.9119766911781127e-05   8.646711599991346e-06   4.8740032161889496e-05
-5.416311271069275e-05   7.3852192713488515e-06   6.244227099851162e-06
-5.416311271069275e-05   7.3852192713488515e-06   6.244227099851162e-06
-5.416311271069275e-05   7.3852192713488515e-06   6.244227099851162e-06
-5.416311271069275e-05   7.3852192713488515e-06   6.244227099851162e-06
-5.534876515854453e-05   7.933836238975967e-06   4.928889566666039e-05
-5.534876515854453e-05   7.933836238975967e-06   4.928889566666039e-05
-5.534876515854453e-05   7.933836238975967e-06   4.928889566666039e-05
-5.534876515854453e-05   7.933836238975967e-06   4.928889566666039e-05
-3.024113594719626e-05   6.599565279508893e-06   8.243409556760043e-06
-3.024113594719626e-05   6.599565279508893e-06   8.243409556760043e-06
-3.024113594719626e-05   6.599565279508893e-06   8.243409556760043e-06
-3.024113594719626e-05   6.599565279508893e-06   8.243409556760043e-06
-4.192332796711703e-05   7.883943317776951e-06   2.6943102767000723e-05
-4.192332796711703e-05   7.883943317776951e-06   2.6943102767000723e-05
-4.192332796711703e-05   7.883943317776951e-06   2.6943102767000723e-05
-4.192332796711703e-05   7.883943317776951e-06   2.6943102767000723e-05
-5.168962236239453e-05   1.4196112495413766e-05   2.250070274362572e-05
-5.168962236239453e-05   1.4196112495413766e-05   2.250070274362572e-05
-5.168962236239453e-05   1.4196112495413766e-05   2.250070274362572e-05
-5.168962236239453e-05   1.4196112495413766e-05   2.250070274362572e-05
-7.521031969333651e-05   1.2099408545046542e-05   -1.795848184483128e-05
-7.521031969333651e-05   1.2099408545046542e-05   -1.795848184483128e-05
-7.521031969333651e-05   1.2099408545046542e-05   -1.795848184483128e-05
-7.521031969333651e-05   1.2099408545046542e-05   -1.795848184483128e-05
-7.732519457539214e-05   1.4344196546715437e-05   2.9880195522815744e-05
-7.732519457539214e-05   1.4344196546715437e-05   2.9880195522815744e-05
-7.732519457539214e-05   1.4344196546715437e-05   2.9880195522815744e-05
-7.732519457539214e-05   1.4344196546715437e-05   2.9880195522815744e-05
-5.286684129710402e-05   1.2036311185755974e-05   -9.49899539108936e-06
-5.286684129710402e-05   1.2036311185755974e-05   -9.49899539108936e-06
-5.286684129710402e-05   1.2036311185755974e-05   -9.49899539108936e-06
-5.286684129710402e-05   1.2036311185755974e-05   -9.49899539108936e-06
-6.18280838803766e-05   1.2977163535620546e-05   4.871897504446455e-06
-6.18280838803766e-05   1.2977163535620546e-05   4.871897504446455e-06
-6.18280838803766e-05   1.2977163535620546e-05   4.871897504446455e-06
-6.18280838803766e-05   1.2977163535620546e-05   4.871897504446455e-06
-5.286684129710375e-05   1.4344196546715003e-05   3.1264926739391096e-05
-5.286684129710375e-05   1.4344196546715003e-05   3.1264926739391096e-05
-5.286684129710375e-05   1.4344196546715003e-05   3.1264926739391096e-05
-5.286684129710375e-05   1.4344196546715003e-05   3.1264926739391096e-05
-7.73251945753923e-05   1.2036311185755974e-05   -1.0883726607665255e-05
-7.73251945753923e-05   1.2036311185755974e-05   -1.0883726607665255e-05
-7.73251945753923e-05   1.2036311185755974e-05   -1.0883726607665255e-05
-7.73251945753923e-05   1.2036311185755974e-05   -1.0883726607665255e-05
-7.92194999244605e-05   1.4185623697490681e-05   3.585048164486118e-05
-7.92194999244605e-05   1.4185623697490681e-05   3.585048164486118e-05
-7.92194999244605e-05   1.4185623697490681e-05   3.585048164486118e-05
-7.92194999244605e-05   1.4185623697490681e-05   3.585048164486118e-05
-5.416311271069286e-05   1.1790170022489381e-05   -4.472891506417673e-06
-5.416311271069286e-05   1.1790170022489381e-05   -4.472891506417673e-06
-5.416311271069286e-05   1.1790170022489381e-05   -4.472891506417673e-06
-5.416311271069286e-05   1.1790170022489381e-05   -4.472891506417673e-06
-6.425516782097211e-05   1.3119531460523831e-05   1.1549583481229174e-05
-6.425516782097211e-05   1.3119531460523831e-05   1.1549583481229174e-05
-6.425516782097211e-05   1.3119531460523831e-05   1.1549583481229174e-05
-6.425516782097211e-05   1.3119531460523831e-05   1.1549583481229174e-05
-5.416311271069286e-05   1.4185623697490681e-05   3.72877538498622e-05
-5.416311271069286e-05   1.4185623697490681e-05   3.72877538498622e-05
-5.416311271069286e-05   1.4185623697490681e-05   3.72877538498622e-05
-5.416311271069286e-05   1.4185623697490681e-05   3.72877538498622e-05
-7.921949992446066e-05   1.1790170022488947e-05   -5.910163711418692e-06
-7.921949992446066e-05   1.1790170022488947e-05   -5.910163711418692e-06
-7.921949992446066e-05   1.1790170022488947e-05   -5.910163711418692e-06
-7.921949992446066e-05   1.1790170022488947e-05   -5.910163711418692e-06
-8.13968676025476e-05   1.3090025868738031e-05   4.612618301813717e-05
-8.13968676025476e-05   1.3090025868738031e-05   4.612618301813717e-05
-8.13968676025476e-05   1.3090025868738031e-05   4.612618301813717e-05
-8.13968676025476e-05   1.3090025868738031e-05   4.612618301813717e-05
-5.5348765158544475e-05   1.0706472783198525e-05   4.142810796122463e-06
-5.5348765158544475e-05   1.0706472783198525e-05   4.142810796122463e-06
-5.5348765158544475e-05   1.0706472783198525e-05   4.142810796122463e-06
-5.5348765158544475e-05   1.0706472783198525e-05   4.142810796122463e-06
-6.478021145328182e-05   1.2670463802959145e-05   1.8683493342161093e-05
-6.478021145328182e-05   1.2670463802959145e-05   1.8683493342161093e-05
-6.478021145328182e-05   1.2670463802959145e-05   1.8683493342161093e-05
-6.478021145328182e-05   1.2670463802959145e-05   1.8683493342161093e-05
3.5563624213559325e-05   -4.610560420566234e-06   3.5719663669233544e-05
3.5563624213559325e-05   -4.610560420566234e-06   3.5719663669233544e-05
3.5563624213559325e-05   -4.610560420566234e-06   3.5719663669233544e-05
3.5563624213559325e-05   -4.610560420566234e-06   3.5719663669233544e-05
1.4753191303125534e-05   -2.258306951948008e-06   2.446960899681787e-06
1.4753191303125534e-05   -2.258306951948008e-06   2.446960899681787e-06
1.4753191303125534e-05   -2.258306951948008e-06   2.446960899681787e-06
1.4753191303125534e-05   -2.258306951948008e-06   2.446960899681787e-06
1.3822407446437962e-05   -5.598690310740315e-06   3.212171511711372e-05
1.3822407446437962e-05   -5.598690310740315e-06   3.212171511711372e-05
1.3822407446437962e-05   -5.598690310740315e-06   3.212171511711372e-05
1.3822407446437962e-05   -5.598690310740315e-06   3.212171511711372e-05
3.358330204363916e-05   -3.141188167399972e-06   -2.287610497559312e-06
3.358330204363916e-05   -3.141188167399972e-06   -2.287610497559312e-06
3.358330204363916e-05   -3.141188167399972e-06   -2.287610497559312e-06
3.358330204363916e-05   -3.141188167399972e-06   -2.287610497559312e-06
2.3214704794278733e-05   -3.99649628208534e-06   1.5506569786853533e-05
2.3214704794278733e-05   -3.99649628208534e-06   1.5506569786853533e-05
2.3214704794278733e-05   -3.99649628208534e-06   1.5506569786853533e-05
2.3214704794278733e-05   -3.99649628208534e-06   1.5506569786853533e-05
3.3583302043639225e-05   -5.598690310739882e-06   3.064721383110944e-05
3.3583302043639225e-05   -5.598690310739882e-06   3.064721383110944e-05
3.3583302043639225e-05   -5.598690310739882e-06   3.064721383110944e-05
3.3583302043639225e-05   -5.598690310739882e-06   3.064721383110944e-05
1.3822407446437914e-05   -3.141188167399972e-06   -8.131092115552796e-07
1.3822407446437914e-05   -3.141188167399972e-06   -8.131092115552796e-07
1.3822407446437914e-05   -3.141188167399972e-06   -8.131092115552796e-07
1.3822407446437914e-05   -3.141188167399972e-06   -8.131092115552796e-07
1.2777494595770382e-05   -5.863076117237995e-06   2.9448938197593894e-05
1.2777494595770382e-05   -5.863076117237995e-06   2.9448938197593894e-05
1.2777494595770382e-05   -5.863076117237995e-06   2.9448938197593894e-05
1.2777494595770382e-05   -5.863076117237995e-06   2.9448938197593894e-05
3.188383660233613e-05   -3.4456538318800543e-06   -3.845418517896921e-06
3.188383660233613e-05   -3.4456538318800543e-06   -3.845418517896921e-06
3.188383660233613e-05   -3.4456538318800543e-06   -3.845418517896921e-06
3.188383660233613e-05   -3.4456538318800543e-06   -3.845418517896921e-06
2.2331282887899724e-05   -4.3707922646810116e-06   1.2630587399178471e-05
2.2331282887899724e-05   -4.3707922646810116e-06   1.2630587399178471e-05
2.2331282887899724e-05   -4.3707922646810116e-06   1.2630587399178471e-05
2.2331282887899724e-05   -4.3707922646810116e-06   1.2630587399178471e-05
3.1883836602336174e-05   -5.863076117237995e-06   2.799848482637932e-05
3.1883836602336174e-05   -5.863076117237995e-06   2.799848482637932e-05
3.1883836602336174e-05   -5.863076117237995e-06   2.799848482637932e-05
3.1883836602336174e-05   -5.863076117237995e-06   2.799848482637932e-05
1.2777494595770362e-05   -3.4456538318800543e-06   -2.3949651466823735e-06
1.2777494595770362e-05   -3.4456538318800543e-06   -2.3949651466823735e-06
1.2777494595770362e-05   -3.4456538318800543e-06   -2.3949651466823735e-06
1.2777494595770362e-05   -3.4456538318800543e-06   -2.3949651466823735e-06
1.1841046944847543e-05   -6.11205242250553e-06   2.598226063655045e-05
1.1841046944847543e-05   -6.11205242250553e-06   2.598226063655045e-05
1.1841046944847543e-05   -6.11205242250553e-06   2.598226063655045e-05
1.1841046944847543e-05   -6.11205242250553e-06   2.598226063655045e-05
2.9957143733912208e-05   -3.849851882508758e-06   -5.5685543358888895e-06
2.9957143733912208e-05   -3.849851882508758e-06   -5.5685543358888895e-06
2.9957143733912208e-05   -3.849851882508758e-06   -5.5685543358888895e-06
2.9957143733912208e-05   -3.849851882508758e-06   -5.5685543358888895e-06
2.070236608903317e-05   -4.445318637623288e-06   1.0213355125310796e-05
2.070236608903317e-05   -4.445318637623288e-06   1.0213355125310796e-05
2.070236608903317e-05   -4.445318637623288e-06   1.0213355125310796e-05
2.070236608903317e-05   -4.445318637623288e-06   1.0213355125310796e-05
1.4753191303125582e-05   -1.9768232854908835e-08   4.42056461119972e-05
1.4753191303125582e-05   -1.9768232854908835e-08   4.42056461119972e-05
1.4753191303125582e-05   -1.9768232854908835e-08   4.42056461119972e-05
1.4753191303125582e-05   -1.9768232854908835e-08   4.42056461119972e-05
-4.779644160891189e-06   1.172951738492075e-06   1.2366552321444423e-05
-4.779644160891189e-06   1.172951738492075e-06   1.2366552321444423e-05
-4.779644160891189e-06   1.172951738492075e-06   1.2366552321444423e-05
-4.779644160891189e-06   1.172951738492075e-06   1.2366552321444423e-05
-5.634689327538295e-06   -8.799914213322539e-07   4.429228112927961e-05
-5.634689327538295e-06   -8.799914213322539e-07   4.429228112927961e-05
-5.634689327538295e-06   -8.799914213322539e-07   4.429228112927961e-05
-5.634689327538295e-06   -8.799914213322539e-07   4.429228112927961e-05
1.3822407446437914e-05   2.782106327541174e-07   1.1168865273533798e-05
1.3822407446437914e-05   2.782106327541174e-07   1.1168865273533798e-05
1.3822407446437914e-05   2.782106327541174e-07   1.1168865273533798e-05
1.3822407446437914e-05   2.782106327541174e-07   1.1168865273533798e-05
4.401244277510099e-06   6.122354920799246e-08   2.70009961385421e-05
4.401244277510099e-06   6.122354920799246e-08   2.70009961385421e-05
4.401244277510099e-06   6.122354920799246e-08   2.70009961385421e-05
4.401244277510099e-06   6.122354920799246e-08   2.70009961385421e-05
1.3822407446437948e-05   -8.799914213326876e-07   4.359735989682744e-05
1.3822407446437948e-05   -8.799914213326876e-07   4.359735989682744e-05
1.3822407446437948e-05   -8.799914213326876e-07   4.359735989682744e-05
1.3822407446437948e-05   -8.799914213326876e-07   4.359735989682744e-05
-5.634689327538295e-06   2.782106327541174e-07   1.1863786505985968e-05
-5.634689327538295e-06   2.782106327541174e-07   1.1863786505985968e-05
-5.634689327538295e-06   2.782106327541174e-07   1.1863786505985968e-05
-5.634689327538295e-06   2.782106327541174e-07   1.1863786505985968e-05
-6.508798500317204e-06   -1.5587708952114095e-06   4.376698599262629e-05
-6.508798500317204e-06   -1.5587708952114095e-06   4.376698599262629e-05
-6.508798500317204e-06   -1.5587708952114095e-06   4.376698599262629e-05
-6.508798500317204e-06   -1.5587708952114095e-06   4.376698599262629e-05
1.2777494595770362e-05   -4.546231900386284e-07   1.0960675542710276e-05
1.2777494595770362e-05   -4.546231900386284e-07   1.0960675542710276e-05
1.2777494595770362e-05   -4.546231900386284e-07   1.0960675542710276e-05
1.2777494595770362e-05   -4.546231900386284e-07   1.0960675542710276e-05
3.461663358919864e-06   -5.359674280476859e-07   2.6535867480268122e-05
3.461663358919864e-06   -5.359674280476859e-07   2.6535867480268122e-05
3.461663358919864e-06   -5.359674280476859e-07   2.6535867480268122e-05
3.461663358919864e-06   -5.359674280476859e-07   2.6535867480268122e-05
1.277749459577041e-05   -1.5587708952114095e-06   4.310449736952298e-05
1.277749459577041e-05   -1.5587708952114095e-06   4.310449736952298e-05
1.277749459577041e-05   -1.5587708952114095e-06   4.310449736952298e-05
1.277749459577041e-05   -1.5587708952114095e-06   4.310449736952298e-05
-6.508798500317231e-06   -4.546231900386284e-07   1.1623164165814074e-05
-6.508798500317231e-06   -4.546231900386284e-07   1.1623164165814074e-05
-6.508798500317231e-06   -4.546231900386284e-07   1.1623164165814074e-05
-6.508798500317231e-06   -4.546231900386284e-07   1.1623164165814074e-05
-7.3754782869736146e-06   -2.188297291448593e-06   4.41695773272775e-05
-7.3754782869736146e-06   -2.188297291448593e-06   4.41695773272775e-05
-7.3754782869736146e-06   -2.188297291448593e-06   4.41695773272775e-05
-7.3754782869736146e-06   -2.188297291448593e-06   4.41695773272775e-05
1.1841046944847488e-05   -1.177681183078469e-06   1.1535665609220319e-05
1.1841046944847488e-05   -1.177681183078469e-06   1.1535665609220319e-05
1.1841046944847488e-05   -1.177681183078469e-06   1.1535665609220319e-05
1.1841046944847488e-05   -1.177681183078469e-06   1.1535665609220319e-05
2.7185488259726342e-06   -1.0346915495750009e-06   2.6654035360575775e-05
2.7185488259726342e-06   -1.0346915495750009e-06   2.6654035360575775e-05
2.7185488259726342e-06   -1.0346915495750009e-06   2.6654035360575775e-05
2.7185488259726342e-06   -1.0346915495750009e-06   2.6654035360575775e-05
-4.779644160891189e-06   4.468091050778989e-06   4.7980651368844534e-05
-4.779644160891189e-06   4.468091050778989e-06   4.7980651368844534e-05
-4.779644160891189e-06   4.468091050778989e-06   4.7980651368844534e-05
-4.779644160891189e-06   4.468091050778989e-06   4.7980651368844534e-05
-2.3992460446846148e-05   4.394613407613778e-06   1.5915204306353545e-05
-2.3992460446846148e-05   4.394613407613778e-06   1.5915204306353545e-05
-2.3992460446846148e-05   4.394613407613778e-06   1.5915204306353545e-05
-2.3992460446846148e-05   4.394613407613778e-06   1.5915204306353545e-05
-2.4835786279638527e-05   3.7114303623095833e-06   4.76672982126418e-05
-2.4835786279638527e-05   3.7114303623095833e-06   4.76672982126418e-05
-2.4835786279638527e-05   3.7114303623095833e-06   4.76672982126418e-05
-2.4835786279638527e-05   3.7114303623095833e-06   4.76672982126418e-05
-5.634689327538268e-06   3.5807900067037074e-06   1.5743854172505433e-05
-5.634689327538268e-06   3.5807900067037074e-06   1.5743854172505433e-05
-5.634689327538268e-06   3.5807900067037074e-06   1.5743854172505433e-05
-5.634689327538268e-06   3.5807900067037074e-06   1.5743854172505433e-05
-1.4847513523742208e-05   3.93918391936943e-06   3.0883524818579866e-05
-1.4847513523742208e-05   3.93918391936943e-06   3.0883524818579866e-05
-1.4847513523742208e-05   3.93918391936943e-06   3.0883524818579866e-05
-1.4847513523742208e-05   3.93918391936943e-06   3.0883524818579866e-05
-5.634689327538295e-06   3.7114303623095833e-06   4.774568242600576e-05
-5.634689327538295e-06   3.7114303623095833e-06   4.774568242600576e-05
-5.634689327538295e-06   3.7114303623095833e-06   4.774568242600576e-05
-5.634689327538295e-06   3.7114303623095833e-06   4.774568242600576e-05
-2.4835786279638527e-05   3.5807900067037074e-06   1.5665469959141474e-05
-2.4835786279638527e-05   3.5807900067037074e-06   1.5665469959141474e-05
-2.4835786279638527e-05   3.5807900067037074e-06   1.5665469959141474e-05
-2.4835786279638527e-05   3.5807900067037074e-06   1.5665469959141474e-05
-2.569949688269055e-05   2.966741568597841e-06   4.791318483125004e-05
-2.569949688269055e-05   2.966741568597841e-06   4.791318483125004e-05
-2.569949688269055e-05   2.966741568597841e-06   4.791318483125004e-05
-2.569949688269055e-05   2.966741568597841e-06   4.791318483125004e-05
-6.508798500317204e-06   2.7762773687029993e-06   1.6042966047231325e-05
-6.508798500317204e-06   2.7762773687029993e-06   1.6042966047231325e-05
-6.508798500317204e-06   2.7762773687029993e-06   1.6042966047231325e-05
-6.508798500317204e-06   2.7762773687029993e-06   1.6042966047231325e-05
-1.5620111400704758e-05   3.3481665686870346e-06   3.0885354027887545e-05
-1.5620111400704758e-05   3.3481665686870346e-06   3.0885354027887545e-05
-1.5620111400704758e-05   3.3481665686870346e-06   3.0885354027887545e-05
-1.5620111400704758e-05   3.3481665686870346e-06   3.0885354027887545e-05
-6.508798500317231e-06   2.966741568597841e-06   4.8027463351186866e-05
-6.508798500317231e-06   2.966741568597841e-06   4.8027463351186866e-05
-6.508798500317231e-06   2.966741568597841e-06   4.8027463351186866e-05
-6.508798500317231e-06   2.966741568597841e-06   4.8027463351186866e-05
-2.569949688269066e-05   2.7762773687029993e-06   1.592868752729455e-05
-2.569949688269066e-05   2.7762773687029993e-06   1.592868752729455e-05
-2.569949688269066e-05   2.7762773687029993e-06   1.592868752729455e-05
-2.569949688269066e-05   2.7762773687029993e-06   1.592868752729455e-05
-2.6553254660117607e-05   2.260032500229093e-06   4.855960661991087e-05
-2.6553254660117607e-05   2.260032500229093e-06   4.855960661991087e-05
-2.6553254660117607e-05   2.260032500229093e-06   4.855960661991087e-05
-2.6553254660117607e-05   2.260032500229093e-06   4.855960661991087e-05
-7.3754782869736146e-06   2.0016353841174547e-06   1.6751684267671567e-05
-7.3754782869736146e-06   2.0016353841174547e-06   1.6751684267671567e-05
-7.3754782869736146e-06   2.0016353841174547e-06   1.6751684267671567e-05
-7.3754782869736146e-06   2.0016353841174547e-06   1.6751684267671567e-05
-1.6428108847521192e-05   2.7709571675262577e-06   3.137780879853777e-05
-1.6428108847521192e-05   2.7709571675262577e-06   3.137780879853777e-05
-1.6428108847521192e-05   2.7709571675262577e-06   3.137780879853777e-05
-1.6428108847521192e-05   2.7709571675262577e-06   3.137780879853777e-05
-2.3992460446846148e-05   8.785759847664259e-06   4.2427086557961366e-05
-2.3992460446846148e-05   8.785759847664259e-06   4.2427086557961366e-05
-2.3992460446846148e-05   8.785759847664259e-06   4.2427086557961366e-05
-2.3992460446846148e-05   8.785759847664259e-06   4.2427086557961366e-05
-4.287704557244049e-05   7.5281645209698995e-06   1.0198220819287551e-05
-4.287704557244049e-05   7.5281645209698995e-06   1.0198220819287551e-05
-4.287704557244049e-05   7.5281645209698995e-06   1.0198220819287551e-05
-4.287704557244049e-05   7.5281645209698995e-06   1.0198220819287551e-05
-4.37813608532093e-05   8.0604071622907e-06   4.1863042718143966e-05
-4.37813608532093e-05   8.0604071622907e-06   4.1863042718143966e-05
-4.37813608532093e-05   8.0604071622907e-06   4.1863042718143966e-05
-4.37813608532093e-05   8.0604071622907e-06   4.1863042718143966e-05
-2.4835786279638473e-05   6.732586422983269e-06   1.1083777539110844e-05
-2.4835786279638473e-05   6.732586422983269e-06   1.1083777539110844e-05
-2.4835786279638473e-05   6.732586422983269e-06   1.1083777539110844e-05
-2.4835786279638473e-05   6.732586422983269e-06   1.1083777539110844e-05
-3.377613440128395e-05   7.645335169731513e-06   2.543670849380501e-05
-3.377613440128395e-05   7.645335169731513e-06   2.543670849380501e-05
-3.377613440128395e-05   7.645335169731513e-06   2.543670849380501e-05
-3.377613440128395e-05   7.645335169731513e-06   2.543670849380501e-05
-2.4835786279638527e-05   8.0604071622907e-06   4.26597351617286e-05
-2.4835786279638527e-05   8.0604071622907e-06   4.26597351617286e-05
-2.4835786279638527e-05   8.0604071622907e-06   4.26597351617286e-05
-2.4835786279638527e-05   8.0604071622907e-06   4.26597351617286e-05
-4.3781360853209245e-05   6.732586422983269e-06   1.0287085095526428e-05
-4.3781360853209245e-05   6.732586422983269e-06   1.0287085095526428e-05
-4.3781360853209245e-05   6.732586422983269e-06   1.0287085095526428e-05
-4.3781360853209245e-05   6.732586422983269e-06   1.0287085095526428e-05
-4.4799383485261384e-05   7.3852192713488515e-06   4.3295372440597295e-05
-4.4799383485261384e-05   7.3852192713488515e-06   4.3295372440597295e-05
-4.4799383485261384e-05   7.3852192713488515e-06   4.3295372440597295e-05
-4.4799383485261384e-05   7.3852192713488515e-06   4.3295372440597295e-05
-2.569949688269055e-05   5.997045587011803e-06   1.229513231358159e-05
-2.569949688269055e-05   5.997045587011803e-06   1.229513231358159e-05
-2.569949688269055e-05   5.997045587011803e-06   1.229513231358159e-05
-2.569949688269055e-05   5.997045587011803e-06   1.229513231358159e-05
-3.440380671678134e-05   7.103127155687512e-06   2.613866642919491e-05
-3.440380671678134e-05   7.103127155687512e-06   2.613866642919491e-05
-3.440380671678134e-05   7.103127155687512e-06   2.613866642919491e-05
-3.440380671678134e-05   7.103127155687512e-06   2.613866642919491e-05
-2.569949688269066e-05   7.3852192713488515e-06   4.41282766511995e-05
-2.569949688269066e-05   7.3852192713488515e-06   4.41282766511995e-05
-2.569949688269066e-05   7.3852192713488515e-06   4.41282766511995e-05
-2.569949688269066e-05   7.3852192713488515e-06   4.41282766511995e-05
-4.479938348526133e-05   5.9970455870113695e-06   1.1462228102979382e-05
-4.479938348526133e-05   5.9970455870113695e-06   1.1462228102979382e-05
-4.479938348526133e-05   5.9970455870113695e-06   1.1462228102979382e-05
-4.479938348526133e-05   5.9970455870113695e-06   1.1462228102979382e-05
-4.57049468695103e-05   6.599565279508893e-06   4.4506463310684235e-05
-4.57049468695103e-05   6.599565279508893e-06   4.4506463310684235e-05
-4.57049468695103e-05   6.599565279508893e-06   4.4506463310684235e-05
-4.57049468695103e-05   6.599565279508893e-06   4.4506463310684235e-05
-2.6553254660117553e-05   5.1754032357087705e-06   1.3441473521309723e-05
-2.6553254660117553e-05   5.1754032357087705e-06   1.3441473521309723e-05
-2.6553254660117553e-05   5.1754032357087705e-06   1.3441473521309723e-05
-2.6553254660117553e-05   5.1754032357087705e-06   1.3441473521309723e-05
-3.5423425514272936e-05   6.533113486588589e-06   2.741046546104e-05
-3.5423425514272936e-05   6.533113486588589e-06   2.741046546104e-05
-3.5423425514272936e-05   6.533113486588589e-06   2.741046546104e-05
-3.5423425514272936e-05   6.533113486588589e-06   2.741046546104e-05
-4.287704557244049e-05   1.2099408545046542e-05   2.0372317347337374e-05
-4.287704557244049e-05   1.2099408545046542e-05   2.0372317347337374e-05
-4.287704557244049e-05   1.2099408545046542e-05   2.0372317347337374e-05
-4.287704557244049e-05   1.2099408545046542e-05   2.0372317347337374e-05
-6.056786186181464e-05   9.865779215789076e-06   -1.0452554065840504e-05
-6.056786186181464e-05   9.865779215789076e-06   -1.0452554065840504e-05
-6.056786186181464e-05   9.865779215789076e-06   -1.0452554065840504e-05
-6.056786186181464e-05   9.865779215789076e-06   -1.0452554065840504e-05
-6.245746865763779e-05   1.2036311185755974e-05   2.6105495409645824e-05
-6.245746865763779e-05   1.2036311185755974e-05   2.6105495409645824e-05
-6.245746865763779e-05   1.2036311185755974e-05   2.6105495409645824e-05
-6.245746865763779e-05   1.2036311185755974e-05   2.6105495409645824e-05
-4.378136085320914e-05   9.60897255093858e-06   -3.564947750177988e-06
-4.378136085320914e-05   9.60897255093858e-06   -3.564947750177988e-06
-4.378136085320914e-05   9.60897255093858e-06   -3.564947750177988e-06
-4.378136085320914e-05   9.60897255093858e-06   -3.564947750177988e-06
-5.045676050019547e-05   1.070523987609399e-05   6.902957933040653e-06
-5.045676050019547e-05   1.070523987609399e-05   6.902957933040653e-06
-5.045676050019547e-05   1.070523987609399e-05   6.902957933040653e-06
-5.045676050019547e-05   1.070523987609399e-05   6.902957933040653e-06
-4.3781360853209245e-05   1.2036311185755974e-05   2.756189859053613e-05
-4.3781360853209245e-05   1.2036311185755974e-05   2.756189859053613e-05
-4.3781360853209245e-05   1.2036311185755974e-05   2.756189859053613e-05
-4.3781360853209245e-05   1.2036311185755974e-05   2.756189859053613e-05
-6.245746865763768e-05   9.60897255093858e-06   -5.021350931067969e-06
-6.245746865763768e-05   9.60897255093858e-06   -5.021350931067969e-06
-6.245746865763768e-05   9.60897255093858e-06   -5.021350931067969e-06
-6.245746865763768e-05   9.60897255093858e-06   -5.021350931067969e-06
-6.410691082746415e-05   1.1790170022489381e-05   3.108252486995564e-05
-6.410691082746415e-05   1.1790170022489381e-05   3.108252486995564e-05
-6.410691082746415e-05   1.1790170022489381e-05   3.108252486995564e-05
-6.410691082746415e-05   1.1790170022489381e-05   3.108252486995564e-05
-4.479938348526122e-05   9.297288415201135e-06   3.9904159732377827e-07
-4.479938348526122e-05   9.297288415201135e-06   3.9904159732377827e-07
-4.479938348526122e-05   9.297288415201135e-06   3.9904159732377827e-07
-4.479938348526122e-05   9.297288415201135e-06   3.9904159732377827e-07
-5.245515001826617e-05   1.0711024109000223e-05   1.231041106938797e-05
-5.245515001826617e-05   1.0711024109000223e-05   1.231041106938797e-05
-5.245515001826617e-05   1.0711024109000223e-05   1.231041106938797e-05
-5.245515001826617e-05   1.0711024109000223e-05   1.231041106938797e-05
-4.479938348526133e-05   1.1790170022488947e-05   3.257825383432835e-05
-4.479938348526133e-05   1.1790170022488947e-05   3.257825383432835e-05
-4.479938348526133e-05   1.1790170022488947e-05   3.257825383432835e-05
-4.479938348526133e-05   1.1790170022488947e-05   3.257825383432835e-05
-6.410691082746399e-05   9.297288415201135e-06   -1.0966873670484973e-06
-6.410691082746399e-05   9.297288415201135e-06   -1.0966873670484973e-06
-6.410691082746399e-05   9.297288415201135e-06   -1.0966873670484973e-06
-6.410691082746399e-05   9.297288415201135e-06   -1.0966873670484973e-06
-6.602095240014179e-05   1.0706472783198525e-05   3.973439284964174e-05
-6.602095240014179e-05   1.0706472783198525e-05   3.973439284964174e-05
-6.602095240014179e-05   1.0706472783198525e-05   3.973439284964174e-05
-6.602095240014179e-05   1.0706472783198525e-05   3.973439284964174e-05
-4.5704946869510135e-05   8.253082323055657e-06   7.346417908007984e-06
-4.5704946869510135e-05   8.253082323055657e-06   7.346417908007984e-06
-4.5704946869510135e-05   8.253082323055657e-06   7.346417908007984e-06
-4.5704946869510135e-05   8.253082323055657e-06   7.346417908007984e-06
-5.2906246854480784e-05   1.0256434226100977e-05   1.814657340779637e-05
-5.2906246854480784e-05   1.0256434226100977e-05   1.814657340779637e-05
-5.2906246854480784e-05   1.0256434226100977e-05   1.814657340779637e-05
-5.2906246854480784e-05   1.0256434226100977e-05   1.814657340779637e-05
1.9686253474115667e-05   -2.258306951948008e-06   2.806869908271062e-05
1.9686253474115667e-05   -2.258306951948008e-06   2.806869908271062e-05
1.9686253474115667e-05   -2.258306951948008e-06   2.806869908271062e-05
1.9686253474115667e-05   -2.258306951948008e-06   2.806869908271062e-05
5.122786237904829e-06   6.685239476215098e-08   5.191349297051879e-06
5.122786237904829e-06   6.685239476215098e-08   5.191349297051879e-06
5.122786237904829e-06   6.685239476215098e-08   5.191349297051879e-06
5.122786237904829e-06   6.685239476215098e-08   5.191349297051879e-06
4.427603681924284e-06   -3.141188167399972e-06   2.617873398550667e-05
4.427603681924284e-06   -3.141188167399972e-06   2.617873398550667e-05
4.427603681924284e-06   -3.141188167399972e-06   2.617873398550667e-05
4.427603681924284e-06   -3.141188167399972e-06   2.617873398550667e-05
1.7968634118236966e-05   -7.236541889640673e-07   2.159829537924521e-06
1.7968634118236966e-05   -7.236541889640673e-07   2.159829537924521e-06
1.7968634118236966e-05   -7.236541889640673e-07   2.159829537924521e-06
1.7968634118236966e-05   -7.236541889640673e-07   2.159829537924521e-06
1.1103386698916342e-05   -1.6259910320536204e-06   1.4143310675980374e-05
1.1103386698916342e-05   -1.6259910320536204e-06   1.4143310675980374e-05
1.1103386698916342e-05   -1.6259910320536204e-06   1.4143310675980374e-05
1.1103386698916342e-05   -1.6259910320536204e-06   1.4143310675980374e-05
1.7968634118236993e-05   -3.141188167399972e-06   2.4728213598445596e-05
1.7968634118236993e-05   -3.141188167399972e-06   2.4728213598445596e-05
1.7968634118236993e-05   -3.141188167399972e-06   2.4728213598445596e-05
1.7968634118236993e-05   -3.141188167399972e-06   2.4728213598445596e-05
4.427603681924277e-06   -7.236541889640673e-07   3.6103499249861507e-06
4.427603681924277e-06   -7.236541889640673e-07   3.6103499249861507e-06
4.427603681924277e-06   -7.236541889640673e-07   3.6103499249861507e-06
4.427603681924277e-06   -7.236541889640673e-07   3.6103499249861507e-06
3.6179355729441313e-06   -3.445653831880488e-06   2.4575686011248663e-05
3.6179355729441313e-06   -3.445653831880488e-06   2.4575686011248663e-05
3.6179355729441313e-06   -3.445653831880488e-06   2.4575686011248663e-05
3.6179355729441313e-06   -3.445653831880488e-06   2.4575686011248663e-05
1.6514937052903274e-05   -1.0652628061435642e-06   1.6524489292080342e-06
1.6514937052903274e-05   -1.0652628061435642e-06   1.6524489292080342e-06
1.6514937052903274e-05   -1.0652628061435642e-06   1.6524489292080342e-06
1.6514937052903274e-05   -1.0652628061435642e-06   1.6524489292080342e-06
1.0271445709103228e-05   -1.9709741653948457e-06   1.2601694651092504e-05
1.0271445709103228e-05   -1.9709741653948457e-06   1.2601694651092504e-05
1.0271445709103228e-05   -1.9709741653948457e-06   1.2601694651092504e-05
1.0271445709103228e-05   -1.9709741653948457e-06   1.2601694651092504e-05
1.6514937052903314e-05   -3.445653831880488e-06   2.3147451395806537e-05
1.6514937052903314e-05   -3.445653831880488e-06   2.3147451395806537e-05
1.6514937052903314e-05   -3.445653831880488e-06   2.3147451395806537e-05
1.6514937052903314e-05   -3.445653831880488e-06   2.3147451395806537e-05
3.6179355729441245e-06   -1.0652628061435642e-06   3.0806835446500584e-06
3.6179355729441245e-06   -1.0652628061435642e-06   3.0806835446500584e-06
3.6179355729441245e-06   -1.0652628061435642e-06   3.0806835446500584e-06
3.6179355729441245e-06   -1.0652628061435642e-06   3.0806835446500584e-06
2.9166940086382815e-06   -3.849851882508758e-06   2.2727813871754226e-05
2.9166940086382815e-06   -3.849851882508758e-06   2.2727813871754226e-05
2.9166940086382815e-06   -3.849851882508758e-06   2.2727813871754226e-05
2.9166940086382815e-06   -3.849851882508758e-06   2.2727813871754226e-05
1.4813508488324521e-05   -1.6357513886785385e-06   1.5713294426460307e-06
1.4813508488324521e-05   -1.6357513886785385e-06   1.5713294426460307e-06
1.4813508488324521e-05   -1.6357513886785385e-06   1.5713294426460307e-06
1.4813508488324521e-05   -1.6357513886785385e-06   1.5713294426460307e-06
9.050862454962647e-06   -2.150358916659981e-06   1.1484504015037904e-05
9.050862454962647e-06   -2.150358916659981e-06   1.1484504015037904e-05
9.050862454962647e-06   -2.150358916659981e-06   1.1484504015037904e-05
9.050862454962647e-06   -2.150358916659981e-06   1.1484504015037904e-05
5.122786237904839e-06   1.1729517384916413e-06   3.8667754129690865e-05
5.122786237904839e-06   1.1729517384916413e-06   3.8667754129690865e-05
5.122786237904839e-06   1.1729517384916413e-06   3.8667754129690865e-05
5.122786237904839e-06   1.1729517384916413e-06   3.8667754129690865e-05
-8.149357883951552e-06   2.2241973027129023e-06   1.717826126512961e-05
-8.149357883951552e-06   2.2241973027129023e-06   1.717826126512961e-05
-8.149357883951552e-06   2.2241973027129023e-06   1.717826126512961e-05
-8.149357883951552e-06   2.2241973027129023e-06   1.717826126512961e-05
-8.759774297754659e-06   2.782106327541174e-07   3.879171621455472e-05
-8.759774297754659e-06   2.782106327541174e-07   3.879171621455472e-05
-8.759774297754659e-06   2.782106327541174e-07   3.879171621455472e-05
-8.759774297754659e-06   2.782106327541174e-07   3.879171621455472e-05
4.427603681924277e-06   1.3298902060193598e-06   1.6181745171131275e-05
4.427603681924277e-06   1.3298902060193598e-06   1.6181745171131275e-05
4.427603681924277e-06   1.3298902060193598e-06   1.6181745171131275e-05
4.427603681924277e-06   1.3298902060193598e-06   1.6181745171131275e-05
-1.938631395188175e-06   1.1625978265205738e-06   2.6892512394018748e-05
-1.938631395188175e-06   1.1625978265205738e-06   2.6892512394018748e-05
-1.938631395188175e-06   1.1625978265205738e-06   2.6892512394018748e-05
-1.938631395188175e-06   1.1625978265205738e-06   2.6892512394018748e-05
4.427603681924284e-06   2.782106327545511e-07   3.816070847059564e-05
4.427603681924284e-06   2.782106327545511e-07   3.816070847059564e-05
4.427603681924284e-06   2.782106327545511e-07   3.816070847059564e-05
4.427603681924284e-06   2.782106327545511e-07   3.816070847059564e-05
-8.759774297754632e-06   1.3298902060193598e-06   1.6812752915090247e-05
-8.759774297754632e-06   1.3298902060193598e-06   1.6812752915090247e-05
-8.759774297754632e-06   1.3298902060193598e-06   1.6812752915090247e-05
-8.759774297754632e-06   1.3298902060193598e-06   1.6812752915090247e-05
-9.387896037821249e-06   -4.546231900386284e-07   3.854682535898556e-05
-9.387896037821249e-06   -4.546231900386284e-07   3.854682535898556e-05
-9.387896037821249e-06   -4.546231900386284e-07   3.854682535898556e-05
-9.387896037821249e-06   -4.546231900386284e-07   3.854682535898556e-05
3.6179355729441245e-06   5.712079072022966e-07   1.6254940682699105e-05
3.6179355729441245e-06   5.712079072022966e-07   1.6254940682699105e-05
3.6179355729441245e-06   5.712079072022966e-07   1.6254940682699105e-05
3.6179355729441245e-06   5.712079072022966e-07   1.6254940682699105e-05
-2.589885453144642e-06   5.383891150055305e-07   2.6621000334832424e-05
-2.589885453144642e-06   5.383891150055305e-07   2.6621000334832424e-05
-2.589885453144642e-06   5.383891150055305e-07   2.6621000334832424e-05
-2.589885453144642e-06   5.383891150055305e-07   2.6621000334832424e-05
3.6179355729441313e-06   -4.546231900386284e-07   3.793132670064126e-05
3.6179355729441313e-06   -4.546231900386284e-07   3.793132670064126e-05
3.6179355729441313e-06   -4.546231900386284e-07   3.793132670064126e-05
3.6179355729441313e-06   -4.546231900386284e-07   3.793132670064126e-05
-9.387896037821249e-06   5.712079072020797e-07   1.687043934104379e-05
-9.387896037821249e-06   5.712079072020797e-07   1.687043934104379e-05
-9.387896037821249e-06   5.712079072020797e-07   1.687043934104379e-05
-9.387896037821249e-06   5.712079072020797e-07   1.687043934104379e-05
-1.0006510151855776e-05   -1.177681183078469e-06   3.905830154336842e-05
-1.0006510151855776e-05   -1.177681183078469e-06   3.905830154336842e-05
-1.0006510151855776e-05   -1.177681183078469e-06   3.905830154336842e-05
-1.0006510151855776e-05   -1.177681183078469e-06   3.905830154336842e-05
2.9166940086382747e-06   -2.0503443224034572e-07   1.6936039892042308e-05
2.9166940086382747e-06   -2.0503443224034572e-07   1.6936039892042308e-05
2.9166940086382747e-06   -2.0503443224034572e-07   1.6936039892042308e-05
2.9166940086382747e-06   -2.0503443224034572e-07   1.6936039892042308e-05
-3.1418626857483473e-06   -2.2630383473415394e-08   2.6924191953426354e-05
-3.1418626857483473e-06   -2.2630383473415394e-08   2.6924191953426354e-05
-3.1418626857483473e-06   -2.2630383473415394e-08   2.6924191953426354e-05
-3.1418626857483473e-06   -2.2630383473415394e-08   2.6924191953426354e-05
-8.149357883951552e-06   4.394613407613778e-06   4.289124003903209e-05
-8.149357883951552e-06   4.394613407613778e-06   4.289124003903209e-05
-8.149357883951552e-06   4.394613407613778e-06   4.289124003903209e-05
-8.149357883951552e-06   4.394613407613778e-06   4.289124003903209e-05
-2.119959977063009e-05   4.140265782250074e-06   2.0988228319349534e-05
-2.119959977063009e-05   4.140265782250074e-06   2.0988228319349534e-05
-2.119959977063009e-05   4.140265782250074e-06   2.0988228319349534e-05
-2.119959977063009e-05   4.140265782250074e-06   2.0988228319349534e-05
-2.1785031848629496e-05   3.5807900067032737e-06   4.251231135157796e-05
-2.1785031848629496e-05   3.5807900067032737e-06   4.251231135157796e-05
-2.1785031848629496e-05   3.5807900067032737e-06   4.251231135157796e-05
-2.1785031848629496e-05   3.5807900067032737e-06   4.251231135157796e-05
-8.759774297754659e-06   3.3150024575424614e-06   2.0963021296283024e-05
-8.759774297754659e-06   3.3150024575424614e-06   2.0963021296283024e-05
-8.759774297754659e-06   3.3150024575424614e-06   2.0963021296283024e-05
-8.759774297754659e-06   3.3150024575424614e-06   2.0963021296283024e-05
-1.500113350284051e-05   3.766201791365292e-06   3.109456703780068e-05
-1.500113350284051e-05   3.766201791365292e-06   3.109456703780068e-05
-1.500113350284051e-05   3.766201791365292e-06   3.109456703780068e-05
-1.500113350284051e-05   3.766201791365292e-06   3.109456703780068e-05
-8.759774297754632e-06   3.5807900067032737e-06   4.26717838810744e-05
-8.759774297754632e-06   3.5807900067032737e-06   4.26717838810744e-05
-8.759774297754632e-06   3.5807900067032737e-06   4.26717838810744e-05
-8.759774297754632e-06   3.5807900067032737e-06   4.26717838810744e-05
-2.1785031848629496e-05   3.3150024575424614e-06   2.0803548766786797e-05
-2.1785031848629496e-05   3.3150024575424614e-06   2.0803548766786797e-05
-2.1785031848629496e-05   3.3150024575424614e-06   2.0803548766786797e-05
-2.1785031848629496e-05   3.3150024575424614e-06   2.0803548766786797e-05
-2.2389757821013345e-05   2.7762773687029993e-06   4.2797225954685535e-05
-2.2389757821013345e-05   2.7762773687029993e-06   4.2797225954685535e-05
-2.2389757821013345e-05   2.7762773687029993e-06   4.2797225954685535e-05
-2.2389757821013345e-05   2.7762773687029993e-06   4.2797225954685535e-05
-9.387896037821222e-06   2.4939418925072447e-06   2.1296857601750107e-05
-9.387896037821222e-06   2.4939418925072447e-06   2.1296857601750107e-05
-9.387896037821222e-06   2.4939418925072447e-06   2.1296857601750107e-05
-9.387896037821222e-06   2.4939418925072447e-06   2.1296857601750107e-05
-1.5522585070110867e-05   3.1381215566205324e-06   3.1134831523764494e-05
-1.5522585070110867e-05   3.1381215566205324e-06   3.1134831523764494e-05
-1.5522585070110867e-05   3.1381215566205324e-06   3.1134831523764494e-05
-1.5522585070110867e-05   3.1381215566205324e-06   3.1134831523764494e-05
-9.387896037821249e-06   2.776277368703433e-06   4.2966627240403356e-05
-9.387896037821249e-06   2.776277368703433e-06   4.2966627240403356e-05
-9.387896037821249e-06   2.776277368703433e-06   4.2966627240403356e-05
-9.387896037821249e-06   2.776277368703433e-06   4.2966627240403356e-05
-2.2389757821013345e-05   2.4939418925072447e-06   2.1127456316032286e-05
-2.2389757821013345e-05   2.4939418925072447e-06   2.1127456316032286e-05
-2.2389757821013345e-05   2.4939418925072447e-06   2.1127456316032286e-05
-2.2389757821013345e-05   2.4939418925072447e-06   2.1127456316032286e-05
-2.2985106638483794e-05   2.001635384117021e-06   4.3491498065688404e-05
-2.2985106638483794e-05   2.001635384117021e-06   4.3491498065688404e-05
-2.2985106638483794e-05   2.001635384117021e-06   4.3491498065688404e-05
-2.2985106638483794e-05   2.001635384117021e-06   4.3491498065688404e-05
-1.0006510151855749e-05   1.707547932269099e-06   2.203695639241732e-05
-1.0006510151855749e-05   1.707547932269099e-06   2.203695639241732e-05
-1.0006510151855749e-05   1.707547932269099e-06   2.203695639241732e-05
-1.0006510151855749e-05   1.707547932269099e-06   2.203695639241732e-05
-1.607712260084159e-05   2.522518904951045e-06   3.166566122378471e-05
-1.607712260084159e-05   2.522518904951045e-06   3.166566122378471e-05
-1.607712260084159e-05   2.522518904951045e-06   3.166566122378471e-05
-1.607712260084159e-05   2.522518904951045e-06   3.166566122378471e-05
-2.119959977063009e-05   7.5281645209698995e-06   3.777620517276452e-05
-2.119959977063009e-05   7.5281645209698995e-06   3.777620517276452e-05
-2.119959977063009e-05   7.5281645209698995e-06   3.777620517276452e-05
-2.119959977063009e-05   7.5281645209698995e-06   3.777620517276452e-05
-3.4008146090031216e-05   6.14460766812765e-06   1.559849386205739e-05
-3.4008146090031216e-05   6.14460766812765e-06   1.559849386205739e-05
-3.4008146090031216e-05   6.14460766812765e-06   1.559849386205739e-05
-3.4008146090031216e-05   6.14460766812765e-06   1.559849386205739e-05
-3.464596647722462e-05   6.732586422983269e-06   3.707825143579413e-05
-3.464596647722462e-05   6.732586422983269e-06   3.707825143579413e-05
-3.464596647722462e-05   6.732586422983269e-06   3.707825143579413e-05
-3.464596647722462e-05   6.732586422983269e-06   3.707825143579413e-05
-2.1785031848629442e-05   5.3119739300616295e-06   1.6495727883888414e-05
-2.1785031848629442e-05   5.3119739300616295e-06   1.6495727883888414e-05
-2.1785031848629442e-05   5.3119739300616295e-06   1.6495727883888414e-05
-2.1785031848629442e-05   5.3119739300616295e-06   1.6495727883888414e-05
-2.7842501599171848e-05   6.325743122404383e-06   2.5983249286055108e-05
-2.7842501599171848e-05   6.325743122404383e-06   2.5983249286055108e-05
-2.7842501599171848e-05   6.325743122404383e-06   2.5983249286055108e-05
-2.7842501599171848e-05   6.325743122404383e-06   2.5983249286055108e-05
-2.178503184862955e-05   6.732586422983269e-06   3.793061893154711e-05
-2.178503184862955e-05   6.732586422983269e-06   3.793061893154711e-05
-2.178503184862955e-05   6.732586422983269e-06   3.793061893154711e-05
-2.178503184862955e-05   6.732586422983269e-06   3.793061893154711e-05
-3.464596647722456e-05   5.3119739300616295e-06   1.5643360388135647e-05
-3.464596647722456e-05   5.3119739300616295e-06   1.5643360388135647e-05
-3.464596647722456e-05   5.3119739300616295e-06   1.5643360388135647e-05
-3.464596647722456e-05   5.3119739300616295e-06   1.5643360388135647e-05
-3.540167271781327e-05   5.9970455870113695e-06   3.8298756170374775e-05
-3.540167271781327e-05   5.9970455870113695e-06   3.8298756170374775e-05
-3.540167271781327e-05   5.9970455870113695e-06   3.8298756170374775e-05
-3.540167271781327e-05   5.9970455870113695e-06   3.8298756170374775e-05
-2.238975782101329e-05   4.555521302681631e-06   1.7477145912973228e-05
-2.238975782101329e-05   4.555521302681631e-06   1.7477145912973228e-05
-2.238975782101329e-05   4.555521302681631e-06   1.7477145912973228e-05
-2.238975782101329e-05   4.555521302681631e-06   1.7477145912973228e-05
-2.825673013205285e-05   5.736535506330035e-06   2.654682457584967e-05
-2.825673013205285e-05   5.736535506330035e-06   2.654682457584967e-05
-2.825673013205285e-05   5.736535506330035e-06   2.654682457584967e-05
-2.825673013205285e-05   5.736535506330035e-06   2.654682457584967e-05
-2.2389757821013345e-05   5.997045587011803e-06   3.9163670740972574e-05
-2.2389757821013345e-05   5.997045587011803e-06   3.9163670740972574e-05
-2.2389757821013345e-05   5.997045587011803e-06   3.9163670740972574e-05
-2.2389757821013345e-05   5.997045587011803e-06   3.9163670740972574e-05
-3.540167271781321e-05   4.555521302681631e-06   1.6612231342375103e-05
-3.540167271781321e-05   4.555521302681631e-06   1.6612231342375103e-05
-3.540167271781321e-05   4.555521302681631e-06   1.6612231342375103e-05
-3.540167271781321e-05   4.555521302681631e-06   1.6612231342375103e-05
-3.6050600529651216e-05   5.175403235709204e-06   3.9479710924584426e-05
-3.6050600529651216e-05   5.175403235709204e-06   3.9479710924584426e-05
-3.6050600529651216e-05   5.175403235709204e-06   3.9479710924584426e-05
-3.6050600529651216e-05   5.175403235709204e-06   3.9479710924584426e-05
-2.2985106638483686e-05   3.747712128359445e-06   1.856050243704871e-05
-2.2985106638483686e-05   3.747712128359445e-06   1.856050243704871e-05
-2.2985106638483686e-05   3.747712128359445e-06   1.856050243704871e-05
-2.2985106638483686e-05   3.747712128359445e-06   1.856050243704871e-05
-2.896728561691572e-05   5.1471091243243195e-06   2.769116253685636e-05
-2.896728561691572e-05   5.1471091243243195e-06   2.769116253685636e-05
-2.896728561691572e-05   5.1471091243243195e-06   2.769116253685636e-05
-2.896728561691572e-05   5.1471091243243195e-06   2.769116253685636e-05
-3.400814609003127e-05   9.86577921578951e-06   1.7635473773485615e-05
-3.400814609003127e-05   9.86577921578951e-06   1.7635473773485615e-05
-3.400814609003127e-05   9.86577921578951e-06   1.7635473773485615e-05
-3.400814609003127e-05   9.86577921578951e-06   1.7635473773485615e-05
-4.554175935186119e-05   7.550680853633069e-06   -2.976274013524456e-06
-4.554175935186119e-05   7.550680853633069e-06   -2.976274013524456e-06
-4.554175935186119e-05   7.550680853633069e-06   -2.976274013524456e-06
-4.554175935186119e-05   7.550680853633069e-06   -2.976274013524456e-06
-4.7176093664921316e-05   9.60897255093858e-06   2.173459006057487e-05
-4.7176093664921316e-05   9.60897255093858e-06   2.173459006057487e-05
-4.7176093664921316e-05   9.60897255093858e-06   2.173459006057487e-05
-4.7176093664921316e-05   9.60897255093858e-06   2.173459006057487e-05
-3.464596647722456e-05   7.122925001746454e-06   2.3426732772622964e-06
-3.464596647722456e-05   7.122925001746454e-06   2.3426732772622964e-06
-3.464596647722456e-05   7.122925001746454e-06   2.3426732772622964e-06
-3.464596647722456e-05   7.122925001746454e-06   2.3426732772622964e-06
-3.887426902015982e-05   8.381498185616796e-06   8.634700271833968e-06
-3.887426902015982e-05   8.381498185616796e-06   8.634700271833968e-06
-3.887426902015982e-05   8.381498185616796e-06   8.634700271833968e-06
-3.887426902015982e-05   8.381498185616796e-06   8.634700271833968e-06
-3.464596647722456e-05   9.60897255093858e-06   2.3226218590089928e-05
-3.464596647722456e-05   9.60897255093858e-06   2.3226218590089928e-05
-3.464596647722456e-05   9.60897255093858e-06   2.3226218590089928e-05
-3.464596647722456e-05   9.60897255093858e-06   2.3226218590089928e-05
-4.7176093664921424e-05   7.122925001746671e-06   8.510447477468584e-07
-4.7176093664921424e-05   7.122925001746671e-06   8.510447477468584e-07
-4.7176093664921424e-05   7.122925001746671e-06   8.510447477468584e-07
-4.7176093664921424e-05   7.122925001746671e-06   8.510447477468584e-07
-4.8584010630639335e-05   9.297288415201568e-06   2.571719743232415e-05
-4.8584010630639335e-05   9.297288415201568e-06   2.571719743232415e-05
-4.8584010630639335e-05   9.297288415201568e-06   2.571719743232415e-05
-4.8584010630639335e-05   9.297288415201568e-06   2.571719743232415e-05
-3.540167271781321e-05   6.766668027875485e-06   5.2650064766761404e-06
-3.540167271781321e-05   6.766668027875485e-06   5.2650064766761404e-06
-3.540167271781321e-05   6.766668027875485e-06   5.2650064766761404e-06
-3.540167271781321e-05   6.766668027875485e-06   5.2650064766761404e-06
-4.044171250074867e-05   8.269846037200677e-06   1.2763165975973931e-05
-4.044171250074867e-05   8.269846037200677e-06   1.2763165975973931e-05
-4.044171250074867e-05   8.269846037200677e-06   1.2763165975973931e-05
-4.044171250074867e-05   8.269846037200677e-06   1.2763165975973931e-05
-3.540167271781321e-05   9.297288415201135e-06   2.7235569664719387e-05
-3.540167271781321e-05   9.297288415201135e-06   2.7235569664719387e-05
-3.540167271781321e-05   9.297288415201135e-06   2.7235569664719387e-05
-3.540167271781321e-05   9.297288415201135e-06   2.7235569664719387e-05
-4.858401063063944e-05   6.766668027875485e-06   3.746634244280577e-06
-4.858401063063944e-05   6.766668027875485e-06   3.746634244280577e-06
-4.858401063063944e-05   6.766668027875485e-06   3.746634244280577e-06
-4.858401063063944e-05   6.766668027875485e-06   3.746634244280577e-06
-5.026992587204161e-05   8.253082323055657e-06   3.276703061213561e-05
-5.026992587204161e-05   8.253082323055657e-06   3.276703061213561e-05
-5.026992587204161e-05   8.253082323055657e-06   3.276703061213561e-05
-5.026992587204161e-05   8.253082323055657e-06   3.276703061213561e-05
-3.6050600529651e-05   5.7995457806768545e-06   1.0540276966911717e-05
-3.6050600529651e-05   5.7995457806768545e-06   1.0540276966911717e-05
-3.6050600529651e-05   5.7995457806768545e-06   1.0540276966911717e-05
-3.6050600529651e-05   5.7995457806768545e-06   1.0540276966911717e-05
-4.083611730092108e-05   7.830063953067788e-06   1.7297827348926206e-05
-4.083611730092108e-05   7.830063953067788e-06   1.7297827348926206e-05
-4.083611730092108e-05   7.830063953067788e-06   1.7297827348926206e-05
-4.083611730092108e-05   7.830063953067788e-06   1.7297827348926206e-05
3.8363506832435204e-06   6.685239476215098e-08   2.090899307268122e-05
3.8363506832435204e-06   6.685239476215098e-08   2.090899307268122e-05
3.8363506832435204e-06   6.685239476215098e-08   2.090899307268122e-05
3.8363506832435204e-06   6.685239476215098e-08   2.090899307268122e-05
-4.464642151946458e-06   2.2965132809790734e-06   8.41180154576124e-06
-4.464642151946458e-06   2.2965132809790734e-06   8.41180154576124e-06
-4.464642151946458e-06   2.2965132809790734e-06   8.41180154576124e-06
-4.464642151946458e-06   2.2965132809790734e-06   8.41180154576124e-06
-4.9553256192822116e-06   -7.236541889640673e-07   2.0637345973503643e-05
-4.9553256192822116e-06   -7.236541889640673e-07   2.0637345973503643e-05
-4.9553256192822116e-06   -7.236541889640673e-07   2.0637345973503643e-05
-4.9553256192822116e-06   -7.236541889640673e-07   2.0637345973503643e-05
2.341640325238047e-06   1.5591845686272442e-06   7.106032811415039e-06
2.341640325238047e-06   1.5591845686272442e-06   7.106032811415039e-06
2.341640325238047e-06   1.5591845686272442e-06   7.106032811415039e-06
2.341640325238047e-06   1.5591845686272442e-06   7.106032811415039e-06
-1.0018109471739275e-06   6.739028512362357e-07   1.3209620629203115e-05
-1.0018109471739275e-06   6.739028512362357e-07   1.3209620629203115e-05
-1.0018109471739275e-06   6.739028512362357e-07   1.3209620629203115e-05
-1.0018109471739275e-06   6.739028512362357e-07   1.3209620629203115e-05
2.341640325238047e-06   -7.236541889640673e-07   1.9267642718948914e-05
2.341640325238047e-06   -7.236541889640673e-07   1.9267642718948914e-05
2.341640325238047e-06   -7.236541889640673e-07   1.9267642718948914e-05
2.341640325238047e-06   -7.236541889640673e-07   1.9267642718948914e-05
-4.9553256192822116e-06   1.5591845686272442e-06   8.475736065970086e-06
-4.9553256192822116e-06   1.5591845686272442e-06   8.475736065970086e-06
-4.9553256192822116e-06   1.5591845686272442e-06   8.475736065970086e-06
-4.9553256192822116e-06   1.5591845686272442e-06   8.475736065970086e-06
-5.561196980405833e-06   -1.0652628061435642e-06   2.0106478860859914e-05
-5.561196980405833e-06   -1.0652628061435642e-06   2.0106478860859914e-05
-5.561196980405833e-06   -1.0652628061435642e-06   2.0106478860859914e-05
-5.561196980405833e-06   -1.0652628061435642e-06   2.0106478860859914e-05
1.0453442069417181e-06   1.1522003932964986e-06   7.765098962283319e-06
1.0453442069417181e-06   1.1522003932964986e-06   7.765098962283319e-06
1.0453442069417181e-06   1.1522003932964986e-06   7.765098962283319e-06
1.0453442069417181e-06   1.1522003932964986e-06   7.765098962283319e-06
-1.8096029858944606e-06   3.596401160124024e-07   1.2998880450047355e-05
-1.8096029858944606e-06   3.596401160124024e-07   1.2998880450047355e-05
-1.8096029858944606e-06   3.596401160124024e-07   1.2998880450047355e-05
-1.8096029858944606e-06   3.596401160124024e-07   1.2998880450047355e-05
1.0453442069417181e-06   -1.0652628061435642e-06   1.877600094119557e-05
1.0453442069417181e-06   -1.0652628061435642e-06   1.877600094119557e-05
1.0453442069417181e-06   -1.0652628061435642e-06   1.877600094119557e-05
1.0453442069417181e-06   -1.0652628061435642e-06   1.877600094119557e-05
-5.561196980405826e-06   1.1522003932964986e-06   9.09557688194714e-06
-5.561196980405826e-06   1.1522003932964986e-06   9.09557688194714e-06
-5.561196980405826e-06   1.1522003932964986e-06   9.09557688194714e-06
-5.561196980405826e-06   1.1522003932964986e-06   9.09557688194714e-06
-6.067087145249921e-06   -1.6357513886787554e-06   1.993100675300153e-05
-6.067087145249921e-06   -1.6357513886787554e-06   1.993100675300153e-05
-6.067087145249921e-06   -1.6357513886787554e-06   1.993100675300153e-05
-6.067087145249921e-06   -1.6357513886787554e-06   1.993100675300153e-05
-5.803678344731242e-07   2.879277657948185e-07   9.632267075689559e-06
-5.803678344731242e-07   2.879277657948185e-07   9.632267075689559e-06
-5.803678344731242e-07   2.879277657948185e-07   9.632267075689559e-06
-5.803678344731242e-07   2.879277657948185e-07   9.632267075689559e-06
-2.6757310448257936e-06   6.994101151523973e-08   1.3255331145511722e-05
-2.6757310448257936e-06   6.994101151523973e-08   1.3255331145511722e-05
-2.6757310448257936e-06   6.994101151523973e-08   1.3255331145511722e-05
-2.6757310448257936e-06   6.994101151523973e-08   1.3255331145511722e-05
-4.464642151946458e-06   2.2241973027126855e-06   3.360295423395643e-05
-4.464642151946458e-06   2.2241973027126855e-06   3.360295423395643e-05
-4.464642151946458e-06   2.2241973027126855e-06   3.360295423395643e-05
-4.464642151946458e-06   2.2241973027126855e-06   3.360295423395643e-05
-1.1414879050994549e-05   2.6619852000798767e-06   2.2281898807296574e-05
-1.1414879050994549e-05   2.6619852000798767e-06   2.2281898807296574e-05
-1.1414879050994549e-05   2.6619852000798767e-06   2.2281898807296574e-05
-1.1414879050994549e-05   2.6619852000798767e-06   2.2281898807296574e-05
-1.1784342621768719e-05   1.3298902060193598e-06   3.351359400161199e-05
-1.1784342621768719e-05   1.3298902060193598e-06   3.351359400161199e-05
-1.1784342621768719e-05   1.3298902060193598e-06   3.351359400161199e-05
-1.1784342621768719e-05   1.3298902060193598e-06   3.351359400161199e-05
-4.9553256192822116e-06   1.8379781759575269e-06   2.18270462155046e-05
-4.9553256192822116e-06   1.8379781759575269e-06   2.18270462155046e-05
-4.9553256192822116e-06   1.8379781759575269e-06   2.18270462155046e-05
-4.9553256192822116e-06   1.8379781759575269e-06   2.18270462155046e-05
-8.202246681032155e-06   1.9185610445638388e-06   2.7190231597257392e-05
-8.202246681032155e-06   1.9185610445638388e-06   2.7190231597257392e-05
-8.202246681032155e-06   1.9185610445638388e-06   2.7190231597257392e-05
-8.202246681032155e-06   1.9185610445638388e-06   2.7190231597257392e-05
-4.955325619282198e-06   1.3298902060193598e-06   3.320874121964855e-05
-4.955325619282198e-06   1.3298902060193598e-06   3.320874121964855e-05
-4.955325619282198e-06   1.3298902060193598e-06   3.320874121964855e-05
-4.955325619282198e-06   1.3298902060193598e-06   3.320874121964855e-05
-1.1784342621768773e-05   1.8379781759575269e-06   2.213189899746772e-05
-1.1784342621768773e-05   1.8379781759575269e-06   2.213189899746772e-05
-1.1784342621768773e-05   1.8379781759575269e-06   2.213189899746772e-05
-1.1784342621768773e-05   1.8379781759575269e-06   2.213189899746772e-05
-1.2165339060523977e-05   5.712079072020797e-07   3.3583805862224614e-05
-1.2165339060523977e-05   5.712079072020797e-07   3.3583805862224614e-05
-1.2165339060523977e-05   5.712079072020797e-07   3.3583805862224614e-05
-1.2165339060523977e-05   5.712079072020797e-07   3.3583805862224614e-05
-5.561196980405826e-06   1.0763243460621894e-06   2.2273832532044993e-05
-5.561196980405826e-06   1.0763243460621894e-06   2.2273832532044993e-05
-5.561196980405826e-06   1.0763243460621894e-06   2.2273832532044993e-05
-5.561196980405826e-06   1.0763243460621894e-06   2.2273832532044993e-05
-8.57929843064249e-06   1.3157865108112286e-06   2.716032431692388e-05
-8.57929843064249e-06   1.3157865108112286e-06   2.716032431692388e-05
-8.57929843064249e-06   1.3157865108112286e-06   2.716032431692388e-05
-8.57929843064249e-06   1.3157865108112286e-06   2.716032431692388e-05
-5.561196980405826e-06   5.712079072022966e-07   3.328073599890842e-05
-5.561196980405826e-06   5.712079072022966e-07   3.328073599890842e-05
-5.561196980405826e-06   5.712079072022966e-07   3.328073599890842e-05
-5.561196980405826e-06   5.712079072022966e-07   3.328073599890842e-05
-1.2165339060523977e-05   1.0763243460621894e-06   2.257690239536108e-05
-1.2165339060523977e-05   1.0763243460621894e-06   2.257690239536108e-05
-1.2165339060523977e-05   1.0763243460621894e-06   2.257690239536108e-05
-1.2165339060523977e-05   1.0763243460621894e-06   2.257690239536108e-05
-1.2538853160055442e-05   -2.0503443224012888e-07   3.424032523496401e-05
-1.2538853160055442e-05   -2.0503443224012888e-07   3.424032523496401e-05
-1.2538853160055442e-05   -2.0503443224012888e-07   3.424032523496401e-05
-1.2538853160055442e-05   -2.0503443224012888e-07   3.424032523496401e-05
-6.067087145249907e-06   2.5007944919963956e-07   2.31809802147577e-05
-6.067087145249907e-06   2.5007944919963956e-07   2.31809802147577e-05
-6.067087145249907e-06   2.5007944919963956e-07   2.31809802147577e-05
-6.067087145249907e-06   2.5007944919963956e-07   2.31809802147577e-05
-8.956286741387511e-06   7.223601874071194e-07   2.7712944432062227e-05
-8.956286741387511e-06   7.223601874071194e-07   2.7712944432062227e-05
-8.956286741387511e-06   7.223601874071194e-07   2.7712944432062227e-05
-8.956286741387511e-06   7.223601874071194e-07   2.7712944432062227e-05
-1.1414879050994549e-05   4.140265782250074e-06   3.782820260181494e-05
-1.1414879050994549e-05   4.140265782250074e-06   3.782820260181494e-05
-1.1414879050994549e-05   4.140265782250074e-06   3.782820260181494e-05
-1.1414879050994549e-05   4.140265782250074e-06   3.782820260181494e-05
-1.8346988643617253e-05   3.185512664851493e-06   2.5701834743671148e-05
-1.8346988643617253e-05   3.185512664851493e-06   2.5701834743671148e-05
-1.8346988643617253e-05   3.185512664851493e-06   2.5701834743671148e-05
-1.8346988643617253e-05   3.185512664851493e-06   2.5701834743671148e-05
-1.865929465882189e-05   3.3150024575424614e-06   3.712752075485468e-05
-1.865929465882189e-05   3.3150024575424614e-06   3.712752075485468e-05
-1.865929465882189e-05   3.3150024575424614e-06   3.712752075485468e-05
-1.865929465882189e-05   3.3150024575424614e-06   3.712752075485468e-05
-1.1784342621768773e-05   2.4210997442920996e-06   2.6205608987716223e-05
-1.1784342621768773e-05   2.4210997442920996e-06   2.6205608987716223e-05
-1.1784342621768773e-05   2.4210997442920996e-06   2.6205608987716223e-05
-1.1784342621768773e-05   2.4210997442920996e-06   2.6205608987716223e-05
-1.5058533323556383e-05   3.203306104785416e-06   3.119326967439967e-05
-1.5058533323556383e-05   3.203306104785416e-06   3.119326967439967e-05
-1.5058533323556383e-05   3.203306104785416e-06   3.119326967439967e-05
-1.5058533323556383e-05   3.203306104785416e-06   3.119326967439967e-05
-1.1784342621768773e-05   3.3150024575424614e-06   3.766386238280488e-05
-1.1784342621768773e-05   3.3150024575424614e-06   3.766386238280488e-05
-1.1784342621768773e-05   3.3150024575424614e-06   3.766386238280488e-05
-1.1784342621768773e-05   3.3150024575424614e-06   3.766386238280488e-05
-1.865929465882189e-05   2.4210997442920996e-06   2.5669267359766028e-05
-1.865929465882189e-05   2.4210997442920996e-06   2.5669267359766028e-05
-1.865929465882189e-05   2.4210997442920996e-06   2.5669267359766028e-05
-1.865929465882189e-05   2.4210997442920996e-06   2.5669267359766028e-05
-1.8994101897003952e-05   2.4939418925072447e-06   3.750032280544339e-05
-1.8994101897003952e-05   2.4939418925072447e-06   3.750032280544339e-05
-1.8994101897003952e-05   2.4939418925072447e-06   3.750032280544339e-05
-1.8994101897003952e-05   2.4939418925072447e-06   3.750032280544339e-05
-1.2165339060523977e-05   1.644106363361342e-06   2.662895272879766e-05
-1.2165339060523977e-05   1.644106363361342e-06   2.662895272879766e-05
-1.2165339060523977e-05   1.644106363361342e-06   2.662895272879766e-05
-1.2165339060523977e-05   1.644106363361342e-06   2.662895272879766e-05
-1.5325343386271898e-05   2.590747879683327e-06   3.132764169525091e-05
-1.5325343386271898e-05   2.590747879683327e-06   3.132764169525091e-05
-1.5325343386271898e-05   2.590747879683327e-06   3.132764169525091e-05
-1.5325343386271898e-05   2.590747879683327e-06   3.132764169525091e-05
-1.2165339060523977e-05   2.493941892507028e-06   3.8010224122930715e-05
-1.2165339060523977e-05   2.493941892507028e-06   3.8010224122930715e-05
-1.2165339060523977e-05   2.493941892507028e-06   3.8010224122930715e-05
-1.2165339060523977e-05   2.493941892507028e-06   3.8010224122930715e-05
-1.8994101897003952e-05   1.644106363361342e-06   2.6119051411310117e-05
-1.8994101897003952e-05   1.644106363361342e-06   2.6119051411310117e-05
-1.8994101897003952e-05   1.644106363361342e-06   2.6119051411310117e-05
-1.8994101897003952e-05   1.644106363361342e-06   2.6119051411310117e-05
-1.9321986755511272e-05   1.707547932269099e-06   3.8277393373818734e-05
-1.9321986755511272e-05   1.707547932269099e-06   3.8277393373818734e-05
-1.9321986755511272e-05   1.707547932269099e-06   3.8277393373818734e-05
-1.9321986755511272e-05   1.707547932269099e-06   3.8277393373818734e-05
-1.2538853160055442e-05   9.071140805736247e-07   2.745243102574295e-05
-1.2538853160055442e-05   9.071140805736247e-07   2.745243102574295e-05
-1.2538853160055442e-05   9.071140805736247e-07   2.745243102574295e-05
-1.2538853160055442e-05   9.071140805736247e-07   2.745243102574295e-05
-1.5622651522424655e-05   1.9872432170367407e-06   3.194401748114723e-05
-1.5622651522424655e-05   1.9872432170367407e-06   3.194401748114723e-05
-1.5622651522424655e-05   1.9872432170367407e-06   3.194401748114723e-05
-1.5622651522424655e-05   1.9872432170367407e-06   3.194401748114723e-05
-1.8346988643617307e-05   6.14460766812765e-06   3.2695750385789e-05
-1.8346988643617307e-05   6.14460766812765e-06   3.2695750385789e-05
-1.8346988643617307e-05   6.14460766812765e-06   3.2695750385789e-05
-1.8346988643617307e-05   6.14460766812765e-06   3.2695750385789e-05
-2.516228836835872e-05   4.3021372433697455e-06   2.0231435256365133e-05
-2.516228836835872e-05   4.3021372433697455e-06   2.0231435256365133e-05
-2.516228836835872e-05   4.3021372433697455e-06   2.0231435256365133e-05
-2.516228836835872e-05   4.3021372433697455e-06   2.0231435256365133e-05
-2.5505310539741322e-05   5.311973930061413e-06   3.1731202762474466e-05
-2.5505310539741322e-05   5.311973930061413e-06   3.1731202762474466e-05
-2.5505310539741322e-05   5.311973930061413e-06   3.1731202762474466e-05
-2.5505310539741322e-05   5.311973930061413e-06   3.1731202762474466e-05
-1.865929465882189e-05   3.4978120809245165e-06   2.140967340375768e-05
-1.865929465882189e-05   3.4978120809245165e-06   2.140967340375768e-05
-1.865929465882189e-05   3.4978120809245165e-06   2.140967340375768e-05
-1.865929465882189e-05   3.4978120809245165e-06   2.140967340375768e-05
-2.1872062221520725e-05   4.774258418114414e-06   2.5998418205941832e-05
-2.1872062221520725e-05   4.774258418114414e-06   2.5998418205941832e-05
-2.1872062221520725e-05   4.774258418114414e-06   2.5998418205941832e-05
-2.1872062221520725e-05   4.774258418114414e-06   2.5998418205941832e-05
-1.865929465882189e-05   5.3119739300616295e-06   3.2819699871956625e-05
-1.865929465882189e-05   5.3119739300616295e-06   3.2819699871956625e-05
-1.865929465882189e-05   5.3119739300616295e-06   3.2819699871956625e-05
-1.865929465882189e-05   5.3119739300616295e-06   3.2819699871956625e-05
-2.550531053974116e-05   3.4978120809245165e-06   2.0321176294275413e-05
-2.550531053974116e-05   3.4978120809245165e-06   2.0321176294275413e-05
-2.550531053974116e-05   3.4978120809245165e-06   2.0321176294275413e-05
-2.550531053974116e-05   3.4978120809245165e-06   2.0321176294275413e-05
-2.598013496647695e-05   4.555521302681848e-06   3.27863093027242e-05
-2.598013496647695e-05   4.555521302681848e-06   3.27863093027242e-05
-2.598013496647695e-05   4.555521302681848e-06   3.27863093027242e-05
-2.598013496647695e-05   4.555521302681848e-06   3.27863093027242e-05
-1.8994101897003952e-05   2.7826828032481883e-06   2.220662395326263e-05
-1.8994101897003952e-05   2.7826828032481883e-06   2.220662395326263e-05
-1.8994101897003952e-05   2.7826828032481883e-06   2.220662395326263e-05
-1.8994101897003952e-05   2.7826828032481883e-06   2.220662395326263e-05
-2.205858279558326e-05   4.180555427938564e-06   2.6475368542747162e-05
-2.205858279558326e-05   4.180555427938564e-06   2.6475368542747162e-05
-2.205858279558326e-05   4.180555427938564e-06   2.6475368542747162e-05
-2.205858279558326e-05   4.180555427938564e-06   2.6475368542747162e-05
-1.8994101897003952e-05   4.555521302681631e-06   3.38500124023839e-05
-1.8994101897003952e-05   4.555521302681631e-06   3.38500124023839e-05
-1.8994101897003952e-05   4.555521302681631e-06   3.38500124023839e-05
-1.8994101897003952e-05   4.555521302681631e-06   3.38500124023839e-05
-2.5980134966476843e-05   2.7826828032481883e-06   2.1142920853602337e-05
-2.5980134966476843e-05   2.7826828032481883e-06   2.1142920853602337e-05
-2.5980134966476843e-05   2.7826828032481883e-06   2.1142920853602337e-05
-2.5980134966476843e-05   2.7826828032481883e-06   2.1142920853602337e-05
-2.63609706512528e-05   3.747712128359445e-06   3.396154367994622e-05
-2.63609706512528e-05   3.747712128359445e-06   3.396154367994622e-05
-2.63609706512528e-05   3.747712128359445e-06   3.396154367994622e-05
-2.63609706512528e-05   3.747712128359445e-06   3.396154367994622e-05
-1.9321986755511272e-05   2.054631779004794e-06   2.3245752063323155e-05
-1.9321986755511272e-05   2.054631779004794e-06   2.3245752063323155e-05
-1.9321986755511272e-05   2.054631779004794e-06   2.3245752063323155e-05
-1.9321986755511272e-05   2.054631779004794e-06   2.3245752063323155e-05
-2.245143221289562e-05   3.616492610064733e-06   2.752437799366118e-05
-2.245143221289562e-05   3.616492610064733e-06   2.752437799366118e-05
-2.245143221289562e-05   3.616492610064733e-06   2.752437799366118e-05
-2.245143221289562e-05   3.616492610064733e-06   2.752437799366118e-05
-2.516228836835872e-05   7.550680853633069e-06   1.4404559272645969e-05
-2.516228836835872e-05   7.550680853633069e-06   1.4404559272645969e-05
-2.516228836835872e-05   7.550680853633069e-06   1.4404559272645969e-05
-2.516228836835872e-05   7.550680853633069e-06   1.4404559272645969e-05
-3.0491927382181793e-05   5.0752701025046e-06   4.036581132263611e-06
-3.0491927382181793e-05   5.0752701025046e-06   4.036581132263611e-06
-3.0491927382181793e-05   5.0752701025046e-06   4.036581132263611e-06
-3.0491927382181793e-05   5.0752701025046e-06   4.036581132263611e-06
-3.179620417828176e-05   7.122925001746671e-06   1.688072167036923e-05
-3.179620417828176e-05   7.122925001746671e-06   1.688072167036923e-05
-3.179620417828176e-05   7.122925001746671e-06   1.688072167036923e-05
-3.179620417828176e-05   7.122925001746671e-06   1.688072167036923e-05
-2.5505310539741268e-05   4.539935033027152e-06   7.945692920700072e-06
-2.5505310539741268e-05   4.539935033027152e-06   7.945692920700072e-06
-2.5505310539741268e-05   4.539935033027152e-06   7.945692920700072e-06
-2.5505310539741268e-05   4.539935033027152e-06   7.945692920700072e-06
-2.7259652378937294e-05   6.012510774728837e-06   9.986050541005685e-06
-2.7259652378937294e-05   6.012510774728837e-06   9.986050541005685e-06
-2.7259652378937294e-05   6.012510774728837e-06   9.986050541005685e-06
-2.7259652378937294e-05   6.012510774728837e-06   9.986050541005685e-06
-2.5505310539741214e-05   7.122925001746671e-06   1.843051565160068e-05
-2.5505310539741214e-05   7.122925001746671e-06   1.843051565160068e-05
-2.5505310539741214e-05   7.122925001746671e-06   1.843051565160068e-05
-2.5505310539741214e-05   7.122925001746671e-06   1.843051565160068e-05
-3.179620417828176e-05   4.539935033027152e-06   6.3958989394683e-06
-3.179620417828176e-05   4.539935033027152e-06   6.3958989394683e-06
-3.179620417828176e-05   4.539935033027152e-06   6.3958989394683e-06
-3.179620417828176e-05   4.539935033027152e-06   6.3958989394683e-06
-3.29165742102473e-05   6.766668027875485e-06   1.9882712455687474e-05
-3.29165742102473e-05   6.766668027875485e-06   1.9882712455687474e-05
-3.29165742102473e-05   6.766668027875485e-06   1.9882712455687474e-05
-3.29165742102473e-05   6.766668027875485e-06   1.9882712455687474e-05
-2.5980134966476897e-05   4.172714725646709e-06   9.87835236407439e-06
-2.5980134966476897e-05   4.172714725646709e-06   9.87835236407439e-06
-2.5980134966476897e-05   4.172714725646709e-06   9.87835236407439e-06
-2.5980134966476897e-05   4.172714725646709e-06   9.87835236407439e-06
-2.836377168437558e-05   5.80170859983218e-06   1.2873683902728296e-05
-2.836377168437558e-05   5.80170859983218e-06   1.2873683902728296e-05
-2.836377168437558e-05   5.80170859983218e-06   1.2873683902728296e-05
-2.836377168437558e-05   5.80170859983218e-06   1.2873683902728296e-05
-2.5980134966476897e-05   6.766668027875702e-06   2.1439084437024697e-05
-2.5980134966476897e-05   6.766668027875702e-06   2.1439084437024697e-05
-2.5980134966476897e-05   6.766668027875702e-06   2.1439084437024697e-05
-2.5980134966476897e-05   6.766668027875702e-06   2.1439084437024697e-05
-3.2916574210247406e-05   4.172714725646709e-06   8.321980382737009e-06
-3.2916574210247406e-05   4.172714725646709e-06   8.321980382737009e-06
-3.2916574210247406e-05   4.172714725646709e-06   8.321980382737009e-06
-3.2916574210247406e-05   4.172714725646709e-06   8.321980382737009e-06
-3.434449094174511e-05   5.799545780676638e-06   2.531716834921322e-05
-3.434449094174511e-05   5.799545780676638e-06   2.531716834921322e-05
-3.434449094174511e-05   5.799545780676638e-06   2.531716834921322e-05
-3.434449094174511e-05   5.799545780676638e-06   2.531716834921322e-05
-2.6360970651252745e-05   3.3316049056673035e-06   1.349206572339801e-05
-2.6360970651252745e-05   3.3316049056673035e-06   1.349206572339801e-05
-2.6360970651252745e-05   3.3316049056673035e-06   1.349206572339801e-05
-2.6360970651252745e-05   3.3316049056673035e-06   1.349206572339801e-05
-2.868112467488686e-05   5.4004316110323105e-06   1.611769307290196e-05
-2.868112467488686e-05   5.4004316110323105e-06   1.611769307290196e-05
-2.868112467488686e-05   5.4004316110323105e-06   1.611769307290196e-05
-2.868112467488686e-05   5.4004316110323105e-06   1.611769307290196e-05
-1.2681481884955505e-05   2.2965132809790734e-06   1.4881041418568962e-05
-1.2681481884955505e-05   2.2965132809790734e-06   1.4881041418568962e-05
-1.2681481884955505e-05   2.2965132809790734e-06   1.4881041418568962e-05
-1.2681481884955505e-05   2.2965132809790734e-06   1.4881041418568962e-05
-1.3781593263347447e-05   4.321814382741746e-06   1.4262703115640058e-05
-1.3781593263347447e-05   4.321814382741746e-06   1.4262703115640058e-05
-1.3781593263347447e-05   4.321814382741746e-06   1.4262703115640058e-05
-1.3781593263347447e-05   4.321814382741746e-06   1.4262703115640058e-05
-1.4131668501433833e-05   1.5591845686272442e-06   1.600926790101939e-05
-1.4131668501433833e-05   1.5591845686272442e-06   1.600926790101939e-05
-1.4131668501433833e-05   1.5591845686272442e-06   1.600926790101939e-05
-1.4131668501433833e-05   1.5591845686272442e-06   1.600926790101939e-05
-1.4163323693464278e-05   3.379640762097647e-06   1.496975283832129e-05
-1.4163323693464278e-05   3.379640762097647e-06   1.496975283832129e-05
-1.4163323693464278e-05   3.379640762097647e-06   1.496975283832129e-05
-1.4163323693464278e-05   3.379640762097647e-06   1.496975283832129e-05
-1.3346885227014386e-05   2.702232198566624e-06   1.4015467199023426e-05
-1.3346885227014386e-05   2.702232198566624e-06   1.4015467199023426e-05
-1.3346885227014386e-05   2.702232198566624e-06   1.4015467199023426e-05
-1.3346885227014386e-05   2.702232198566624e-06   1.4015467199023426e-05
-1.4163323693464292e-05   1.559184568627461e-06   1.4916994184937335e-05
-1.4163323693464292e-05   1.559184568627461e-06   1.4916994184937335e-05
-1.4163323693464292e-05   1.559184568627461e-06   1.4916994184937335e-05
-1.4163323693464292e-05   1.559184568627461e-06   1.4916994184937335e-05
-1.4131668501433833e-05   3.379640762097647e-06   1.606202655440349e-05
-1.4131668501433833e-05   3.379640762097647e-06   1.606202655440349e-05
-1.4131668501433833e-05   3.379640762097647e-06   1.606202655440349e-05
-1.4131668501433833e-05   3.379640762097647e-06   1.606202655440349e-05
-1.4586199035231234e-05   1.1522003932964986e-06   1.6529365638782317e-05
-1.4586199035231234e-05   1.1522003932964986e-06   1.6529365638782317e-05
-1.4586199035231234e-05   1.1522003932964986e-06   1.6529365638782317e-05
-1.4586199035231234e-05   1.1522003932964986e-06   1.6529365638782317e-05
-1.5603544990703492e-05   2.7270772210890096e-06   1.7280016134560428e-05
-1.5603544990703492e-05   2.7270772210890096e-06   1.7280016134560428e-05
-1.5603544990703492e-05   2.7270772210890096e-06   1.7280016134560428e-05
-1.5603544990703492e-05   2.7270772210890096e-06   1.7280016134560428e-05
-1.422937364407199e-05   2.295480580622258e-06   1.5248688541121512e-05
-1.422937364407199e-05   2.295480580622258e-06   1.5248688541121512e-05
-1.422937364407199e-05   2.295480580622258e-06   1.5248688541121512e-05
-1.422937364407199e-05   2.295480580622258e-06   1.5248688541121512e-05
-1.560354499070352e-05   1.1522003932964986e-06   1.558443954210663e-05
-1.560354499070352e-05   1.1522003932964986e-06   1.558443954210663e-05
-1.560354499070352e-05   1.1522003932964986e-06   1.558443954210663e-05
-1.560354499070352e-05   1.1522003932964986e-06   1.558443954210663e-05
-1.4586199035231234e-05   2.7270772210890096e-06   1.8224942231235912e-05
-1.4586199035231234e-05   2.7270772210890096e-06   1.8224942231235912e-05
-1.4586199035231234e-05   2.7270772210890096e-06   1.8224942231235912e-05
-1.4586199035231234e-05   2.7270772210890096e-06   1.8224942231235912e-05
-1.4873909196530812e-05   2.8792776579460166e-07   1.8190862473283506e-05
-1.4873909196530812e-05   2.8792776579460166e-07   1.8190862473283506e-05
-1.4873909196530812e-05   2.8792776579460166e-07   1.8190862473283506e-05
-1.4873909196530812e-05   2.8792776579460166e-07   1.8190862473283506e-05
-1.713634766976206e-05   1.1213511860938552e-06   2.146153920982237e-05
-1.713634766976206e-05   1.1213511860938552e-06   2.146153920982237e-05
-1.713634766976206e-05   1.1213511860938552e-06   2.146153920982237e-05
-1.713634766976206e-05   1.1213511860938552e-06   2.146153920982237e-05
-1.4843675731003453e-05   1.794718292709278e-06   1.723639904792167e-05
-1.4843675731003453e-05   1.794718292709278e-06   1.723639904792167e-05
-1.4843675731003453e-05   1.794718292709278e-06   1.723639904792167e-05
-1.4843675731003453e-05   1.794718292709278e-06   1.723639904792167e-05
-1.3781593263347447e-05   2.6619852000798767e-06   2.970364660274152e-05
-1.3781593263347447e-05   2.6619852000798767e-06   2.970364660274152e-05
-1.3781593263347447e-05   2.6619852000798767e-06   2.970364660274152e-05
-1.3781593263347447e-05   2.6619852000798767e-06   2.970364660274152e-05
-1.3916466354411651e-05   1.1178549587774088e-06   2.8552379972852926e-05
-1.3916466354411651e-05   1.1178549587774088e-06   2.8552379972852926e-05
-1.3916466354411651e-05   1.1178549587774088e-06   2.8552379972852926e-05
-1.3916466354411651e-05   1.1178549587774088e-06   2.8552379972852926e-05
-1.402233582888088e-05   1.8379781759575269e-06   2.8580667488727974e-05
-1.402233582888088e-05   1.8379781759575269e-06   2.8580667488727974e-05
-1.402233582888088e-05   1.8379781759575269e-06   2.8580667488727974e-05
-1.402233582888088e-05   1.8379781759575269e-06   2.8580667488727974e-05
-1.4131668501433833e-05   5.381272395803228e-07   2.9542799171475764e-05
-1.4131668501433833e-05   5.381272395803228e-07   2.9542799171475764e-05
-1.4131668501433833e-05   5.381272395803228e-07   2.9542799171475764e-05
-1.4131668501433833e-05   5.381272395803228e-07   2.9542799171475764e-05
-1.3919108892007946e-05   1.3617889427122287e-06   2.8694336133886818e-05
-1.3919108892007946e-05   1.3617889427122287e-06   2.8694336133886818e-05
-1.3919108892007946e-05   1.3617889427122287e-06   2.8694336133886818e-05
-1.3919108892007946e-05   1.3617889427122287e-06   2.8694336133886818e-05
-1.413166850143384e-05   1.8379781759575269e-06   2.936057805055407e-05
-1.413166850143384e-05   1.8379781759575269e-06   2.936057805055407e-05
-1.413166850143384e-05   1.8379781759575269e-06   2.936057805055407e-05
-1.413166850143384e-05   1.8379781759575269e-06   2.936057805055407e-05
-1.402233582888088e-05   5.381272395803228e-07   2.8762888609649507e-05
-1.402233582888088e-05   5.381272395803228e-07   2.8762888609649507e-05
-1.402233582888088e-05   5.381272395803228e-07   2.8762888609649507e-05
-1.402233582888088e-05   5.381272395803228e-07   2.8762888609649507e-05
-1.4153969695423878e-05   1.0763243460619725e-06   2.8980192692059856e-05
-1.4153969695423878e-05   1.0763243460619725e-06   2.8980192692059856e-05
-1.4153969695423878e-05   1.0763243460619725e-06   2.8980192692059856e-05
-1.4153969695423878e-05   1.0763243460619725e-06   2.8980192692059856e-05
-1.4586199035231234e-05   -1.3605664863822718e-07   3.0428003521892292e-05
-1.4586199035231234e-05   -1.3605664863822718e-07   3.0428003521892292e-05
-1.4586199035231234e-05   -1.3605664863822718e-07   3.0428003521892292e-05
-1.4586199035231234e-05   -1.3605664863822718e-07   3.0428003521892292e-05
-1.4049347727984035e-05   8.80520766584781e-07   2.892330489401358e-05
-1.4049347727984035e-05   8.80520766584781e-07   2.892330489401358e-05
-1.4049347727984035e-05   8.80520766584781e-07   2.892330489401358e-05
-1.4049347727984035e-05   8.80520766584781e-07   2.892330489401358e-05
-1.4586199035231234e-05   1.0763243460619725e-06   2.97076212888799e-05
-1.4586199035231234e-05   1.0763243460619725e-06   2.97076212888799e-05
-1.4586199035231234e-05   1.0763243460619725e-06   2.97076212888799e-05
-1.4586199035231234e-05   1.0763243460619725e-06   2.97076212888799e-05
-1.415396969542385e-05   -1.3605664863822718e-07   2.9700574925072194e-05
-1.415396969542385e-05   -1.3605664863822718e-07   2.9700574925072194e-05
-1.415396969542385e-05   -1.3605664863822718e-07   2.9700574925072194e-05
-1.415396969542385e-05   -1.3605664863822718e-07   2.9700574925072194e-05
-1.4248399013615405e-05   2.5007944919963956e-07   2.9821406642161104e-05
-1.4248399013615405e-05   2.5007944919963956e-07   2.9821406642161104e-05
-1.4248399013615405e-05   2.5007944919963956e-07   2.9821406642161104e-05
-1.4248399013615405e-05   2.5007944919963956e-07   2.9821406642161104e-05
-1.4873909196530778e-05   -1.023189679976973e-06   3.1627885091192395e-05
-1.4873909196530778e-05   -1.023189679976973e-06   3.1627885091192395e-05
-1.4873909196530778e-05   -1.023189679976973e-06   3.1627885091192395e-05
-1.4873909196530778e-05   -1.023189679976973e-06   3.1627885091192395e-05
-1.4257372662923899e-05   3.137831323098638e-07   2.9798140514474773e-05
-1.4257372662923899e-05   3.137831323098638e-07   2.9798140514474773e-05
-1.4257372662923899e-05   3.137831323098638e-07   2.9798140514474773e-05
-1.4257372662923899e-05   3.137831323098638e-07   2.9798140514474773e-05
-1.3916466354411679e-05   3.18551266485171e-06   3.276995626477395e-05
-1.3916466354411679e-05   3.18551266485171e-06   3.276995626477395e-05
-1.3916466354411679e-05   3.18551266485171e-06   3.276995626477395e-05
-1.3916466354411679e-05   3.18551266485171e-06   3.276995626477395e-05
-1.4944063805172759e-05   3.098695186056497e-07   2.9331907959091085e-05
-1.4944063805172759e-05   3.098695186056497e-07   2.9331907959091085e-05
-1.4944063805172759e-05   3.098695186056497e-07   2.9331907959091085e-05
-1.4944063805172759e-05   3.098695186056497e-07   2.9331907959091085e-05
-1.4977233485948297e-05   2.4210997442920996e-06   3.109309587199919e-05
-1.4977233485948297e-05   2.4210997442920996e-06   3.109309587199919e-05
-1.4977233485948297e-05   2.4210997442920996e-06   3.109309587199919e-05
-1.4977233485948297e-05   2.4210997442920996e-06   3.109309587199919e-05
-1.402233582888088e-05   -1.810362673370378e-07   3.106288138386422e-05
-1.402233582888088e-05   -1.810362673370378e-07   3.106288138386422e-05
-1.402233582888088e-05   -1.810362673370378e-07   3.106288138386422e-05
-1.402233582888088e-05   -1.810362673370378e-07   3.106288138386422e-05
-1.443971761104333e-05   1.3861105741020969e-06   3.08182295826048e-05
-1.443971761104333e-05   1.3861105741020969e-06   3.08182295826048e-05
-1.443971761104333e-05   1.3861105741020969e-06   3.08182295826048e-05
-1.443971761104333e-05   1.3861105741020969e-06   3.08182295826048e-05
-1.402233582888088e-05   2.4210997442920996e-06   3.2654377478976695e-05
-1.402233582888088e-05   2.4210997442920996e-06   3.2654377478976695e-05
-1.402233582888088e-05   2.4210997442920996e-06   3.2654377478976695e-05
-1.402233582888088e-05   2.4210997442920996e-06   3.2654377478976695e-05
-1.4977233485948297e-05   -1.8103626733692937e-07   2.9501599776886686e-05
-1.4977233485948297e-05   -1.8103626733692937e-07   2.9501599776886686e-05
-1.4977233485948297e-05   -1.8103626733692937e-07   2.9501599776886686e-05
-1.4977233485948297e-05   -1.8103626733692937e-07   2.9501599776886686e-05
-1.5040299140323533e-05   1.644106363361342e-06   3.158439616279189e-05
-1.5040299140323533e-05   1.644106363361342e-06   3.158439616279189e-05
-1.5040299140323533e-05   1.644106363361342e-06   3.158439616279189e-05
-1.5040299140323533e-05   1.644106363361342e-06   3.158439616279189e-05
-1.415396969542385e-05   -7.68971741145724e-07   3.155502728399695e-05
-1.415396969542385e-05   -7.68971741145724e-07   3.155502728399695e-05
-1.415396969542385e-05   -7.68971741145724e-07   3.155502728399695e-05
-1.415396969542385e-05   -7.68971741145724e-07   3.155502728399695e-05
-1.4444344011201157e-05   8.993589753368211e-07   3.103798604706959e-05
-1.4444344011201157e-05   8.993589753368211e-07   3.103798604706959e-05
-1.4444344011201157e-05   8.993589753368211e-07   3.103798604706959e-05
-1.4444344011201157e-05   8.993589753368211e-07   3.103798604706959e-05
-1.415396969542385e-05   1.644106363361559e-06   3.3032243025496216e-05
-1.415396969542385e-05   1.644106363361559e-06   3.3032243025496216e-05
-1.415396969542385e-05   1.644106363361559e-06   3.3032243025496216e-05
-1.415396969542385e-05   1.644106363361559e-06   3.3032243025496216e-05
-1.5040299140323533e-05   -7.68971741145724e-07   3.0107180421292654e-05
-1.5040299140323533e-05   -7.68971741145724e-07   3.0107180421292654e-05
-1.5040299140323533e-05   -7.68971741145724e-07   3.0107180421292654e-05
-1.5040299140323533e-05   -7.68971741145724e-07   3.0107180421292654e-05
-1.5079270093365515e-05   9.071140805736247e-07   3.2459456484598475e-05
-1.5079270093365515e-05   9.071140805736247e-07   3.2459456484598475e-05
-1.5079270093365515e-05   9.071140805736247e-07   3.2459456484598475e-05
-1.5079270093365515e-05   9.071140805736247e-07   3.2459456484598475e-05
-1.4248399013615405e-05   -1.3601069855671616e-06   3.243500399136576e-05
-1.4248399013615405e-05   -1.3601069855671616e-06   3.243500399136576e-05
-1.4248399013615405e-05   -1.3601069855671616e-06   3.243500399136576e-05
-1.4248399013615405e-05   -1.3601069855671616e-06   3.243500399136576e-05
-1.44727938882896e-05   3.987714209264105e-07   3.175366840525907e-05
-1.44727938882896e-05   3.987714209264105e-07   3.175366840525907e-05
-1.44727938882896e-05   3.987714209264105e-07   3.175366840525907e-05
-1.44727938882896e-05   3.987714209264105e-07   3.175366840525907e-05
-1.4944063805172759e-05   4.3021372433697455e-06   2.6679653144574822e-05
-1.4944063805172759e-05   4.3021372433697455e-06   2.6679653144574822e-05
-1.4944063805172759e-05   4.3021372433697455e-06   2.6679653144574822e-05
-1.4944063805172759e-05   4.3021372433697455e-06   2.6679653144574822e-05
-1.6447563118441363e-05   1.4106618344361882e-06   2.2438935710433708e-05
-1.6447563118441363e-05   1.4106618344361882e-06   2.2438935710433708e-05
-1.6447563118441363e-05   1.4106618344361882e-06   2.2438935710433708e-05
-1.6447563118441363e-05   1.4106618344361882e-06   2.2438935710433708e-05
-1.6470983977020235e-05   3.4978120809245165e-06   2.5193405241465778e-05
-1.6470983977020235e-05   3.4978120809245165e-06   2.5193405241465778e-05
-1.6470983977020235e-05   3.4978120809245165e-06   2.5193405241465778e-05
-1.6470983977020235e-05   3.4978120809245165e-06   2.5193405241465778e-05
-1.4977233485948297e-05   7.643176233827764e-07   2.4343917764204173e-05
-1.4977233485948297e-05   7.643176233827764e-07   2.4343917764204173e-05
-1.4977233485948297e-05   7.643176233827764e-07   2.4343917764204173e-05
-1.4977233485948297e-05   7.643176233827764e-07   2.4343917764204173e-05
-1.5668794599026916e-05   2.553853376029483e-06   2.442279816774711e-05
-1.5668794599026916e-05   2.553853376029483e-06   2.442279816774711e-05
-1.5668794599026916e-05   2.553853376029483e-06   2.442279816774711e-05
-1.5668794599026916e-05   2.553853376029483e-06   2.442279816774711e-05
-1.4977233485948297e-05   3.4978120809245165e-06   2.6833501915990627e-05
-1.4977233485948297e-05   3.4978120809245165e-06   2.6833501915990627e-05
-1.4977233485948297e-05   3.4978120809245165e-06   2.6833501915990627e-05
-1.4977233485948297e-05   3.4978120809245165e-06   2.6833501915990627e-05
-1.647098397702018e-05   7.643176233827764e-07   2.270382108967925e-05
-1.647098397702018e-05   7.643176233827764e-07   2.270382108967925e-05
-1.647098397702018e-05   7.643176233827764e-07   2.270382108967925e-05
-1.647098397702018e-05   7.643176233827764e-07   2.270382108967925e-05
-1.66466719382109e-05   2.7826828032481883e-06   2.612902163603688e-05
-1.66466719382109e-05   2.7826828032481883e-06   2.612902163603688e-05
-1.66466719382109e-05   2.7826828032481883e-06   2.612902163603688e-05
-1.66466719382109e-05   2.7826828032481883e-06   2.612902163603688e-05
-1.5040299140323533e-05   2.1110435540188516e-07   2.499468070826555e-05
-1.5040299140323533e-05   2.1110435540188516e-07   2.499468070826555e-05
-1.5040299140323533e-05   2.1110435540188516e-07   2.499468070826555e-05
-1.5040299140323533e-05   2.1110435540188516e-07   2.499468070826555e-05
-1.562082928929017e-05   2.0222821454877614e-06   2.4875524282492062e-05
-1.562082928929017e-05   2.0222821454877614e-06   2.4875524282492062e-05
-1.562082928929017e-05   2.0222821454877614e-06   2.4875524282492062e-05
-1.562082928929017e-05   2.0222821454877614e-06   2.4875524282492062e-05
-1.5040299140323533e-05   2.7826828032481883e-06   2.7671968704744295e-05
-1.5040299140323533e-05   2.7826828032481883e-06   2.7671968704744295e-05
-1.5040299140323533e-05   2.7826828032481883e-06   2.7671968704744295e-05
-1.5040299140323533e-05   2.7826828032481883e-06   2.7671968704744295e-05
-1.66466719382109e-05   2.1110435540188516e-07   2.3451733639558073e-05
-1.66466719382109e-05   2.1110435540188516e-07   2.3451733639558073e-05
-1.66466719382109e-05   2.1110435540188516e-07   2.3451733639558073e-05
-1.66466719382109e-05   2.1110435540188516e-07   2.3451733639558073e-05
-1.6750427720980162e-05   2.054631779004794e-06   2.7292410677948837e-05
-1.6750427720980162e-05   2.054631779004794e-06   2.7292410677948837e-05
-1.6750427720980162e-05   2.054631779004794e-06   2.7292410677948837e-05
-1.6750427720980162e-05   2.054631779004794e-06   2.7292410677948837e-05
-1.5079270093365515e-05   -3.4641347974038224e-07   2.5947775120504363e-05
-1.5079270093365515e-05   -3.4641347974038224e-07   2.5947775120504363e-05
-1.5079270093365515e-05   -3.4641347974038224e-07   2.5947775120504363e-05
-1.5079270093365515e-05   -3.4641347974038224e-07   2.5947775120504363e-05
-1.5695734782553356e-05   1.5478349129663632e-06   2.5838667233525723e-05
-1.5695734782553356e-05   1.5478349129663632e-06   2.5838667233525723e-05
-1.5695734782553356e-05   1.5478349129663632e-06   2.5838667233525723e-05
-1.5695734782553356e-05   1.5478349129663632e-06   2.5838667233525723e-05
-1.6447563118441363e-05   5.0752701025046e-06   1.0235160225790466e-05
-1.6447563118441363e-05   5.0752701025046e-06   1.0235160225790466e-05
-1.6447563118441363e-05   5.0752701025046e-06   1.0235160225790466e-05
-1.6447563118441363e-05   5.0752701025046e-06   1.0235160225790466e-05
-1.6193667207189738e-05   2.3190958698539148e-06   9.004615538286205e-06
-1.6193667207189738e-05   2.3190958698539148e-06   9.004615538286205e-06
-1.6193667207189738e-05   2.3190958698539148e-06   9.004615538286205e-06
-1.6193667207189738e-05   2.3190958698539148e-06   9.004615538286205e-06
-1.7026130611646454e-05   4.5399350330269355e-06   1.1211419044362264e-05
-1.7026130611646454e-05   4.5399350330269355e-06   1.1211419044362264e-05
-1.7026130611646454e-05   4.5399350330269355e-06   1.1211419044362264e-05
-1.7026130611646454e-05   4.5399350330269355e-06   1.1211419044362264e-05
-1.647098397702018e-05   1.8624303271473326e-06   1.1892677476846433e-05
-1.647098397702018e-05   1.8624303271473326e-06   1.1892677476846433e-05
-1.647098397702018e-05   1.8624303271473326e-06   1.1892677476846433e-05
-1.647098397702018e-05   1.8624303271473326e-06   1.1892677476846433e-05
-1.599788028301967e-05   3.568466633175097e-06   1.008054953656221e-05
-1.599788028301967e-05   3.568466633175097e-06   1.008054953656221e-05
-1.599788028301967e-05   3.568466633175097e-06   1.008054953656221e-05
-1.599788028301967e-05   3.568466633175097e-06   1.008054953656221e-05
-1.6470983977020126e-05   4.5399350330269355e-06   1.2817921867890004e-05
-1.6470983977020126e-05   4.5399350330269355e-06   1.2817921867890004e-05
-1.6470983977020126e-05   4.5399350330269355e-06   1.2817921867890004e-05
-1.6470983977020126e-05   4.5399350330269355e-06   1.2817921867890004e-05
-1.7026130611646562e-05   1.8624303271473326e-06   1.028617465331853e-05
-1.7026130611646562e-05   1.8624303271473326e-06   1.028617465331853e-05
-1.7026130611646562e-05   1.8624303271473326e-06   1.028617465331853e-05
-1.7026130611646562e-05   1.8624303271473326e-06   1.028617465331853e-05
-1.7757489858210066e-05   4.172714725646492e-06   1.3299007541874713e-05
-1.7757489858210066e-05   4.172714725646492e-06   1.3299007541874713e-05
-1.7757489858210066e-05   4.172714725646492e-06   1.3299007541874713e-05
-1.7757489858210066e-05   4.172714725646492e-06   1.3299007541874713e-05
-1.6646671938210845e-05   1.5636387179236017e-06   1.3013089946509854e-05
-1.6646671938210845e-05   1.5636387179236017e-06   1.3013089946509854e-05
-1.6646671938210845e-05   1.5636387179236017e-06   1.3013089946509854e-05
-1.6646671938210845e-05   1.5636387179236017e-06   1.3013089946509854e-05
-1.6589839029611318e-05   3.300568807647656e-06   1.1876210378343726e-05
-1.6589839029611318e-05   3.300568807647656e-06   1.1876210378343726e-05
-1.6589839029611318e-05   3.300568807647656e-06   1.1876210378343726e-05
-1.6589839029611318e-05   3.300568807647656e-06   1.1876210378343726e-05
-1.6646671938210845e-05   4.172714725646709e-06   1.4864453146508664e-05
-1.6646671938210845e-05   4.172714725646709e-06   1.4864453146508664e-05
-1.6646671938210845e-05   4.172714725646709e-06   1.4864453146508664e-05
-1.6646671938210845e-05   4.172714725646709e-06   1.4864453146508664e-05
-1.7757489858210174e-05   1.5636387179236017e-06   1.1447644341876012e-05
-1.7757489858210174e-05   1.5636387179236017e-06   1.1447644341876012e-05
-1.7757489858210174e-05   1.5636387179236017e-06   1.1447644341876012e-05
-1.7757489858210174e-05   1.5636387179236017e-06   1.1447644341876012e-05
-1.884797172183809e-05   3.3316049056673035e-06   1.7134535161851278e-05
-1.884797172183809e-05   3.3316049056673035e-06   1.7134535161851278e-05
-1.884797172183809e-05   3.3316049056673035e-06   1.7134535161851278e-05
-1.884797172183809e-05   3.3316049056673035e-06   1.7134535161851278e-05
-1.6750427720980108e-05   9.64875929358234e-07   1.5058665879539527e-05
-1.6750427720980108e-05   9.64875929358234e-07   1.5058665879539527e-05
-1.6750427720980108e-05   9.64875929358234e-07   1.5058665879539527e-05
-1.6750427720980108e-05   9.64875929358234e-07   1.5058665879539527e-05
-1.6789674074161416e-05   2.9837621732654407e-06   1.3912744721828664e-05
-1.6789674074161416e-05   2.9837621732654407e-06   1.3912744721828664e-05
-1.6789674074161416e-05   2.9837621732654407e-06   1.3912744721828664e-05
-1.6789674074161416e-05   2.9837621732654407e-06   1.3912744721828664e-05
-3.264625115345566e-05   4.321814382741746e-06   1.24150598277631e-05
-3.264625115345566e-05   4.321814382741746e-06   1.24150598277631e-05
-3.264625115345566e-05   4.321814382741746e-06   1.24150598277631e-05
-3.264625115345566e-05   4.321814382741746e-06   1.24150598277631e-05
-2.199559045101809e-05   5.989796916998781e-06   3.116695051904656e-05
-2.199559045101809e-05   5.989796916998781e-06   3.116695051904656e-05
-2.199559045101809e-05   5.989796916998781e-06   3.116695051904656e-05
-2.199559045101809e-05   5.989796916998781e-06   3.116695051904656e-05
-2.198194822898986e-05   3.379640762097647e-06   1.414513754217434e-05
-2.198194822898986e-05   3.379640762097647e-06   1.414513754217434e-05
-2.198194822898986e-05   3.379640762097647e-06   1.414513754217434e-05
-2.198194822898986e-05   3.379640762097647e-06   1.414513754217434e-05
-3.59348768673291e-05   2.449313509517029e-06   3.795821495762152e-05
-3.59348768673291e-05   2.449313509517029e-06   3.795821495762152e-05
-3.59348768673291e-05   2.449313509517029e-06   3.795821495762152e-05
-3.59348768673291e-05   2.449313509517029e-06   3.795821495762152e-05
-2.668852643983131e-05   3.5547555250083464e-06   2.188436570249705e-05
-2.668852643983131e-05   3.5547555250083464e-06   2.188436570249705e-05
-2.668852643983131e-05   3.5547555250083464e-06   2.188436570249705e-05
-2.668852643983131e-05   3.5547555250083464e-06   2.188436570249705e-05
-3.593487686732915e-05   3.379640762097647e-06   1.4703333893722524e-05
-3.593487686732915e-05   3.379640762097647e-06   1.4703333893722524e-05
-3.593487686732915e-05   3.379640762097647e-06   1.4703333893722524e-05
-3.593487686732915e-05   3.379640762097647e-06   1.4703333893722524e-05
-2.1981948228989826e-05   2.449313509517029e-06   3.7400018606073104e-05
-2.1981948228989826e-05   2.449313509517029e-06   3.7400018606073104e-05
-2.1981948228989826e-05   2.449313509517029e-06   3.7400018606073104e-05
-2.1981948228989826e-05   2.449313509517029e-06   3.7400018606073104e-05
-2.2273866585213773e-05   2.727077221089118e-06   1.5841790957038797e-05
-2.2273866585213773e-05   2.727077221089118e-06   1.5841790957038797e-05
-2.2273866585213773e-05   2.727077221089118e-06   1.5841790957038797e-05
-2.2273866585213773e-05   2.727077221089118e-06   1.5841790957038797e-05
-3.605414537358123e-05   1.7656735328061687e-06   3.93857644839544e-05
-3.605414537358123e-05   1.7656735328061687e-06   3.93857644839544e-05
-3.605414537358123e-05   1.7656735328061687e-06   3.93857644839544e-05
-3.605414537358123e-05   1.7656735328061687e-06   3.93857644839544e-05
-2.846613862427477e-05   2.229203483254628e-06   2.6460968598174283e-05
-2.846613862427477e-05   2.229203483254628e-06   2.6460968598174283e-05
-2.846613862427477e-05   2.229203483254628e-06   2.6460968598174283e-05
-2.846613862427477e-05   2.229203483254628e-06   2.6460968598174283e-05
-3.60541453735813e-05   2.7270772210890096e-06   1.641863317000875e-05
-3.60541453735813e-05   2.7270772210890096e-06   1.641863317000875e-05
-3.60541453735813e-05   2.7270772210890096e-06   1.641863317000875e-05
-3.60541453735813e-05   2.7270772210890096e-06   1.641863317000875e-05
-2.2273866585213732e-05   1.7656735328061687e-06   3.8808922270984665e-05
-2.2273866585213732e-05   1.7656735328061687e-06   3.8808922270984665e-05
-2.2273866585213732e-05   1.7656735328061687e-06   3.8808922270984665e-05
-2.2273866585213732e-05   1.7656735328061687e-06   3.8808922270984665e-05
-2.2028272134587447e-05   1.1213511860938552e-06   1.8810941533181408e-05
-2.2028272134587447e-05   1.1213511860938552e-06   1.8810941533181408e-05
-2.2028272134587447e-05   1.1213511860938552e-06   1.8810941533181408e-05
-2.2028272134587447e-05   1.1213511860938552e-06   1.8810941533181408e-05
-3.643192328683682e-05   -1.136806034169745e-06   4.4171921119088306e-05
-3.643192328683682e-05   -1.136806034169745e-06   4.4171921119088306e-05
-3.643192328683682e-05   -1.136806034169745e-06   4.4171921119088306e-05
-3.643192328683682e-05   -1.136806034169745e-06   4.4171921119088306e-05
-2.8023611132591184e-05   1.0911444465320401e-06   2.882129724025796e-05
-2.8023611132591184e-05   1.0911444465320401e-06   2.882129724025796e-05
-2.8023611132591184e-05   1.0911444465320401e-06   2.882129724025796e-05
-2.8023611132591184e-05   1.0911444465320401e-06   2.882129724025796e-05
-2.1995590451018125e-05   1.1178549587774088e-06   2.8632004350311567e-05
-2.1995590451018125e-05   1.1178549587774088e-06   2.8632004350311567e-05
-2.1995590451018125e-05   1.1178549587774088e-06   2.8632004350311567e-05
-2.1995590451018125e-05   1.1178549587774088e-06   2.8632004350311567e-05
-1.3474945707659644e-05   -6.6904394994010165e-06   3.814810224766872e-05
-1.3474945707659644e-05   -6.6904394994010165e-06   3.814810224766872e-05
-1.3474945707659644e-05   -6.6904394994010165e-06   3.814810224766872e-05
-1.3474945707659644e-05   -6.6904394994010165e-06   3.814810224766872e-05
-1.3497242287682223e-05   5.381272395803228e-07   2.401964904154806e-05
-1.3497242287682223e-05   5.381272395803228e-07   2.401964904154806e-05
-1.3497242287682223e-05   5.381272395803228e-07   2.401964904154806e-05
-1.3497242287682223e-05   5.381272395803228e-07   2.401964904154806e-05
-2.1981948228989826e-05   -5.472307956583809e-06   4.1767086728092544e-05
-2.1981948228989826e-05   -5.472307956583809e-06   4.1767086728092544e-05
-2.1981948228989826e-05   -5.472307956583809e-06   4.1767086728092544e-05
-2.1981948228989826e-05   -5.472307956583809e-06   4.1767086728092544e-05
-1.764145783343535e-05   -3.307189813443013e-06   3.3233865182950644e-05
-1.764145783343535e-05   -3.307189813443013e-06   3.3233865182950644e-05
-1.764145783343535e-05   -3.307189813443013e-06   3.3233865182950644e-05
-1.764145783343535e-05   -3.307189813443013e-06   3.3233865182950644e-05
-2.1981948228989853e-05   5.381272395803228e-07   2.7625910159246182e-05
-2.1981948228989853e-05   5.381272395803228e-07   2.7625910159246182e-05
-2.1981948228989853e-05   5.381272395803228e-07   2.7625910159246182e-05
-2.1981948228989853e-05   5.381272395803228e-07   2.7625910159246182e-05
-1.3497242287682196e-05   -5.472307956583809e-06   3.816082561039426e-05
-1.3497242287682196e-05   -5.472307956583809e-06   3.816082561039426e-05
-1.3497242287682196e-05   -5.472307956583809e-06   3.816082561039426e-05
-1.3497242287682196e-05   -5.472307956583809e-06   3.816082561039426e-05
-1.3543161079363148e-05   -1.360566486383356e-07   2.4767436674646504e-05
-1.3543161079363148e-05   -1.360566486383356e-07   2.4767436674646504e-05
-1.3543161079363148e-05   -1.360566486383356e-07   2.4767436674646504e-05
-1.3543161079363148e-05   -1.360566486383356e-07   2.4767436674646504e-05
-2.2273866585213732e-05   -5.598415937052754e-06   4.259602809077948e-05
-2.2273866585213732e-05   -5.598415937052754e-06   4.259602809077948e-05
-2.2273866585213732e-05   -5.598415937052754e-06   4.259602809077948e-05
-2.2273866585213732e-05   -5.598415937052754e-06   4.259602809077948e-05
-1.750763495010445e-05   -2.889136230784661e-06   3.302674087516996e-05
-1.750763495010445e-05   -2.889136230784661e-06   3.302674087516996e-05
-1.750763495010445e-05   -2.889136230784661e-06   3.302674087516996e-05
-1.750763495010445e-05   -2.889136230784661e-06   3.302674087516996e-05
-2.2273866585213773e-05   -1.3605664863822718e-07   2.8044852247695394e-05
-2.2273866585213773e-05   -1.3605664863822718e-07   2.8044852247695394e-05
-2.2273866585213773e-05   -1.3605664863822718e-07   2.8044852247695394e-05
-2.2273866585213773e-05   -1.3605664863822718e-07   2.8044852247695394e-05
-1.3543161079363094e-05   -5.598415937052754e-06   3.9318612517730864e-05
-1.3543161079363094e-05   -5.598415937052754e-06   3.9318612517730864e-05
-1.3543161079363094e-05   -5.598415937052754e-06   3.9318612517730864e-05
-1.3543161079363094e-05   -5.598415937052754e-06   3.9318612517730864e-05
-1.340244767480744e-05   -1.023189679976973e-06   2.569823282427201e-05
-1.340244767480744e-05   -1.023189679976973e-06   2.569823282427201e-05
-1.340244767480744e-05   -1.023189679976973e-06   2.569823282427201e-05
-1.340244767480744e-05   -1.023189679976973e-06   2.569823282427201e-05
-2.2028272134587386e-05   -5.654857243476844e-06   4.285360746200499e-05
-2.2028272134587386e-05   -5.654857243476844e-06   4.285360746200499e-05
-2.2028272134587386e-05   -5.654857243476844e-06   4.285360746200499e-05
-2.2028272134587386e-05   -5.654857243476844e-06   4.285360746200499e-05
-1.7581590346957157e-05   -3.2478248589755615e-06   3.399825171858728e-05
-1.7581590346957157e-05   -3.2478248589755615e-06   3.399825171858728e-05
-1.7581590346957157e-05   -3.2478248589755615e-06   3.399825171858728e-05
-1.7581590346957157e-05   -3.2478248589755615e-06   3.399825171858728e-05
-1.3474945707659644e-05   3.098695186056497e-07   2.6451941549390247e-05
-1.3474945707659644e-05   3.098695186056497e-07   2.6451941549390247e-05
-1.3474945707659644e-05   3.098695186056497e-07   2.6451941549390247e-05
-1.3474945707659644e-05   3.098695186056497e-07   2.6451941549390247e-05
-9.891684684521797e-06   -5.225882392797642e-06   2.91025921077782e-05
-9.891684684521797e-06   -5.225882392797642e-06   2.91025921077782e-05
-9.891684684521797e-06   -5.225882392797642e-06   2.91025921077782e-05
-9.891684684521797e-06   -5.225882392797642e-06   2.91025921077782e-05
-9.797918017644515e-06   -1.8103626733692937e-07   2.3348824403405426e-05
-9.797918017644515e-06   -1.8103626733692937e-07   2.3348824403405426e-05
-9.797918017644515e-06   -1.8103626733692937e-07   2.3348824403405426e-05
-9.797918017644515e-06   -1.8103626733692937e-07   2.3348824403405426e-05
-1.3497242287682196e-05   -5.132398621265964e-06   3.248518226582576e-05
-1.3497242287682196e-05   -5.132398621265964e-06   3.248518226582576e-05
-1.3497242287682196e-05   -5.132398621265964e-06   3.248518226582576e-05
-1.3497242287682196e-05   -5.132398621265964e-06   3.248518226582576e-05
-1.1592949656668617e-05   -2.6422982348628236e-06   2.7817300982294346e-05
-1.1592949656668617e-05   -2.6422982348628236e-06   2.7817300982294346e-05
-1.1592949656668617e-05   -2.6422982348628236e-06   2.7817300982294346e-05
-1.1592949656668617e-05   -2.6422982348628236e-06   2.7817300982294346e-05
-1.3497242287682196e-05   -1.810362673370378e-07   2.6319641815762663e-05
-1.3497242287682196e-05   -1.810362673370378e-07   2.6319641815762663e-05
-1.3497242287682196e-05   -1.810362673370378e-07   2.6319641815762663e-05
-1.3497242287682196e-05   -1.810362673370378e-07   2.6319641815762663e-05
-9.797918017644515e-06   -5.132398621265964e-06   2.9514364853468227e-05
-9.797918017644515e-06   -5.132398621265964e-06   2.9514364853468227e-05
-9.797918017644515e-06   -5.132398621265964e-06   2.9514364853468227e-05
-9.797918017644515e-06   -5.132398621265964e-06   2.9514364853468227e-05
-9.715671579177344e-06   -7.68971741145724e-07   2.3909111292187506e-05
-9.715671579177344e-06   -7.68971741145724e-07   2.3909111292187506e-05
-9.715671579177344e-06   -7.68971741145724e-07   2.3909111292187506e-05
-9.715671579177344e-06   -7.68971741145724e-07   2.3909111292187506e-05
-1.3543161079363094e-05   -5.290267976785265e-06   3.3001038200547493e-05
-1.3543161079363094e-05   -5.290267976785265e-06   3.3001038200547493e-05
-1.3543161079363094e-05   -5.290267976785265e-06   3.3001038200547493e-05
-1.3543161079363094e-05   -5.290267976785265e-06   3.3001038200547493e-05
-1.1485199353944854e-05   -2.8206060502347944e-06   2.808930483558629e-05
-1.1485199353944854e-05   -2.8206060502347944e-06   2.808930483558629e-05
-1.1485199353944854e-05   -2.8206060502347944e-06   2.808930483558629e-05
-1.1485199353944854e-05   -2.8206060502347944e-06   2.808930483558629e-05
-1.3543161079363094e-05   -7.68971741145724e-07   2.662188903357148e-05
-1.3543161079363094e-05   -7.68971741145724e-07   2.662188903357148e-05
-1.3543161079363094e-05   -7.68971741145724e-07   2.662188903357148e-05
-1.3543161079363094e-05   -7.68971741145724e-07   2.662188903357148e-05
-9.715671579177344e-06   -5.290267976785265e-06   3.0288260459163723e-05
-9.715671579177344e-06   -5.290267976785265e-06   3.0288260459163723e-05
-9.715671579177344e-06   -5.290267976785265e-06   3.0288260459163723e-05
-9.715671579177344e-06   -5.290267976785265e-06   3.0288260459163723e-05
-9.51760823464067e-06   -1.3601069855671616e-06   2.477589658440209e-05
-9.51760823464067e-06   -1.3601069855671616e-06   2.477589658440209e-05
-9.51760823464067e-06   -1.3601069855671616e-06   2.477589658440209e-05
-9.51760823464067e-06   -1.3601069855671616e-06   2.477589658440209e-05
-1.340244767480744e-05   -5.515801348149069e-06   3.374404560222907e-05
-1.340244767480744e-05   -5.515801348149069e-06   3.374404560222907e-05
-1.340244767480744e-05   -5.515801348149069e-06   3.374404560222907e-05
-1.340244767480744e-05   -5.515801348149069e-06   3.374404560222907e-05
-1.1358829468322094e-05   -3.0794085951080946e-06   2.8876179606262296e-05
-1.1358829468322094e-05   -3.0794085951080946e-06   2.8876179606262296e-05
-1.1358829468322094e-05   -3.0794085951080946e-06   2.8876179606262296e-05
-1.1358829468322094e-05   -3.0794085951080946e-06   2.8876179606262296e-05
-9.891684684521797e-06   1.4106618344361882e-06   1.7972403399251174e-05
-9.891684684521797e-06   1.4106618344361882e-06   1.7972403399251174e-05
-9.891684684521797e-06   1.4106618344361882e-06   1.7972403399251174e-05
-9.891684684521797e-06   1.4106618344361882e-06   1.7972403399251174e-05
-8.221538818665888e-06   -2.142159469156312e-06   1.862428706018884e-05
-8.221538818665888e-06   -2.142159469156312e-06   1.862428706018884e-05
-8.221538818665888e-06   -2.142159469156312e-06   1.862428706018884e-05
-8.221538818665888e-06   -2.142159469156312e-06   1.862428706018884e-05
-8.038748236183007e-06   7.643176233827764e-07   1.622675687700339e-05
-8.038748236183007e-06   7.643176233827764e-07   1.622675687700339e-05
-8.038748236183007e-06   7.643176233827764e-07   1.622675687700339e-05
-8.038748236183007e-06   7.643176233827764e-07   1.622675687700339e-05
-9.797918017644515e-06   -2.5096582328164373e-06   2.1123092026492066e-05
-9.797918017644515e-06   -2.5096582328164373e-06   2.1123092026492066e-05
-9.797918017644515e-06   -2.5096582328164373e-06   2.1123092026492066e-05
-9.797918017644515e-06   -2.5096582328164373e-06   2.1123092026492066e-05
-8.921612757184462e-06   -4.883371039856351e-07   1.844979058176032e-05
-8.921612757184462e-06   -4.883371039856351e-07   1.844979058176032e-05
-8.921612757184462e-06   -4.883371039856351e-07   1.844979058176032e-05
-8.921612757184462e-06   -4.883371039856351e-07   1.844979058176032e-05
-9.797918017644515e-06   7.643176233827764e-07   1.8191142390722777e-05
-9.797918017644515e-06   7.643176233827764e-07   1.8191142390722777e-05
-9.797918017644515e-06   7.643176233827764e-07   1.8191142390722777e-05
-9.797918017644515e-06   7.643176233827764e-07   1.8191142390722777e-05
-8.038748236183007e-06   -2.5096582328164915e-06   1.915870651277257e-05
-8.038748236183007e-06   -2.5096582328164915e-06   1.915870651277257e-05
-8.038748236183007e-06   -2.5096582328164915e-06   1.915870651277257e-05
-8.038748236183007e-06   -2.5096582328164915e-06   1.915870651277257e-05
-7.952821996985108e-06   2.1110435540188516e-07   1.699566287204318e-05
-7.952821996985108e-06   2.1110435540188516e-07   1.699566287204318e-05
-7.952821996985108e-06   2.1110435540188516e-07   1.699566287204318e-05
-7.952821996985108e-06   2.1110435540188516e-07   1.699566287204318e-05
-9.715671579177344e-06   -2.7904768231272795e-06   2.1734694216147816e-05
-9.715671579177344e-06   -2.7904768231272795e-06   2.1734694216147816e-05
-9.715671579177344e-06   -2.7904768231272795e-06   2.1734694216147816e-05
-9.715671579177344e-06   -2.7904768231272795e-06   2.1734694216147816e-05
-8.740557737933177e-06   -8.830004689012018e-07   1.8965018668204697e-05
-8.740557737933177e-06   -8.830004689012018e-07   1.8965018668204697e-05
-8.740557737933177e-06   -8.830004689012018e-07   1.8965018668204697e-05
-8.740557737933177e-06   -8.830004689012018e-07   1.8965018668204697e-05
-9.715671579177399e-06   2.1110435540188516e-07   1.8796611579160864e-05
-9.715671579177399e-06   2.1110435540188516e-07   1.8796611579160864e-05
-9.715671579177399e-06   2.1110435540188516e-07   1.8796611579160864e-05
-9.715671579177399e-06   2.1110435540188516e-07   1.8796611579160864e-05
-7.952821996985108e-06   -2.7904768231272795e-06   1.993374550903024e-05
-7.952821996985108e-06   -2.7904768231272795e-06   1.993374550903024e-05
-7.952821996985108e-06   -2.7904768231272795e-06   1.993374550903024e-05
-7.952821996985108e-06   -2.7904768231272795e-06   1.993374550903024e-05
-7.814823329586884e-06   -3.4641347974038224e-07   1.7961274183575732e-05
-7.814823329586884e-06   -3.4641347974038224e-07   1.7961274183575732e-05
-7.814823329586884e-06   -3.4641347974038224e-07   1.7961274183575732e-05
-7.814823329586884e-06   -3.4641347974038224e-07   1.7961274183575732e-05
-9.51760823464067e-06   -3.1592904291564473e-06   2.2486975194981572e-05
-9.51760823464067e-06   -3.1592904291564473e-06   2.2486975194981572e-05
-9.51760823464067e-06   -3.1592904291564473e-06   2.2486975194981572e-05
-9.51760823464067e-06   -3.1592904291564473e-06   2.2486975194981572e-05
-8.59801122114729e-06   -1.2283141508091355e-06   1.9795727738817554e-05
-8.59801122114729e-06   -1.2283141508091355e-06   1.9795727738817554e-05
-8.59801122114729e-06   -1.2283141508091355e-06   1.9795727738817554e-05
-8.59801122114729e-06   -1.2283141508091355e-06   1.9795727738817554e-05
-8.221538818665888e-06   2.3190958698539148e-06   4.060094984538638e-06
-8.221538818665888e-06   2.3190958698539148e-06   4.060094984538638e-06
-8.221538818665888e-06   2.3190958698539148e-06   4.060094984538638e-06
-8.221538818665888e-06   2.3190958698539148e-06   4.060094984538638e-06
-4.715205096838897e-06   -2.4331248663452725e-07   8.366539507023902e-06
-4.715205096838897e-06   -2.4331248663452725e-07   8.366539507023902e-06
-4.715205096838897e-06   -2.4331248663452725e-07   8.366539507023902e-06
-4.715205096838897e-06   -2.4331248663452725e-07   8.366539507023902e-06
-4.9781561912530655e-06   1.8624303271473326e-06   4.095516950403458e-06
-4.9781561912530655e-06   1.8624303271473326e-06   4.095516950403458e-06
-4.9781561912530655e-06   1.8624303271473326e-06   4.095516950403458e-06
-4.9781561912530655e-06   1.8624303271473326e-06   4.095516950403458e-06
-8.038748236183007e-06   -3.3773019579808007e-07   1.0516600005720583e-05
-8.038748236183007e-06   -3.3773019579808007e-07   1.0516600005720583e-05
-8.038748236183007e-06   -3.3773019579808007e-07   1.0516600005720583e-05
-8.038748236183007e-06   -3.3773019579808007e-07   1.0516600005720583e-05
-6.265402195874134e-06   1.19126665592905e-06   6.643625160836371e-06
-6.265402195874134e-06   1.19126665592905e-06   6.643625160836371e-06
-6.265402195874134e-06   1.19126665592905e-06   6.643625160836371e-06
-6.265402195874134e-06   1.19126665592905e-06   6.643625160836371e-06
-8.038748236183007e-06   1.8624303271473326e-06   5.415613264170066e-06
-8.038748236183007e-06   1.8624303271473326e-06   5.415613264170066e-06
-8.038748236183007e-06   1.8624303271473326e-06   5.415613264170066e-06
-8.038748236183007e-06   1.8624303271473326e-06   5.415613264170066e-06
-4.978156191252957e-06   -3.3773019579808007e-07   9.196503691953324e-06
-4.978156191252957e-06   -3.3773019579808007e-07   9.196503691953324e-06
-4.978156191252957e-06   -3.3773019579808007e-07   9.196503691953324e-06
-4.978156191252957e-06   -3.3773019579808007e-07   9.196503691953324e-06
-5.193181332945312e-06   1.5636387179236017e-06   5.339207260260858e-06
-5.193181332945312e-06   1.5636387179236017e-06   5.339207260260858e-06
-5.193181332945312e-06   1.5636387179236017e-06   5.339207260260858e-06
-5.193181332945312e-06   1.5636387179236017e-06   5.339207260260858e-06
-7.952821996985108e-06   -4.660478133000504e-07   1.1156420285727783e-05
-7.952821996985108e-06   -4.660478133000504e-07   1.1156420285727783e-05
-7.952821996985108e-06   -4.660478133000504e-07   1.1156420285727783e-05
-7.952821996985108e-06   -4.660478133000504e-07   1.1156420285727783e-05
-6.369402539246828e-06   9.644677267297425e-07   7.659078532146256e-06
-6.369402539246828e-06   9.644677267297425e-07   7.659078532146256e-06
-6.369402539246828e-06   9.644677267297425e-07   7.659078532146256e-06
-6.369402539246828e-06   9.644677267297425e-07   7.659078532146256e-06
-7.952821996985108e-06   1.5636387179236017e-06   6.557019178995115e-06
-7.952821996985108e-06   1.5636387179236017e-06   6.557019178995115e-06
-7.952821996985108e-06   1.5636387179236017e-06   6.557019178995115e-06
-7.952821996985108e-06   1.5636387179236017e-06   6.557019178995115e-06
-5.193181332945312e-06   -4.660478133000504e-07   9.938608366993527e-06
-5.193181332945312e-06   -4.660478133000504e-07   9.938608366993527e-06
-5.193181332945312e-06   -4.660478133000504e-07   9.938608366993527e-06
-5.193181332945312e-06   -4.660478133000504e-07   9.938608366993527e-06
-5.732934900229219e-06   9.64875929358234e-07   7.561830348030247e-06
-5.732934900229219e-06   9.64875929358234e-07   7.561830348030247e-06
-5.732934900229219e-06   9.64875929358234e-07   7.561830348030247e-06
-5.732934900229219e-06   9.64875929358234e-07   7.561830348030247e-06
-7.814823329586884e-06   -6.200603203547267e-07   1.1982606146787068e-05
-7.814823329586884e-06   -6.200603203547267e-07   1.1982606146787068e-05
-7.814823329586884e-06   -6.200603203547267e-07   1.1982606146787068e-05
-7.814823329586884e-06   -6.200603203547267e-07   1.1982606146787068e-05
-6.378593733173438e-06   8.119201994091058e-07   8.729701840906156e-06
-6.378593733173438e-06   8.119201994091058e-07   8.729701840906156e-06
-6.378593733173438e-06   8.119201994091058e-07   8.729701840906156e-06
-6.378593733173438e-06   8.119201994091058e-07   8.729701840906156e-06
-7.622240425448891e-05   5.989796916998781e-06   3.2358965807875384e-05
-7.622240425448891e-05   5.989796916998781e-06   3.2358965807875384e-05
-7.622240425448891e-05   5.989796916998781e-06   3.2358965807875384e-05
-7.622240425448891e-05   5.989796916998781e-06   3.2358965807875384e-05
-1.795414248436839e-05   -3.6872923032557385e-05   0.00010375510345500934
-1.795414248436839e-05   -3.6872923032557385e-05   0.00010375510345500934
-1.795414248436839e-05   -3.6872923032557385e-05   0.00010375510345500934
-1.795414248436839e-05   -3.6872923032557385e-05   0.00010375510345500934
-2.1049585189882915e-05   2.449313509517029e-06   1.779349152875113e-05
-2.1049585189882915e-05   2.449313509517029e-06   1.779349152875113e-05
-2.1049585189882915e-05   2.449313509517029e-06   1.779349152875113e-05
-2.1049585189882915e-05   2.449313509517029e-06   1.779349152875113e-05
-6.951679165299784e-05   -2.860305797721139e-05   0.00011720359185931291
-6.951679165299784e-05   -2.860305797721139e-05   0.00011720359185931291
-6.951679165299784e-05   -2.860305797721139e-05   0.00011720359185931291
-6.951679165299784e-05   -2.860305797721139e-05   0.00011720359185931291
-4.635928750284352e-05   -1.4242526739741102e-05   6.999143286657357e-05
-4.635928750284352e-05   -1.4242526739741102e-05   6.999143286657357e-05
-4.635928750284352e-05   -1.4242526739741102e-05   6.999143286657357e-05
-4.635928750284352e-05   -1.4242526739741102e-05   6.999143286657357e-05
-6.951679165299772e-05   2.449313509517029e-06   3.6424914420788197e-05
-6.951679165299772e-05   2.449313509517029e-06   3.6424914420788197e-05
-6.951679165299772e-05   2.449313509517029e-06   3.6424914420788197e-05
-6.951679165299772e-05   2.449313509517029e-06   3.6424914420788197e-05
-2.104958518988294e-05   -2.860305797721139e-05   9.857216896727588e-05
-2.104958518988294e-05   -2.860305797721139e-05   9.857216896727588e-05
-2.104958518988294e-05   -2.860305797721139e-05   9.857216896727588e-05
-2.104958518988294e-05   -2.860305797721139e-05   9.857216896727588e-05
-2.1513564833416308e-05   1.7656735328061687e-06   1.955079241868911e-05
-2.1513564833416308e-05   1.7656735328061687e-06   1.955079241868911e-05
-2.1513564833416308e-05   1.7656735328061687e-06   1.955079241868911e-05
-2.1513564833416308e-05   1.7656735328061687e-06   1.955079241868911e-05
-6.558837394789002e-05   -2.4610656216492576e-05   0.00010883460545905771
-6.558837394789002e-05   -2.4610656216492576e-05   0.00010883460545905771
-6.558837394789002e-05   -2.4610656216492576e-05   0.00010883460545905771
-6.558837394789002e-05   -2.4610656216492576e-05   0.00010883460545905771
-4.49632700661962e-05   -1.3487353083395436e-05   6.778545044304312e-05
-4.49632700661962e-05   -1.3487353083395436e-05   6.778545044304312e-05
-4.49632700661962e-05   -1.3487353083395436e-05   6.778545044304312e-05
-4.49632700661962e-05   -1.3487353083395436e-05   6.778545044304312e-05
-6.558837394788992e-05   1.7656735328061687e-06   3.537659026826834e-05
-6.558837394788992e-05   1.7656735328061687e-06   3.537659026826834e-05
-6.558837394788992e-05   1.7656735328061687e-06   3.537659026826834e-05
-6.558837394788992e-05   1.7656735328061687e-06   3.537659026826834e-05
-2.151356483341635e-05   -2.4610656216492576e-05   9.300880760947847e-05
-2.151356483341635e-05   -2.4610656216492576e-05   9.300880760947847e-05
-2.151356483341635e-05   -2.4610656216492576e-05   9.300880760947847e-05
-2.151356483341635e-05   -2.4610656216492576e-05   9.300880760947847e-05
-2.3541244147796622e-05   -1.136806034169745e-06   2.449336104611138e-05
-2.3541244147796622e-05   -1.136806034169745e-06   2.449336104611138e-05
-2.3541244147796622e-05   -1.136806034169745e-06   2.449336104611138e-05
-2.3541244147796622e-05   -1.136806034169745e-06   2.449336104611138e-05
-6.0556788719423276e-05   -1.9313597777285262e-05   9.709201037802492e-05
-6.0556788719423276e-05   -1.9313597777285262e-05   9.709201037802492e-05
-6.0556788719423276e-05   -1.9313597777285262e-05   9.709201037802492e-05
-6.0556788719423276e-05   -1.9313597777285262e-05   9.709201037802492e-05
-4.3235525244409105e-05   -1.2447378945351916e-05   6.410350662050806e-05
-4.3235525244409105e-05   -1.2447378945351916e-05   6.410350662050806e-05
-4.3235525244409105e-05   -1.2447378945351916e-05   6.410350662050806e-05
-4.3235525244409105e-05   -1.2447378945351916e-05   6.410350662050806e-05
-1.7954142484368364e-05   -6.6904394994010165e-06   1.830746224167095e-05
-1.7954142484368364e-05   -6.6904394994010165e-06   1.830746224167095e-05
-1.7954142484368364e-05   -6.6904394994010165e-06   1.830746224167095e-05
-1.7954142484368364e-05   -6.6904394994010165e-06   1.830746224167095e-05
-6.26442885231967e-06   -1.1327389614067722e-05   3.500814822628543e-05
-6.26442885231967e-06   -1.1327389614067722e-05   3.500814822628543e-05
-6.26442885231967e-06   -1.1327389614067722e-05   3.500814822628543e-05
-6.26442885231967e-06   -1.1327389614067722e-05   3.500814822628543e-05
-6.983904119748209e-06   -5.4723079565837545e-06   1.6407179799981565e-05
-6.983904119748209e-06   -5.4723079565837545e-06   1.6407179799981565e-05
-6.983904119748209e-06   -5.4723079565837545e-06   1.6407179799981565e-05
-6.983904119748209e-06   -5.4723079565837545e-06   1.6407179799981565e-05
-2.104958518988294e-05   -1.5061274374565643e-05   4.5603361434328366e-05
-2.104958518988294e-05   -1.5061274374565643e-05   4.5603361434328366e-05
-2.104958518988294e-05   -1.5061274374565643e-05   4.5603361434328366e-05
-2.104958518988294e-05   -1.5061274374565643e-05   4.5603361434328366e-05
-1.2382034167168868e-05   -7.906578915204283e-06   2.686462578752139e-05
-1.2382034167168868e-05   -7.906578915204283e-06   2.686462578752139e-05
-1.2382034167168868e-05   -7.906578915204283e-06   2.686462578752139e-05
-1.2382034167168868e-05   -7.906578915204283e-06   2.686462578752139e-05
-2.1049585189882887e-05   -5.4723079565837545e-06   2.2160559650770406e-05
-2.1049585189882887e-05   -5.4723079565837545e-06   2.2160559650770406e-05
-2.1049585189882887e-05   -5.4723079565837545e-06   2.2160559650770406e-05
-2.1049585189882887e-05   -5.4723079565837545e-06   2.2160559650770406e-05
-6.983904119748236e-06   -1.5061274374565643e-05   3.984998158353932e-05
-6.983904119748236e-06   -1.5061274374565643e-05   3.984998158353932e-05
-6.983904119748236e-06   -1.5061274374565643e-05   3.984998158353932e-05
-6.983904119748236e-06   -1.5061274374565643e-05   3.984998158353932e-05
-7.599232080116172e-06   -5.598415937052754e-06   1.8446507002158117e-05
-7.599232080116172e-06   -5.598415937052754e-06   1.8446507002158117e-05
-7.599232080116172e-06   -5.598415937052754e-06   1.8446507002158117e-05
-7.599232080116172e-06   -5.598415937052754e-06   1.8446507002158117e-05
-2.151356483341635e-05   -1.3750734664262665e-05   4.652845282731747e-05
-2.151356483341635e-05   -1.3750734664262665e-05   4.652845282731747e-05
-2.151356483341635e-05   -1.3750734664262665e-05   4.652845282731747e-05
-2.151356483341635e-05   -1.3750734664262665e-05   4.652845282731747e-05
-1.394648914865602e-05   -9.680182171616065e-06   3.147432852379588e-05
-1.394648914865602e-05   -9.680182171616065e-06   3.147432852379588e-05
-1.394648914865602e-05   -9.680182171616065e-06   3.147432852379588e-05
-1.394648914865602e-05   -9.680182171616065e-06   3.147432852379588e-05
-2.1513564833416308e-05   -5.5984159370527e-06   2.3337898238484037e-05
-2.1513564833416308e-05   -5.5984159370527e-06   2.3337898238484037e-05
-2.1513564833416308e-05   -5.5984159370527e-06   2.3337898238484037e-05
-2.1513564833416308e-05   -5.5984159370527e-06   2.3337898238484037e-05
-7.599232080116172e-06   -1.3750734664262665e-05   4.1637061590991565e-05
-7.599232080116172e-06   -1.3750734664262665e-05   4.1637061590991565e-05
-7.599232080116172e-06   -1.3750734664262665e-05   4.1637061590991565e-05
-7.599232080116172e-06   -1.3750734664262665e-05   4.1637061590991565e-05
-8.597808681099352e-06   -5.654857243476898e-06   2.016685388606961e-05
-8.597808681099352e-06   -5.654857243476898e-06   2.016685388606961e-05
-8.597808681099352e-06   -5.654857243476898e-06   2.016685388606961e-05
-8.597808681099352e-06   -5.654857243476898e-06   2.016685388606961e-05
-2.354124414779661e-05   -1.292667030200456e-05   4.943566749901482e-05
-2.354124414779661e-05   -1.292667030200456e-05   4.943566749901482e-05
-2.354124414779661e-05   -1.292667030200456e-05   4.943566749901482e-05
-2.354124414779661e-05   -1.292667030200456e-05   4.943566749901482e-05
-1.4851560497239683e-05   -8.836190939549404e-06   3.249857379728021e-05
-1.4851560497239683e-05   -8.836190939549404e-06   3.249857379728021e-05
-1.4851560497239683e-05   -8.836190939549404e-06   3.249857379728021e-05
-1.4851560497239683e-05   -8.836190939549404e-06   3.249857379728021e-05
-6.26442885231967e-06   -5.225882392797642e-06   9.801233179822276e-06
-6.26442885231967e-06   -5.225882392797642e-06   9.801233179822276e-06
-6.26442885231967e-06   -5.225882392797642e-06   9.801233179822276e-06
-6.26442885231967e-06   -5.225882392797642e-06   9.801233179822276e-06
-3.4887347729251257e-06   -3.1063396755866155e-06   1.5699115609139923e-05
-3.4887347729251257e-06   -3.1063396755866155e-06   1.5699115609139923e-05
-3.4887347729251257e-06   -3.1063396755866155e-06   1.5699115609139923e-05
-3.4887347729251257e-06   -3.1063396755866155e-06   1.5699115609139923e-05
-3.3460975995493105e-06   -5.1323986212660185e-06   1.135984022232917e-05
-3.3460975995493105e-06   -5.1323986212660185e-06   1.135984022232917e-05
-3.3460975995493105e-06   -5.1323986212660185e-06   1.135984022232917e-05
-3.3460975995493105e-06   -5.1323986212660185e-06   1.135984022232917e-05
-6.983904119748236e-06   -4.085225676405771e-06   1.6794547322411015e-05
-6.983904119748236e-06   -4.085225676405771e-06   1.6794547322411015e-05
-6.983904119748236e-06   -4.085225676405771e-06   1.6794547322411015e-05
-6.983904119748236e-06   -4.085225676405771e-06   1.6794547322411015e-05
-4.703749396501125e-06   -4.162284164480268e-06   1.304052454317693e-05
-4.703749396501125e-06   -4.162284164480268e-06   1.304052454317693e-05
-4.703749396501125e-06   -4.162284164480268e-06   1.304052454317693e-05
-4.703749396501125e-06   -4.162284164480268e-06   1.304052454317693e-05
-6.983904119748209e-06   -5.13239862126591e-06   1.0731536455413013e-05
-6.983904119748209e-06   -5.13239862126591e-06   1.0731536455413013e-05
-6.983904119748209e-06   -5.13239862126591e-06   1.0731536455413013e-05
-6.983904119748209e-06   -5.13239862126591e-06   1.0731536455413013e-05
-3.3460975995493105e-06   -4.085225676405771e-06   1.7422851089327117e-05
-3.3460975995493105e-06   -4.085225676405771e-06   1.7422851089327117e-05
-3.3460975995493105e-06   -4.085225676405771e-06   1.7422851089327117e-05
-3.3460975995493105e-06   -4.085225676405771e-06   1.7422851089327117e-05
-3.344798600298372e-06   -5.290267976785319e-06   1.2141341397489615e-05
-3.344798600298372e-06   -5.290267976785319e-06   1.2141341397489615e-05
-3.344798600298372e-06   -5.290267976785319e-06   1.2141341397489615e-05
-3.344798600298372e-06   -5.290267976785319e-06   1.2141341397489615e-05
-7.599232080116172e-06   -5.269586789260329e-06   1.921965515133754e-05
-7.599232080116172e-06   -5.269586789260329e-06   1.921965515133754e-05
-7.599232080116172e-06   -5.269586789260329e-06   1.921965515133754e-05
-7.599232080116172e-06   -5.269586789260329e-06   1.921965515133754e-05
-4.979011165464286e-06   -4.551329721070072e-06   1.4421666052670269e-05
-4.979011165464286e-06   -4.551329721070072e-06   1.4421666052670269e-05
-4.979011165464286e-06   -4.551329721070072e-06   1.4421666052670269e-05
-4.979011165464286e-06   -4.551329721070072e-06   1.4421666052670269e-05
-7.599232080116172e-06   -5.290267976785319e-06   1.2128932684974747e-05
-7.599232080116172e-06   -5.290267976785319e-06   1.2128932684974747e-05
-7.599232080116172e-06   -5.290267976785319e-06   1.2128932684974747e-05
-7.599232080116172e-06   -5.290267976785319e-06   1.2128932684974747e-05
-3.344798600298372e-06   -5.269586789260329e-06   1.9232063863852515e-05
-3.344798600298372e-06   -5.269586789260329e-06   1.9232063863852515e-05
-3.344798600298372e-06   -5.269586789260329e-06   1.9232063863852515e-05
-3.344798600298372e-06   -5.269586789260329e-06   1.9232063863852515e-05
-3.3831209051148363e-06   -5.515801348149015e-06   1.3308045686512586e-05
-3.3831209051148363e-06   -5.515801348149015e-06   1.3308045686512586e-05
-3.3831209051148363e-06   -5.515801348149015e-06   1.3308045686512586e-05
-3.3831209051148363e-06   -5.515801348149015e-06   1.3308045686512586e-05
-8.597808681099352e-06   -6.396212811283892e-06   2.2527438857700827e-05
-8.597808681099352e-06   -6.396212811283892e-06   2.2527438857700827e-05
-8.597808681099352e-06   -6.396212811283892e-06   2.2527438857700827e-05
-8.597808681099352e-06   -6.396212811283892e-06   2.2527438857700827e-05
-5.290946333945151e-06   -4.976635379714216e-06   1.6164255153502184e-05
-5.290946333945151e-06   -4.976635379714216e-06   1.6164255153502184e-05
-5.290946333945151e-06   -4.976635379714216e-06   1.6164255153502184e-05
-5.290946333945151e-06   -4.976635379714216e-06   1.6164255153502184e-05
-3.4887347729251257e-06   -2.142159469156312e-06   2.7263465447151117e-06
-3.4887347729251257e-06   -2.142159469156312e-06   2.7263465447151117e-06
-3.4887347729251257e-06   -2.142159469156312e-06   2.7263465447151117e-06
-3.4887347729251257e-06   -2.142159469156312e-06   2.7263465447151117e-06
-2.577432417800703e-06   6.011249000017823e-07   5.891154424750604e-06
-2.577432417800703e-06   6.011249000017823e-07   5.891154424750604e-06
-2.577432417800703e-06   6.011249000017823e-07   5.891154424750604e-06
-2.577432417800703e-06   6.011249000017823e-07   5.891154424750604e-06
-2.0800258490212813e-06   -2.5096582328164915e-06   4.627602649143908e-06
-2.0800258490212813e-06   -2.5096582328164915e-06   4.627602649143908e-06
-2.0800258490212813e-06   -2.5096582328164915e-06   4.627602649143908e-06
-2.0800258490212813e-06   -2.5096582328164915e-06   4.627602649143908e-06
-3.3460975995493105e-06   2.554005235017853e-07   5.078686979566327e-06
-3.3460975995493105e-06   2.554005235017853e-07   5.078686979566327e-06
-3.3460975995493105e-06   2.554005235017853e-07   5.078686979566327e-06
-3.3460975995493105e-06   2.554005235017853e-07   5.078686979566327e-06
-2.6962646500024363e-06   -9.862944888812451e-07   4.740649071084408e-06
-2.6962646500024363e-06   -9.862944888812451e-07   4.740649071084408e-06
-2.6962646500024363e-06   -9.862944888812451e-07   4.740649071084408e-06
-2.6962646500024363e-06   -9.862944888812451e-07   4.740649071084408e-06
-3.3460975995493105e-06   -2.5096582328164373e-06   2.968567395353035e-06
-3.3460975995493105e-06   -2.5096582328164373e-06   2.968567395353035e-06
-3.3460975995493105e-06   -2.5096582328164373e-06   2.968567395353035e-06
-3.3460975995493105e-06   -2.5096582328164373e-06   2.968567395353035e-06
-2.0800258490212813e-06   2.554005235017853e-07   6.7377222333572535e-06
-2.0800258490212813e-06   2.554005235017853e-07   6.7377222333572535e-06
-2.0800258490212813e-06   2.554005235017853e-07   6.7377222333572535e-06
-2.0800258490212813e-06   2.554005235017853e-07   6.7377222333572535e-06
-1.8047500006835183e-06   -2.7904768231272795e-06   5.0830477444052365e-06
-1.8047500006835183e-06   -2.7904768231272795e-06   5.0830477444052365e-06
-1.8047500006835183e-06   -2.7904768231272795e-06   5.0830477444052365e-06
-1.8047500006835183e-06   -2.7904768231272795e-06   5.0830477444052365e-06
-3.344798600298372e-06   -2.9835583990791e-07   6.154522820498234e-06
-3.344798600298372e-06   -2.9835583990791e-07   6.154522820498234e-06
-3.344798600298372e-06   -2.9835583990791e-07   6.154522820498234e-06
-3.344798600298372e-06   -2.9835583990791e-07   6.154522820498234e-06
-2.4387716303694157e-06   -1.267589930836711e-06   5.226018325173946e-06
-2.4387716303694157e-06   -1.267589930836711e-06   5.226018325173946e-06
-2.4387716303694157e-06   -1.267589930836711e-06   5.226018325173946e-06
-2.4387716303694157e-06   -1.267589930836711e-06   5.226018325173946e-06
-3.344798600298372e-06   -2.7904768231272795e-06   3.5877751544736948e-06
-3.344798600298372e-06   -2.7904768231272795e-06   3.5877751544736948e-06
-3.344798600298372e-06   -2.7904768231272795e-06   3.5877751544736948e-06
-3.344798600298372e-06   -2.7904768231272795e-06   3.5877751544736948e-06
-1.8047500006835183e-06   -2.9835583990791e-07   7.649795410429776e-06
-1.8047500006835183e-06   -2.9835583990791e-07   7.649795410429776e-06
-1.8047500006835183e-06   -2.9835583990791e-07   7.649795410429776e-06
-1.8047500006835183e-06   -2.9835583990791e-07   7.649795410429776e-06
-1.3821727769986218e-06   -3.1592904291564473e-06   5.574267353197142e-06
-1.3821727769986218e-06   -3.1592904291564473e-06   5.574267353197142e-06
-1.3821727769986218e-06   -3.1592904291564473e-06   5.574267353197142e-06
-1.3821727769986218e-06   -3.1592904291564473e-06   5.574267353197142e-06
-3.3831209051148363e-06   -1.442831335185029e-06   7.879305443674392e-06
-3.3831209051148363e-06   -1.442831335185029e-06   7.879305443674392e-06
-3.3831209051148363e-06   -1.442831335185029e-06   7.879305443674392e-06
-3.3831209051148363e-06   -1.442831335185029e-06   7.879305443674392e-06
-2.2262817939828713e-06   -1.700595390165732e-06   6.105898691442996e-06
-2.2262817939828713e-06   -1.700595390165732e-06   6.105898691442996e-06
-2.2262817939828713e-06   -1.700595390165732e-06   6.105898691442996e-06
-2.2262817939828713e-06   -1.700595390165732e-06   6.105898691442996e-06
-2.577432417800703e-06   -2.4331248663447304e-07   -4.34798537306204e-06
-2.577432417800703e-06   -2.4331248663447304e-07   -4.34798537306204e-06
-2.577432417800703e-06   -2.4331248663447304e-07   -4.34798537306204e-06
-2.577432417800703e-06   -2.4331248663447304e-07   -4.34798537306204e-06
-4.6537342412045907e-07   3.7470917153760875e-07   -4.5707405535845656e-07
-4.6537342412045907e-07   3.7470917153760875e-07   -4.5707405535845656e-07
-4.6537342412045907e-07   3.7470917153760875e-07   -4.5707405535845656e-07
-4.6537342412045907e-07   3.7470917153760875e-07   -4.5707405535845656e-07
2.3585510127615075e-08   -3.3773019579808007e-07   -3.421569842326083e-06
2.3585510127615075e-08   -3.3773019579808007e-07   -3.421569842326083e-06
2.3585510127615075e-08   -3.3773019579808007e-07   -3.421569842326083e-06
2.3585510127615075e-08   -3.3773019579808007e-07   -3.421569842326083e-06
-2.0800258490212813e-06   6.504931635051593e-07   -5.084849259933246e-07
-2.0800258490212813e-06   6.504931635051593e-07   -5.084849259933246e-07
-2.0800258490212813e-06   6.504931635051593e-07   -5.084849259933246e-07
-2.0800258490212813e-06   6.504931635051593e-07   -5.084849259933246e-07
-1.1653489831997803e-06   1.7156251596144576e-07   -1.7455879805032526e-06
-1.1653489831997803e-06   1.7156251596144576e-07   -1.7455879805032526e-06
-1.1653489831997803e-06   1.7156251596144576e-07   -1.7455879805032526e-06
-1.1653489831997803e-06   1.7156251596144576e-07   -1.7455879805032526e-06
-2.0800258490212813e-06   -3.3773019579808007e-07   -4.014503857908188e-06
-2.0800258490212813e-06   -3.3773019579808007e-07   -4.014503857908188e-06
-2.0800258490212813e-06   -3.3773019579808007e-07   -4.014503857908188e-06
-2.0800258490212813e-06   -3.3773019579808007e-07   -4.014503857908188e-06
2.3585510127723495e-08   6.504931635051593e-07   8.444908958867188e-08
2.3585510127723495e-08   6.504931635051593e-07   8.444908958867188e-08
2.3585510127723495e-08   6.504931635051593e-07   8.444908958867188e-08
2.3585510127723495e-08   6.504931635051593e-07   8.444908958867188e-08
2.821515496336229e-07   -4.660478133000504e-07   -3.0769120882997124e-06
2.821515496336229e-07   -4.660478133000504e-07   -3.0769120882997124e-06
2.821515496336229e-07   -4.660478133000504e-07   -3.0769120882997124e-06
2.821515496336229e-07   -4.660478133000504e-07   -3.0769120882997124e-06
-1.8047500006835183e-06   5.628945043622494e-07   -2.1610822836879828e-07
-1.8047500006835183e-06   5.628945043622494e-07   -2.1610822836879828e-07
-1.8047500006835183e-06   5.628945043622494e-07   -2.1610822836879828e-07
-1.8047500006835183e-06   5.628945043622494e-07   -2.1610822836879828e-07
-8.02850594821625e-07   1.1253037325811735e-07   -1.6157220928087281e-06
-8.02850594821625e-07   1.1253037325811735e-07   -1.6157220928087281e-06
-8.02850594821625e-07   1.1253037325811735e-07   -1.6157220928087281e-06
-8.02850594821625e-07   1.1253037325811735e-07   -1.6157220928087281e-06
-1.8047500006835183e-06   -4.660478133000504e-07   -3.694277478897114e-06
-1.8047500006835183e-06   -4.660478133000504e-07   -3.694277478897114e-06
-1.8047500006835183e-06   -4.660478133000504e-07   -3.694277478897114e-06
-1.8047500006835183e-06   -4.660478133000504e-07   -3.694277478897114e-06
2.821515496336229e-07   5.628945043622494e-07   4.012571622286033e-07
2.821515496336229e-07   5.628945043622494e-07   4.012571622286033e-07
2.821515496336229e-07   5.628945043622494e-07   4.012571622286033e-07
2.821515496336229e-07   5.628945043622494e-07   4.012571622286033e-07
6.055125315897452e-07   -6.200603203547809e-07   -2.573906853493412e-06
6.055125315897452e-07   -6.200603203547809e-07   -2.573906853493412e-06
6.055125315897452e-07   -6.200603203547809e-07   -2.573906853493412e-06
6.055125315897452e-07   -6.200603203547809e-07   -2.573906853493412e-06
-1.3821727769986218e-06   4.940541327353416e-07   7.043332229933865e-08
-1.3821727769986218e-06   4.940541327353416e-07   7.043332229933865e-08
-1.3821727769986218e-06   4.940541327353416e-07   7.043332229933865e-08
-1.3821727769986218e-06   4.940541327353416e-07   7.043332229933865e-08
-4.7421013645422647e-07   4.223090408408546e-08   -1.1717438080841415e-06
-4.7421013645422647e-07   4.223090408408546e-08   -1.1717438080841415e-06
-4.7421013645422647e-07   4.223090408408546e-08   -1.1717438080841415e-06
-4.7421013645422647e-07   4.223090408408546e-08   -1.1717438080841415e-06
              </DataArray>   
             <DataArray type="Float64" NumberOfComponents="3" Name="Stress" format="ascii">   
-3.9515062736340782   -0.9878765684085196   -0.9878765684085196
-3.9515062736340782   -0.9878765684085196   -0.9878765684085196
-3.9515062736340782   -0.9878765684085196   -0.9878765684085196
-3.9515062736340782   -0.9878765684085196   -0.9878765684085196
-2.28681355698398   -0.07221399656853789   -0.045756242211085096
-2.28681355698398   -0.07221399656853789   -0.045756242211085096
-2.28681355698398   -0.07221399656853789   -0.045756242211085096
-2.28681355698398   -0.07221399656853789   -0.045756242211085096
-2.4651488037846048   -0.6162872009461512   -0.6162872009461512
-2.4651488037846048   -0.6162872009461512   -0.6162872009461512
-2.4651488037846048   -0.6162872009461512   -0.6162872009461512
-2.4651488037846048   -0.6162872009461512   -0.6162872009461512
-3.8085198077230378   -0.3125743011695488   -0.11947907127349922
-3.8085198077230378   -0.3125743011695488   -0.11947907127349922
-3.8085198077230378   -0.3125743011695488   -0.11947907127349922
-3.8085198077230378   -0.3125743011695488   -0.11947907127349922
-2.9870618471899375   -0.48960009302269797   -0.008235218734979233
-2.9870618471899375   -0.48960009302269797   -0.008235218734979233
-2.9870618471899375   -0.48960009302269797   -0.008235218734979233
-2.9870618471899375   -0.48960009302269797   -0.008235218734979233
-4.1356768147049285   -1.0339192036762321   -1.0339192036762321
-4.1356768147049285   -1.0339192036762321   -1.0339192036762321
-4.1356768147049285   -1.0339192036762321   -1.0339192036762321
-4.1356768147049285   -1.0339192036762321   -1.0339192036762321
-2.215558464718987   0.027491033644265778   -0.012113740208480661
-2.215558464718987   0.027491033644265778   -0.012113740208480661
-2.215558464718987   0.027491033644265778   -0.012113740208480661
-2.215558464718987   0.027491033644265778   -0.012113740208480661
-2.4723095021177643   -0.6180773755294411   -0.6180773755294411
-2.4723095021177643   -0.6180773755294411   -0.6180773755294411
-2.4723095021177643   -0.6180773755294411   -0.6180773755294411
-2.4723095021177643   -0.6180773755294411   -0.6180773755294411
-3.936751087592503   -0.31563797907485375   -0.17510572403195068
-3.936751087592503   -0.31563797907485375   -0.17510572403195068
-3.936751087592503   -0.31563797907485375   -0.17510572403195068
-3.936751087592503   -0.31563797907485375   -0.17510572403195068
-3.098696172098969   -0.46104131690190675   -0.16447033074190442
-3.098696172098969   -0.46104131690190675   -0.16447033074190442
-3.098696172098969   -0.46104131690190675   -0.16447033074190442
-3.098696172098969   -0.46104131690190675   -0.16447033074190442
-4.265113718856832   -1.066278429714208   -1.066278429714208
-4.265113718856832   -1.066278429714208   -1.066278429714208
-4.265113718856832   -1.066278429714208   -1.066278429714208
-4.265113718856832   -1.066278429714208   -1.066278429714208
-2.209313447356047   0.06719649860730412   0.01162902414238226
-2.209313447356047   0.06719649860730412   0.01162902414238226
-2.209313447356047   0.06719649860730412   0.01162902414238226
-2.209313447356047   0.06719649860730412   0.01162902414238226
-2.4712450872651424   -0.6178112718162856   -0.6178112718162856
-2.4712450872651424   -0.6178112718162856   -0.6178112718162856
-2.4712450872651424   -0.6178112718162856   -0.6178112718162856
-2.4712450872651424   -0.6178112718162856   -0.6178112718162856
-4.1657637848564795   -0.27700027177779785   -0.10494584091727799
-4.1657637848564795   -0.27700027177779785   -0.10494584091727799
-4.1657637848564795   -0.27700027177779785   -0.10494584091727799
-4.1657637848564795   -0.27700027177779785   -0.10494584091727799
-3.181605557901567   -0.45393057792223507   -0.29728989781118453
-3.181605557901567   -0.45393057792223507   -0.29728989781118453
-3.181605557901567   -0.45393057792223507   -0.29728989781118453
-3.181605557901567   -0.45393057792223507   -0.29728989781118453
-2.5146883435867324   -0.6286720858966831   -0.6286720858966831
-2.5146883435867324   -0.6286720858966831   -0.6286720858966831
-2.5146883435867324   -0.6286720858966831   -0.6286720858966831
-2.5146883435867324   -0.6286720858966831   -0.6286720858966831
-1.048922031370364   -0.0696373793350015   -0.0226460010663809
-1.048922031370364   -0.0696373793350015   -0.0226460010663809
-1.048922031370364   -0.0696373793350015   -0.0226460010663809
-1.048922031370364   -0.0696373793350015   -0.0226460010663809
-1.101411031799584   -0.275352757949896   -0.275352757949896
-1.101411031799584   -0.275352757949896   -0.275352757949896
-1.101411031799584   -0.275352757949896   -0.275352757949896
-1.101411031799584   -0.275352757949896   -0.275352757949896
-2.289616392520709   -0.2691986129734162   -0.08571373259940535
-2.289616392520709   -0.2691986129734162   -0.08571373259940535
-2.289616392520709   -0.2691986129734162   -0.08571373259940535
-2.289616392520709   -0.2691986129734162   -0.08571373259940535
-1.6885636026230217   -0.31982379972619546   0.013229381230288828
-1.6885636026230217   -0.31982379972619546   0.013229381230288828
-1.6885636026230217   -0.31982379972619546   0.013229381230288828
-1.6885636026230217   -0.31982379972619546   0.013229381230288828
-2.4651488037846025   -0.6162872009461506   -0.6162872009461506
-2.4651488037846025   -0.6162872009461506   -0.6162872009461506
-2.4651488037846025   -0.6162872009461506   -0.6162872009461506
-2.4651488037846025   -0.6162872009461506   -0.6162872009461506
-0.989814976171407   0.007799474387119865   -0.0005247121460265625
-0.989814976171407   0.007799474387119865   -0.0005247121460265625
-0.989814976171407   0.007799474387119865   -0.0005247121460265625
-0.989814976171407   0.007799474387119865   -0.0005247121460265625
-1.0770369915768885   -0.2692592478942221   -0.2692592478942221
-1.0770369915768885   -0.2692592478942221   -0.2692592478942221
-1.0770369915768885   -0.2692592478942221   -0.2692592478942221
-1.0770369915768885   -0.2692592478942221   -0.2692592478942221
-2.2840605076654694   -0.2196645193923147   -0.07524525940509319
-2.2840605076654694   -0.2196645193923147   -0.07524525940509319
-2.2840605076654694   -0.2196645193923147   -0.07524525940509319
-2.2840605076654694   -0.2196645193923147   -0.07524525940509319
-1.665259846314598   -0.2692922035854674   -0.08708898842417445
-1.665259846314598   -0.2692922035854674   -0.08708898842417445
-1.665259846314598   -0.2692922035854674   -0.08708898842417445
-1.665259846314598   -0.2692922035854674   -0.08708898842417445
-2.4723095021177643   -0.6180773755294411   -0.6180773755294411
-2.4723095021177643   -0.6180773755294411   -0.6180773755294411
-2.4723095021177643   -0.6180773755294411   -0.6180773755294411
-2.4723095021177643   -0.6180773755294411   -0.6180773755294411
-0.9507132982520424   0.06722830711545681   0.0258716637203375
-0.9507132982520424   0.06722830711545681   0.0258716637203375
-0.9507132982520424   0.06722830711545681   0.0258716637203375
-0.9507132982520424   0.06722830711545681   0.0258716637203375
-1.0548769688253241   -0.26371924220633103   -0.26371924220633103
-1.0548769688253241   -0.26371924220633103   -0.26371924220633103
-1.0548769688253241   -0.26371924220633103   -0.26371924220633103
-1.0548769688253241   -0.26371924220633103   -0.26371924220633103
-2.267503945006821   -0.16955704769313365   -0.04735978464786006
-2.267503945006821   -0.16955704769313365   -0.04735978464786006
-2.267503945006821   -0.16955704769313365   -0.04735978464786006
-2.267503945006821   -0.16955704769313365   -0.04735978464786006
-1.6737194715158124   -0.23836648598365656   -0.1940613119734589
-1.6737194715158124   -0.23836648598365656   -0.1940613119734589
-1.6737194715158124   -0.23836648598365656   -0.1940613119734589
-1.6737194715158124   -0.23836648598365656   -0.1940613119734589
-1.1449615058778766   -0.28624037646946915   -0.28624037646946915
-1.1449615058778766   -0.28624037646946915   -0.28624037646946915
-1.1449615058778766   -0.28624037646946915   -0.28624037646946915
-1.1449615058778766   -0.28624037646946915   -0.28624037646946915
0.1364424205677512   0.009022211417242373   0.0011091667793092577
0.1364424205677512   0.009022211417242373   0.0011091667793092577
0.1364424205677512   0.009022211417242373   0.0011091667793092577
0.1364424205677512   0.009022211417242373   0.0011091667793092577
0.17705279682304562   0.044263199205761404   0.044263199205761404
0.17705279682304562   0.044263199205761404   0.044263199205761404
0.17705279682304562   0.044263199205761404   0.044263199205761404
0.17705279682304562   0.044263199205761404   0.044263199205761404
-1.0354269796483198   -0.17897145024041666   -0.04181380490305481
-1.0354269796483198   -0.17897145024041666   -0.04181380490305481
-1.0354269796483198   -0.17897145024041666   -0.04181380490305481
-1.0354269796483198   -0.17897145024041666   -0.04181380490305481
-0.44296848020902074   -0.11238331072087124   0.07533550504913208
-0.44296848020902074   -0.11238331072087124   0.07533550504913208
-0.44296848020902074   -0.11238331072087124   0.07533550504913208
-0.44296848020902074   -0.11238331072087124   0.07533550504913208
-1.1014110317995858   -0.27535275794989644   -0.27535275794989644
-1.1014110317995858   -0.27535275794989644   -0.27535275794989644
-1.1014110317995858   -0.27535275794989644   -0.27535275794989644
-1.1014110317995858   -0.27535275794989644   -0.27535275794989644
0.18017882390030063   0.07778648184123142   0.02637005195656505
0.18017882390030063   0.07778648184123142   0.02637005195656505
0.18017882390030063   0.07778648184123142   0.02637005195656505
0.18017882390030063   0.07778648184123142   0.02637005195656505
0.19888903207556902   0.049722258018892254   0.049722258018892254
0.19888903207556902   0.049722258018892254   0.049722258018892254
0.19888903207556902   0.049722258018892254   0.049722258018892254
0.19888903207556902   0.049722258018892254   0.049722258018892254
-0.9990528349380756   -0.12055461151466859   -0.028043101079717775
-0.9990528349380756   -0.12055461151466859   -0.028043101079717775
-0.9990528349380756   -0.12055461151466859   -0.028043101079717775
-0.9990528349380756   -0.12055461151466859   -0.028043101079717775
-0.4251672322833068   -0.06949136140227716   -0.025670300635223353
-0.4251672322833068   -0.06949136140227716   -0.025670300635223353
-0.4251672322833068   -0.06949136140227716   -0.025670300635223353
-0.4251672322833068   -0.06949136140227716   -0.025670300635223353
-1.0770369915768905   -0.2692592478942226   -0.2692592478942226
-1.0770369915768905   -0.2692592478942226   -0.2692592478942226
-1.0770369915768905   -0.2692592478942226   -0.2692592478942226
-1.0770369915768905   -0.2692592478942226   -0.2692592478942226
0.21527984617374812   0.13683355185781312   0.04456503467086524
0.21527984617374812   0.13683355185781312   0.04456503467086524
0.21527984617374812   0.13683355185781312   0.04456503467086524
0.21527984617374812   0.13683355185781312   0.04456503467086524
0.22833901788734215   0.05708475447183554   0.05708475447183554
0.22833901788734215   0.05708475447183554   0.05708475447183554
0.22833901788734215   0.05708475447183554   0.05708475447183554
0.22833901788734215   0.05708475447183554   0.05708475447183554
-0.959463112880068   -0.05087103671502259   0.0005018320286365174
-0.959463112880068   -0.05087103671502259   0.0005018320286365174
-0.959463112880068   -0.05087103671502259   0.0005018320286365174
-0.959463112880068   -0.05087103671502259   0.0005018320286365174
-0.412697496578194   -0.028142453585505073   -0.1257745885039856
-0.412697496578194   -0.028142453585505073   -0.1257745885039856
-0.412697496578194   -0.028142453585505073   -0.1257745885039856
-0.412697496578194   -0.028142453585505073   -0.1257745885039856
0.14935127214271232   0.03733781803567808   0.03733781803567808
0.14935127214271232   0.03733781803567808   0.03733781803567808
0.14935127214271232   0.03733781803567808   0.03733781803567808
0.14935127214271232   0.03733781803567808   0.03733781803567808
1.4338406583699848   0.1315306426440631   0.04408411248340621
1.4338406583699848   0.1315306426440631   0.04408411248340621
1.4338406583699848   0.1315306426440631   0.04408411248340621
1.4338406583699848   0.1315306426440631   0.04408411248340621
1.556608571830106   0.3891521429575265   0.3891521429575265
1.556608571830106   0.3891521429575265   0.3891521429575265
1.556608571830106   0.3891521429575265   0.3891521429575265
1.556608571830106   0.3891521429575265   0.3891521429575265
0.1349106010722252   -0.10098578411611359   -0.02119879622646713
0.1349106010722252   -0.10098578411611359   -0.02119879622646713
0.1349106010722252   -0.10098578411611359   -0.02119879622646713
0.1349106010722252   -0.10098578411611359   -0.02119879622646713
0.8177635405273254   0.10179798636631718   0.1486100673314687
0.8177635405273254   0.10179798636631718   0.1486100673314687
0.8177635405273254   0.10179798636631718   0.1486100673314687
0.8177635405273254   0.10179798636631718   0.1486100673314687
0.17705279682304623   0.04426319920576156   0.04426319920576156
0.17705279682304623   0.04426319920576156   0.04426319920576156
0.17705279682304623   0.04426319920576156   0.04426319920576156
0.17705279682304623   0.04426319920576156   0.04426319920576156
1.450578600226943   0.1800153837833112   0.06813904411593885
1.450578600226943   0.1800153837833112   0.06813904411593885
1.450578600226943   0.1800153837833112   0.06813904411593885
1.450578600226943   0.1800153837833112   0.06813904411593885
1.549695614897632   0.387423903724408   0.387423903724408
1.549695614897632   0.387423903724408   0.387423903724408
1.549695614897632   0.387423903724408   0.387423903724408
1.549695614897632   0.387423903724408   0.387423903724408
0.1702354497069002   -0.04387289712933309   4.95013237718743e-05
0.1702354497069002   -0.04387289712933309   4.95013237718743e-05
0.1702354497069002   -0.04387289712933309   4.95013237718743e-05
0.1702354497069002   -0.04387289712933309   4.95013237718743e-05
0.8114777096373654   0.13350776205774936   0.03869685975755158
0.8114777096373654   0.13350776205774936   0.03869685975755158
0.8114777096373654   0.13350776205774936   0.03869685975755158
0.8114777096373654   0.13350776205774936   0.03869685975755158
0.19888903207556938   0.049722258018892344   0.049722258018892344
0.19888903207556938   0.049722258018892344   0.049722258018892344
0.19888903207556938   0.049722258018892344   0.049722258018892344
0.19888903207556938   0.049722258018892344   0.049722258018892344
1.4577668425917645   0.23055355863898636   0.08465038728050467
1.4577668425917645   0.23055355863898636   0.08465038728050467
1.4577668425917645   0.23055355863898636   0.08465038728050467
1.4577668425917645   0.23055355863898636   0.08465038728050467
1.5794719632864358   0.39486799082160895   0.39486799082160895
1.5794719632864358   0.39486799082160895   0.39486799082160895
1.5794719632864358   0.39486799082160895   0.39486799082160895
1.5794719632864358   0.39486799082160895   0.39486799082160895
0.2166080747020468   0.031709019176858456   0.02380577384033405
0.2166080747020468   0.031709019176858456   0.02380577384033405
0.2166080747020468   0.031709019176858456   0.02380577384033405
0.2166080747020468   0.031709019176858456   0.02380577384033405
0.8238297265288509   0.18105502020199632   -0.0632186271222539
0.8238297265288509   0.18105502020199632   -0.0632186271222539
0.8238297265288509   0.18105502020199632   -0.0632186271222539
0.8238297265288509   0.18105502020199632   -0.0632186271222539
1.5541307859383289   0.3885326964845822   0.3885326964845822
1.5541307859383289   0.3885326964845822   0.3885326964845822
1.5541307859383289   0.3885326964845822   0.3885326964845822
1.5541307859383289   0.3885326964845822   0.3885326964845822
3.222339121190076   0.24554808361859187   0.08392094219236845
3.222339121190076   0.24554808361859187   0.08392094219236845
3.222339121190076   0.24554808361859187   0.08392094219236845
3.222339121190076   0.24554808361859187   0.08392094219236845
3.2934194640247374   0.8233548660061843   0.8233548660061843
3.2934194640247374   0.8233548660061843   0.8233548660061843
3.2934194640247374   0.8233548660061843   0.8233548660061843
3.2934194640247374   0.8233548660061843   0.8233548660061843
1.3836019438832041   -0.07871591239723465   -0.008012941422209707
1.3836019438832041   -0.07871591239723465   -0.008012941422209707
1.3836019438832041   -0.07871591239723465   -0.008012941422209707
1.3836019438832041   -0.07871591239723465   -0.008012941422209707
2.2983482462267077   0.32521153925151536   0.25954162946512394
2.2983482462267077   0.32521153925151536   0.25954162946512394
2.2983482462267077   0.32521153925151536   0.25954162946512394
2.2983482462267077   0.32521153925151536   0.25954162946512394
1.5566085718301046   0.38915214295752615   0.38915214295752615
1.5566085718301046   0.38915214295752615   0.38915214295752615
1.5566085718301046   0.38915214295752615   0.38915214295752615
1.5566085718301046   0.38915214295752615   0.38915214295752615
3.051940823325826   0.28701479789941137   0.1523017306183988
3.051940823325826   0.28701479789941137   0.1523017306183988
3.051940823325826   0.28701479789941137   0.1523017306183988
3.051940823325826   0.28701479789941137   0.1523017306183988
3.1947432634915773   0.7986858158728943   0.7986858158728943
3.1947432634915773   0.7986858158728943   0.7986858158728943
3.1947432634915773   0.7986858158728943   0.7986858158728943
3.1947432634915773   0.7986858158728943   0.7986858158728943
1.3882088682600782   -0.0435399555873712   0.010954029848429414
1.3882088682600782   -0.0435399555873712   0.010954029848429414
1.3882088682600782   -0.0435399555873712   0.010954029848429414
1.3882088682600782   -0.0435399555873712   0.010954029848429414
2.2299066683643733   0.33452527438279467   0.12446643796529033
2.2299066683643733   0.33452527438279467   0.12446643796529033
2.2299066683643733   0.33452527438279467   0.12446643796529033
2.2299066683643733   0.33452527438279467   0.12446643796529033
1.549695614897632   0.387423903724408   0.387423903724408
1.549695614897632   0.387423903724408   0.387423903724408
1.549695614897632   0.387423903724408   0.387423903724408
1.549695614897632   0.387423903724408   0.387423903724408
2.9534224864668355   0.28788792617392955   0.10287982044817578
2.9534224864668355   0.28788792617392955   0.10287982044817578
2.9534224864668355   0.28788792617392955   0.10287982044817578
2.9534224864668355   0.28788792617392955   0.10287982044817578
3.0480142561548296   0.7620035640387074   0.7620035640387074
3.0480142561548296   0.7620035640387074   0.7620035640387074
3.0480142561548296   0.7620035640387074   0.7620035640387074
3.0480142561548296   0.7620035640387074   0.7620035640387074
1.4393313350005328   0.04515022181604955   0.04388261839767177
1.4393313350005328   0.04515022181604955   0.04388261839767177
1.4393313350005328   0.04515022181604955   0.04388261839767177
1.4393313350005328   0.04515022181604955   0.04388261839767177
2.134974450602765   0.36262613192194093   -0.03260108877613421
2.134974450602765   0.36262613192194093   -0.03260108877613421
2.134974450602765   0.36262613192194093   -0.03260108877613421
2.134974450602765   0.36262613192194093   -0.03260108877613421
-3.1252127200465405   -0.22375327024967834   0.03494655244577316
-3.1252127200465405   -0.22375327024967834   0.03494655244577316
-3.1252127200465405   -0.22375327024967834   0.03494655244577316
-3.1252127200465405   -0.22375327024967834   0.03494655244577316
-1.9890134777285355   -0.04566221640073147   -0.012780718532779123
-1.9890134777285355   -0.04566221640073147   -0.012780718532779123
-1.9890134777285355   -0.04566221640073147   -0.012780718532779123
-1.9890134777285355   -0.04566221640073147   -0.012780718532779123
-2.002683547674847   0.08082424675799904   0.04167740831604888
-2.002683547674847   0.08082424675799904   0.04167740831604888
-2.002683547674847   0.08082424675799904   0.04167740831604888
-2.002683547674847   0.08082424675799904   0.04167740831604888
-3.171840123977315   -0.21624185428373316   -0.03745415878451097
-3.171840123977315   -0.21624185428373316   -0.03745415878451097
-3.171840123977315   -0.21624185428373316   -0.03745415878451097
-3.171840123977315   -0.21624185428373316   -0.03745415878451097
-2.4709456551091327   -0.08431372013937552   -0.009674099431925653
-2.4709456551091327   -0.08431372013937552   -0.009674099431925653
-2.4709456551091327   -0.08431372013937552   -0.009674099431925653
-2.4709456551091327   -0.08431372013937552   -0.009674099431925653
-3.1488905893120522   -0.1537852593175311   0.01483691957560318
-3.1488905893120522   -0.1537852593175311   0.01483691957560318
-3.1488905893120522   -0.1537852593175311   0.01483691957560318
-3.1488905893120522   -0.1537852593175311   0.01483691957560318
-2.0289725270710175   0.015028207060896914   -0.023971448967666065
-2.0289725270710175   0.015028207060896914   -0.023971448967666065
-2.0289725270710175   0.015028207060896914   -0.023971448967666065
-2.0289725270710175   0.015028207060896914   -0.023971448967666065
-2.0052065551442375   0.11519141585074158   0.047496718147763684
-2.0052065551442375   0.11519141585074158   0.047496718147763684
-2.0052065551442375   0.11519141585074158   0.047496718147763684
-2.0052065551442375   0.11519141585074158   0.047496718147763684
-3.1912583382718633   -0.19052163489488838   -0.0494571538344184
-3.1912583382718633   -0.19052163489488838   -0.0494571538344184
-3.1912583382718633   -0.19052163489488838   -0.0494571538344184
-3.1912583382718633   -0.19052163489488838   -0.0494571538344184
-2.5405048759723075   -0.056499070493642806   -0.024034014191034347
-2.5405048759723075   -0.056499070493642806   -0.024034014191034347
-2.5405048759723075   -0.056499070493642806   -0.024034014191034347
-2.5405048759723075   -0.056499070493642806   -0.024034014191034347
-3.134086102345659   -0.09242279919896529   0.1383051901006509
-3.134086102345659   -0.09242279919896529   0.1383051901006509
-3.134086102345659   -0.09242279919896529   0.1383051901006509
-3.134086102345659   -0.09242279919896529   0.1383051901006509
-2.0385328232288313   0.04093854799642754   -0.04488175442087072
-2.0385328232288313   0.04093854799642754   -0.04488175442087072
-2.0385328232288313   0.04093854799642754   -0.04488175442087072
-2.0385328232288313   0.04093854799642754   -0.04488175442087072
-1.968885875586286   0.20064533959861494   0.08640430669459631
-1.968885875586286   0.20064533959861494   0.08640430669459631
-1.968885875586286   0.20064533959861494   0.08640430669459631
-1.968885875586286   0.20064533959861494   0.08640430669459631
-3.1033489094648092   -0.15384555273478667   -0.08096410309057211
-3.1033489094648092   -0.15384555273478667   -0.08096410309057211
-3.1033489094648092   -0.15384555273478667   -0.08096410309057211
-3.1033489094648092   -0.15384555273478667   -0.08096410309057211
-2.4435592071653027   0.022663983360521917   0.05411047245609557
-2.4435592071653027   0.022663983360521917   0.05411047245609557
-2.4435592071653027   0.022663983360521917   0.05411047245609557
-2.4435592071653027   0.022663983360521917   0.05411047245609557
-2.0384927964765467   -0.27015853156473   -0.035680997108836876
-2.0384927964765467   -0.27015853156473   -0.035680997108836876
-2.0384927964765467   -0.27015853156473   -0.035680997108836876
-2.0384927964765467   -0.27015853156473   -0.035680997108836876
-0.9388230081262897   -0.020722197381628733   0.010000182813519248
-0.9388230081262897   -0.020722197381628733   0.010000182813519248
-0.9388230081262897   -0.020722197381628733   0.010000182813519248
-0.9388230081262897   -0.020722197381628733   0.010000182813519248
-0.9527111823887604   0.018156150512752697   0.014154874699491005
-0.9527111823887604   0.018156150512752697   0.014154874699491005
-0.9527111823887604   0.018156150512752697   0.014154874699491005
-0.9527111823887604   0.018156150512752697   0.014154874699491005
-2.0789779137810385   -0.19777417749481502   -0.061195997962096516
-2.0789779137810385   -0.19777417749481502   -0.061195997962096516
-2.0789779137810385   -0.19777417749481502   -0.061195997962096516
-2.0789779137810385   -0.19777417749481502   -0.061195997962096516
-1.502198546052191   -0.12189703214092502   -0.03437460480878157
-1.502198546052191   -0.12189703214092502   -0.03437460480878157
-1.502198546052191   -0.12189703214092502   -0.03437460480878157
-1.502198546052191   -0.12189703214092502   -0.03437460480878157
-2.0770467657504303   -0.2161706901335468   -0.033143745170332584
-2.0770467657504303   -0.2161706901335468   -0.033143745170332584
-2.0770467657504303   -0.2161706901335468   -0.033143745170332584
-2.0770467657504303   -0.2161706901335468   -0.033143745170332584
-0.9509345480242318   0.04026044554661919   0.0009337514882599429
-0.9509345480242318   0.04026044554661919   0.0009337514882599429
-0.9509345480242318   0.04026044554661919   0.0009337514882599429
-0.9509345480242318   0.04026044554661919   0.0009337514882599429
-0.9492469748682933   0.06620108093288926   0.019269209423750572
-0.9492469748682933   0.06620108093288926   0.019269209423750572
-0.9492469748682933   0.06620108093288926   0.019269209423750572
-0.9492469748682933   0.06620108093288926   0.019269209423750572
-2.0799799941053734   -0.14500039751704735   -0.06617866329012739
-2.0799799941053734   -0.14500039751704735   -0.06617866329012739
-2.0799799941053734   -0.14500039751704735   -0.06617866329012739
-2.0799799941053734   -0.14500039751704735   -0.06617866329012739
-1.4994127463696993   -0.06786715366092844   -0.016337460865044617
-1.4994127463696993   -0.06786715366092844   -0.016337460865044617
-1.4994127463696993   -0.06786715366092844   -0.016337460865044617
-1.4994127463696993   -0.06786715366092844   -0.016337460865044617
-2.0718687999616185   -0.16358478665683887   -0.007038303431561088
-2.0718687999616185   -0.16358478665683887   -0.007038303431561088
-2.0718687999616185   -0.16358478665683887   -0.007038303431561088
-2.0718687999616185   -0.16358478665683887   -0.007038303431561088
-0.9504749619125913   0.09166867717213967   -0.012338322036982347
-0.9504749619125913   0.09166867717213967   -0.012338322036982347
-0.9504749619125913   0.09166867717213967   -0.012338322036982347
-0.9504749619125913   0.09166867717213967   -0.012338322036982347
-0.9334699882664415   0.11447565983686199   0.038769796261738765
-0.9334699882664415   0.11447565983686199   0.038769796261738765
-0.9334699882664415   0.11447565983686199   0.038769796261738765
-0.9334699882664415   0.11447565983686199   0.038769796261738765
-2.057848639440141   -0.08402628809469831   -0.0737378848813579
-2.057848639440141   -0.08402628809469831   -0.0737378848813579
-2.057848639440141   -0.08402628809469831   -0.0737378848813579
-2.057848639440141   -0.08402628809469831   -0.0737378848813579
-1.4932861498543328   -0.016740646181891722   0.007502932712860955
-1.4932861498543328   -0.016740646181891722   0.007502932712860955
-1.4932861498543328   -0.016740646181891722   0.007502932712860955
-1.4932861498543328   -0.016740646181891722   0.007502932712860955
-0.9900379571744838   -0.22487920787406981   -0.04191755193501859
-0.9900379571744838   -0.22487920787406981   -0.04191755193501859
-0.9900379571744838   -0.22487920787406981   -0.04191755193501859
-0.9900379571744838   -0.22487920787406981   -0.04191755193501859
0.10327062977804422   0.023481148796438617   0.038569560415075456
0.10327062977804422   0.023481148796438617   0.038569560415075456
0.10327062977804422   0.023481148796438617   0.038569560415075456
0.10327062977804422   0.023481148796438617   0.038569560415075456
0.09847427110577306   0.056785187303860694   0.00306813206423711
0.09847427110577306   0.056785187303860694   0.00306813206423711
0.09847427110577306   0.056785187303860694   0.00306813206423711
0.09847427110577306   0.056785187303860694   0.00306813206423711
-0.9943299098206798   -0.14902154491527297   -0.02676106703208761
-0.9943299098206798   -0.14902154491527297   -0.02676106703208761
-0.9943299098206798   -0.14902154491527297   -0.02676106703208761
-0.9943299098206798   -0.14902154491527297   -0.02676106703208761
-0.4499635545618329   -0.074516465739835   -0.014203675972644353
-0.4499635545618329   -0.074516465739835   -0.014203675972644353
-0.4499635545618329   -0.074516465739835   -0.014203675972644353
-0.4499635545618329   -0.074516465739835   -0.014203675972644353
-1.0012051263455948   -0.17149671459470622   -0.03866197997722956
-1.0012051263455948   -0.17149671459470622   -0.03866197997722956
-1.0012051263455948   -0.17149671459470622   -0.03866197997722956
-1.0012051263455948   -0.17149671459470622   -0.03866197997722956
0.10917870979506135   0.08308957914766704   0.03028593366687137
0.10917870979506135   0.08308957914766704   0.03028593366687137
0.10917870979506135   0.08308957914766704   0.03028593366687137
0.10917870979506135   0.08308957914766704   0.03028593366687137
0.10613232529978908   0.10967888741926203   0.017939233352068863
0.10613232529978908   0.10967888741926203   0.017939233352068863
0.10613232529978908   0.10967888741926203   0.017939233352068863
0.10613232529978908   0.10967888741926203   0.017939233352068863
-0.991221315782624   -0.09102143586856601   -0.033379978346455924
-0.991221315782624   -0.09102143586856601   -0.033379978346455924
-0.991221315782624   -0.09102143586856601   -0.033379978346455924
-0.991221315782624   -0.09102143586856601   -0.033379978346455924
-0.4430195723256522   -0.018297581874660622   0.005321497143498555
-0.4430195723256522   -0.018297581874660622   0.005321497143498555
-0.4430195723256522   -0.018297581874660622   0.005321497143498555
-0.4430195723256522   -0.018297581874660622   0.005321497143498555
-0.9938696928116482   -0.11786501895455653   -0.019778280405586657
-0.9938696928116482   -0.11786501895455653   -0.019778280405586657
-0.9938696928116482   -0.11786501895455653   -0.019778280405586657
-0.9938696928116482   -0.11786501895455653   -0.019778280405586657
0.11289993816831989   0.14064170634475912   0.02081447876922586
0.11289993816831989   0.14064170634475912   0.02081447876922586
0.11289993816831989   0.14064170634475912   0.02081447876922586
0.11289993816831989   0.14064170634475912   0.02081447876922586
0.10849971077634596   0.1685308552651018   0.029548468272842552
0.10849971077634596   0.1685308552651018   0.029548468272842552
0.10849971077634596   0.1685308552651018   0.029548468272842552
0.10849971077634596   0.1685308552651018   0.029548468272842552
-0.9783299976819569   -0.02900960529474665   -0.042044985684233094
-0.9783299976819569   -0.02900960529474665   -0.042044985684233094
-0.9783299976819569   -0.02900960529474665   -0.042044985684233094
-0.9783299976819569   -0.02900960529474665   -0.042044985684233094
-0.43200983973847545   0.04049480587694476   0.02669654572236689
-0.43200983973847545   0.04049480587694476   0.02669654572236689
-0.43200983973847545   0.04049480587694476   0.02669654572236689
-0.43200983973847545   0.04049480587694476   0.02669654572236689
0.04761218905518363   -0.16481681049678013   -0.05142468390600875
0.04761218905518363   -0.16481681049678013   -0.05142468390600875
0.04761218905518363   -0.16481681049678013   -0.05142468390600875
0.04761218905518363   -0.16481681049678013   -0.05142468390600875
1.18021505478085   0.08151971901246688   0.07075159315082799
1.18021505478085   0.08151971901246688   0.07075159315082799
1.18021505478085   0.08151971901246688   0.07075159315082799
1.18021505478085   0.08151971901246688   0.07075159315082799
1.1787219334941001   0.10975738480149756   -0.011294284060284265
1.1787219334941001   0.10975738480149756   -0.011294284060284265
1.1787219334941001   0.10975738480149756   -0.011294284060284265
1.1787219334941001   0.10975738480149756   -0.011294284060284265
0.06809241479804065   -0.09907804152529344   0.007022079354728334
0.06809241479804065   -0.09907804152529344   0.007022079354728334
0.06809241479804065   -0.09907804152529344   0.007022079354728334
0.06809241479804065   -0.09907804152529344   0.007022079354728334
0.6110429002712072   -0.014081910123756813   0.001325320550047665
0.6110429002712072   -0.014081910123756813   0.001325320550047665
0.6110429002712072   -0.014081910123756813   0.001325320550047665
0.6110429002712072   -0.014081910123756813   0.001325320550047665
0.05473979851433529   -0.12045332841684728   -0.038365715172243756
0.05473979851433529   -0.12045332841684728   -0.038365715172243756
0.05473979851433529   -0.12045332841684728   -0.038365715172243756
0.05473979851433529   -0.12045332841684728   -0.038365715172243756
1.1989509232859838   0.13800904520122997   0.061599004499402255
1.1989509232859838   0.13800904520122997   0.061599004499402255
1.1989509232859838   0.13800904520122997   0.061599004499402255
1.1989509232859838   0.13800904520122997   0.061599004499402255
1.1879539724696486   0.1620657453333605   0.012024190874489471
1.1879539724696486   0.1620657453333605   0.012024190874489471
1.1879539724696486   0.1620657453333605   0.012024190874489471
1.1879539724696486   0.1620657453333605   0.012024190874489471
0.07045409710561722   -0.04724676291581491   -0.0035262572837134673
0.07045409710561722   -0.04724676291581491   -0.0035262572837134673
0.07045409710561722   -0.04724676291581491   -0.0035262572837134673
0.07045409710561722   -0.04724676291581491   -0.0035262572837134673
0.6191312266471397   0.03592166194721201   0.025321172554149285
0.6191312266471397   0.03592166194721201   0.025321172554149285
0.6191312266471397   0.03592166194721201   0.025321172554149285
0.6191312266471397   0.03592166194721201   0.025321172554149285
0.06073535341977141   -0.07138013698105392   -0.027986601647703502
0.06073535341977141   -0.07138013698105392   -0.027986601647703502
0.06073535341977141   -0.07138013698105392   -0.027986601647703502
0.06073535341977141   -0.07138013698105392   -0.027986601647703502
1.2026477967116327   0.19117419995473764   0.056384857463033705
1.2026477967116327   0.19117419995473764   0.056384857463033705
1.2026477967116327   0.19117419995473764   0.056384857463033705
1.2026477967116327   0.19117419995473764   0.056384857463033705
1.168826955065155   0.2224395625946775   0.025239610566320958
1.168826955065155   0.2224395625946775   0.025239610566320958
1.168826955065155   0.2224395625946775   0.025239610566320958
1.168826955065155   0.2224395625946775   0.025239610566320958
0.06976618146554814   0.01696024235352964   -0.012548565369574386
0.06976618146554814   0.01696024235352964   -0.012548565369574386
0.06976618146554814   0.01696024235352964   -0.012548565369574386
0.06976618146554814   0.01696024235352964   -0.012548565369574386
0.6282204708348011   0.09309054202183432   0.047527942407655635
0.6282204708348011   0.09309054202183432   0.047527942407655635
0.6282204708348011   0.09309054202183432   0.047527942407655635
0.6282204708348011   0.09309054202183432   0.047527942407655635
1.0873191923931849   -0.2172347421118873   -0.09497325766314385
1.0873191923931849   -0.2172347421118873   -0.09497325766314385
1.0873191923931849   -0.2172347421118873   -0.09497325766314385
1.0873191923931849   -0.2172347421118873   -0.09497325766314385
2.238440678196738   0.14784735678400196   0.06882763763822358
2.238440678196738   0.14784735678400196   0.06882763763822358
2.238440678196738   0.14784735678400196   0.06882763763822358
2.238440678196738   0.14784735678400196   0.06882763763822358
2.263683485978152   0.0703323166577601   -0.14285333824218382
2.263683485978152   0.0703323166577601   -0.14285333824218382
2.263683485978152   0.0703323166577601   -0.14285333824218382
2.263683485978152   0.0703323166577601   -0.14285333824218382
1.1583110201871416   -0.04471525685265169   0.04112379105906255
1.1583110201871416   -0.04471525685265169   0.04112379105906255
1.1583110201871416   -0.04471525685265169   0.04112379105906255
1.1583110201871416   -0.04471525685265169   0.04112379105906255
1.6030923241298947   -0.027893583374971123   -0.04002148831307123
1.6030923241298947   -0.027893583374971123   -0.04002148831307123
1.6030923241298947   -0.027893583374971123   -0.04002148831307123
1.6030923241298947   -0.027893583374971123   -0.04002148831307123
1.1178621632799668   -0.1428570252494407   -0.06297872508000657
1.1178621632799668   -0.1428570252494407   -0.06297872508000657
1.1178621632799668   -0.1428570252494407   -0.06297872508000657
1.1178621632799668   -0.1428570252494407   -0.06297872508000657
2.324665356849962   0.18900709901919122   0.04338123375545633
2.324665356849962   0.18900709901919122   0.04338123375545633
2.324665356849962   0.18900709901919122   0.04338123375545633
2.324665356849962   0.18900709901919122   0.04338123375545633
2.288498901633947   0.12788471089348352   -0.03221267112116255
2.288498901633947   0.12788471089348352   -0.03221267112116255
2.288498901633947   0.12788471089348352   -0.03221267112116255
2.288498901633947   0.12788471089348352   -0.03221267112116255
1.1535892404890844   -0.018882152162289043   0.02114842846731818
1.1535892404890844   -0.018882152162289043   0.02114842846731818
1.1535892404890844   -0.018882152162289043   0.02114842846731818
1.1535892404890844   -0.018882152162289043   0.02114842846731818
1.6868685724369032   0.042128116302528065   0.027697526420187857
1.6868685724369032   0.042128116302528065   0.027697526420187857
1.6868685724369032   0.042128116302528065   0.027697526420187857
1.6868685724369032   0.042128116302528065   0.027697526420187857
1.121154920204886   -0.10926884682607185   -0.05063647828988188
1.121154920204886   -0.10926884682607185   -0.05063647828988188
1.121154920204886   -0.10926884682607185   -0.05063647828988188
1.121154920204886   -0.10926884682607185   -0.05063647828988188
2.3182034750281906   0.2155416586673165   0.028653248076240034
2.3182034750281906   0.2155416586673165   0.028653248076240034
2.3182034750281906   0.2155416586673165   0.028653248076240034
2.3182034750281906   0.2155416586673165   0.028653248076240034
2.2845319395202646   0.19554025438049596   -0.04936782329982625
2.2845319395202646   0.19554025438049596   -0.04936782329982625
2.2845319395202646   0.19554025438049596   -0.04936782329982625
2.2845319395202646   0.19554025438049596   -0.04936782329982625
1.1297737736260098   0.040698377591929395   0.01171488837334747
1.1297737736260098   0.040698377591929395   0.01171488837334747
1.1297737736260098   0.040698377591929395   0.01171488837334747
1.1297737736260098   0.040698377591929395   0.01171488837334747
1.64363884336099   0.07377938159526752   0.02046828926164368
1.64363884336099   0.07377938159526752   0.02046828926164368
1.64363884336099   0.07377938159526752   0.02046828926164368
1.64363884336099   0.07377938159526752   0.02046828926164368
-2.4580074903467466   -0.11165909110223743   0.12622892057790192
-2.4580074903467466   -0.11165909110223743   0.12622892057790192
-2.4580074903467466   -0.11165909110223743   0.12622892057790192
-2.4580074903467466   -0.11165909110223743   0.12622892057790192
-1.6319293904953578   -0.061802422903708285   -0.03284538887027294
-1.6319293904953578   -0.061802422903708285   -0.03284538887027294
-1.6319293904953578   -0.061802422903708285   -0.03284538887027294
-1.6319293904953578   -0.061802422903708285   -0.03284538887027294
-1.573252448234329   0.13215343619896497   0.10593461788600139
-1.573252448234329   0.13215343619896497   0.10593461788600139
-1.573252448234329   0.13215343619896497   0.10593461788600139
-1.573252448234329   0.13215343619896497   0.10593461788600139
-2.469386234055205   -0.17622699360838773   -0.05148500283183188
-2.469386234055205   -0.17622699360838773   -0.05148500283183188
-2.469386234055205   -0.17622699360838773   -0.05148500283183188
-2.469386234055205   -0.17622699360838773   -0.05148500283183188
-1.950555671976198   -0.03016357425428584   -0.003460071683092425
-1.950555671976198   -0.03016357425428584   -0.003460071683092425
-1.950555671976198   -0.03016357425428584   -0.003460071683092425
-1.950555671976198   -0.03016357425428584   -0.003460071683092425
-2.4007943044447453   -0.026243606914918893   0.1414912585269983
-2.4007943044447453   -0.026243606914918893   0.1414912585269983
-2.4007943044447453   -0.026243606914918893   0.1414912585269983
-2.4007943044447453   -0.026243606914918893   0.1414912585269983
-1.6310380803682631   -0.007023653017978096   -0.043816453566725644
-1.6310380803682631   -0.007023653017978096   -0.043816453566725644
-1.6310380803682631   -0.007023653017978096   -0.043816453566725644
-1.6310380803682631   -0.007023653017978096   -0.043816453566725644
-1.5668837146629386   0.16388839063972288   0.09821835022971331
-1.5668837146629386   0.16388839063972288   0.09821835022971331
-1.5668837146629386   0.16388839063972288   0.09821835022971331
-1.5668837146629386   0.16388839063972288   0.09821835022971331
-2.431258667691448   -0.1474659068695184   -0.07051339062424689
-2.431258667691448   -0.1474659068695184   -0.07051339062424689
-2.431258667691448   -0.1474659068695184   -0.07051339062424689
-2.431258667691448   -0.1474659068695184   -0.07051339062424689
-1.9548049549211295   0.007123745421255573   0.022598871120775244
-1.9548049549211295   0.007123745421255573   0.022598871120775244
-1.9548049549211295   0.007123745421255573   0.022598871120775244
-1.9548049549211295   0.007123745421255573   0.022598871120775244
-2.3673763833041854   0.003693843128367569   0.09773828131418327
-2.3673763833041854   0.003693843128367569   0.09773828131418327
-2.3673763833041854   0.003693843128367569   0.09773828131418327
-2.3673763833041854   0.003693843128367569   0.09773828131418327
-1.6272038275026701   0.016290812189371784   -0.05578463551857421
-1.6272038275026701   0.016290812189371784   -0.05578463551857421
-1.6272038275026701   0.016290812189371784   -0.05578463551857421
-1.6272038275026701   0.016290812189371784   -0.05578463551857421
-1.5684430152851407   0.1849147356593519   0.07793144470045188
-1.5684430152851407   0.1849147356593519   0.07793144470045188
-1.5684430152851407   0.1849147356593519   0.07793144470045188
-1.5684430152851407   0.1849147356593519   0.07793144470045188
-2.3817358203094394   -0.11693589881485641   -0.08993866450648536
-2.3817358203094394   -0.11693589881485641   -0.08993866450648536
-2.3817358203094394   -0.11693589881485641   -0.08993866450648536
-2.3817358203094394   -0.11693589881485641   -0.08993866450648536
-1.898704864764388   0.040499889360869276   0.04690602672561056
-1.898704864764388   0.040499889360869276   0.04690602672561056
-1.898704864764388   0.040499889360869276   0.04690602672561056
-1.898704864764388   0.040499889360869276   0.04690602672561056
-1.6368895901634017   -0.15518776031216275   0.03573895019796136
-1.6368895901634017   -0.15518776031216275   0.03573895019796136
-1.6368895901634017   -0.15518776031216275   0.03573895019796136
-1.6368895901634017   -0.15518776031216275   0.03573895019796136
-0.8262003314363578   -0.02976255149950669   0.0016050049131977329
-0.8262003314363578   -0.02976255149950669   0.0016050049131977329
-0.8262003314363578   -0.02976255149950669   0.0016050049131977329
-0.8262003314363578   -0.02976255149950669   0.0016050049131977329
-0.8028384090805445   0.08120961610156613   0.057583465319307275
-0.8028384090805445   0.08120961610156613   0.057583465319307275
-0.8028384090805445   0.08120961610156613   0.057583465319307275
-0.8028384090805445   0.08120961610156613   0.057583465319307275
-1.6629377553425275   -0.15304325349755038   -0.0572952279584753
-1.6629377553425275   -0.15304325349755038   -0.0572952279584753
-1.6629377553425275   -0.15304325349755038   -0.0572952279584753
-1.6629377553425275   -0.15304325349755038   -0.0572952279584753
-1.2278243309407348   -0.06025010948735064   -0.02481452789769384
-1.2278243309407348   -0.06025010948735064   -0.02481452789769384
-1.2278243309407348   -0.06025010948735064   -0.02481452789769384
-1.2278243309407348   -0.06025010948735064   -0.02481452789769384
-1.6317783934214194   -0.08916950683380813   0.0346278349833109
-1.6317783934214194   -0.08916950683380813   0.0346278349833109
-1.6317783934214194   -0.08916950683380813   0.0346278349833109
-1.6317783934214194   -0.08916950683380813   0.0346278349833109
-0.8276782696290815   0.023655370810393928   -0.009061592132199786
-0.8276782696290815   0.023655370810393928   -0.009061592132199786
-0.8276782696290815   0.023655370810393928   -0.009061592132199786
-0.8276782696290815   0.023655370810393928   -0.009061592132199786
-0.8003293858523116   0.13413124557734843   0.04982894392878945
-0.8003293858523116   0.13413124557734843   0.04982894392878945
-0.8003293858523116   0.13413124557734843   0.04982894392878945
-0.8003293858523116   0.13413124557734843   0.04982894392878945
-1.6535613359828216   -0.1036374930366142   -0.06764387269336458
-1.6535613359828216   -0.1036374930366142   -0.06764387269336458
-1.6535613359828216   -0.1036374930366142   -0.06764387269336458
-1.6535613359828216   -0.1036374930366142   -0.06764387269336458
-1.214457493819178   -0.006689610078168776   -5.395812092057195e-05
-1.214457493819178   -0.006689610078168776   -5.395812092057195e-05
-1.214457493819178   -0.006689610078168776   -5.395812092057195e-05
-1.214457493819178   -0.006689610078168776   -5.395812092057195e-05
-1.6217643935443447   -0.03548406287861244   0.02318740934101815
-1.6217643935443447   -0.03548406287861244   0.02318740934101815
-1.6217643935443447   -0.03548406287861244   0.02318740934101815
-1.6217643935443447   -0.03548406287861244   0.02318740934101815
-0.8269801378327346   0.07112400587740478   -0.020417576273371985
-0.8269801378327346   0.07112400587740478   -0.020417576273371985
-0.8269801378327346   0.07112400587740478   -0.020417576273371985
-0.8269801378327346   0.07112400587740478   -0.020417576273371985
-0.8001250104424745   0.18973500129753035   0.03734493308211878
-0.8001250104424745   0.18973500129753035   0.03734493308211878
-0.8001250104424745   0.18973500129753035   0.03734493308211878
-0.8001250104424745   0.18973500129753035   0.03734493308211878
-1.6456392129186175   -0.05033744397328792   -0.07279736383429636
-1.6456392129186175   -0.05033744397328792   -0.07279736383429636
-1.6456392129186175   -0.05033744397328792   -0.07279736383429636
-1.6456392129186175   -0.05033744397328792   -0.07279736383429636
-1.2152879959852985   0.04241258793070815   0.01886352387212975
-1.2152879959852985   0.04241258793070815   0.01886352387212975
-1.2152879959852985   0.04241258793070815   0.01886352387212975
-1.2152879959852985   0.04241258793070815   0.01886352387212975
-0.8570147093898501   -0.17727976532575915   -0.004949671028018937
-0.8570147093898501   -0.17727976532575915   -0.004949671028018937
-0.8570147093898501   -0.17727976532575915   -0.004949671028018937
-0.8570147093898501   -0.17727976532575915   -0.004949671028018937
-0.02796553479005985   0.008913656899428279   0.036602632201993675
-0.02796553479005985   0.008913656899428279   0.036602632201993675
-0.02796553479005985   0.008913656899428279   0.036602632201993675
-0.02796553479005985   0.008913656899428279   0.036602632201993675
-0.031132150332709486   0.05246747428694375   0.017486269491025743
-0.031132150332709486   0.05246747428694375   0.017486269491025743
-0.031132150332709486   0.05246747428694375   0.017486269491025743
-0.031132150332709486   0.05246747428694375   0.017486269491025743
-0.8576235886758937   -0.11367140026756173   -0.021461416288320434
-0.8576235886758937   -0.11367140026756173   -0.021461416288320434
-0.8576235886758937   -0.11367140026756173   -0.021461416288320434
-0.8576235886758937   -0.11367140026756173   -0.021461416288320434
-0.4447911041213463   -0.05553494098158247   -0.013875894248633697
-0.4447911041213463   -0.05553494098158247   -0.013875894248633697
-0.4447911041213463   -0.05553494098158247   -0.013875894248633697
-0.4447911041213463   -0.05553494098158247   -0.013875894248633697
-0.8567007997277262   -0.11853940321105974   -0.011979468603975085
-0.8567007997277262   -0.11853940321105974   -0.011979468603975085
-0.8567007997277262   -0.11853940321105974   -0.011979468603975085
-0.8567007997277262   -0.11853940321105974   -0.011979468603975085
-0.027342942711862835   0.06204747379945756   0.026852308082745188
-0.027342942711862835   0.06204747379945756   0.026852308082745188
-0.027342942711862835   0.06204747379945756   0.026852308082745188
-0.027342942711862835   0.06204747379945756   0.026852308082745188
-0.02725711324528137   0.11012871974379955   0.008406597178029322
-0.02725711324528137   0.11012871974379955   0.008406597178029322
-0.02725711324528137   0.11012871974379955   0.008406597178029322
-0.02725711324528137   0.11012871974379955   0.008406597178029322
-0.8555008165970517   -0.060449823774741535   -0.0314471404428209
-0.8555008165970517   -0.060449823774741535   -0.0314471404428209
-0.8555008165970517   -0.060449823774741535   -0.0314471404428209
-0.8555008165970517   -0.060449823774741535   -0.0314471404428209
-0.4405029207509837   -0.002211425488795448   0.006128039348225825
-0.4405029207509837   -0.002211425488795448   0.006128039348225825
-0.4405029207509837   -0.002211425488795448   0.006128039348225825
-0.4405029207509837   -0.002211425488795448   0.006128039348225825
-0.854212204762722   -0.061695332503731035   -0.023758572542183
-0.854212204762722   -0.061695332503731035   -0.023758572542183
-0.854212204762722   -0.061695332503731035   -0.023758572542183
-0.854212204762722   -0.061695332503731035   -0.023758572542183
-0.02465456207337408   0.11526539147902602   0.016282681302339293
-0.02465456207337408   0.11526539147902602   0.016282681302339293
-0.02465456207337408   0.11526539147902602   0.016282681302339293
-0.02465456207337408   0.11526539147902602   0.016282681302339293
-0.026459887944237568   0.16951692525541448   -0.0012824426711545572
-0.026459887944237568   0.16951692525541448   -0.0012824426711545572
-0.026459887944237568   0.16951692525541448   -0.0012824426711545572
-0.026459887944237568   0.16951692525541448   -0.0012824426711545572
-0.8551114175338654   -0.006319556406851834   -0.04153254467044948
-0.8551114175338654   -0.006319556406851834   -0.04153254467044948
-0.8551114175338654   -0.006319556406851834   -0.04153254467044948
-0.8551114175338654   -0.006319556406851834   -0.04153254467044948
-0.4371802413497402   0.05116247040875355   0.024471447819210845
-0.4371802413497402   0.05116247040875355   0.024471447819210845
-0.4371802413497402   0.05116247040875355   0.024471447819210845
-0.4371802413497402   0.05116247040875355   0.024471447819210845
-0.08436932675418535   -0.1940400083904557   -0.04246266232874932
-0.08436932675418535   -0.1940400083904557   -0.04246266232874932
-0.08436932675418535   -0.1940400083904557   -0.04246266232874932
-0.08436932675418535   -0.1940400083904557   -0.04246266232874932
0.7673348995347735   0.0542011413757946   0.06957923785254104
0.7673348995347735   0.0542011413757946   0.06957923785254104
0.7673348995347735   0.0542011413757946   0.06957923785254104
0.7673348995347735   0.0542011413757946   0.06957923785254104
0.7422483462573715   0.028874573358702964   -0.027370777684620512
0.7422483462573715   0.028874573358702964   -0.027370777684620512
0.7422483462573715   0.028874573358702964   -0.027370777684620512
0.7422483462573715   0.028874573358702964   -0.027370777684620512
-0.056361690234582804   -0.07111218788716775   0.014918232155770646
-0.056361690234582804   -0.07111218788716775   0.014918232155770646
-0.056361690234582804   -0.07111218788716775   0.014918232155770646
-0.056361690234582804   -0.07111218788716775   0.014918232155770646
0.3373723171450086   -0.04483014478687866   -0.007815347747487031
0.3373723171450086   -0.04483014478687866   -0.007815347747487031
0.3373723171450086   -0.04483014478687866   -0.007815347747487031
0.3373723171450086   -0.04483014478687866   -0.007815347747487031
-0.08410007245298186   -0.1415817735092684   -0.05330409331412399
-0.08410007245298186   -0.1415817735092684   -0.05330409331412399
-0.08410007245298186   -0.1415817735092684   -0.05330409331412399
-0.08410007245298186   -0.1415817735092684   -0.05330409331412399
0.7753454822148431   0.10470291271987495   0.062286562741558194
0.7753454822148431   0.10470291271987495   0.062286562741558194
0.7753454822148431   0.10470291271987495   0.062286562741558194
0.7753454822148431   0.10470291271987495   0.062286562741558194
0.7541781796745494   0.08251232750217509   -0.03845488776269562
0.7541781796745494   0.08251232750217509   -0.03845488776269562
0.7541781796745494   0.08251232750217509   -0.03845488776269562
0.7541781796745494   0.08251232750217509   -0.03845488776269562
-0.054797007555310494   -0.023430129152067755   0.004265974523751357
-0.054797007555310494   -0.023430129152067755   0.004265974523751357
-0.054797007555310494   -0.023430129152067755   0.004265974523751357
-0.054797007555310494   -0.023430129152067755   0.004265974523751357
0.3402758548034191   0.0033953203695338725   0.012056209545805205
0.3402758548034191   0.0033953203695338725   0.012056209545805205
0.3402758548034191   0.0033953203695338725   0.012056209545805205
0.3402758548034191   0.0033953203695338725   0.012056209545805205
-0.08177302431449282   -0.08982981952328326   -0.06421441890094515
-0.08177302431449282   -0.08982981952328326   -0.06421441890094515
-0.08177302431449282   -0.08982981952328326   -0.06421441890094515
-0.08177302431449282   -0.08982981952328326   -0.06421441890094515
0.7869935476296869   0.15475136906934484   0.05338291044581692
0.7869935476296869   0.15475136906934484   0.05338291044581692
0.7869935476296869   0.15475136906934484   0.05338291044581692
0.7869935476296869   0.15475136906934484   0.05338291044581692
0.7615092987934984   0.14979483590700668   -0.04011871493013944
0.7615092987934984   0.14979483590700668   -0.04011871493013944
0.7615092987934984   0.14979483590700668   -0.04011871493013944
0.7615092987934984   0.14979483590700668   -0.04011871493013944
-0.054915929230680005   0.0323141221474801   -0.006359845995431842
-0.054915929230680005   0.0323141221474801   -0.006359845995431842
-0.054915929230680005   0.0323141221474801   -0.006359845995431842
-0.054915929230680005   0.0323141221474801   -0.006359845995431842
0.35196393293557704   0.057195862502682784   0.03566476575158366
0.35196393293557704   0.057195862502682784   0.03566476575158366
0.35196393293557704   0.057195862502682784   0.03566476575158366
0.35196393293557704   0.057195862502682784   0.03566476575158366
0.6875315629904423   -0.19262271206963838   -0.08261359142367464
0.6875315629904423   -0.19262271206963838   -0.08261359142367464
0.6875315629904423   -0.19262271206963838   -0.08261359142367464
0.6875315629904423   -0.19262271206963838   -0.08261359142367464
1.51092028557438   0.11224667939561604   0.07728138080051483
1.51092028557438   0.11224667939561604   0.07728138080051483
1.51092028557438   0.11224667939561604   0.07728138080051483
1.51092028557438   0.11224667939561604   0.07728138080051483
1.4991230290314599   -0.00676946458950739   -0.1099592564695343
1.4991230290314599   -0.00676946458950739   -0.1099592564695343
1.4991230290314599   -0.00676946458950739   -0.1099592564695343
1.4991230290314599   -0.00676946458950739   -0.1099592564695343
0.7490718193729599   -0.01622102691082936   0.051842188162853506
0.7490718193729599   -0.01622102691082936   0.051842188162853506
0.7490718193729599   -0.01622102691082936   0.051842188162853506
0.7490718193729599   -0.01622102691082936   0.051842188162853506
1.0577052238286928   -0.03749222070691377   -0.03463986317267587
1.0577052238286928   -0.03749222070691377   -0.03463986317267587
1.0577052238286928   -0.03749222070691377   -0.03463986317267587
1.0577052238286928   -0.03749222070691377   -0.03463986317267587
0.6881653167195237   -0.16729285513418218   -0.10161849688097219
0.6881653167195237   -0.16729285513418218   -0.10161849688097219
0.6881653167195237   -0.16729285513418218   -0.10161849688097219
0.6881653167195237   -0.16729285513418218   -0.10161849688097219
1.5644074894271687   0.14868032137612103   0.061013259543381326
1.5644074894271687   0.14868032137612103   0.061013259543381326
1.5644074894271687   0.14868032137612103   0.061013259543381326
1.5644074894271687   0.14868032137612103   0.061013259543381326
1.5357170641864668   0.023824747882820296   -0.14744489500451768
1.5357170641864668   0.023824747882820296   -0.14744489500451768
1.5357170641864668   0.023824747882820296   -0.14744489500451768
1.5357170641864668   0.023824747882820296   -0.14744489500451768
0.7545100434254324   0.007114888378501327   0.03860187011540128
0.7545100434254324   0.007114888378501327   0.03860187011540128
0.7545100434254324   0.007114888378501327   0.03860187011540128
0.7545100434254324   0.007114888378501327   0.03860187011540128
1.1054287806913055   -0.004432871090173041   -0.01060295794071553
1.1054287806913055   -0.004432871090173041   -0.01060295794071553
1.1054287806913055   -0.004432871090173041   -0.01060295794071553
1.1054287806913055   -0.004432871090173041   -0.01060295794071553
0.6959048719674458   -0.1367587760994068   -0.11055032269663187
0.6959048719674458   -0.1367587760994068   -0.11055032269663187
0.6959048719674458   -0.1367587760994068   -0.11055032269663187
0.6959048719674458   -0.1367587760994068   -0.11055032269663187
1.603990050065639   0.17736622678191194   0.040378555492262935
1.603990050065639   0.17736622678191194   0.040378555492262935
1.603990050065639   0.17736622678191194   0.040378555492262935
1.603990050065639   0.17736622678191194   0.040378555492262935
1.5938322336163897   0.10343877659106115   -0.1386415766213735
1.5938322336163897   0.10343877659106115   -0.1386415766213735
1.5938322336163897   0.10343877659106115   -0.1386415766213735
1.5938322336163897   0.10343877659106115   -0.1386415766213735
0.756953300341053   0.05872628461702407   0.02816984409762599
0.756953300341053   0.05872628461702407   0.02816984409762599
0.756953300341053   0.05872628461702407   0.02816984409762599
0.756953300341053   0.05872628461702407   0.02816984409762599
1.1134540596354958   0.03339444676122833   0.015969627376539314
1.1134540596354958   0.03339444676122833   0.015969627376539314
1.1134540596354958   0.03339444676122833   0.015969627376539314
1.1134540596354958   0.03339444676122833   0.015969627376539314
-1.7582985486347071   -0.057616239752848464   0.11445468502337558
-1.7582985486347071   -0.057616239752848464   0.11445468502337558
-1.7582985486347071   -0.057616239752848464   0.11445468502337558
-1.7582985486347071   -0.057616239752848464   0.11445468502337558
-1.2295451394792898   -0.08195734419329781   -0.043269548143981734
-1.2295451394792898   -0.08195734419329781   -0.043269548143981734
-1.2295451394792898   -0.08195734419329781   -0.043269548143981734
-1.2295451394792898   -0.08195734419329781   -0.043269548143981734
-1.1574025920225977   0.11599044421406697   0.09761854424783414
-1.1574025920225977   0.11599044421406697   0.09761854424783414
-1.1574025920225977   0.11599044421406697   0.09761854424783414
-1.1574025920225977   0.11599044421406697   0.09761854424783414
-1.7584432726827186   -0.1447028288620557   -0.06328431913221222
-1.7584432726827186   -0.1447028288620557   -0.06328431913221222
-1.7584432726827186   -0.1447028288620557   -0.06328431913221222
-1.7584432726827186   -0.1447028288620557   -0.06328431913221222
-1.4154199823024554   -0.022597792248976442   -0.0029799940795369184
-1.4154199823024554   -0.022597792248976442   -0.0029799940795369184
-1.4154199823024554   -0.022597792248976442   -0.0029799940795369184
-1.4154199823024554   -0.022597792248976442   -0.0029799940795369184
-1.692834609521804   0.011159637855600008   0.10889652995470567
-1.692834609521804   0.011159637855600008   0.10889652995470567
-1.692834609521804   0.011159637855600008   0.10889652995470567
-1.692834609521804   0.011159637855600008   0.10889652995470567
-1.2176766642531223   -0.03453743157319696   -0.0532239411175148
-1.2176766642531223   -0.03453743157319696   -0.0532239411175148
-1.2176766642531223   -0.03453743157319696   -0.0532239411175148
-1.2176766642531223   -0.03453743157319696   -0.0532239411175148
-1.1465088363123679   0.14008912781328842   0.08251195141070666
-1.1465088363123679   0.14008912781328842   0.08251195141070666
-1.1465088363123679   0.14008912781328842   0.08251195141070666
-1.1465088363123679   0.14008912781328842   0.08251195141070666
-1.7169157066075869   -0.11784420715275934   -0.08002368022570444
-1.7169157066075869   -0.11784420715275934   -0.08002368022570444
-1.7169157066075869   -0.11784420715275934   -0.08002368022570444
-1.7169157066075869   -0.11784420715275934   -0.08002368022570444
-1.4055917771768114   0.009196755155053776   0.014946820101104152
-1.4055917771768114   0.009196755155053776   0.014946820101104152
-1.4055917771768114   0.009196755155053776   0.014946820101104152
-1.4055917771768114   0.009196755155053776   0.014946820101104152
-1.6518567590043283   0.04000210260026735   0.08742474803756167
-1.6518567590043283   0.04000210260026735   0.08742474803756167
-1.6518567590043283   0.04000210260026735   0.08742474803756167
-1.6518567590043283   0.04000210260026735   0.08742474803756167
-1.2067420543273943   -0.012931452351504905   -0.0656335584996246
-1.2067420543273943   -0.012931452351504905   -0.0656335584996246
-1.2067420543273943   -0.012931452351504905   -0.0656335584996246
-1.2067420543273943   -0.012931452351504905   -0.0656335584996246
-1.1404738660679798   0.16350506645920143   0.07100420762232906
-1.1404738660679798   0.16350506645920143   0.07100420762232906
-1.1404738660679798   0.16350506645920143   0.07100420762232906
-1.1404738660679798   0.16350506645920143   0.07100420762232906
-1.661269078335633   -0.08235768882970847   -0.09582441466492281
-1.661269078335633   -0.08235768882970847   -0.09582441466492281
-1.661269078335633   -0.08235768882970847   -0.09582441466492281
-1.661269078335633   -0.08235768882970847   -0.09582441466492281
-1.3528939050998838   0.038964213750135465   0.040126199494326886
-1.3528939050998838   0.038964213750135465   0.040126199494326886
-1.3528939050998838   0.038964213750135465   0.040126199494326886
-1.3528939050998838   0.038964213750135465   0.040126199494326886
-1.2158170990090733   -0.09943686999494188   0.04285018000873725
-1.2158170990090733   -0.09943686999494188   0.04285018000873725
-1.2158170990090733   -0.09943686999494188   0.04285018000873725
-1.2158170990090733   -0.09943686999494188   0.04285018000873725
-0.7043901522775422   -0.05311126227551808   -0.006980982594747026
-0.7043901522775422   -0.05311126227551808   -0.006980982594747026
-0.7043901522775422   -0.05311126227551808   -0.006980982594747026
-0.7043901522775422   -0.05311126227551808   -0.006980982594747026
-0.6686148424240637   0.06780760133432193   0.05263613328242231
-0.6686148424240637   0.06780760133432193   0.05263613328242231
-0.6686148424240637   0.06780760133432193   0.05263613328242231
-0.6686148424240637   0.06780760133432193   0.05263613328242231
-1.234070950953692   -0.11829130382780596   -0.05144150236576456
-1.234070950953692   -0.11829130382780596   -0.05144150236576456
-1.234070950953692   -0.11829130382780596   -0.05144150236576456
-1.234070950953692   -0.11829130382780596   -0.05144150236576456
-0.9518599324392351   -0.046457209225918845   -0.019374262679555304
-0.9518599324392351   -0.046457209225918845   -0.019374262679555304
-0.9518599324392351   -0.046457209225918845   -0.019374262679555304
-0.9518599324392351   -0.046457209225918845   -0.019374262679555304
-1.201582867385206   -0.04230975665384869   0.03501736830271163
-1.201582867385206   -0.04230975665384869   0.03501736830271163
-1.201582867385206   -0.04230975665384869   0.03501736830271163
-1.201582867385206   -0.04230975665384869   0.03501736830271163
-0.6969367077041705   -0.004007727551250499   -0.01715786423253937
-0.6969367077041705   -0.004007727551250499   -0.01715786423253937
-0.6969367077041705   -0.004007727551250499   -0.01715786423253937
-0.6969367077041705   -0.004007727551250499   -0.01715786423253937
-0.6601083247832364   0.11721473778849359   0.043164270232589175
-0.6601083247832364   0.11721473778849359   0.043164270232589175
-0.6601083247832364   0.11721473778849359   0.043164270232589175
-0.6601083247832364   0.11721473778849359   0.043164270232589175
-1.217478999511336   -0.0716440124302731   -0.060605724340572736
-1.217478999511336   -0.0716440124302731   -0.060605724340572736
-1.217478999511336   -0.0716440124302731   -0.060605724340572736
-1.217478999511336   -0.0716440124302731   -0.060605724340572736
-0.9335864807700973   0.002130420316653288   0.0014971464818683
-0.9335864807700973   0.002130420316653288   0.0014971464818683
-0.9335864807700973   0.002130420316653288   0.0014971464818683
-0.9335864807700973   0.002130420316653288   0.0014971464818683
-1.1825318589961   0.010495308383724991   0.031990657421609725
-1.1825318589961   0.010495308383724991   0.031990657421609725
-1.1825318589961   0.010495308383724991   0.031990657421609725
-1.1825318589961   0.010495308383724991   0.031990657421609725
-0.6898816597821418   0.0402492224908263   -0.028736889464270096
-0.6898816597821418   0.0402492224908263   -0.028736889464270096
-0.6898816597821418   0.0402492224908263   -0.028736889464270096
-0.6898816597821418   0.0402492224908263   -0.028736889464270096
-0.6518902075666961   0.16984057456752444   0.03434372351785961
-0.6518902075666961   0.16984057456752444   0.03434372351785961
-0.6518902075666961   0.16984057456752444   0.03434372351785961
-0.6518902075666961   0.16984057456752444   0.03434372351785961
-1.2050523885224251   -0.021395002768646157   -0.06698833542205901
-1.2050523885224251   -0.021395002768646157   -0.06698833542205901
-1.2050523885224251   -0.021395002768646157   -0.06698833542205901
-1.2050523885224251   -0.021395002768646157   -0.06698833542205901
-0.9265171631368171   0.04782384228866974   0.021362544332323458
-0.9265171631368171   0.04782384228866974   0.021362544332323458
-0.9265171631368171   0.04782384228866974   0.021362544332323458
-0.9265171631368171   0.04782384228866974   0.021362544332323458
-0.7193063873045978   -0.1363414367041572   0.0016680166986196565
-0.7193063873045978   -0.1363414367041572   0.0016680166986196565
-0.7193063873045978   -0.1363414367041572   0.0016680166986196565
-0.7193063873045978   -0.1363414367041572   0.0016680166986196565
-0.18471414643596162   -0.015770374299657   0.029341253226200723
-0.18471414643596162   -0.015770374299657   0.029341253226200723
-0.18471414643596162   -0.015770374299657   0.029341253226200723
-0.18471414643596162   -0.015770374299657   0.029341253226200723
-0.18015223943271863   0.02811631751817998   0.01000582339721303
-0.18015223943271863   0.02811631751817998   0.01000582339721303
-0.18015223943271863   0.02811631751817998   0.01000582339721303
-0.18015223943271863   0.02811631751817998   0.01000582339721303
-0.7114135329441396   -0.07982192642555916   -0.013727791558075436
-0.7114135329441396   -0.07982192642555916   -0.013727791558075436
-0.7114135329441396   -0.07982192642555916   -0.013727791558075436
-0.7114135329441396   -0.07982192642555916   -0.013727791558075436
-0.4496589237904603   -0.048781442656776586   -0.013762108558449546
-0.4496589237904603   -0.048781442656776586   -0.013762108558449546
-0.4496589237904603   -0.048781442656776586   -0.013762108558449546
-0.4496589237904603   -0.048781442656776586   -0.013762108558449546
-0.7102571580646766   -0.08121616633743098   -0.0065516772488837804
-0.7102571580646766   -0.08121616633743098   -0.0065516772488837804
-0.7102571580646766   -0.08121616633743098   -0.0065516772488837804
-0.7102571580646766   -0.08121616633743098   -0.0065516772488837804
-0.17713201914216292   0.03368715260007128   0.01953608976810018
-0.17713201914216292   0.03368715260007128   0.01953608976810018
-0.17713201914216292   0.03368715260007128   0.01953608976810018
-0.17713201914216292   0.03368715260007128   0.01953608976810018
-0.16988194682126145   0.08348997996789112   0.002633008494552176
-0.16988194682126145   0.08348997996789112   0.002633008494552176
-0.16988194682126145   0.08348997996789112   0.002633008494552176
-0.16988194682126145   0.08348997996789112   0.002633008494552176
-0.7028993676861492   -0.03002279647899688   -0.023553410014484383
-0.7028993676861492   -0.03002279647899688   -0.023553410014484383
-0.7028993676861492   -0.03002279647899688   -0.023553410014484383
-0.7028993676861492   -0.03002279647899688   -0.023553410014484383
-0.4386903224424829   0.0009903011680844793   0.005903831782153382
-0.4386903224424829   0.0009903011680844793   0.005903831782153382
-0.4386903224424829   0.0009903011680844793   0.005903831782153382
-0.4386903224424829   0.0009903011680844793   0.005903831782153382
-0.7002897466108016   -0.026019834926896628   -0.014508266189846464
-0.7002897466108016   -0.026019834926896628   -0.014508266189846464
-0.7002897466108016   -0.026019834926896628   -0.014508266189846464
-0.7002897466108016   -0.026019834926896628   -0.014508266189846464
-0.16863543685905727   0.08334314945334272   0.009012388820121637
-0.16863543685905727   0.08334314945334272   0.009012388820121637
-0.16863543685905727   0.08334314945334272   0.009012388820121637
-0.16863543685905727   0.08334314945334272   0.009012388820121637
-0.16067221517968402   0.13966667445325912   -0.0060405927240760795
-0.16067221517968402   0.13966667445325912   -0.0060405927240760795
-0.16067221517968402   0.13966667445325912   -0.0060405927240760795
-0.16067221517968402   0.13966667445325912   -0.0060405927240760795
-0.6954206133684778   0.020355661463483696   -0.03382339238700584
-0.6954206133684778   0.020355661463483696   -0.03382339238700584
-0.6954206133684778   0.020355661463483696   -0.03382339238700584
-0.6954206133684778   0.020355661463483696   -0.03382339238700584
-0.4286751435254932   0.051000436718312836   0.024849930543190332
-0.4286751435254932   0.051000436718312836   0.024849930543190332
-0.4286751435254932   0.051000436718312836   0.024849930543190332
-0.4286751435254932   0.051000436718312836   0.024849930543190332
-0.22846721311295132   -0.16659501634661397   -0.03859943811179229
-0.22846721311295132   -0.16659501634661397   -0.03859943811179229
-0.22846721311295132   -0.16659501634661397   -0.03859943811179229
-0.22846721311295132   -0.16659501634661397   -0.03859943811179229
0.32822070815458787   0.02611520922015851   0.06363537106006265
0.32822070815458787   0.02611520922015851   0.06363537106006265
0.32822070815458787   0.02611520922015851   0.06363537106006265
0.32822070815458787   0.02611520922015851   0.06363537106006265
0.30550016077105857   -0.008801095575276852   -0.035388157290416236
0.30550016077105857   -0.008801095575276852   -0.035388157290416236
0.30550016077105857   -0.008801095575276852   -0.035388157290416236
0.30550016077105857   -0.008801095575276852   -0.035388157290416236
-0.19081595114340197   -0.038726153985557746   0.023529736347532512
-0.19081595114340197   -0.038726153985557746   0.023529736347532512
-0.19081595114340197   -0.038726153985557746   0.023529736347532512
-0.19081595114340197   -0.038726153985557746   0.023529736347532512
0.051530332844858834   -0.045699446486601104   -0.00979037885382789
0.051530332844858834   -0.045699446486601104   -0.00979037885382789
0.051530332844858834   -0.045699446486601104   -0.00979037885382789
0.051530332844858834   -0.045699446486601104   -0.00979037885382789
-0.22056076801926888   -0.11643312523227561   -0.04748737678508266
-0.22056076801926888   -0.11643312523227561   -0.04748737678508266
-0.22056076801926888   -0.11643312523227561   -0.04748737678508266
-0.22056076801926888   -0.11643312523227561   -0.04748737678508266
0.34021612646700033   0.07387702449152093   0.05551355112249287
0.34021612646700033   0.07387702449152093   0.05551355112249287
0.34021612646700033   0.07387702449152093   0.05551355112249287
0.34021612646700033   0.07387702449152093   0.05551355112249287
0.32459626951331744   0.04357766550871163   -0.04008832924097963
0.32459626951331744   0.04357766550871163   -0.04008832924097963
0.32459626951331744   0.04357766550871163   -0.04008832924097963
0.32459626951331744   0.04357766550871163   -0.04008832924097963
-0.18340339711941359   0.005809461099204416   0.012706275872476684
-0.18340339711941359   0.005809461099204416   0.012706275872476684
-0.18340339711941359   0.005809461099204416   0.012706275872476684
-0.18340339711941359   0.005809461099204416   0.012706275872476684
0.061679887810799215   -0.0005846706151973944   0.010210555189772427
0.061679887810799215   -0.0005846706151973944   0.010210555189772427
0.061679887810799215   -0.0005846706151973944   0.010210555189772427
0.061679887810799215   -0.0005846706151973944   0.010210555189772427
-0.21210821810542985   -0.0672893664654347   -0.057719001492964
-0.21210821810542985   -0.0672893664654347   -0.057719001492964
-0.21210821810542985   -0.0672893664654347   -0.057719001492964
-0.21210821810542985   -0.0672893664654347   -0.057719001492964
0.35761180633800405   0.12098720891202619   0.04757981147913723
0.35761180633800405   0.12098720891202619   0.04757981147913723
0.35761180633800405   0.12098720891202619   0.04757981147913723
0.35761180633800405   0.12098720891202619   0.04757981147913723
0.33996850443707954   0.10330052466542047   -0.04631226707348941
0.33996850443707954   0.10330052466542047   -0.04631226707348941
0.33996850443707954   0.10330052466542047   -0.04631226707348941
0.33996850443707954   0.10330052466542047   -0.04631226707348941
-0.17547993742421134   0.057177176408437544   0.0024102940981090143
-0.17547993742421134   0.057177176408437544   0.0024102940981090143
-0.17547993742421134   0.057177176408437544   0.0024102940981090143
-0.17547993742421134   0.057177176408437544   0.0024102940981090143
0.07738539019696168   0.048524194510910765   0.03093271720183005
0.07738539019696168   0.048524194510910765   0.03093271720183005
0.07738539019696168   0.048524194510910765   0.03093271720183005
0.07738539019696168   0.048524194510910765   0.03093271720183005
0.26137798449589866   -0.1683422204856923   -0.07612081752753054
0.26137798449589866   -0.1683422204856923   -0.07612081752753054
0.26137798449589866   -0.1683422204856923   -0.07612081752753054
0.26137798449589866   -0.1683422204856923   -0.07612081752753054
0.784600680747807   0.07727056131370845   0.08232184758898795
0.784600680747807   0.07727056131370845   0.08232184758898795
0.784600680747807   0.07727056131370845   0.08232184758898795
0.784600680747807   0.07727056131370845   0.08232184758898795
0.776837831187672   -0.04107619934546611   -0.1001996858250424
0.776837831187672   -0.04107619934546611   -0.1001996858250424
0.776837831187672   -0.04107619934546611   -0.1001996858250424
0.776837831187672   -0.04107619934546611   -0.1001996858250424
0.3293920254858529   0.013852898354995482   0.061417172353283055
0.3293920254858529   0.013852898354995482   0.061417172353283055
0.3293920254858529   0.013852898354995482   0.061417172353283055
0.3293920254858529   0.013852898354995482   0.061417172353283055
0.5100150150919875   -0.034727729757787686   -0.026858746961852947
0.5100150150919875   -0.034727729757787686   -0.026858746961852947
0.5100150150919875   -0.034727729757787686   -0.026858746961852947
0.5100150150919875   -0.034727729757787686   -0.026858746961852947
0.2686736390870582   -0.1402778940480991   -0.08804396723759361
0.2686736390870582   -0.1402778940480991   -0.08804396723759361
0.2686736390870582   -0.1402778940480991   -0.08804396723759361
0.2686736390870582   -0.1402778940480991   -0.08804396723759361
0.842624705986674   0.11812308145783615   0.0695354073666653
0.842624705986674   0.11812308145783615   0.0695354073666653
0.842624705986674   0.11812308145783615   0.0695354073666653
0.842624705986674   0.11812308145783615   0.0695354073666653
0.8190452496239216   -0.011726557232690366   -0.1201405641390311
0.8190452496239216   -0.011726557232690366   -0.1201405641390311
0.8190452496239216   -0.011726557232690366   -0.1201405641390311
0.8190452496239216   -0.011726557232690366   -0.1201405641390311
0.34054302967701694   0.03534967518336316   0.047873461902864636
0.34054302967701694   0.03534967518336316   0.047873461902864636
0.34054302967701694   0.03534967518336316   0.047873461902864636
0.34054302967701694   0.03534967518336316   0.047873461902864636
0.5527106203950392   -0.005149066970207075   -0.0032806142233524627
0.5527106203950392   -0.005149066970207075   -0.0032806142233524627
0.5527106203950392   -0.005149066970207075   -0.0032806142233524627
0.5527106203950392   -0.005149066970207075   -0.0032806142233524627
0.28031112272650727   -0.11586045776469231   -0.10207593990162642
0.28031112272650727   -0.11586045776469231   -0.10207593990162642
0.28031112272650727   -0.11586045776469231   -0.10207593990162642
0.28031112272650727   -0.11586045776469231   -0.10207593990162642
0.8845558775008197   0.14476229664175572   0.05092372137102452
0.8845558775008197   0.14476229664175572   0.05092372137102452
0.8845558775008197   0.14476229664175572   0.05092372137102452
0.8845558775008197   0.14476229664175572   0.05092372137102452
0.8838213577961904   0.05275025169262941   -0.12857837797948476
0.8838213577961904   0.05275025169262941   -0.12857837797948476
0.8838213577961904   0.05275025169262941   -0.12857837797948476
0.8838213577961904   0.05275025169262941   -0.12857837797948476
0.35195677842749884   0.07889855285782892   0.038031074686196736
0.35195677842749884   0.07889855285782892   0.038031074686196736
0.35195677842749884   0.07889855285782892   0.038031074686196736
0.35195677842749884   0.07889855285782892   0.038031074686196736
0.5739090060869383   0.027477241381163243   0.01698602225280578
0.5739090060869383   0.027477241381163243   0.01698602225280578
0.5739090060869383   0.027477241381163243   0.01698602225280578
0.5739090060869383   0.027477241381163243   0.01698602225280578
-1.055274954184285   -0.017907724414086834   0.1027083654570683
-1.055274954184285   -0.017907724414086834   0.1027083654570683
-1.055274954184285   -0.017907724414086834   0.1027083654570683
-1.055274954184285   -0.017907724414086834   0.1027083654570683
-0.8221963232729007   -0.10420159889444902   -0.05088659148012184
-0.8221963232729007   -0.10420159889444902   -0.05088659148012184
-0.8221963232729007   -0.10420159889444902   -0.05088659148012184
-0.8221963232729007   -0.10420159889444902   -0.05088659148012184
-0.7442709615678504   0.0883581754611949   0.08784839136920314
-0.7442709615678504   0.0883581754611949   0.08784839136920314
-0.7442709615678504   0.0883581754611949   0.08784839136920314
-0.7442709615678504   0.0883581754611949   0.08784839136920314
-1.0507712553541906   -0.11442698903822325   -0.06923333801094272
-1.0507712553541906   -0.11442698903822325   -0.06923333801094272
-1.0507712553541906   -0.11442698903822325   -0.06923333801094272
-1.0507712553541906   -0.11442698903822325   -0.06923333801094272
-0.8829450718459975   -0.024349615411804353   -0.012849235556621513
-0.8829450718459975   -0.024349615411804353   -0.012849235556621513
-0.8829450718459975   -0.024349615411804353   -0.012849235556621513
-0.8829450718459975   -0.024349615411804353   -0.012849235556621513
-0.9859960465972614   0.0420721862738067   0.0981435304616731
-0.9859960465972614   0.0420721862738067   0.0981435304616731
-0.9859960465972614   0.0420721862738067   0.0981435304616731
-0.9859960465972614   0.0420721862738067   0.0981435304616731
-0.8045543143646191   -0.06364914389066692   -0.061561053262763274
-0.8045543143646191   -0.06364914389066692   -0.061561053262763274
-0.8045543143646191   -0.06364914389066692   -0.061561053262763274
-0.8045543143646191   -0.06364914389066692   -0.061561053262763274
-0.7257556431735956   0.11125634527269349   0.07431901846756864
-0.7257556431735956   0.11125634527269349   0.07431901846756864
-0.7257556431735956   0.11125634527269349   0.07431901846756864
-0.7257556431735956   0.11125634527269349   0.07431901846756864
-1.00259346245916   -0.0884814238081601   -0.08652687077400961
-1.00259346245916   -0.0884814238081601   -0.08652687077400961
-1.00259346245916   -0.0884814238081601   -0.08652687077400961
-1.00259346245916   -0.0884814238081601   -0.08652687077400961
-0.8577614727825842   0.005634013923678696   0.00626955085144959
-0.8577614727825842   0.005634013923678696   0.00626955085144959
-0.8577614727825842   0.005634013923678696   0.00626955085144959
-0.8577614727825842   0.005634013923678696   0.00626955085144959
-0.9377562792191245   0.06985661557806037   0.07932100603993186
-0.9377562792191245   0.06985661557806037   0.07932100603993186
-0.9377562792191245   0.06985661557806037   0.07932100603993186
-0.9377562792191245   0.06985661557806037   0.07932100603993186
-0.7863377433502011   -0.042826611050099536   -0.0745085260926656
-0.7863377433502011   -0.042826611050099536   -0.0745085260926656
-0.7863377433502011   -0.042826611050099536   -0.0745085260926656
-0.7863377433502011   -0.042826611050099536   -0.0745085260926656
-0.7107428960887299   0.13973223257951933   0.06409901013431318
-0.7107428960887299   0.13973223257951933   0.06409901013431318
-0.7107428960887299   0.13973223257951933   0.06409901013431318
-0.7107428960887299   0.13973223257951933   0.06409901013431318
-0.937860655543653   -0.04695201312192901   -0.10014511343395927
-0.937860655543653   -0.04695201312192901   -0.10014511343395927
-0.937860655543653   -0.04695201312192901   -0.10014511343395927
-0.937860655543653   -0.04695201312192901   -0.10014511343395927
-0.8068947538431718   0.035174186758452505   0.03001007872045508
-0.8068947538431718   0.035174186758452505   0.03001007872045508
-0.8068947538431718   0.035174186758452505   0.03001007872045508
-0.8068947538431718   0.035174186758452505   0.03001007872045508
-0.7934780076395757   -0.05985996605880369   0.04836335385085838
-0.7934780076395757   -0.05985996605880369   0.04836335385085838
-0.7934780076395757   -0.05985996605880369   0.04836335385085838
-0.7934780076395757   -0.05985996605880369   0.04836335385085838
-0.5816989117240405   -0.07901585139523162   -0.015071359190372696
-0.5816989117240405   -0.07901585139523162   -0.015071359190372696
-0.5816989117240405   -0.07901585139523162   -0.015071359190372696
-0.5816989117240405   -0.07901585139523162   -0.015071359190372696
-0.5382108661937688   0.04015045730495175   0.04490721853810087
-0.5382108661937688   0.04015045730495175   0.04490721853810087
-0.5382108661937688   0.04015045730495175   0.04490721853810087
-0.5382108661937688   0.04015045730495175   0.04490721853810087
-0.8051180607504389   -0.08449859157149171   -0.04353033751103724
-0.8051180607504389   -0.08449859157149171   -0.04353033751103724
-0.8051180607504389   -0.08449859157149171   -0.04353033751103724
-0.8051180607504389   -0.08449859157149171   -0.04353033751103724
-0.6777287561015327   -0.042209114010584   -0.018203992351627785
-0.6777287561015327   -0.042209114010584   -0.018203992351627785
-0.6777287561015327   -0.042209114010584   -0.018203992351627785
-0.6777287561015327   -0.042209114010584   -0.018203992351627785
-0.7727830652366314   -0.007513513761614847   0.04115956224809983
-0.7727830652366314   -0.007513513761614847   0.04115956224809983
-0.7727830652366314   -0.007513513761614847   0.04115956224809983
-0.7727830652366314   -0.007513513761614847   0.04115956224809983
-0.5669227045190317   -0.033211463316377976   -0.02529005246687574
-0.5669227045190317   -0.033211463316377976   -0.02529005246687574
-0.5669227045190317   -0.033211463316377976   -0.02529005246687574
-0.5669227045190317   -0.033211463316377976   -0.02529005246687574
-0.5222393888274475   0.08671008706794833   0.035925162466645774
-0.5222393888274475   0.08671008706794833   0.035925162466645774
-0.5222393888274475   0.08671008706794833   0.035925162466645774
-0.5222393888274475   0.08671008706794833   0.035925162466645774
-0.7812340402183955   -0.039707876523619914   -0.05210874496010916
-0.7812340402183955   -0.039707876523619914   -0.05210874496010916
-0.7812340402183955   -0.039707876523619914   -0.05210874496010916
-0.7812340402183955   -0.039707876523619914   -0.05210874496010916
-0.6546598122713476   0.0027106562880672425   0.0019154334135109419
-0.6546598122713476   0.0027106562880672425   0.0019154334135109419
-0.6546598122713476   0.0027106562880672425   0.0019154334135109419
-0.6546598122713476   0.0027106562880672425   0.0019154334135109419
-0.7470024412528691   0.042033932298594964   0.03730744104530048
-0.7470024412528691   0.042033932298594964   0.03730744104530048
-0.7470024412528691   0.042033932298594964   0.03730744104530048
-0.7470024412528691   0.042033932298594964   0.03730744104530048
-0.552288076653481   0.009151189385225016   -0.03675937898079895
-0.552288076653481   0.009151189385225016   -0.03675937898079895
-0.552288076653481   0.009151189385225016   -0.03675937898079895
-0.552288076653481   0.009151189385225016   -0.03675937898079895
-0.5063197802001034   0.13722324413647743   0.027370290781267792
-0.5063197802001034   0.13722324413647743   0.027370290781267792
-0.5063197802001034   0.13722324413647743   0.027370290781267792
-0.5063197802001034   0.13722324413647743   0.027370290781267792
-0.7614989587793035   0.009188646857871307   -0.05913771759689192
-0.7614989587793035   0.009188646857871307   -0.05913771759689192
-0.7614989587793035   0.009188646857871307   -0.05913771759689192
-0.7614989587793035   0.009188646857871307   -0.05913771759689192
-0.637968948926324   0.04671677698447856   0.021584070272881173
-0.637968948926324   0.04671677698447856   0.021584070272881173
-0.637968948926324   0.04671677698447856   0.021584070272881173
-0.637968948926324   0.04671677698447856   0.021584070272881173
-0.5810284371581974   -0.09920704220052012   0.008472204444120807
-0.5810284371581974   -0.09920704220052012   0.008472204444120807
-0.5810284371581974   -0.09920704220052012   0.008472204444120807
-0.5810284371581974   -0.09920704220052012   0.008472204444120807
-0.3445109354060394   -0.041567724198324524   0.02137153096729323
-0.3445109354060394   -0.041567724198324524   0.02137153096729323
-0.3445109354060394   -0.041567724198324524   0.02137153096729323
-0.3445109354060394   -0.041567724198324524   0.02137153096729323
-0.3326015750741723   -0.0007608417377631647   0.002765674010937358
-0.3326015750741723   -0.0007608417377631647   0.002765674010937358
-0.3326015750741723   -0.0007608417377631647   0.002765674010937358
-0.3326015750741723   -0.0007608417377631647   0.002765674010937358
-0.5652914040996043   -0.045298605249738576   -0.0050464084363868456
-0.5652914040996043   -0.045298605249738576   -0.0050464084363868456
-0.5652914040996043   -0.045298605249738576   -0.0050464084363868456
-0.5652914040996043   -0.045298605249738576   -0.0050464084363868456
-0.45658144144871177   -0.04452678728288324   -0.013249103305991106
-0.45658144144871177   -0.04452678728288324   -0.013249103305991106
-0.45658144144871177   -0.04452678728288324   -0.013249103305991106
-0.45658144144871177   -0.04452678728288324   -0.013249103305991106
-0.5646256233766903   -0.04760167351230492   0.0005855634407465615
-0.5646256233766903   -0.04760167351230492   0.0005855634407465615
-0.5646256233766903   -0.04760167351230492   0.0005855634407465615
-0.5646256233766903   -0.04760167351230492   0.0005855634407465615
-0.3296648770310817   0.005144705290806854   0.011543617197817574
-0.3296648770310817   0.005144705290806854   0.011543617197817574
-0.3296648770310817   0.005144705290806854   0.011543617197817574
-0.3296648770310817   0.005144705290806854   0.011543617197817574
-0.3152605841932014   0.05130232444798458   -0.004566588872524861
-0.3152605841932014   0.05130232444798458   -0.004566588872524861
-0.3152605841932014   0.05130232444798458   -0.004566588872524861
-0.3152605841932014   0.05130232444798458   -0.004566588872524861
-0.5492916888191937   0.002079421866243339   -0.014705672290383859
-0.5492916888191937   0.002079421866243339   -0.014705672290383859
-0.5492916888191937   0.002079421866243339   -0.014705672290383859
-0.5492916888191937   0.002079421866243339   -0.014705672290383859
-0.4382939253097593   0.0022927051043586215   0.006256760178053336
-0.4382939253097593   0.0022927051043586215   0.006256760178053336
-0.4382939253097593   0.0022927051043586215   0.006256760178053336
-0.4382939253097593   0.0022927051043586215   0.006256760178053336
-0.5473912216339826   0.004303943195596335   -0.007427857693685022
-0.5473912216339826   0.004303943195596335   -0.007427857693685022
-0.5473912216339826   0.004303943195596335   -0.007427857693685022
-0.5473912216339826   0.004303943195596335   -0.007427857693685022
-0.31390355116798746   0.05233530332905553   0.0011855973724710159
-0.31390355116798746   0.05233530332905553   0.0011855973724710159
-0.31390355116798746   0.05233530332905553   0.0011855973724710159
-0.31390355116798746   0.05233530332905553   0.0011855973724710159
-0.2988826031575629   0.10384042408022719   -0.012937589514203363
-0.2988826031575629   0.10384042408022719   -0.012937589514203363
-0.2988826031575629   0.10384042408022719   -0.012937589514203363
-0.2988826031575629   0.10384042408022719   -0.012937589514203363
-0.5342783516169235   0.04982362473681672   -0.025022946903169113
-0.5342783516169235   0.04982362473681672   -0.025022946903169113
-0.5342783516169235   0.04982362473681672   -0.025022946903169113
-0.5342783516169235   0.04982362473681672   -0.025022946903169113
-0.42099158175791906   0.04927998385173821   0.024978185016660145
-0.42099158175791906   0.04927998385173821   0.024978185016660145
-0.42099158175791906   0.04927998385173821   0.024978185016660145
-0.42099158175791906   0.04927998385173821   0.024978185016660145
-0.37352906563577254   -0.133349323854894   -0.03193752052480886
-0.37352906563577254   -0.133349323854894   -0.03193752052480886
-0.37352906563577254   -0.133349323854894   -0.03193752052480886
-0.37352906563577254   -0.133349323854894   -0.03193752052480886
-0.11382320877072319   -0.001803065728808985   0.0560475349695397
-0.11382320877072319   -0.001803065728808985   0.0560475349695397
-0.11382320877072319   -0.001803065728808985   0.0560475349695397
-0.11382320877072319   -0.001803065728808985   0.0560475349695397
-0.1296197448684353   -0.039400012789360055   -0.04103576394644569
-0.1296197448684353   -0.039400012789360055   -0.04103576394644569
-0.1296197448684353   -0.039400012789360055   -0.04103576394644569
-0.1296197448684353   -0.039400012789360055   -0.04103576394644569
-0.3276128658793902   -0.005096926221005958   0.032045304468087524
-0.3276128658793902   -0.005096926221005958   0.032045304468087524
-0.3276128658793902   -0.005096926221005958   0.032045304468087524
-0.3276128658793902   -0.005096926221005958   0.032045304468087524
-0.23612267924214736   -0.04295003651371137   -0.009559322352116963
-0.23612267924214736   -0.04295003651371137   -0.009559322352116963
-0.23612267924214736   -0.04295003651371137   -0.009559322352116963
-0.23612267924214736   -0.04295003651371137   -0.009559322352116963
-0.358070559462525   -0.08495920071050655   -0.04038088895808857
-0.358070559462525   -0.08495920071050655   -0.04038088895808857
-0.358070559462525   -0.08495920071050655   -0.04038088895808857
-0.358070559462525   -0.08495920071050655   -0.04038088895808857
-0.09512446350813603   0.04449984947730459   0.04754078058838607
-0.09512446350813603   0.04449984947730459   0.04754078058838607
-0.09512446350813603   0.04449984947730459   0.04754078058838607
-0.09512446350813603   0.04449984947730459   0.04754078058838607
-0.10429533106075273   0.009851031333515625   -0.04619393901465879
-0.10429533106075273   0.009851031333515625   -0.04619393901465879
-0.10429533106075273   0.009851031333515625   -0.04619393901465879
-0.10429533106075273   0.009851031333515625   -0.04619393901465879
-0.3128450393089864   0.037445680260380726   0.021367779736151407
-0.3128450393089864   0.037445680260380726   0.021367779736151407
-0.3128450393089864   0.037445680260380726   0.021367779736151407
-0.3128450393089864   0.037445680260380726   0.021367779736151407
-0.21668386190010708   0.0006441035929669377   0.010314927136522115
-0.21668386190010708   0.0006441035929669377   0.010314927136522115
-0.21668386190010708   0.0006441035929669377   0.010314927136522115
-0.21668386190010708   0.0006441035929669377   0.010314927136522115
-0.34233644266203134   -0.03853926211462794   -0.05010429465406731
-0.34233644266203134   -0.03853926211462794   -0.05010429465406731
-0.34233644266203134   -0.03853926211462794   -0.05010429465406731
-0.34233644266203134   -0.03853926211462794   -0.05010429465406731
-0.07104574791119547   0.08959415350503105   0.04031085456161211
-0.07104574791119547   0.08959415350503105   0.04031085456161211
-0.07104574791119547   0.08959415350503105   0.04031085456161211
-0.07104574791119547   0.08959415350503105   0.04031085456161211
-0.0828711010942744   0.06486879426756721   -0.051740452936210254
-0.0828711010942744   0.06486879426756721   -0.051740452936210254
-0.0828711010942744   0.06486879426756721   -0.051740452936210254
-0.0828711010942744   0.06486879426756721   -0.051740452936210254
-0.2977271642350552   0.0856051792377631   0.011074849940798985
-0.2977271642350552   0.0856051792377631   0.011074849940798985
-0.2977271642350552   0.0856051792377631   0.011074849940798985
-0.2977271642350552   0.0856051792377631   0.011074849940798985
-0.19654557232934017   0.0461144080192913   0.030201369569664183
-0.19654557232934017   0.0461144080192913   0.030201369569664183
-0.19654557232934017   0.0461144080192913   0.030201369569664183
-0.19654557232934017   0.0461144080192913   0.030201369569664183
-0.16723171312333734   -0.1434332479023217   -0.06936480462001844
-0.16723171312333734   -0.1434332479023217   -0.06936480462001844
-0.16723171312333734   -0.1434332479023217   -0.06936480462001844
-0.16723171312333734   -0.1434332479023217   -0.06936480462001844
0.0609835162493259   0.042677294761628015   0.0853734734758757
0.0609835162493259   0.042677294761628015   0.0853734734758757
0.0609835162493259   0.042677294761628015   0.0853734734758757
0.0609835162493259   0.042677294761628015   0.0853734734758757
0.06149521129355556   -0.07037559444483495   -0.0918284774535718
0.06149521129355556   -0.07037559444483495   -0.0918284774535718
0.06149521129355556   -0.07037559444483495   -0.0918284774535718
0.06149521129355556   -0.07037559444483495   -0.0918284774535718
-0.09071680280702656   0.04420792021933101   0.06987101335190703
-0.09071680280702656   0.04420792021933101   0.06987101335190703
-0.09071680280702656   0.04420792021933101   0.06987101335190703
-0.09071680280702656   0.04420792021933101   0.06987101335190703
-0.03587810417926602   -0.030359616784597098   -0.01630173814856289
-0.03587810417926602   -0.030359616784597098   -0.01630173814856289
-0.03587810417926602   -0.030359616784597098   -0.01630173814856289
-0.03587810417926602   -0.030359616784597098   -0.01630173814856289
-0.15159566065753882   -0.11057595373383676   -0.0797394019474865
-0.15159566065753882   -0.11057595373383676   -0.0797394019474865
-0.15159566065753882   -0.11057595373383676   -0.0797394019474865
-0.15159566065753882   -0.11057595373383676   -0.0797394019474865
0.12669200241266285   0.08872621277692784   0.07505367092020179
0.12669200241266285   0.08872621277692784   0.07505367092020179
0.12669200241266285   0.08872621277692784   0.07505367092020179
0.12669200241266285   0.08872621277692784   0.07505367092020179
0.10992776331806264   -0.04216019787575569   -0.10906063703377533
0.10992776331806264   -0.04216019787575569   -0.10906063703377533
0.10992776331806264   -0.04216019787575569   -0.10906063703377533
0.10992776331806264   -0.04216019787575569   -0.10906063703377533
-0.07288569704306727   0.06468058201778776   0.056024680389496456
-0.07288569704306727   0.06468058201778776   0.056024680389496456
-0.07288569704306727   0.06468058201778776   0.056024680389496456
-0.07288569704306727   0.06468058201778776   0.056024680389496456
0.0040020138793279494   -0.0013425235154470227   0.005249984000457718
0.0040020138793279494   -0.0013425235154470227   0.005249984000457718
0.0040020138793279494   -0.0013425235154470227   0.005249984000457718
0.0040020138793279494   -0.0013425235154470227   0.005249984000457718
-0.13293905911154785   -0.08736145378495028   -0.09220009415016844
-0.13293905911154785   -0.08736145378495028   -0.09220009415016844
-0.13293905911154785   -0.08736145378495028   -0.09220009415016844
-0.13293905911154785   -0.08736145378495028   -0.09220009415016844
0.1743007982657275   0.1142015108061717   0.05644282902262148
0.1743007982657275   0.1142015108061717   0.05644282902262148
0.1743007982657275   0.1142015108061717   0.05644282902262148
0.1743007982657275   0.1142015108061717   0.05644282902262148
0.17774669309155405   0.013096047797456795   -0.11677136527968837
0.17774669309155405   0.013096047797456795   -0.11677136527968837
0.17774669309155405   0.013096047797456795   -0.11677136527968837
0.17774669309155405   0.013096047797456795   -0.11677136527968837
-0.056223185644454304   0.10084281855541938   0.04552510002503801
-0.056223185644454304   0.10084281855541938   0.04552510002503801
-0.056223185644454304   0.10084281855541938   0.04552510002503801
-0.056223185644454304   0.10084281855541938   0.04552510002503801
0.03984205757335897   0.029169093187416114   0.026295727262364378
0.03984205757335897   0.029169093187416114   0.026295727262364378
0.03984205757335897   0.029169093187416114   0.026295727262364378
0.03984205757335897   0.029169093187416114   0.026295727262364378
-0.351106077063098   0.019698737223458315   0.09752484289961211
-0.351106077063098   0.019698737223458315   0.09752484289961211
-0.351106077063098   0.019698737223458315   0.09752484289961211
-0.351106077063098   0.019698737223458315   0.09752484289961211
-0.41557503905914484   -0.12722954145564075   -0.05756183622763656
-0.41557503905914484   -0.12722954145564075   -0.05756183622763656
-0.41557503905914484   -0.12722954145564075   -0.05756183622763656
-0.41557503905914484   -0.12722954145564075   -0.05756183622763656
-0.33178263327011126   0.05919239191733993   0.07987494468279384
-0.33178263327011126   0.05919239191733993   0.07987494468279384
-0.33178263327011126   0.05919239191733993   0.07987494468279384
-0.33178263327011126   0.05919239191733993   0.07987494468279384
-0.3408983958554667   -0.08391218647575799   -0.07413717187293453
-0.3408983958554667   -0.08391218647575799   -0.07413717187293453
-0.3408983958554667   -0.08391218647575799   -0.07413717187293453
-0.3408983958554667   -0.08391218647575799   -0.07413717187293453
-0.3506852607969854   -0.026984629658702276   -0.02659261972590142
-0.3506852607969854   -0.026984629658702276   -0.02659261972590142
-0.3506852607969854   -0.026984629658702276   -0.02659261972590142
-0.3506852607969854   -0.026984629658702276   -0.02659261972590142
-0.276636683507958   0.07241536134248372   0.09084384204635952
-0.276636683507958   0.07241536134248372   0.09084384204635952
-0.276636683507958   0.07241536134248372   0.09084384204635952
-0.276636683507958   0.07241536134248372   0.09084384204635952
-0.392029752684556   -0.09312056296784801   -0.06904769750423403
-0.392029752684556   -0.09312056296784801   -0.06904769750423403
-0.392029752684556   -0.09312056296784801   -0.06904769750423403
-0.392029752684556   -0.09312056296784801   -0.06904769750423403
-0.30584305093615166   0.08162108155360019   0.06723524451178364
-0.30584305093615166   0.08162108155360019   0.06723524451178364
-0.30584305093615166   0.08162108155360019   0.06723524451178364
-0.30584305093615166   0.08162108155360019   0.06723524451178364
-0.28547650872257946   -0.0585648551447329   -0.09238119993939156
-0.28547650872257946   -0.0585648551447329   -0.09238119993939156
-0.28547650872257946   -0.0585648551447329   -0.09238119993939156
-0.28547650872257946   -0.0585648551447329   -0.09238119993939156
-0.30979570888677105   0.0016840041937760796   -0.005454715293841943
-0.30979570888677105   0.0016840041937760796   -0.005454715293841943
-0.30979570888677105   0.0016840041937760796   -0.005454715293841943
-0.30979570888677105   0.0016840041937760796   -0.005454715293841943
-0.2208303132459411   0.09969463720758251   0.07259028509148466
-0.2208303132459411   0.09969463720758251   0.07259028509148466
-0.2208303132459411   0.09969463720758251   0.07259028509148466
-0.2208303132459411   0.09969463720758251   0.07259028509148466
-0.3666993429641726   -0.07284850735009654   -0.0825766267246166
-0.3666993429641726   -0.07284850735009654   -0.0825766267246166
-0.3666993429641726   -0.07284850735009654   -0.0825766267246166
-0.3666993429641726   -0.07284850735009654   -0.0825766267246166
-0.28209879847320335   0.11584406041406621   0.0580733971755671
-0.28209879847320335   0.11584406041406621   0.0580733971755671
-0.28209879847320335   0.11584406041406621   0.0580733971755671
-0.28209879847320335   0.11584406041406621   0.0580733971755671
-0.21150496930403392   -0.010379779495343338   -0.10407921342387895
-0.21150496930403392   -0.010379779495343338   -0.10407921342387895
-0.21150496930403392   -0.010379779495343338   -0.10407921342387895
-0.21150496930403392   -0.010379779495343338   -0.10407921342387895
-0.2605990651423066   0.03161431168027501   0.017192501159865134
-0.2605990651423066   0.03161431168027501   0.017192501159865134
-0.2605990651423066   0.03161431168027501   0.017192501159865134
-0.2605990651423066   0.03161431168027501   0.017192501159865134
-0.3721488495413739   -0.023019710949592785   0.05535928085515476
-0.3721488495413739   -0.023019710949592785   0.05535928085515476
-0.3721488495413739   -0.023019710949592785   0.05535928085515476
-0.3721488495413739   -0.023019710949592785   0.05535928085515476
-0.4607463122611983   -0.10377172806675196   -0.02249207405804214
-0.4607463122611983   -0.10377172806675196   -0.02249207405804214
-0.4607463122611983   -0.10377172806675196   -0.02249207405804214
-0.4607463122611983   -0.10377172806675196   -0.02249207405804214
-0.4105871411389029   0.010525513431419962   0.03705926789198517
-0.4105871411389029   0.010525513431419962   0.03705926789198517
-0.4105871411389029   0.010525513431419962   0.03705926789198517
-0.4105871411389029   0.010525513431419962   0.03705926789198517
-0.3762577681610044   -0.04921322008120343   -0.03409511777312103
-0.3762577681610044   -0.04921322008120343   -0.03409511777312103
-0.3762577681610044   -0.04921322008120343   -0.03409511777312103
-0.3762577681610044   -0.04921322008120343   -0.03409511777312103
-0.40520370812029693   -0.03820992662367052   -0.0187601488693155
-0.40520370812029693   -0.03820992662367052   -0.0187601488693155
-0.40520370812029693   -0.03820992662367052   -0.0187601488693155
-0.40520370812029693   -0.03820992662367052   -0.0187601488693155
-0.344742687747628   0.025946636144824554   0.04832042806773325
-0.344742687747628   0.025946636144824554   0.04832042806773325
-0.344742687747628   0.025946636144824554   0.04832042806773325
-0.344742687747628   0.025946636144824554   0.04832042806773325
-0.4389593141487253   -0.061491435391044416   -0.0327846483346665
-0.4389593141487253   -0.061491435391044416   -0.0327846483346665
-0.4389593141487253   -0.061491435391044416   -0.0327846483346665
-0.4389593141487253   -0.061491435391044416   -0.0327846483346665
-0.38741763145931674   0.05513313039779179   0.028279880887901204
-0.38741763145931674   0.05513313039779179   0.028279880887901204
-0.38741763145931674   0.05513313039779179   0.028279880887901204
-0.38741763145931674   0.05513313039779179   0.028279880887901204
-0.34531578250340444   -0.006188784080365143   -0.042318547690507156
-0.34531578250340444   -0.006188784080365143   -0.042318547690507156
-0.34531578250340444   -0.006188784080365143   -0.042318547690507156
-0.34531578250340444   -0.006188784080365143   -0.042318547690507156
-0.3775463484418312   0.003442424740053268   0.0007590266655119193
-0.3775463484418312   0.003442424740053268   0.0007590266655119193
-0.3775463484418312   0.003442424740053268   0.0007590266655119193
-0.3775463484418312   0.003442424740053268   0.0007590266655119193
-0.3122700664715123   0.07320909741290714   0.0435121509756735
-0.3122700664715123   0.07320909741290714   0.0435121509756735
-0.3122700664715123   0.07320909741290714   0.0435121509756735
-0.3122700664715123   0.07320909741290714   0.0435121509756735
-0.4171137904887223   -0.020915194092995817   -0.04415258976834268
-0.4171137904887223   -0.020915194092995817   -0.04415258976834268
-0.4171137904887223   -0.020915194092995817   -0.04415258976834268
-0.4171137904887223   -0.020915194092995817   -0.04415258976834268
-0.36413789695501136   0.10447550683174787   0.019935520448198803
-0.36413789695501136   0.10447550683174787   0.019935520448198803
-0.36413789695501136   0.10447550683174787   0.019935520448198803
-0.36413789695501136   0.10447550683174787   0.019935520448198803
-0.3185916917171048   0.0415319886460916   -0.05007899727596541
-0.3185916917171048   0.0415319886460916   -0.05007899727596541
-0.3185916917171048   0.0415319886460916   -0.05007899727596541
-0.3185916917171048   0.0415319886460916   -0.05007899727596541
-0.35140111543473923   0.04642359314817759   0.02061350955302685
-0.35140111543473923   0.04642359314817759   0.02061350955302685
-0.35140111543473923   0.04642359314817759   0.02061350955302685
-0.35140111543473923   0.04642359314817759   0.02061350955302685
-0.4449562381172342   -0.06282814767918261   0.01551471627419762
-0.4449562381172342   -0.06282814767918261   0.01551471627419762
-0.4449562381172342   -0.06282814767918261   0.01551471627419762
-0.4449562381172342   -0.06282814767918261   0.01551471627419762
-0.5058376096096275   -0.06537297021988314   0.013621306259246374
-0.5058376096096275   -0.06537297021988314   0.013621306259246374
-0.5058376096096275   -0.06537297021988314   0.013621306259246374
-0.5058376096096275   -0.06537297021988314   0.013621306259246374
-0.4872434213206477   -0.029637511751933632   -0.004788923726349495
-0.4872434213206477   -0.029637511751933632   -0.004788923726349495
-0.4872434213206477   -0.029637511751933632   -0.004788923726349495
-0.4872434213206477   -0.029637511751933632   -0.004788923726349495
-0.4210073719687165   -0.008938693699559738   0.004422320873892674
-0.4210073719687165   -0.008938693699559738   0.004422320873892674
-0.4210073719687165   -0.008938693699559738   0.004422320873892674
-0.4210073719687165   -0.008938693699559738   0.004422320873892674
-0.4654578855742326   -0.039329868874095814   -0.012434272494846896
-0.4654578855742326   -0.039329868874095814   -0.012434272494846896
-0.4654578855742326   -0.039329868874095814   -0.012434272494846896
-0.4654578855742326   -0.039329868874095814   -0.012434272494846896
-0.4213640697935159   -0.013969857575975811   0.007669995626307852
-0.4213640697935159   -0.013969857575975811   0.007669995626307852
-0.4213640697935159   -0.013969857575975811   0.007669995626307852
-0.4213640697935159   -0.013969857575975811   0.007669995626307852
-0.48392527689532483   -0.021644901274994775   0.003809187923325838
-0.48392527689532483   -0.021644901274994775   0.003809187923325838
-0.48392527689532483   -0.021644901274994775   0.003809187923325838
-0.48392527689532483   -0.021644901274994775   0.003809187923325838
-0.4629127723432149   0.01986391566141866   -0.012162119790485953
-0.4629127723432149   0.01986391566141866   -0.012162119790485953
-0.4629127723432149   0.01986391566141866   -0.012162119790485953
-0.4629127723432149   0.01986391566141866   -0.012162119790485953
-0.39791623955250627   0.035998097630796366   -0.005078126811054545
-0.39791623955250627   0.035998097630796366   -0.005078126811054545
-0.39791623955250627   0.035998097630796366   -0.005078126811054545
-0.39791623955250627   0.035998097630796366   -0.005078126811054545
-0.44004557059385657   0.004930910291222165   0.006830950215233306
-0.44004557059385657   0.004930910291222165   0.006830950215233306
-0.44004557059385657   0.004930910291222165   0.006830950215233306
-0.44004557059385657   0.004930910291222165   0.006830950215233306
-0.39712612286244564   0.035356483641398255   -0.0004859293713572188
-0.39712612286244564   0.035356483641398255   -0.0004859293713572188
-0.39712612286244564   0.035356483641398255   -0.0004859293713572188
-0.39712612286244564   0.035356483641398255   -0.0004859293713572188
-0.46112084538455245   0.02308757329953855   -0.0064261426352974355
-0.46112084538455245   0.02308757329953855   -0.0064261426352974355
-0.46112084538455245   0.02308757329953855   -0.0064261426352974355
-0.46112084538455245   0.02308757329953855   -0.0064261426352974355
-0.43961648037141327   0.06966226931223704   -0.020491595271577845
-0.43961648037141327   0.06966226931223704   -0.020491595271577845
-0.43961648037141327   0.06966226931223704   -0.020491595271577845
-0.43961648037141327   0.06966226931223704   -0.020491595271577845
-0.3758968130083882   0.08111883538894966   -0.015502388375886751
-0.3758968130083882   0.08111883538894966   -0.015502388375886751
-0.3758968130083882   0.08111883538894966   -0.015502388375886751
-0.3758968130083882   0.08111883538894966   -0.015502388375886751
-0.41580213748202904   0.04927152742577351   0.025195438832206735
-0.41580213748202904   0.04927152742577351   0.025195438832206735
-0.41580213748202904   0.04927152742577351   0.025195438832206735
-0.41580213748202904   0.04927152742577351   0.025195438832206735
-0.5204471598195566   -0.09941437161211736   -0.025385043398168786
-0.5204471598195566   -0.09941437161211736   -0.025385043398168786
-0.5204471598195566   -0.09941437161211736   -0.025385043398168786
-0.5204471598195566   -0.09941437161211736   -0.025385043398168786
-0.5546901373707106   -0.027771038438891185   0.04814942172913811
-0.5546901373707106   -0.027771038438891185   0.04814942172913811
-0.5546901373707106   -0.027771038438891185   0.04814942172913811
-0.5546901373707106   -0.027771038438891185   0.04814942172913811
-0.5635300189359346   -0.06812089636404856   -0.047157393190550484
-0.5635300189359346   -0.06812089636404856   -0.047157393190550484
-0.5635300189359346   -0.06812089636404856   -0.047157393190550484
-0.5635300189359346   -0.06812089636404856   -0.047157393190550484
-0.4662758412196533   0.029836009204559068   0.04057545582212965
-0.4662758412196533   0.029836009204559068   0.04057545582212965
-0.4662758412196533   0.029836009204559068   0.04057545582212965
-0.4662758412196533   0.029836009204559068   0.04057545582212965
-0.5240622746656701   -0.03868117394897428   -0.007808677797367949
-0.5240622746656701   -0.03868117394897428   -0.007808677797367949
-0.5240622746656701   -0.03868117394897428   -0.007808677797367949
-0.5240622746656701   -0.03868117394897428   -0.007808677797367949
-0.497491194248011   -0.05217892734281217   -0.033486372772292106
-0.497491194248011   -0.05217892734281217   -0.033486372772292106
-0.497491194248011   -0.05217892734281217   -0.033486372772292106
-0.497491194248011   -0.05217892734281217   -0.033486372772292106
-0.5292090998662512   0.016999606224637344   0.03932669956918028
-0.5292090998662512   0.016999606224637344   0.03932669956918028
-0.5292090998662512   0.016999606224637344   0.03932669956918028
-0.5292090998662512   0.016999606224637344   0.03932669956918028
-0.5316862746576693   -0.021177534441648375   -0.05290705842531118
-0.5316862746576693   -0.021177534441648375   -0.05290705842531118
-0.5316862746576693   -0.021177534441648375   -0.05290705842531118
-0.5316862746576693   -0.021177534441648375   -0.05290705842531118
-0.44435409685771704   0.07036897426047643   0.030126199037941642
-0.44435409685771704   0.07036897426047643   0.030126199037941642
-0.44435409685771704   0.07036897426047643   0.030126199037941642
-0.44435409685771704   0.07036897426047643   0.030126199037941642
-0.49521838370485055   0.003931659455035517   0.012072685949988421
-0.49521838370485055   0.003931659455035517   0.012072685949988421
-0.49521838370485055   0.003931659455035517   0.012072685949988421
-0.49521838370485055   0.003931659455035517   0.012072685949988421
-0.4746033741539984   -0.007774821077042096   -0.042976392105950695
-0.4746033741539984   -0.007774821077042096   -0.042976392105950695
-0.4746033741539984   -0.007774821077042096   -0.042976392105950695
-0.4746033741539984   -0.007774821077042096   -0.042976392105950695
-0.4982983617141533   0.06010489654310503   0.03275007530752101
-0.4982983617141533   0.06010489654310503   0.03275007530752101
-0.4982983617141533   0.06010489654310503   0.03275007530752101
-0.4982983617141533   0.06010489654310503   0.03275007530752101
-0.5038142374823775   0.030562978947304958   -0.05804907826416951
-0.5038142374823775   0.030562978947304958   -0.05804907826416951
-0.5038142374823775   0.030562978947304958   -0.05804907826416951
-0.5038142374823775   0.030562978947304958   -0.05804907826416951
-0.4223715341783987   0.1155743333830888   0.019821071622643363
-0.4223715341783987   0.1155743333830888   0.019821071622643363
-0.4223715341783987   0.1155743333830888   0.019821071622643363
-0.4223715341783987   0.1155743333830888   0.019821071622643363
-0.4706807158298957   0.04624766844997257   0.031092965488989793
-0.4706807158298957   0.04624766844997257   0.031092965488989793
-0.4706807158298957   0.04624766844997257   0.031092965488989793
-0.4706807158298957   0.04624766844997257   0.031092965488989793
-0.5951346026191658   -0.11832484358137799   -0.06351909937066264
-0.5951346026191658   -0.11832484358137799   -0.06351909937066264
-0.5951346026191658   -0.11832484358137799   -0.06351909937066264
-0.5951346026191658   -0.11832484358137799   -0.06351909937066264
-0.656918497754807   0.009427831191287636   0.08650608003951207
-0.656918497754807   0.009427831191287636   0.08650608003951207
-0.656918497754807   0.009427831191287636   0.08650608003951207
-0.656918497754807   0.009427831191287636   0.08650608003951207
-0.6478857171269072   -0.09811169973474967   -0.08455817209864647
-0.6478857171269072   -0.09811169973474967   -0.08455817209864647
-0.6478857171269072   -0.09811169973474967   -0.08455817209864647
-0.6478857171269072   -0.09811169973474967   -0.08455817209864647
-0.5100531729662077   0.07456243166351109   0.07754350863051837
-0.5100531729662077   0.07456243166351109   0.07754350863051837
-0.5100531729662077   0.07456243166351109   0.07754350863051837
-0.5100531729662077   0.07456243166351109   0.07754350863051837
-0.5783817778583826   -0.025318194550618033   -0.003965704104286261
-0.5783817778583826   -0.025318194550618033   -0.003965704104286261
-0.5783817778583826   -0.025318194550618033   -0.003965704104286261
-0.5783817778583826   -0.025318194550618033   -0.003965704104286261
-0.5710707396097618   -0.08036120699695568   -0.07262068592679113
-0.5710707396097618   -0.08036120699695568   -0.07262068592679113
-0.5710707396097618   -0.08036120699695568   -0.07262068592679113
-0.5710707396097618   -0.08036120699695568   -0.07262068592679113
-0.5835846464509011   0.06009544295816298   0.07874003858847131
-0.5835846464509011   0.06009544295816298   0.07874003858847131
-0.5835846464509011   0.06009544295816298   0.07874003858847131
-0.5835846464509011   0.06009544295816298   0.07874003858847131
-0.5929756363633364   -0.07069516854400218   -0.10076413309918406
-0.5929756363633364   -0.07069516854400218   -0.10076413309918406
-0.5929756363633364   -0.07069516854400218   -0.10076413309918406
-0.5929756363633364   -0.07069516854400218   -0.10076413309918406
-0.4854022899456417   0.09387265865400285   0.06346267203917527
-0.4854022899456417   0.09387265865400285   0.06346267203917527
-0.4854022899456417   0.09387265865400285   0.06346267203917527
-0.4854022899456417   0.09387265865400285   0.06346267203917527
-0.5411242004728581   0.0033209701698201158   0.015123951575320232
-0.5411242004728581   0.0033209701698201158   0.015123951575320232
-0.5411242004728581   0.0033209701698201158   0.015123951575320232
-0.5411242004728581   0.0033209701698201158   0.015123951575320232
-0.5452287404293776   -0.05779362256872886   -0.0840032991567763
-0.5452287404293776   -0.05779362256872886   -0.0840032991567763
-0.5452287404293776   -0.05779362256872886   -0.0840032991567763
-0.5452287404293776   -0.05779362256872886   -0.0840032991567763
-0.529709153108378   0.08441114544995143   0.06046196918165436
-0.529709153108378   0.08441114544995143   0.06046196918165436
-0.529709153108378   0.08441114544995143   0.06046196918165436
-0.529709153108378   0.08441114544995143   0.06046196918165436
-0.5209695367055681   -0.023231020508728537   -0.11009774423461845
-0.5209695367055681   -0.023231020508728537   -0.11009774423461845
-0.5209695367055681   -0.023231020508728537   -0.11009774423461845
-0.5209695367055681   -0.023231020508728537   -0.11009774423461845
-0.4633147345125783   0.12273799507742822   0.05227342045470065
-0.4633147345125783   0.12273799507742822   0.05227342045470065
-0.4633147345125783   0.12273799507742822   0.05227342045470065
-0.4633147345125783   0.12273799507742822   0.05227342045470065
-0.49034275800752114   0.03196115789521245   0.03720033660166509
-0.49034275800752114   0.03196115789521245   0.03720033660166509
-0.49034275800752114   0.03196115789521245   0.03720033660166509
-0.49034275800752114   0.03196115789521245   0.03720033660166509
0.3598945089108325   0.05826823401976816   0.09445749317943053
0.3598945089108325   0.05826823401976816   0.09445749317943053
0.3598945089108325   0.05826823401976816   0.09445749317943053
0.3598945089108325   0.05826823401976816   0.09445749317943053
-0.009254421750448487   -0.1518867352725515   -0.062455754673246565
-0.009254421750448487   -0.1518867352725515   -0.062455754673246565
-0.009254421750448487   -0.1518867352725515   -0.062455754673246565
-0.009254421750448487   -0.1518867352725515   -0.062455754673246565
0.08025311630517441   0.02974530308148774   0.07299876375265298
0.08025311630517441   0.02974530308148774   0.07299876375265298
0.08025311630517441   0.02974530308148774   0.07299876375265298
0.08025311630517441   0.02974530308148774   0.07299876375265298
0.37572637342611204   -0.05348939553424833   -0.07813199435464246
0.37572637342611204   -0.05348939553424833   -0.07813199435464246
0.37572637342611204   -0.05348939553424833   -0.07813199435464246
0.37572637342611204   -0.05348939553424833   -0.07813199435464246
0.18359811832529122   -0.02961657963732982   -0.044941159429767126
0.18359811832529122   -0.02961657963732982   -0.044941159429767126
0.18359811832529122   -0.02961657963732982   -0.044941159429767126
0.18359811832529122   -0.02961657963732982   -0.044941159429767126
0.43992350153321136   0.1041270645882368   0.08523718605836131
0.43992350153321136   0.1041270645882368   0.08523718605836131
0.43992350153321136   0.1041270645882368   0.08523718605836131
0.43992350153321136   0.1041270645882368   0.08523718605836131
0.019990155774691848   -0.12393698946437169   -0.07463374635390041
0.019990155774691848   -0.12393698946437169   -0.07463374635390041
0.019990155774691848   -0.12393698946437169   -0.07463374635390041
0.019990155774691848   -0.12393698946437169   -0.07463374635390041
0.11299709166685387   0.0517942309509954   0.06094063014981661
0.11299709166685387   0.0517942309509954   0.06094063014981661
0.11299709166685387   0.0517942309509954   0.06094063014981661
0.11299709166685387   0.0517942309509954   0.06094063014981661
0.4382630190800122   -0.028577520510674324   -0.09778809009474693
0.4382630190800122   -0.028577520510674324   -0.09778809009474693
0.4382630190800122   -0.028577520510674324   -0.09778809009474693
0.4382630190800122   -0.028577520510674324   -0.09778809009474693
0.24001375336922726   -0.0021088398588759057   -0.021074982827387817
0.24001375336922726   -0.0021088398588759057   -0.021074982827387817
0.24001375336922726   -0.0021088398588759057   -0.021074982827387817
0.24001375336922726   -0.0021088398588759057   -0.021074982827387817
0.5031802743689009   0.1310723955243715   0.0671482703146502
0.5031802743689009   0.1310723955243715   0.0671482703146502
0.5031802743689009   0.1310723955243715   0.0671482703146502
0.5031802743689009   0.1310723955243715   0.0671482703146502
0.05193470500685478   -0.10400081645517115   -0.0885762557440123
0.05193470500685478   -0.10400081645517115   -0.0885762557440123
0.05193470500685478   -0.10400081645517115   -0.0885762557440123
0.05193470500685478   -0.10400081645517115   -0.0885762557440123
0.1447817669455597   0.09224090602586801   0.05273747793252277
0.1447817669455597   0.09224090602586801   0.05273747793252277
0.1447817669455597   0.09224090602586801   0.05273747793252277
0.1447817669455597   0.09224090602586801   0.05273747793252277
0.5212593863394968   0.02719148635565529   -0.1078582029397358
0.5212593863394968   0.02719148635565529   -0.1078582029397358
0.5212593863394968   0.02719148635565529   -0.1078582029397358
0.5212593863394968   0.02719148635565529   -0.1078582029397358
0.2874557191179645   0.02869374729530607   0.001512691285203649
0.2874557191179645   0.02869374729530607   0.001512691285203649
0.2874557191179645   0.02869374729530607   0.001512691285203649
0.2874557191179645   0.02869374729530607   0.001512691285203649
0.04953648167424093   0.01558804247289381   0.06402398470474749
0.04953648167424093   0.01558804247289381   0.06402398470474749
0.04953648167424093   0.01558804247289381   0.06402398470474749
0.04953648167424093   0.01558804247289381   0.06402398470474749
-0.34343272880859   -0.12891246538410087   -0.028643459879715824
-0.34343272880859   -0.12891246538410087   -0.028643459879715824
-0.34343272880859   -0.12891246538410087   -0.028643459879715824
-0.34343272880859   -0.12891246538410087   -0.028643459879715824
-0.2868879736764806   -0.018659843515845657   0.029301970569082667
-0.2868879736764806   -0.018659843515845657   0.029301970569082667
-0.2868879736764806   -0.018659843515845657   0.029301970569082667
-0.2868879736764806   -0.018659843515845657   0.029301970569082667
0.05214118019882639   -0.015013605390598418   -0.022802008307000975
0.05214118019882639   -0.015013605390598418   -0.022802008307000975
0.05214118019882639   -0.015013605390598418   -0.022802008307000975
0.05214118019882639   -0.015013605390598418   -0.022802008307000975
-0.13498107968834805   -0.03344758136393514   -0.021627675914211674
-0.13498107968834805   -0.03344758136393514   -0.021627675914211674
-0.13498107968834805   -0.03344758136393514   -0.021627675914211674
-0.13498107968834805   -0.03344758136393514   -0.021627675914211674
0.08323803735701485   0.06086558249641102   0.056803089596931935
0.08323803735701485   0.06086558249641102   0.056803089596931935
0.08323803735701485   0.06086558249641102   0.056803089596931935
0.08323803735701485   0.06086558249641102   0.056803089596931935
-0.31512543498184364   -0.09167963555003986   -0.03886554392353814
-0.31512543498184364   -0.09167963555003986   -0.03886554392353814
-0.31512543498184364   -0.09167963555003986   -0.03886554392353814
-0.31512543498184364   -0.09167963555003986   -0.03886554392353814
-0.25702281849419506   0.024076776910904013   0.02071629325662923
-0.25702281849419506   0.024076776910904013   0.02071629325662923
-0.25702281849419506   0.024076776910904013   0.02071629325662923
-0.25702281849419506   0.024076776910904013   0.02071629325662923
0.08939619819396168   0.02557961142793598   -0.030849217691584906
0.08939619819396168   0.02557961142793598   -0.030849217691584906
0.08939619819396168   0.02557961142793598   -0.030849217691584906
0.08939619819396168   0.02557961142793598   -0.030849217691584906
-0.10333084263993844   0.004280808502527123   -0.002605037996145705
-0.10333084263993844   0.004280808502527123   -0.002605037996145705
-0.10333084263993844   0.004280808502527123   -0.002605037996145705
-0.10333084263993844   0.004280808502527123   -0.002605037996145705
0.12179763974539452   0.10587094183849928   0.05086665965501599
0.12179763974539452   0.10587094183849928   0.05086665965501599
0.12179763974539452   0.10587094183849928   0.05086665965501599
0.12179763974539452   0.10587094183849928   0.05086665965501599
-0.28667441344156896   -0.05346470689560033   -0.05000019767373586
-0.28667441344156896   -0.05346470689560033   -0.05000019767373586
-0.28667441344156896   -0.05346470689560033   -0.05000019767373586
-0.28667441344156896   -0.05346470689560033   -0.05000019767373586
-0.22698381897885458   0.07237567845768826   0.012531579043767678
-0.22698381897885458   0.07237567845768826   0.012531579043767678
-0.22698381897885458   0.07237567845768826   0.012531579043767678
-0.22698381897885458   0.07237567845768826   0.012531579043767678
0.12222064556810881   0.07157640117655295   -0.039403624105416674
0.12222064556810881   0.07157640117655295   -0.039403624105416674
0.12222064556810881   0.07157640117655295   -0.039403624105416674
0.12222064556810881   0.07157640117655295   -0.039403624105416674
-0.06836149349066156   0.04590365559437721   0.017663125139385803
-0.06836149349066156   0.04590365559437721   0.017663125139385803
-0.06836149349066156   0.04590365559437721   0.017663125139385803
-0.06836149349066156   0.04590365559437721   0.017663125139385803
-0.3122789862682125   -0.02478579109652936   0.022998578534600314
-0.3122789862682125   -0.02478579109652936   0.022998578534600314
-0.3122789862682125   -0.02478579109652936   0.022998578534600314
-0.3122789862682125   -0.02478579109652936   0.022998578534600314
-0.6715814139508446   -0.0914266288012813   0.005982330784447931
-0.6715814139508446   -0.0914266288012813   0.005982330784447931
-0.6715814139508446   -0.0914266288012813   0.005982330784447931
-0.6715814139508446   -0.0914266288012813   0.005982330784447931
-0.6453999027353966   -0.05723434967921683   -0.012663428257774167
-0.6453999027353966   -0.05723434967921683   -0.012663428257774167
-0.6453999027353966   -0.05723434967921683   -0.012663428257774167
-0.6453999027353966   -0.05723434967921683   -0.012663428257774167
-0.2813878418170609   0.023828979795774183   0.014313806554565017
-0.2813878418170609   0.023828979795774183   0.014313806554565017
-0.2813878418170609   0.023828979795774183   0.014313806554565017
-0.2813878418170609   0.023828979795774183   0.014313806554565017
-0.4783612177078143   -0.0343350016094575   -0.012569508720537678
-0.4783612177078143   -0.0343350016094575   -0.012569508720537678
-0.4783612177078143   -0.0343350016094575   -0.012569508720537678
-0.4783612177078143   -0.0343350016094575   -0.012569508720537678
-0.28177271618216954   0.021056213489952194   0.015162201034843968
-0.28177271618216954   0.021056213489952194   0.015162201034843968
-0.28177271618216954   0.021056213489952194   0.015162201034843968
-0.28177271618216954   0.021056213489952194   0.015162201034843968
-0.6425664739297705   -0.052013028932878284   -0.0037176049759877206
-0.6425664739297705   -0.052013028932878284   -0.0037176049759877206
-0.6425664739297705   -0.052013028932878284   -0.0037176049759877206
-0.6425664739297705   -0.052013028932878284   -0.0037176049759877206
-0.6140038666715605   -0.01018678373559977   -0.019914906524042278
-0.6140038666715605   -0.01018678373559977   -0.019914906524042278
-0.6140038666715605   -0.01018678373559977   -0.019914906524042278
-0.6140038666715605   -0.01018678373559977   -0.019914906524042278
-0.2518169687348696   0.0655752021069167   0.005247116857247984
-0.2518169687348696   0.0655752021069167   0.005247116857247984
-0.2518169687348696   0.0655752021069167   0.005247116857247984
-0.2518169687348696   0.0655752021069167   0.005247116857247984
-0.44595120809428884   0.007000567417160285   0.006587005000420282
-0.44595120809428884   0.007000567417160285   0.006587005000420282
-0.44595120809428884   0.007000567417160285   0.006587005000420282
-0.44595120809428884   0.007000567417160285   0.006587005000420282
-0.2510765422386912   0.06773879395399489   0.006785657491061685
-0.2510765422386912   0.06773879395399489   0.006785657491061685
-0.2510765422386912   0.06773879395399489   0.006785657491061685
-0.2510765422386912   0.06773879395399489   0.006785657491061685
-0.6127906293821269   -0.010396711797066974   -0.013638792015413001
-0.6127906293821269   -0.010396711797066974   -0.013638792015413001
-0.6127906293821269   -0.010396711797066974   -0.013638792015413001
-0.6127906293821269   -0.010396711797066974   -0.013638792015413001
-0.5838768535319763   0.03698368039007437   -0.028198122846675056
-0.5838768535319763   0.03698368039007437   -0.028198122846675056
-0.5838768535319763   0.03698368039007437   -0.028198122846675056
-0.5838768535319763   0.03698368039007437   -0.028198122846675056
-0.22351361409346895   0.10744448196114988   -0.00518620003276582
-0.22351361409346895   0.10744448196114988   -0.00518620003276582
-0.22351361409346895   0.10744448196114988   -0.00518620003276582
-0.22351361409346895   0.10744448196114988   -0.00518620003276582
-0.41522412667804426   0.04821960563622153   0.024492823741581057
-0.41522412667804426   0.04821960563622153   0.024492823741581057
-0.41522412667804426   0.04821960563622153   0.024492823741581057
-0.41522412667804426   0.04821960563622153   0.024492823741581057
-0.6712693584653702   -0.06457797593460787   -0.019306044654847115
-0.6712693584653702   -0.06457797593460787   -0.019306044654847115
-0.6712693584653702   -0.06457797593460787   -0.019306044654847115
-0.6712693584653702   -0.06457797593460787   -0.019306044654847115
-0.9960913199710206   -0.05620376866433324   0.03999722778335793
-0.9960913199710206   -0.05620376866433324   0.03999722778335793
-0.9960913199710206   -0.05620376866433324   0.03999722778335793
-0.9960913199710206   -0.05620376866433324   0.03999722778335793
-0.9962155039507185   -0.09498677425614283   -0.05359879875031459
-0.9962155039507185   -0.09498677425614283   -0.05359879875031459
-0.9962155039507185   -0.09498677425614283   -0.05359879875031459
-0.9962155039507185   -0.09498677425614283   -0.05359879875031459
-0.6094824532203754   0.06083501745609296   0.048854452182016644
-0.6094824532203754   0.06083501745609296   0.048854452182016644
-0.6094824532203754   0.06083501745609296   0.048854452182016644
-0.6094824532203754   0.06083501745609296   0.048854452182016644
-0.8136987291232582   -0.03473035019402197   -0.005274285232378384
-0.8136987291232582   -0.03473035019402197   -0.005274285232378384
-0.8136987291232582   -0.03473035019402197   -0.005274285232378384
-0.8136987291232582   -0.03473035019402197   -0.005274285232378384
-0.6404950218751533   -0.01849799401511178   -0.02687537962066326
-0.6404950218751533   -0.01849799401511178   -0.02687537962066326
-0.6404950218751533   -0.01849799401511178   -0.02687537962066326
-0.6404950218751533   -0.01849799401511178   -0.02687537962066326
-0.9631842936147709   -0.013635121103786743   0.030205599777074904
-0.9631842936147709   -0.013635121103786743   0.030205599777074904
-0.9631842936147709   -0.013635121103786743   0.030205599777074904
-0.9631842936147709   -0.013635121103786743   0.030205599777074904
-0.9569238542965494   -0.05009734536170806   -0.059635641634148445
-0.9569238542965494   -0.05009734536170806   -0.059635641634148445
-0.9569238542965494   -0.05009734536170806   -0.059635641634148445
-0.9569238542965494   -0.05009734536170806   -0.059635641634148445
-0.5804408755270035   0.09883595414333446   0.03887731131980822
-0.5804408755270035   0.09883595414333446   0.03887731131980822
-0.5804408755270035   0.09883595414333446   0.03887731131980822
-0.5804408755270035   0.09883595414333446   0.03887731131980822
-0.7748768729715807   0.006931222304912818   0.014455955523866804
-0.7748768729715807   0.006931222304912818   0.014455955523866804
-0.7748768729715807   0.006931222304912818   0.014455955523866804
-0.7748768729715807   0.006931222304912818   0.014455955523866804
-0.6104275135756643   0.023904221794388687   -0.036124146574549806
-0.6104275135756643   0.023904221794388687   -0.036124146574549806
-0.6104275135756643   0.023904221794388687   -0.036124146574549806
-0.6104275135756643   0.023904221794388687   -0.036124146574549806
-0.9246657895702234   0.02710581366490296   0.02445152297087061
-0.9246657895702234   0.02710581366490296   0.02445152297087061
-0.9246657895702234   0.02710581366490296   0.02445152297087061
-0.9246657895702234   0.02710581366490296   0.02445152297087061
-0.9217668744050321   -0.0011061148902437243   -0.06418582951732449
-0.9217668744050321   -0.0011061148902437243   -0.06418582951732449
-0.9217668744050321   -0.0011061148902437243   -0.06418582951732449
-0.9217668744050321   -0.0011061148902437243   -0.06418582951732449
-0.5516997585786977   0.1408435898375879   0.028827442472204617
-0.5516997585786977   0.1408435898375879   0.028827442472204617
-0.5516997585786977   0.1408435898375879   0.028827442472204617
-0.5516997585786977   0.1408435898375879   0.028827442472204617
-0.7457409880448257   0.04581993666216603   0.032149443400465494
-0.7457409880448257   0.04581993666216603   0.032149443400465494
-0.7457409880448257   0.04581993666216603   0.032149443400465494
-0.7457409880448257   0.04581993666216603   0.032149443400465494
-1.023124465431638   -0.09282419332399457   -0.05854807486006805
-1.023124465431638   -0.09282419332399457   -0.05854807486006805
-1.023124465431638   -0.09282419332399457   -0.05854807486006805
-1.023124465431638   -0.09282419332399457   -0.05854807486006805
-1.3657904428111114   -0.023770231137339753   0.08644990575486611
-1.3657904428111114   -0.023770231137339753   0.08644990575486611
-1.3657904428111114   -0.023770231137339753   0.08644990575486611
-1.3657904428111114   -0.023770231137339753   0.08644990575486611
-1.346474664201699   -0.12384240854928694   -0.07805920119798046
-1.346474664201699   -0.12384240854928694   -0.07805920119798046
-1.346474664201699   -0.12384240854928694   -0.07805920119798046
-1.346474664201699   -0.12384240854928694   -0.07805920119798046
-0.9289051818351894   0.10274235702316509   0.08522368054802301
-0.9289051818351894   0.10274235702316509   0.08522368054802301
-0.9289051818351894   0.10274235702316509   0.08522368054802301
-0.9289051818351894   0.10274235702316509   0.08522368054802301
-1.1158266950471718   -0.019767923968916093   0.009171221922798178
-1.1158266950471718   -0.019767923968916093   0.009171221922798178
-1.1158266950471718   -0.019767923968916093   0.009171221922798178
-1.1158266950471718   -0.019767923968916093   0.009171221922798178
-0.9897668318248775   -0.05013120359148023   -0.06621100878576847
-0.9897668318248775   -0.05013120359148023   -0.06621100878576847
-0.9897668318248775   -0.05013120359148023   -0.06621100878576847
-0.9897668318248775   -0.05013120359148023   -0.06621100878576847
-1.283784875271232   0.03085929100613391   0.08068804389890982
-1.283784875271232   0.03085929100613391   0.08068804389890982
-1.283784875271232   0.03085929100613391   0.08068804389890982
-1.283784875271232   0.03085929100613391   0.08068804389890982
-1.284408993606598   -0.09719791705508724   -0.0928835028453189
-1.284408993606598   -0.09719791705508724   -0.0928835028453189
-1.284408993606598   -0.09719791705508724   -0.0928835028453189
-1.284408993606598   -0.09719791705508724   -0.0928835028453189
-0.8968764345380499   0.12025826331954752   0.07024584847708598
-0.8968764345380499   0.12025826331954752   0.07024584847708598
-0.8968764345380499   0.12025826331954752   0.07024584847708598
-0.8968764345380499   0.12025826331954752   0.07024584847708598
-1.0804888197637381   0.00817816146056563   0.025118664158775172
-1.0804888197637381   0.00817816146056563   0.025118664158775172
-1.0804888197637381   0.00817816146056563   0.025118664158775172
-1.0804888197637381   0.00817816146056563   0.025118664158775172
-0.9559054658368015   -0.028207266559573   -0.07643377813754423
-0.9559054658368015   -0.028207266559573   -0.07643377813754423
-0.9559054658368015   -0.028207266559573   -0.07643377813754423
-0.9559054658368015   -0.028207266559573   -0.07643377813754423
-1.2231401939339108   0.0535073811979684   0.0627551972650513
-1.2231401939339108   0.0535073811979684   0.0627551972650513
-1.2231401939339108   0.0535073811979684   0.0627551972650513
-1.2231401939339108   0.0535073811979684   0.0627551972650513
-1.208012607675365   -0.05736713938583713   -0.10355437869890075
-1.208012607675365   -0.05736713938583713   -0.10355437869890075
-1.208012607675365   -0.05736713938583713   -0.10355437869890075
-1.208012607675365   -0.05736713938583713   -0.10355437869890075
-0.8687094898663804   0.14147779842252392   0.05851717986316263
-0.8687094898663804   0.14147779842252392   0.05851717986316263
-0.8687094898663804   0.14147779842252392   0.05851717986316263
-0.8687094898663804   0.14147779842252392   0.05851717986316263
-1.0146909063495855   0.034382061182674326   0.04755060985911036
-1.0146909063495855   0.034382061182674326   0.04755060985911036
-1.0146909063495855   0.034382061182674326   0.04755060985911036
-1.0146909063495855   0.034382061182674326   0.04755060985911036
1.0866986945468067   0.09869490491333921   0.09449932995901322
1.0866986945468067   0.09869490491333921   0.09449932995901322
1.0866986945468067   0.09869490491333921   0.09449932995901322
1.0866986945468067   0.09869490491333921   0.09449932995901322
0.3982796624659291   -0.18111341901871916   -0.06221460371484315
0.3982796624659291   -0.18111341901871916   -0.06221460371484315
0.3982796624659291   -0.18111341901871916   -0.06221460371484315
0.3982796624659291   -0.18111341901871916   -0.06221460371484315
0.49218707332122313   -0.0009675816720477858   0.06801637506118774
0.49218707332122313   -0.0009675816720477858   0.06801637506118774
0.49218707332122313   -0.0009675816720477858   0.06801637506118774
0.49218707332122313   -0.0009675816720477858   0.06801637506118774
1.106639283479503   -0.02547454904814475   -0.07941181570890687
1.106639283479503   -0.02547454904814475   -0.07941181570890687
1.106639283479503   -0.02547454904814475   -0.07941181570890687
1.106639283479503   -0.02547454904814475   -0.07941181570890687
0.7235263425219035   -0.0328818544596287   -0.06996585005722442
0.7235263425219035   -0.0328818544596287   -0.06996585005722442
0.7235263425219035   -0.0328818544596287   -0.06996585005722442
0.7235263425219035   -0.0328818544596287   -0.06996585005722442
1.1715924346018074   0.13773841145227164   0.08214097940220055
1.1715924346018074   0.13773841145227164   0.08214097940220055
1.1715924346018074   0.13773841145227164   0.08214097940220055
1.1715924346018074   0.13773841145227164   0.08214097940220055
0.43182139573093825   -0.15959306864044182   -0.07518652592182759
0.43182139573093825   -0.15959306864044182   -0.07518652592182759
0.43182139573093825   -0.15959306864044182   -0.07518652592182759
0.43182139573093825   -0.15959306864044182   -0.07518652592182759
0.5293359464807958   0.020415880129644397   0.05610598570612437
0.5293359464807958   0.020415880129644397   0.05610598570612437
0.5293359464807958   0.020415880129644397   0.05610598570612437
0.5293359464807958   0.020415880129644397   0.05610598570612437
1.1742345679107482   -0.0011630426396754129   -0.10008574053962399
1.1742345679107482   -0.0011630426396754129   -0.10008574053962399
1.1742345679107482   -0.0011630426396754129   -0.10008574053962399
1.1742345679107482   -0.0011630426396754129   -0.10008574053962399
0.7940634777135839   -0.006608179339947472   -0.04234623563731063
0.7940634777135839   -0.006608179339947472   -0.04234623563731063
0.7940634777135839   -0.006608179339947472   -0.04234623563731063
0.7940634777135839   -0.006608179339947472   -0.04234623563731063
1.239921226222205   0.16395720051024634   0.06322730786772487
1.239921226222205   0.16395720051024634   0.06322730786772487
1.239921226222205   0.16395720051024634   0.06322730786772487
1.239921226222205   0.16395720051024634   0.06322730786772487
0.4685393779028732   -0.13981427328675433   -0.08764670376708225
0.4685393779028732   -0.13981427328675433   -0.08764670376708225
0.4685393779028732   -0.13981427328675433   -0.08764670376708225
0.4685393779028732   -0.13981427328675433   -0.08764670376708225
0.5664310812485082   0.06752302342132822   0.048627787479617476
0.5664310812485082   0.06752302342132822   0.048627787479617476
0.5664310812485082   0.06752302342132822   0.048627787479617476
0.5664310812485082   0.06752302342132822   0.048627787479617476
1.2629735118842853   0.06224766299423029   -0.10798115743979958
1.2629735118842853   0.06224766299423029   -0.10798115743979958
1.2629735118842853   0.06224766299423029   -0.10798115743979958
1.2629735118842853   0.06224766299423029   -0.10798115743979958
0.8377166457288142   0.0253307416673813   -0.018425656312433453
0.8377166457288142   0.0253307416673813   -0.018425656312433453
0.8377166457288142   0.0253307416673813   -0.018425656312433453
0.8377166457288142   0.0253307416673813   -0.018425656312433453
0.47307119920430324   0.05520245365507906   0.07542720730322913
0.47307119920430324   0.05520245365507906   0.07542720730322913
0.47307119920430324   0.05520245365507906   0.07542720730322913
0.47307119920430324   0.05520245365507906   0.07542720730322913
-0.22997447517692965   -0.1689691356170917   -0.03257341827491982
-0.22997447517692965   -0.1689691356170917   -0.03257341827491982
-0.22997447517692965   -0.1689691356170917   -0.03257341827491982
-0.22997447517692965   -0.1689691356170917   -0.03257341827491982
-0.16532527127089094   -0.049369155293971734   0.022886693645849825
-0.16532527127089094   -0.049369155293971734   0.022886693645849825
-0.16532527127089094   -0.049369155293971734   0.022886693645849825
-0.16532527127089094   -0.049369155293971734   0.022886693645849825
0.47697999346193215   0.0010543731704860879   -0.010040979077801507
0.47697999346193215   0.0010543731704860879   -0.010040979077801507
0.47697999346193215   0.0010543731704860879   -0.010040979077801507
0.47697999346193215   0.0010543731704860879   -0.010040979077801507
0.13246756543719182   -0.035818073547738936   -0.0298482803248417
0.13246756543719182   -0.035818073547738936   -0.0298482803248417
0.13246756543719182   -0.035818073547738936   -0.0298482803248417
0.13246756543719182   -0.035818073547738936   -0.0298482803248417
0.5112176219968466   0.09483532665321556   0.06736621011404878
0.5112176219968466   0.09483532665321556   0.06736621011404878
0.5112176219968466   0.09483532665321556   0.06736621011404878
0.5112176219968466   0.09483532665321556   0.06736621011404878
-0.19680770446610873   -0.14039491343699306   -0.043499714187217736
-0.19680770446610873   -0.14039491343699306   -0.043499714187217736
-0.19680770446610873   -0.14039491343699306   -0.043499714187217736
-0.19680770446610873   -0.14039491343699306   -0.043499714187217736
-0.13071026615008755   -0.00937620261665904   0.014478176429489238
-0.13071026615008755   -0.00937620261665904   0.014478176429489238
-0.13071026615008755   -0.00937620261665904   0.014478176429489238
-0.13071026615008755   -0.00937620261665904   0.014478176429489238
0.5176822973116088   0.03695779322287164   -0.018704173233030807
0.5176822973116088   0.03695779322287164   -0.018704173233030807
0.5176822973116088   0.03695779322287164   -0.018704173233030807
0.5176822973116088   0.03695779322287164   -0.018704173233030807
0.16592446214030557   -0.004205086964263917   -0.01187495205607423
0.16592446214030557   -0.004205086964263917   -0.01187495205607423
0.16592446214030557   -0.004205086964263917   -0.01187495205607423
0.16592446214030557   -0.004205086964263917   -0.01187495205607423
0.5532870764243554   0.13648594476920412   0.05979157078436208
0.5532870764243554   0.13648594476920412   0.05979157078436208
0.5532870764243554   0.13648594476920412   0.05979157078436208
0.5532870764243554   0.13648594476920412   0.05979157078436208
-0.16355229216429995   -0.10614160106444835   -0.05296655519378348
-0.16355229216429995   -0.10614160106444835   -0.05296655519378348
-0.16355229216429995   -0.10614160106444835   -0.05296655519378348
-0.16355229216429995   -0.10614160106444835   -0.05296655519378348
-0.09653642664610468   0.03692685392467604   0.0061057118494122695
-0.09653642664610468   0.03692685392467604   0.0061057118494122695
-0.09653642664610468   0.03692685392467604   0.0061057118494122695
-0.09653642664610468   0.03692685392467604   0.0061057118494122695
0.553798748821284   0.07968426974240111   -0.026695120977569015
0.553798748821284   0.07968426974240111   -0.026695120977569015
0.553798748821284   0.07968426974240111   -0.026695120977569015
0.553798748821284   0.07968426974240111   -0.026695120977569015
0.20719524568424186   0.03453946605750786   0.009101070834420508
0.20719524568424186   0.03453946605750786   0.009101070834420508
0.20719524568424186   0.03453946605750786   0.009101070834420508
0.20719524568424186   0.03453946605750786   0.009101070834420508
-0.18087363633425013   0.011925657191177448   0.0320359831302086
-0.18087363633425013   0.011925657191177448   0.0320359831302086
-0.18087363633425013   0.011925657191177448   0.0320359831302086
-0.18087363633425013   0.011925657191177448   0.0320359831302086
-0.8457452736307982   -0.14913382910658085   -0.00426587720723548
-0.8457452736307982   -0.14913382910658085   -0.00426587720723548
-0.8457452736307982   -0.14913382910658085   -0.00426587720723548
-0.8457452736307982   -0.14913382910658085   -0.00426587720723548
-0.8046731504208934   -0.08766768894350671   -0.019884228538006893
-0.8046731504208934   -0.08766768894350671   -0.019884228538006893
-0.8046731504208934   -0.08766768894350671   -0.019884228538006893
-0.8046731504208934   -0.08766768894350671   -0.019884228538006893
-0.1513738471371126   0.021945103803589362   0.021329555217180572
-0.1513738471371126   0.021945103803589362   0.021329555217180572
-0.1513738471371126   0.021945103803589362   0.021329555217180572
-0.1513738471371126   0.021945103803589362   0.021329555217180572
-0.4965417087166548   -0.04588141923874527   -0.018626101414174506
-0.4965417087166548   -0.04588141923874527   -0.018626101414174506
-0.4965417087166548   -0.04588141923874527   -0.018626101414174506
-0.4965417087166548   -0.04588141923874527   -0.018626101414174506
-0.14454884964832065   0.05317828850962929   0.02422135795510028
-0.14454884964832065   0.05317828850962929   0.02422135795510028
-0.14454884964832065   0.05317828850962929   0.02422135795510028
-0.14454884964832065   0.05317828850962929   0.02422135795510028
-0.8096654457415963   -0.11706817148145754   -0.015445222603570286
-0.8096654457415963   -0.11706817148145754   -0.015445222603570286
-0.8096654457415963   -0.11706817148145754   -0.015445222603570286
-0.8096654457415963   -0.11706817148145754   -0.015445222603570286
-0.7665272891832913   -0.04378928937733385   -0.026865020115583005
-0.7665272891832913   -0.04378928937733385   -0.026865020115583005
-0.7665272891832913   -0.04378928937733385   -0.026865020115583005
-0.7665272891832913   -0.04378928937733385   -0.026865020115583005
-0.11767919626633998   0.05821029424286181   0.012047028988706219
-0.11767919626633998   0.05821029424286181   0.012047028988706219
-0.11767919626633998   0.05821029424286181   0.012047028988706219
-0.11767919626633998   0.05821029424286181   0.012047028988706219
-0.45807152218073555   -0.00916542940190531   -0.0002900022370627142
-0.45807152218073555   -0.00916542940190531   -0.0002900022370627142
-0.45807152218073555   -0.00916542940190531   -0.0002900022370627142
-0.45807152218073555   -0.00916542940190531   -0.0002900022370627142
-0.10944606799290982   0.09607045983633569   0.015352504762383173
-0.10944606799290982   0.09607045983633569   0.015352504762383173
-0.10944606799290982   0.09607045983633569   0.015352504762383173
-0.10944606799290982   0.09607045983633569   0.015352504762383173
-0.7730565461509837   -0.07994558366508009   -0.023355010666298304
-0.7730565461509837   -0.07994558366508009   -0.023355010666298304
-0.7730565461509837   -0.07994558366508009   -0.023355010666298304
-0.7730565461509837   -0.07994558366508009   -0.023355010666298304
-0.7310224024091639   -6.374640387224809e-05   -0.03521855354218144
-0.7310224024091639   -6.374640387224809e-05   -0.03521855354218144
-0.7310224024091639   -6.374640387224809e-05   -0.03521855354218144
-0.7310224024091639   -6.374640387224809e-05   -0.03521855354218144
-0.08550736499803349   0.09525593630173665   0.002921937712707585
-0.08550736499803349   0.09525593630173665   0.002921937712707585
-0.08550736499803349   0.09525593630173665   0.002921937712707585
-0.08550736499803349   0.09525593630173665   0.002921937712707585
-0.42272610695096163   0.027410752965146615   0.01716128563263712
-0.42272610695096163   0.027410752965146615   0.01716128563263712
-0.42272610695096163   0.027410752965146615   0.01716128563263712
-0.42272610695096163   0.027410752965146615   0.01716128563263712
-0.8240728723233534   -0.03233922053899052   -0.01269847923759565
-0.8240728723233534   -0.03233922053899052   -0.01269847923759565
-0.8240728723233534   -0.03233922053899052   -0.01269847923759565
-0.8240728723233534   -0.03233922053899052   -0.01269847923759565
-1.4472181072909527   -0.12072089316730432   0.02809565283940485
-1.4472181072909527   -0.12072089316730432   0.02809565283940485
-1.4472181072909527   -0.12072089316730432   0.02809565283940485
-1.4472181072909527   -0.12072089316730432   0.02809565283940485
-1.4271089190088526   -0.12443153520446504   -0.059851845332234865
-1.4271089190088526   -0.12443153520446504   -0.059851845332234865
-1.4271089190088526   -0.12443153520446504   -0.059851845332234865
-1.4271089190088526   -0.12443153520446504   -0.059851845332234865
-0.761227886678337   0.05600836268891853   0.053666038542357436
-0.761227886678337   0.05600836268891853   0.053666038542357436
-0.761227886678337   0.05600836268891853   0.053666038542357436
-0.761227886678337   0.05600836268891853   0.053666038542357436
-1.1071926724072592   -0.04837154734162291   -0.0064847636879635795
-1.1071926724072592   -0.04837154734162291   -0.0064847636879635795
-1.1071926724072592   -0.04837154734162291   -0.0064847636879635795
-1.1071926724072592   -0.04837154734162291   -0.0064847636879635795
-0.7845811540105758   0.01218833314637792   -0.019280268576296777
-0.7845811540105758   0.01218833314637792   -0.019280268576296777
-0.7845811540105758   0.01218833314637792   -0.019280268576296777
-0.7845811540105758   0.01218833314637792   -0.019280268576296777
-1.403683227558482   -0.08053908154379304   0.0133841582589449
-1.403683227558482   -0.08053908154379304   0.0133841582589449
-1.403683227558482   -0.08053908154379304   0.0133841582589449
-1.403683227558482   -0.08053908154379304   0.0133841582589449
-1.377291194936909   -0.08154929505825771   -0.06619861527824694
-1.377291194936909   -0.08154929505825771   -0.06619861527824694
-1.377291194936909   -0.08154929505825771   -0.06619861527824694
-1.377291194936909   -0.08154929505825771   -0.06619861527824694
-0.72570006024012   0.09060028869160669   0.0428815465313378
-0.72570006024012   0.09060028869160669   0.0428815465313378
-0.72570006024012   0.09060028869160669   0.0428815465313378
-0.72570006024012   0.09060028869160669   0.0428815465313378
-1.056543361508324   -0.0077824013873938405   0.011893291095305403
-1.056543361508324   -0.0077824013873938405   0.011893291095305403
-1.056543361508324   -0.0077824013873938405   0.011893291095305403
-1.056543361508324   -0.0077824013873938405   0.011893291095305403
-0.7476217683148988   0.05199914357633657   -0.028125848727285893
-0.7476217683148988   0.05199914357633657   -0.028125848727285893
-0.7476217683148988   0.05199914357633657   -0.028125848727285893
-0.7476217683148988   0.05199914357633657   -0.028125848727285893
-1.3542320749987589   -0.0418107380796159   0.009358427433863559
-1.3542320749987589   -0.0418107380796159   0.009358427433863559
-1.3542320749987589   -0.0418107380796159   0.009358427433863559
-1.3542320749987589   -0.0418107380796159   0.009358427433863559
-1.3327422191433236   -0.035049349901171076   -0.06959479565696425
-1.3327422191433236   -0.035049349901171076   -0.06959479565696425
-1.3327422191433236   -0.035049349901171076   -0.06959479565696425
-1.3327422191433236   -0.035049349901171076   -0.06959479565696425
-0.6912898935929264   0.12866067296401146   0.034719571171131475
-0.6912898935929264   0.12866067296401146   0.034719571171131475
-0.6912898935929264   0.12866067296401146   0.034719571171131475
-0.6912898935929264   0.12866067296401146   0.034719571171131475
-1.022196119098513   0.02693637669276172   0.027753836547367794
-1.022196119098513   0.02693637669276172   0.027753836547367794
-1.022196119098513   0.02693637669276172   0.027753836547367794
-1.022196119098513   0.02693637669276172   0.027753836547367794
-1.4533939208658746   -0.06940147461647284   -0.05410283358603618
-1.4533939208658746   -0.06940147461647284   -0.05410283358603618
-1.4533939208658746   -0.06940147461647284   -0.05410283358603618
-1.4533939208658746   -0.06940147461647284   -0.05410283358603618
-2.0709467104193244   -0.07460754864669172   0.09378590958138827
-2.0709467104193244   -0.07460754864669172   0.09378590958138827
-2.0709467104193244   -0.07460754864669172   0.09378590958138827
-2.0709467104193244   -0.07460754864669172   0.09378590958138827
-2.0307876293915674   -0.1489978809004859   -0.07159506151385431
-2.0307876293915674   -0.1489978809004859   -0.07159506151385431
-2.0307876293915674   -0.1489978809004859   -0.07159506151385431
-2.0307876293915674   -0.1489978809004859   -0.07159506151385431
-1.3479930019865376   0.11600946003426266   0.09528674454060049
-1.3479930019865376   0.11600946003426266   0.09528674454060049
-1.3479930019865376   0.11600946003426266   0.09528674454060049
-1.3479930019865376   0.11600946003426266   0.09528674454060049
-1.6492555549728398   -0.020395432268111538   0.018997763218700225
-1.6492555549728398   -0.020395432268111538   0.018997763218700225
-1.6492555549728398   -0.020395432268111538   0.018997763218700225
-1.6492555549728398   -0.020395432268111538   0.018997763218700225
-1.4066557865568454   -0.02188003640507709   -0.06013768187159346
-1.4066557865568454   -0.02188003640507709   -0.06013768187159346
-1.4066557865568454   -0.02188003640507709   -0.06013768187159346
-1.4066557865568454   -0.02188003640507709   -0.06013768187159346
-1.9711757609701095   -0.010159300609987681   0.08762570030292088
-1.9711757609701095   -0.010159300609987681   0.08762570030292088
-1.9711757609701095   -0.010159300609987681   0.08762570030292088
-1.9711757609701095   -0.010159300609987681   0.08762570030292088
-1.9554925900964026   -0.1223741759802061   -0.08430019246339077
-1.9554925900964026   -0.1223741759802061   -0.08430019246339077
-1.9554925900964026   -0.1223741759802061   -0.08430019246339077
-1.9554925900964026   -0.1223741759802061   -0.08430019246339077
-1.3061581597475662   0.13243356456693567   0.07548370104327384
-1.3061581597475662   0.13243356456693567   0.07548370104327384
-1.3061581597475662   0.13243356456693567   0.07548370104327384
-1.3061581597475662   0.13243356456693567   0.07548370104327384
-1.6102212995643481   0.00865689610761948   0.034323430907603814
-1.6102212995643481   0.00865689610761948   0.034323430907603814
-1.6102212995643481   0.00865689610761948   0.034323430907603814
-1.6102212995643481   0.00865689610761948   0.034323430907603814
-1.361505153554095   -0.0004001590529609522   -0.06841754436947267
-1.361505153554095   -0.0004001590529609522   -0.06841754436947267
-1.361505153554095   -0.0004001590529609522   -0.06841754436947267
-1.361505153554095   -0.0004001590529609522   -0.06841754436947267
-1.8992035567679653   0.011401587161594492   0.06336921103696669
-1.8992035567679653   0.011401587161594492   0.06336921103696669
-1.8992035567679653   0.011401587161594492   0.06336921103696669
-1.8992035567679653   0.011401587161594492   0.06336921103696669
-1.8732510285681585   -0.09034128590702338   -0.09603670308279583
-1.8732510285681585   -0.09034128590702338   -0.09603670308279583
-1.8732510285681585   -0.09034128590702338   -0.09603670308279583
-1.8732510285681585   -0.09034128590702338   -0.09603670308279583
-1.2693650356075896   0.1479564909937579   0.06428528112677212
-1.2693650356075896   0.1479564909937579   0.06428528112677212
-1.2693650356075896   0.1479564909937579   0.06428528112677212
-1.2693650356075896   0.1479564909937579   0.06428528112677212
-1.527332570640342   0.03283208516841954   0.05743188564398649
-1.527332570640342   0.03283208516841954   0.05743188564398649
-1.527332570640342   0.03283208516841954   0.05743188564398649
-1.527332570640342   0.03283208516841954   0.05743188564398649
1.8268639485067688   0.13644996286838798   0.09701801967985291
1.8268639485067688   0.13644996286838798   0.09701801967985291
1.8268639485067688   0.13644996286838798   0.09701801967985291
1.8268639485067688   0.13644996286838798   0.09701801967985291
0.8062454788659191   -0.21559648705761636   -0.04448163956154508
0.8062454788659191   -0.21559648705761636   -0.04448163956154508
0.8062454788659191   -0.21559648705761636   -0.04448163956154508
0.8062454788659191   -0.21559648705761636   -0.04448163956154508
0.8993416130345887   -0.03771627703625769   0.06667721479538105
0.8993416130345887   -0.03771627703625769   0.06667721479538105
0.8993416130345887   -0.03771627703625769   0.06667721479538105
0.8993416130345887   -0.03771627703625769   0.06667721479538105
1.8472205349520903   -0.00384072248684246   -0.06979038096144924
1.8472205349520903   -0.00384072248684246   -0.06979038096144924
1.8472205349520903   -0.00384072248684246   -0.06979038096144924
1.8472205349520903   -0.00384072248684246   -0.06979038096144924
1.2661221493461619   -0.038568701888241505   -0.09919485359813773
1.2661221493461619   -0.038568701888241505   -0.09919485359813773
1.2661221493461619   -0.038568701888241505   -0.09919485359813773
1.2661221493461619   -0.038568701888241505   -0.09919485359813773
1.911713037325254   0.16765737212191817   0.08117403629559511
1.911713037325254   0.16765737212191817   0.08117403629559511
1.911713037325254   0.16765737212191817   0.08117403629559511
1.911713037325254   0.16765737212191817   0.08117403629559511
0.8410382352435318   -0.20302524706291245   -0.05953070413324088
0.8410382352435318   -0.20302524706291245   -0.05953070413324088
0.8410382352435318   -0.20302524706291245   -0.05953070413324088
0.8410382352435318   -0.20302524706291245   -0.05953070413324088
0.9358259907470124   -0.018042717294390512   0.05392446335059753
0.9358259907470124   -0.018042717294390512   0.05392446335059753
0.9358259907470124   -0.018042717294390512   0.05392446335059753
0.9358259907470124   -0.018042717294390512   0.05392446335059753
1.9108609864392403   0.01786014872534797   -0.08725069889651027
1.9108609864392403   0.01786014872534797   -0.08725069889651027
1.9108609864392403   0.01786014872534797   -0.08725069889651027
1.9108609864392403   0.01786014872534797   -0.08725069889651027
1.3459609572985096   -0.01535915386598695   -0.06744475815542689
1.3459609572985096   -0.01535915386598695   -0.06744475815542689
1.3459609572985096   -0.01535915386598695   -0.06744475815542689
1.3459609572985096   -0.01535915386598695   -0.06744475815542689
1.9749828292679101   0.19103957544508907   0.06017908852709791
1.9749828292679101   0.19103957544508907   0.06017908852709791
1.9749828292679101   0.19103957544508907   0.06017908852709791
1.9749828292679101   0.19103957544508907   0.06017908852709791
0.877125517623487   -0.18580077430898725   -0.0718198452524332
0.877125517623487   -0.18580077430898725   -0.0718198452524332
0.877125517623487   -0.18580077430898725   -0.0718198452524332
0.877125517623487   -0.18580077430898725   -0.0718198452524332
0.9688662941807205   0.03447787267775502   0.04727710868138907
0.9688662941807205   0.03447787267775502   0.04727710868138907
0.9688662941807205   0.03447787267775502   0.04727710868138907
0.9688662941807205   0.03447787267775502   0.04727710868138907
1.9891201101073124   0.08133968022978283   -0.09138668210164685
1.9891201101073124   0.08133968022978283   -0.09138668210164685
1.9891201101073124   0.08133968022978283   -0.09138668210164685
1.9891201101073124   0.08133968022978283   -0.09138668210164685
1.3759703888916865   0.01585820918776426   -0.04544093375678182
1.3759703888916865   0.01585820918776426   -0.04544093375678182
1.3759703888916865   0.01585820918776426   -0.04544093375678182
1.3759703888916865   0.01585820918776426   -0.04544093375678182
0.8919269465077816   0.07965972891073023   0.08866948267941721
0.8919269465077816   0.07965972891073023   0.08866948267941721
0.8919269465077816   0.07965972891073023   0.08866948267941721
0.8919269465077816   0.07965972891073023   0.08866948267941721
-0.10948310540775022   -0.26582474832937397   -0.025303142668958528
-0.10948310540775022   -0.26582474832937397   -0.025303142668958528
-0.10948310540775022   -0.26582474832937397   -0.025303142668958528
-0.10948310540775022   -0.26582474832937397   -0.025303142668958528
-0.029220886194406714   -0.09364935585021703   0.022641255474960473
-0.029220886194406714   -0.09364935585021703   0.022641255474960473
-0.029220886194406714   -0.09364935585021703   0.022641255474960473
-0.029220886194406714   -0.09364935585021703   0.022641255474960473
0.884471002125039   -0.04972906607535601   0.004336949286730979
0.884471002125039   -0.04972906607535601   0.004336949286730979
0.884471002125039   -0.04972906607535601   0.004336949286730979
0.884471002125039   -0.04972906607535601   0.004336949286730979
0.3983334694185071   -0.07430044645162436   -0.047362607078205526
0.3983334694185071   -0.07430044645162436   -0.047362607078205526
0.3983334694185071   -0.07430044645162436   -0.047362607078205526
0.3983334694185071   -0.07430044645162436   -0.047362607078205526
0.9311755780235542   0.10960653203264571   0.07852423067131312
0.9311755780235542   0.10960653203264571   0.07852423067131312
0.9311755780235542   0.10960653203264571   0.07852423067131312
0.9311755780235542   0.10960653203264571   0.07852423067131312
-0.0726722755842478   -0.2497317674495433   -0.03853327987491872
-0.0726722755842478   -0.2497317674495433   -0.03853327987491872
-0.0726722755842478   -0.2497317674495433   -0.03853327987491872
-0.0726722755842478   -0.2497317674495433   -0.03853327987491872
0.007987598142035365   -0.0584715064167321   0.013844027738462508
0.007987598142035365   -0.0584715064167321   0.013844027738462508
0.007987598142035365   -0.0584715064167321   0.013844027738462508
0.007987598142035365   -0.0584715064167321   0.013844027738462508
0.9225552509892638   -0.023208084300853082   -0.007263868431683362
0.9225552509892638   -0.023208084300853082   -0.007263868431683362
0.9225552509892638   -0.023208084300853082   -0.007263868431683362
0.9225552509892638   -0.023208084300853082   -0.007263868431683362
0.4306848182064376   -0.052709215704331853   -0.0307183554555448
0.4306848182064376   -0.052709215704331853   -0.0307183554555448
0.4306848182064376   -0.052709215704331853   -0.0307183554555448
0.4306848182064376   -0.052709215704331853   -0.0307183554555448
0.9717691694055375   0.1455296084650248   0.07006803088380639
0.9717691694055375   0.1455296084650248   0.07006803088380639
0.9717691694055375   0.1455296084650248   0.07006803088380639
0.9717691694055375   0.1455296084650248   0.07006803088380639
-0.03929863450748274   -0.22528151341586417   -0.05577712850999214
-0.03929863450748274   -0.22528151341586417   -0.05577712850999214
-0.03929863450748274   -0.22528151341586417   -0.05577712850999214
-0.03929863450748274   -0.22528151341586417   -0.05577712850999214
0.03719022321115787   -0.01730870579714406   0.004948526934769716
0.03719022321115787   -0.01730870579714406   0.004948526934769716
0.03719022321115787   -0.01730870579714406   0.004948526934769716
0.03719022321115787   -0.01730870579714406   0.004948526934769716
0.9510844599893109   0.01059476026629403   -0.017748949864212132
0.9510844599893109   0.01059476026629403   -0.017748949864212132
0.9510844599893109   0.01059476026629403   -0.017748949864212132
0.9510844599893109   0.01059476026629403   -0.017748949864212132
0.4702254961663996   -0.02042814522008393   -0.012884171386535373
0.4702254961663996   -0.02042814522008393   -0.012884171386535373
0.4702254961663996   -0.02042814522008393   -0.012884171386535373
0.4702254961663996   -0.02042814522008393   -0.012884171386535373
-0.03804066774650659   0.022064272477751418   0.04402002483013418
-0.03804066774650659   0.022064272477751418   0.04402002483013418
-0.03804066774650659   0.022064272477751418   0.04402002483013418
-0.03804066774650659   0.022064272477751418   0.04402002483013418
-1.0181789841062776   -0.3338022170582694   -0.020400516113866285
-1.0181789841062776   -0.3338022170582694   -0.020400516113866285
-1.0181789841062776   -0.3338022170582694   -0.020400516113866285
-1.0181789841062776   -0.3338022170582694   -0.020400516113866285
-0.9368877698838138   -0.1437053269963453   -0.021408676035791496
-0.9368877698838138   -0.1437053269963453   -0.021408676035791496
-0.9368877698838138   -0.1437053269963453   -0.021408676035791496
-0.9368877698838138   -0.1437053269963453   -0.021408676035791496
-0.03417183793132779   -0.11557243296005223   0.019809573900190308
-0.03417183793132779   -0.11557243296005223   0.019809573900190308
-0.03417183793132779   -0.11557243296005223   0.019809573900190308
-0.03417183793132779   -0.11557243296005223   0.019809573900190308
-0.5091420493498163   -0.1351050052512744   -0.0423332556270352
-0.5091420493498163   -0.1351050052512744   -0.0423332556270352
-0.5091420493498163   -0.1351050052512744   -0.0423332556270352
-0.5091420493498163   -0.1351050052512744   -0.0423332556270352
0.0032826964176544482   0.055760386673430425   0.03574942601161883
0.0032826964176544482   0.055760386673430425   0.03574942601161883
0.0032826964176544482   0.055760386673430425   0.03574942601161883
0.0032826964176544482   0.055760386673430425   0.03574942601161883
-0.9719961699677756   -0.3126920123648074   -0.027963991087138096
-0.9719961699677756   -0.3126920123648074   -0.027963991087138096
-0.9719961699677756   -0.3126920123648074   -0.027963991087138096
-0.9719961699677756   -0.3126920123648074   -0.027963991087138096
-0.8907444924664782   -0.10464755242224821   -0.029176908136705565
-0.8907444924664782   -0.10464755242224821   -0.029176908136705565
-0.8907444924664782   -0.10464755242224821   -0.029176908136705565
-0.8907444924664782   -0.10464755242224821   -0.029176908136705565
0.0005003799780507485   -0.09009264518803207   0.008029075689843245
0.0005003799780507485   -0.09009264518803207   0.008029075689843245
0.0005003799780507485   -0.09009264518803207   0.008029075689843245
0.0005003799780507485   -0.09009264518803207   0.008029075689843245
-0.4643483264059431   -0.10703782321836809   -0.023538032954642407
-0.4643483264059431   -0.10703782321836809   -0.023538032954642407
-0.4643483264059431   -0.10703782321836809   -0.023538032954642407
-0.4643483264059431   -0.10703782321836809   -0.023538032954642407
0.04110036851697488   0.09312006336755825   0.02781630982887358
0.04110036851697488   0.09312006336755825   0.02781630982887358
0.04110036851697488   0.09312006336755825   0.02781630982887358
0.04110036851697488   0.09312006336755825   0.02781630982887358
-0.9313774227204104   -0.28789320269284646   -0.049095909135767696
-0.9313774227204104   -0.28789320269284646   -0.049095909135767696
-0.9313774227204104   -0.28789320269284646   -0.049095909135767696
-0.9313774227204104   -0.28789320269284646   -0.049095909135767696
-0.8581409243558512   -0.06742887190336634   -0.03786854395492828
-0.8581409243558512   -0.06742887190336634   -0.03786854395492828
-0.8581409243558512   -0.06742887190336634   -0.03786854395492828
-0.8581409243558512   -0.06742887190336634   -0.03786854395492828
0.023278133553794076   -0.06976262911219432   -0.012157998037002807
0.023278133553794076   -0.06976262911219432   -0.012157998037002807
0.023278133553794076   -0.06976262911219432   -0.012157998037002807
0.023278133553794076   -0.06976262911219432   -0.012157998037002807
-0.4314889120433091   -0.08087637982192564   -0.01179315648984143
-0.4314889120433091   -0.08087637982192564   -0.01179315648984143
-0.4314889120433091   -0.08087637982192564   -0.01179315648984143
-0.4314889120433091   -0.08087637982192564   -0.01179315648984143
-0.9532056135622676   -0.027837250899898032   -0.001498629552187436
-0.9532056135622676   -0.027837250899898032   -0.001498629552187436
-0.9532056135622676   -0.027837250899898032   -0.001498629552187436
-0.9532056135622676   -0.027837250899898032   -0.001498629552187436
-1.930892936145871   -0.35887740984764516   -0.01645513442184271
-1.930892936145871   -0.35887740984764516   -0.01645513442184271
-1.930892936145871   -0.35887740984764516   -0.01645513442184271
-1.930892936145871   -0.35887740984764516   -0.01645513442184271
-1.8434921993422655   -0.1839382343123232   -0.06380263379986151
-1.8434921993422655   -0.1839382343123232   -0.06380263379986151
-1.8434921993422655   -0.1839382343123232   -0.06380263379986151
-1.8434921993422655   -0.1839382343123232   -0.06380263379986151
-0.9194530725005047   -0.1200380214454448   0.04209750532985396
-0.9194530725005047   -0.1200380214454448   0.04209750532985396
-0.9194530725005047   -0.1200380214454448   0.04209750532985396
-0.9194530725005047   -0.1200380214454448   0.04209750532985396
-1.3993689033231798   -0.16231948104362393   -0.02985139196127734
-1.3993689033231798   -0.16231948104362393   -0.02985139196127734
-1.3993689033231798   -0.16231948104362393   -0.02985139196127734
-1.3993689033231798   -0.16231948104362393   -0.02985139196127734
-0.9022326788756664   0.015588739118907569   -0.007427287110306657
-0.9022326788756664   0.015588739118907569   -0.007427287110306657
-0.9022326788756664   0.015588739118907569   -0.007427287110306657
-0.9022326788756664   0.015588739118907569   -0.007427287110306657
-1.8614855576466856   -0.32033795955625477   -0.017369700078014694
-1.8614855576466856   -0.32033795955625477   -0.017369700078014694
-1.8614855576466856   -0.32033795955625477   -0.017369700078014694
-1.8614855576466856   -0.32033795955625477   -0.017369700078014694
-1.7775599072252635   -0.14312985654667487   -0.07390933267498773
-1.7775599072252635   -0.14312985654667487   -0.07390933267498773
-1.7775599072252635   -0.14312985654667487   -0.07390933267498773
-1.7775599072252635   -0.14312985654667487   -0.07390933267498773
-0.8746207811166207   -0.08937949413809204   0.03617359032843523
-0.8746207811166207   -0.08937949413809204   0.03617359032843523
-0.8746207811166207   -0.08937949413809204   0.03617359032843523
-0.8746207811166207   -0.08937949413809204   0.03617359032843523
-1.3316576481126925   -0.12316920083332675   -0.00987042130036403
-1.3316576481126925   -0.12316920083332675   -0.00987042130036403
-1.3316576481126925   -0.12316920083332675   -0.00987042130036403
-1.3316576481126925   -0.12316920083332675   -0.00987042130036403
-0.8559747207467933   0.05331160574325918   -0.013287207703787773
-0.8559747207467933   0.05331160574325918   -0.013287207703787773
-0.8559747207467933   0.05331160574325918   -0.013287207703787773
-0.8559747207467933   0.05331160574325918   -0.013287207703787773
-1.7994080393515555   -0.28902302818449993   -0.03725682166860783
-1.7994080393515555   -0.28902302818449993   -0.03725682166860783
-1.7994080393515555   -0.28902302818449993   -0.03725682166860783
-1.7994080393515555   -0.28902302818449993   -0.03725682166860783
-1.7240194597628793   -0.1000797238383342   -0.07625284667070503
-1.7240194597628793   -0.1000797238383342   -0.07625284667070503
-1.7240194597628793   -0.1000797238383342   -0.07625284667070503
-1.7240194597628793   -0.1000797238383342   -0.07625284667070503
-0.8488573294338194   -0.06988849275687603   0.011009051508746093
-0.8488573294338194   -0.06988849275687603   0.011009051508746093
-0.8488573294338194   -0.06988849275687603   0.011009051508746093
-0.8488573294338194   -0.06988849275687603   0.011009051508746093
-1.2941777891151307   -0.09929276794304508   -0.003362892084424529
-1.2941777891151307   -0.09929276794304508   -0.003362892084424529
-1.2941777891151307   -0.09929276794304508   -0.003362892084424529
-1.2941777891151307   -0.09929276794304508   -0.003362892084424529
-1.877999345754427   -0.06412348007703624   -0.04674111223523181
-1.877999345754427   -0.06412348007703624   -0.04674111223523181
-1.877999345754427   -0.06412348007703624   -0.04674111223523181
-1.877999345754427   -0.06412348007703624   -0.04674111223523181
-2.831687616129372   -0.2422204354749918   0.10753397936593057
-2.831687616129372   -0.2422204354749918   0.10753397936593057
-2.831687616129372   -0.2422204354749918   0.10753397936593057
-2.831687616129372   -0.2422204354749918   0.10753397936593057
-2.7339377761718198   -0.19272396091548763   -0.06243558602286847
-2.7339377761718198   -0.19272396091548763   -0.06243558602286847
-2.7339377761718198   -0.19272396091548763   -0.06243558602286847
-2.7339377761718198   -0.19272396091548763   -0.06243558602286847
-1.7641178043924213   0.050379777282205426   0.09875132935481656
-1.7641178043924213   0.050379777282205426   0.09875132935481656
-1.7641178043924213   0.050379777282205426   0.09875132935481656
-1.7641178043924213   0.050379777282205426   0.09875132935481656
-2.198998883227974   -0.07613904399905086   0.010268905094826808
-2.198998883227974   -0.07613904399905086   0.010268905094826808
-2.198998883227974   -0.07613904399905086   0.010268905094826808
-2.198998883227974   -0.07613904399905086   0.010268905094826808
-1.8052768809101298   -0.004864599874062792   -0.051799676077434686
-1.8052768809101298   -0.004864599874062792   -0.051799676077434686
-1.8052768809101298   -0.004864599874062792   -0.051799676077434686
-1.8052768809101298   -0.004864599874062792   -0.051799676077434686
-2.6861386211817537   -0.13083950528686228   0.11467573329881076
-2.6861386211817537   -0.13083950528686228   0.11467573329881076
-2.6861386211817537   -0.13083950528686228   0.11467573329881076
-2.6861386211817537   -0.13083950528686228   0.11467573329881076
-2.62910915714226   -0.16212416550267927   -0.0743539519100459
-2.62910915714226   -0.16212416550267927   -0.0743539519100459
-2.62910915714226   -0.16212416550267927   -0.0743539519100459
-2.62910915714226   -0.16212416550267927   -0.0743539519100459
-1.6988912178705926   0.08090624813603083   0.09539800941566101
-1.6988912178705926   0.08090624813603083   0.09539800941566101
-1.6988912178705926   0.08090624813603083   0.09539800941566101
-1.6988912178705926   0.08090624813603083   0.09539800941566101
-2.136888602018909   -0.03071652720099577   0.043727605946491055
-2.136888602018909   -0.03071652720099577   0.043727605946491055
-2.136888602018909   -0.03071652720099577   0.043727605946491055
-2.136888602018909   -0.03071652720099577   0.043727605946491055
-1.741520230879559   0.01908020719437102   -0.05592101468749533
-1.741520230879559   0.01908020719437102   -0.05592101468749533
-1.741520230879559   0.01908020719437102   -0.05592101468749533
-1.741520230879559   0.01908020719437102   -0.05592101468749533
-2.5851524530582353   -0.09897043348595538   0.08227583649337289
-2.5851524530582353   -0.09897043348595538   0.08227583649337289
-2.5851524530582353   -0.09897043348595538   0.08227583649337289
-2.5851524530582353   -0.09897043348595538   0.08227583649337289
-2.5207193676088857   -0.13313988056726594   -0.08984224467698959
-2.5207193676088857   -0.13313988056726594   -0.08984224467698959
-2.5207193676088857   -0.13313988056726594   -0.08984224467698959
-2.5207193676088857   -0.13313988056726594   -0.08984224467698959
-1.650470038156755   0.11756596109528057   0.07384857642630915
-1.650470038156755   0.11756596109528057   0.07384857642630915
-1.650470038156755   0.11756596109528057   0.07384857642630915
-1.650470038156755   0.11756596109528057   0.07384857642630915
-2.02047455890317   0.008141857756090581   0.07717193549617202
-2.02047455890317   0.008141857756090581   0.07717193549617202
-2.02047455890317   0.008141857756090581   0.07717193549617202
-2.02047455890317   0.008141857756090581   0.07717193549617202
2.4966024766137482   0.14952299039366748   0.09075874994698363
2.4966024766137482   0.14952299039366748   0.09075874994698363
2.4966024766137482   0.14952299039366748   0.09075874994698363
2.4966024766137482   0.14952299039366748   0.09075874994698363
1.190644717601217   -0.22328594994357795   0.020564638033710114
1.190644717601217   -0.22328594994357795   0.020564638033710114
1.190644717601217   -0.22328594994357795   0.020564638033710114
1.190644717601217   -0.22328594994357795   0.020564638033710114
1.2565780336513175   -0.09403157582634941   0.06989785364178874
1.2565780336513175   -0.09403157582634941   0.06989785364178874
1.2565780336513175   -0.09403157582634941   0.06989785364178874
1.2565780336513175   -0.09403157582634941   0.06989785364178874
2.5099018093080074   0.020812512878193246   -0.019978599243867023
2.5099018093080074   0.020812512878193246   -0.019978599243867023
2.5099018093080074   0.020812512878193246   -0.019978599243867023
2.5099018093080074   0.020812512878193246   -0.019978599243867023
1.7555582149198186   -0.048111979559588985   -0.11682886506437712
1.7555582149198186   -0.048111979559588985   -0.11682886506437712
1.7555582149198186   -0.048111979559588985   -0.11682886506437712
1.7555582149198186   -0.048111979559588985   -0.11682886506437712
2.557394007530603   0.16650919097550904   0.07178571377179532
2.557394007530603   0.16650919097550904   0.07178571377179532
2.557394007530603   0.16650919097550904   0.07178571377179532
2.557394007530603   0.16650919097550904   0.07178571377179532
1.2204986328380247   -0.22831545651436225   0.023784730263338244
1.2204986328380247   -0.22831545651436225   0.023784730263338244
1.2204986328380247   -0.22831545651436225   0.023784730263338244
1.2204986328380247   -0.22831545651436225   0.023784730263338244
1.2816099203310491   -0.07989811276835349   0.05320905974317358
1.2816099203310491   -0.07989811276835349   0.05320905974317358
1.2816099203310491   -0.07989811276835349   0.05320905974317358
1.2816099203310491   -0.07989811276835349   0.05320905974317358
2.554054664131441   0.036756626814562016   -0.00589443925727029
2.554054664131441   0.036756626814562016   -0.00589443925727029
2.554054664131441   0.036756626814562016   -0.00589443925727029
2.554054664131441   0.036756626814562016   -0.00589443925727029
1.828149600274096   -0.038084274417599095   -0.07976201162837826
1.828149600274096   -0.038084274417599095   -0.07976201162837826
1.828149600274096   -0.038084274417599095   -0.07976201162837826
1.828149600274096   -0.038084274417599095   -0.07976201162837826
2.59421898820213   0.18193220869947918   0.04975159921125594
2.59421898820213   0.18193220869947918   0.04975159921125594
2.59421898820213   0.18193220869947918   0.04975159921125594
2.59421898820213   0.18193220869947918   0.04975159921125594
1.2493851449050732   -0.21713414600855785   0.02932121585349856
1.2493851449050732   -0.21713414600855785   0.02932121585349856
1.2493851449050732   -0.21713414600855785   0.02932121585349856
1.2493851449050732   -0.21713414600855785   0.02932121585349856
1.3184233553785714   -0.024794123816208123   0.04864105239713948
1.3184233553785714   -0.024794123816208123   0.04864105239713948
1.3184233553785714   -0.024794123816208123   0.04864105239713948
1.3184233553785714   -0.024794123816208123   0.04864105239713948
2.599935539869183   0.07319592922088775   -0.0007306320432295399
2.599935539869183   0.07319592922088775   -0.0007306320432295399
2.599935539869183   0.07319592922088775   -0.0007306320432295399
2.599935539869183   0.07319592922088775   -0.0007306320432295399
1.8373214456162403   -0.017667042910465322   -0.05955300869803953
1.8373214456162403   -0.017667042910465322   -0.05955300869803953
1.8373214456162403   -0.017667042910465322   -0.05955300869803953
1.8373214456162403   -0.017667042910465322   -0.05955300869803953
1.2564658286932011   0.03141876311218239   0.0949654804378719
1.2564658286932011   0.03141876311218239   0.0949654804378719
1.2564658286932011   0.03141876311218239   0.0949654804378719
1.2564658286932011   0.03141876311218239   0.0949654804378719
0.06727986544035328   -0.44541783786865385   0.045962032144296394
0.06727986544035328   -0.44541783786865385   0.045962032144296394
0.06727986544035328   -0.44541783786865385   0.045962032144296394
0.06727986544035328   -0.44541783786865385   0.045962032144296394
0.15329695709142446   -0.18827885525007798   0.042762048446735604
0.15329695709142446   -0.18827885525007798   0.042762048446735604
0.15329695709142446   -0.18827885525007798   0.042762048446735604
0.15329695709142446   -0.18827885525007798   0.042762048446735604
1.22416662946082   -0.21509746127616777   0.028906718139112775
1.22416662946082   -0.21509746127616777   0.028906718139112775
1.22416662946082   -0.21509746127616777   0.028906718139112775
1.22416662946082   -0.21509746127616777   0.028906718139112775
0.6533360166741139   -0.2000266144198687   -0.07486720323344008
0.6533360166741139   -0.2000266144198687   -0.07486720323344008
0.6533360166741139   -0.2000266144198687   -0.07486720323344008
0.6533360166741139   -0.2000266144198687   -0.07486720323344008
1.28638754284051   0.045641347468895116   0.07927247629251555
1.28638754284051   0.045641347468895116   0.07927247629251555
1.28638754284051   0.045641347468895116   0.07927247629251555
1.28638754284051   0.045641347468895116   0.07927247629251555
0.10750035817370991   -0.4325933495331628   0.05809354814124766
0.10750035817370991   -0.4325933495331628   0.05809354814124766
0.10750035817370991   -0.4325933495331628   0.05809354814124766
0.10750035817370991   -0.4325933495331628   0.05809354814124766
0.18791386272901525   -0.16247659167816417   0.031034982942009723
0.18791386272901525   -0.16247659167816417   0.031034982942009723
0.18791386272901525   -0.16247659167816417   0.031034982942009723
0.18791386272901525   -0.16247659167816417   0.031034982942009723
1.2537818708373032   -0.2016114747166468   0.0357821742227378
1.2537818708373032   -0.2016114747166468   0.0357821742227378
1.2537818708373032   -0.2016114747166468   0.0357821742227378
1.2537818708373032   -0.2016114747166468   0.0357821742227378
0.6828380397683445   -0.19017101793453273   -0.03743191328596436
0.6828380397683445   -0.19017101793453273   -0.03743191328596436
0.6828380397683445   -0.19017101793453273   -0.03743191328596436
0.6828380397683445   -0.19017101793453273   -0.03743191328596436
1.314288824726844   0.06994374826979888   0.06676172068399622
1.314288824726844   0.06994374826979888   0.06676172068399622
1.314288824726844   0.06994374826979888   0.06676172068399622
1.314288824726844   0.06994374826979888   0.06676172068399622
0.14321116998220454   -0.4182275535218798   0.06327248105167176
0.14321116998220454   -0.4182275535218798   0.06327248105167176
0.14321116998220454   -0.4182275535218798   0.06327248105167176
0.14321116998220454   -0.4182275535218798   0.06327248105167176
0.24102378816793277   -0.1237488045661317   0.020593897795037456
0.24102378816793277   -0.1237488045661317   0.020593897795037456
0.24102378816793277   -0.1237488045661317   0.020593897795037456
0.24102378816793277   -0.1237488045661317   0.020593897795037456
1.2862128034158735   -0.18109950665826702   0.04389367542571676
1.2862128034158735   -0.18109950665826702   0.04389367542571676
1.2862128034158735   -0.18109950665826702   0.04389367542571676
1.2862128034158735   -0.18109950665826702   0.04389367542571676
0.73444702987517   -0.1662597317676033   0.006119812025700805
0.73444702987517   -0.1662597317676033   0.006119812025700805
0.73444702987517   -0.1662597317676033   0.006119812025700805
0.73444702987517   -0.1662597317676033   0.006119812025700805
0.14232117150142354   -0.08539328149813097   0.061144006079124825
0.14232117150142354   -0.08539328149813097   0.061144006079124825
0.14232117150142354   -0.08539328149813097   0.061144006079124825
0.14232117150142354   -0.08539328149813097   0.061144006079124825
-1.0655143796675437   -0.7655740975094857   0.06642106720976859
-1.0655143796675437   -0.7655740975094857   0.06642106720976859
-1.0655143796675437   -0.7655740975094857   0.06642106720976859
-1.0655143796675437   -0.7655740975094857   0.06642106720976859
-0.929439214521946   -0.29767317376591984   0.00457324646147067
-0.929439214521946   -0.29767317376591984   0.00457324646147067
-0.929439214521946   -0.29767317376591984   0.00457324646147067
-0.929439214521946   -0.29767317376591984   0.00457324646147067
0.07579127519943712   -0.5581609149442699   0.025115698680990742
0.07579127519943712   -0.5581609149442699   0.025115698680990742
0.07579127519943712   -0.5581609149442699   0.025115698680990742
0.07579127519943712   -0.5581609149442699   0.025115698680990742
-0.4582226142447992   -0.4297697867341213   -0.08984505140753428
-0.4582226142447992   -0.4297697867341213   -0.08984505140753428
-0.4582226142447992   -0.4297697867341213   -0.08984505140753428
-0.4582226142447992   -0.4297697867341213   -0.08984505140753428
0.17856911732955183   -0.06734779817537957   0.04819179256267396
0.17856911732955183   -0.06734779817537957   0.04819179256267396
0.17856911732955183   -0.06734779817537957   0.04819179256267396
0.17856911732955183   -0.06734779817537957   0.04819179256267396
-1.0084743435786923   -0.7647435774614304   0.07646800487325561
-1.0084743435786923   -0.7647435774614304   0.07646800487325561
-1.0084743435786923   -0.7647435774614304   0.07646800487325561
-1.0084743435786923   -0.7647435774614304   0.07646800487325561
-0.8769566649157774   -0.26715979877659823   0.00015035264090185185
-0.8769566649157774   -0.26715979877659823   0.00015035264090185185
-0.8769566649157774   -0.26715979877659823   0.00015035264090185185
-0.8769566649157774   -0.26715979877659823   0.00015035264090185185
0.1122760163165006   -0.5459984920626383   0.036367651263910686
0.1122760163165006   -0.5459984920626383   0.036367651263910686
0.1122760163165006   -0.5459984920626383   0.036367651263910686
0.1122760163165006   -0.5459984920626383   0.036367651263910686
-0.4050900200921592   -0.4152084819282043   -0.033569388083764
-0.4050900200921592   -0.4152084819282043   -0.033569388083764
-0.4050900200921592   -0.4152084819282043   -0.033569388083764
-0.4050900200921592   -0.4152084819282043   -0.033569388083764
0.2117080840716808   -0.04329251659320004   0.030822014570373393
0.2117080840716808   -0.04329251659320004   0.030822014570373393
0.2117080840716808   -0.04329251659320004   0.030822014570373393
0.2117080840716808   -0.04329251659320004   0.030822014570373393
-0.9549342808041176   -0.748411322379174   0.09151379680178984
-0.9549342808041176   -0.748411322379174   0.09151379680178984
-0.9549342808041176   -0.748411322379174   0.09151379680178984
-0.9549342808041176   -0.748411322379174   0.09151379680178984
-0.7903576057119185   -0.2320008733302461   -0.009713479861549246
-0.7903576057119185   -0.2320008733302461   -0.009713479861549246
-0.7903576057119185   -0.2320008733302461   -0.009713479861549246
-0.7903576057119185   -0.2320008733302461   -0.009713479861549246
0.16923601144497485   -0.5118472920287386   0.0497535016428548
0.16923601144497485   -0.5118472920287386   0.0497535016428548
0.16923601144497485   -0.5118472920287386   0.0497535016428548
0.16923601144497485   -0.5118472920287386   0.0497535016428548
-0.3361107679954912   -0.38243913757378556   0.02539834456675688
-0.3361107679954912   -0.38243913757378556   0.02539834456675688
-0.3361107679954912   -0.38243913757378556   0.02539834456675688
-0.3361107679954912   -0.38243913757378556   0.02539834456675688
-0.950596435012626   -0.1536997867847124   0.029136479759576173
-0.950596435012626   -0.1536997867847124   0.029136479759576173
-0.950596435012626   -0.1536997867847124   0.029136479759576173
-0.950596435012626   -0.1536997867847124   0.029136479759576173
-2.372891466847431   -1.1923945726156897   -0.056635953870541766
-2.372891466847431   -1.1923945726156897   -0.056635953870541766
-2.372891466847431   -1.1923945726156897   -0.056635953870541766
-2.372891466847431   -1.1923945726156897   -0.056635953870541766
-2.1482384386725406   -0.3873378607680755   -0.06561632511126353
-2.1482384386725406   -0.3873378607680755   -0.06561632511126353
-2.1482384386725406   -0.3873378607680755   -0.06561632511126353
-2.1482384386725406   -0.3873378607680755   -0.06561632511126353
-1.066406692503468   -0.997745617797115   0.019808300585055505
-1.066406692503468   -0.997745617797115   0.019808300585055505
-1.066406692503468   -0.997745617797115   0.019808300585055505
-1.066406692503468   -0.997745617797115   0.019808300585055505
-1.6326692920176558   -0.7052448716858957   -0.09432799845410039
-1.6326692920176558   -0.7052448716858957   -0.09432799845410039
-1.6326692920176558   -0.7052448716858957   -0.09432799845410039
-1.6326692920176558   -0.7052448716858957   -0.09432799845410039
-0.8885750496878229   -0.11669811547970496   0.027919012345871408
-0.8885750496878229   -0.11669811547970496   0.027919012345871408
-0.8885750496878229   -0.11669811547970496   0.027919012345871408
-0.8885750496878229   -0.11669811547970496   0.027919012345871408
-2.3207788245037166   -1.2630941061010132   -0.052562008934186166
-2.3207788245037166   -1.2630941061010132   -0.052562008934186166
-2.3207788245037166   -1.2630941061010132   -0.052562008934186166
-2.3207788245037166   -1.2630941061010132   -0.052562008934186166
-2.078426551957389   -0.35074315393513134   -0.06683893781593148
-2.078426551957389   -0.35074315393513134   -0.06683893781593148
-2.078426551957389   -0.35074315393513134   -0.06683893781593148
-2.078426551957389   -0.35074315393513134   -0.06683893781593148
-1.0155622597926979   -0.9900304647025264   0.029993044182233752
-1.0155622597926979   -0.9900304647025264   0.029993044182233752
-1.0155622597926979   -0.9900304647025264   0.029993044182233752
-1.0155622597926979   -0.9900304647025264   0.029993044182233752
-1.5594942258723608   -0.6863236842766093   -0.0663844851711321
-1.5594942258723608   -0.6863236842766093   -0.0663844851711321
-1.5594942258723608   -0.6863236842766093   -0.0663844851711321
-1.5594942258723608   -0.6863236842766093   -0.0663844851711321
-0.8392085952189278   -0.08765466212878438   0.009385564477342012
-0.8392085952189278   -0.08765466212878438   0.009385564477342012
-0.8392085952189278   -0.08765466212878438   0.009385564477342012
-0.8392085952189278   -0.08765466212878438   0.009385564477342012
-2.2547524351360235   -1.2530911751137346   -0.046120332530480646
-2.2547524351360235   -1.2530911751137346   -0.046120332530480646
-2.2547524351360235   -1.2530911751137346   -0.046120332530480646
-2.2547524351360235   -1.2530911751137346   -0.046120332530480646
-1.9695717376372273   -0.31138559983028674   -0.07576207565489951
-1.9695717376372273   -0.31138559983028674   -0.07576207565489951
-1.9695717376372273   -0.31138559983028674   -0.07576207565489951
-1.9695717376372273   -0.31138559983028674   -0.07576207565489951
-0.9055686940544114   -0.8906991446098411   0.07292934970559684
-0.9055686940544114   -0.8906991446098411   0.07292934970559684
-0.9055686940544114   -0.8906991446098411   0.07292934970559684
-0.9055686940544114   -0.8906991446098411   0.07292934970559684
-1.4777930106242296   -0.6223696663823057   -0.03720343203139387
-1.4777930106242296   -0.6223696663823057   -0.03720343203139387
-1.4777930106242296   -0.6223696663823057   -0.03720343203139387
-1.4777930106242296   -0.6223696663823057   -0.03720343203139387
-2.1522867276517172   -0.1308736831284829   -0.015133147379179535
-2.1522867276517172   -0.1308736831284829   -0.015133147379179535
-2.1522867276517172   -0.1308736831284829   -0.015133147379179535
-2.1522867276517172   -0.1308736831284829   -0.015133147379179535
-3.8003753147297163   -0.7523267317232253   0.03874165611359004
-3.8003753147297163   -0.7523267317232253   0.03874165611359004
-3.8003753147297163   -0.7523267317232253   0.03874165611359004
-3.8003753147297163   -0.7523267317232253   0.03874165611359004
-3.650438320967016   -0.362696882088538   -0.08031145092430592
-3.650438320967016   -0.362696882088538   -0.08031145092430592
-3.650438320967016   -0.362696882088538   -0.08031145092430592
-3.650438320967016   -0.362696882088538   -0.08031145092430592
-2.103935875545725   -0.38922954096516427   0.1577881707199038
-2.103935875545725   -0.38922954096516427   0.1577881707199038
-2.103935875545725   -0.38922954096516427   0.1577881707199038
-2.103935875545725   -0.38922954096516427   0.1577881707199038
-2.8081508458087496   -0.4365454969089485   0.04048470831893314
-2.8081508458087496   -0.4365454969089485   0.04048470831893314
-2.8081508458087496   -0.4365454969089485   0.04048470831893314
-2.8081508458087496   -0.4365454969089485   0.04048470831893314
-2.0633728695373335   -0.0291223080486656   0.0004959678453735905
-2.0633728695373335   -0.0291223080486656   0.0004959678453735905
-2.0633728695373335   -0.0291223080486656   0.0004959678453735905
-2.0633728695373335   -0.0291223080486656   0.0004959678453735905
-3.705338678961034   -0.7371414669906664   0.01963134400770228
-3.705338678961034   -0.7371414669906664   0.01963134400770228
-3.705338678961034   -0.7371414669906664   0.01963134400770228
-3.705338678961034   -0.7371414669906664   0.01963134400770228
-3.567671281689519   -0.3323145271457923   -0.10192580317452826
-3.567671281689519   -0.3323145271457923   -0.10192580317452826
-3.567671281689519   -0.3323145271457923   -0.10192580317452826
-3.567671281689519   -0.3323145271457923   -0.10192580317452826
-2.0320633214561004   -0.36963821011678355   0.18387227087218294
-2.0320633214561004   -0.36963821011678355   0.18387227087218294
-2.0320633214561004   -0.36963821011678355   0.18387227087218294
-2.0320633214561004   -0.36963821011678355   0.18387227087218294
-2.764315471645523   -0.3594539299618287   0.03886286296686736
-2.764315471645523   -0.3594539299618287   0.03886286296686736
-2.764315471645523   -0.3594539299618287   0.03886286296686736
-2.764315471645523   -0.3594539299618287   0.03886286296686736
-1.9993350702119723   -0.002239217350141251   -0.01988546567381949
-1.9993350702119723   -0.002239217350141251   -0.01988546567381949
-1.9993350702119723   -0.002239217350141251   -0.01988546567381949
-1.9993350702119723   -0.002239217350141251   -0.01988546567381949
-3.605714594538754   -0.7050285815175468   0.08057168695102035
-3.605714594538754   -0.7050285815175468   0.08057168695102035
-3.605714594538754   -0.7050285815175468   0.08057168695102035
-3.605714594538754   -0.7050285815175468   0.08057168695102035
-3.395816800062098   -0.26904759980530374   -0.11387246617126989
-3.395816800062098   -0.26904759980530374   -0.11387246617126989
-3.395816800062098   -0.26904759980530374   -0.11387246617126989
-3.395816800062098   -0.26904759980530374   -0.11387246617126989
-1.9203112279559154   -0.3435260591724224   0.20268093209380333
-1.9203112279559154   -0.3435260591724224   0.20268093209380333
-1.9203112279559154   -0.3435260591724224   0.20268093209380333
-1.9203112279559154   -0.3435260591724224   0.20268093209380333
-2.5983896454675643   -0.2747435333269933   0.07942299664022212
-2.5983896454675643   -0.2747435333269933   0.07942299664022212
-2.5983896454675643   -0.2747435333269933   0.07942299664022212
-2.5983896454675643   -0.2747435333269933   0.07942299664022212
2.7344928714693237   0.08908976598526347   0.03859506380981026
2.7344928714693237   0.08908976598526347   0.03859506380981026
2.7344928714693237   0.08908976598526347   0.03859506380981026
2.7344928714693237   0.08908976598526347   0.03859506380981026
1.3970187387849986   -0.07325623894164397   0.02861443911360806
1.3970187387849986   -0.07325623894164397   0.02861443911360806
1.3970187387849986   -0.07325623894164397   0.02861443911360806
1.3970187387849986   -0.07325623894164397   0.02861443911360806
1.3421840300825032   -0.19753060938999753   0.05602356864068345
1.3421840300825032   -0.19753060938999753   0.05602356864068345
1.3421840300825032   -0.19753060938999753   0.05602356864068345
1.3421840300825032   -0.19753060938999753   0.05602356864068345
2.714610621876363   0.15298647048968328   0.02078647375821563
2.714610621876363   0.15298647048968328   0.02078647375821563
2.714610621876363   0.15298647048968328   0.02078647375821563
2.714610621876363   0.15298647048968328   0.02078647375821563
1.9379703273832654   -0.027657644342960364   -0.07151598090962508
1.9379703273832654   -0.027657644342960364   -0.07151598090962508
1.9379703273832654   -0.027657644342960364   -0.07151598090962508
1.9379703273832654   -0.027657644342960364   -0.07151598090962508
2.699498695979452   0.06864189417827024   0.02957142058507345
2.699498695979452   0.06864189417827024   0.02957142058507345
2.699498695979452   0.06864189417827024   0.02957142058507345
2.699498695979452   0.06864189417827024   0.02957142058507345
1.3527949038710898   -0.11768708518690876   0.02923441338052865
1.3527949038710898   -0.11768708518690876   0.02923441338052865
1.3527949038710898   -0.11768708518690876   0.02923441338052865
1.3527949038710898   -0.11768708518690876   0.02923441338052865
1.3072584749817688   -0.2021497553801318   0.04636983891893315
1.3072584749817688   -0.2021497553801318   0.04636983891893315
1.3072584749817688   -0.2021497553801318   0.04636983891893315
1.3072584749817688   -0.2021497553801318   0.04636983891893315
2.6826596664758697   0.14629474103387227   0.03583439851132941
2.6826596664758697   0.14629474103387227   0.03583439851132941
2.6826596664758697   0.14629474103387227   0.03583439851132941
2.6826596664758697   0.14629474103387227   0.03583439851132941
1.9319951397513155   -0.038163268149097124   -0.0829140369922261
1.9319951397513155   -0.038163268149097124   -0.0829140369922261
1.9319951397513155   -0.038163268149097124   -0.0829140369922261
1.9319951397513155   -0.038163268149097124   -0.0829140369922261
2.6601952806238427   0.06093756668459749   0.008869643600444288
2.6601952806238427   0.06093756668459749   0.008869643600444288
2.6601952806238427   0.06093756668459749   0.008869643600444288
2.6601952806238427   0.06093756668459749   0.008869643600444288
1.3216568348009785   -0.1248586070636681   0.04107048969851862
1.3216568348009785   -0.1248586070636681   0.04107048969851862
1.3216568348009785   -0.1248586070636681   0.04107048969851862
1.3216568348009785   -0.1248586070636681   0.04107048969851862
1.2703867531235251   -0.18456044622897688   0.040036277453105173
1.2703867531235251   -0.18456044622897688   0.040036277453105173
1.2703867531235251   -0.18456044622897688   0.040036277453105173
1.2703867531235251   -0.18456044622897688   0.040036277453105173
2.6333946489709685   0.14776598823790707   0.051423280618660416
2.6333946489709685   0.14776598823790707   0.051423280618660416
2.6333946489709685   0.14776598823790707   0.051423280618660416
2.6333946489709685   0.14776598823790707   0.051423280618660416
1.8592153682393975   -0.03852690763194108   -0.11206156605026518
1.8592153682393975   -0.03852690763194108   -0.11206156605026518
1.8592153682393975   -0.03852690763194108   -0.11206156605026518
1.8592153682393975   -0.03852690763194108   -0.11206156605026518
1.3841152950330613   -0.1775624684137633   0.06840344982604116
1.3841152950330613   -0.1775624684137633   0.06840344982604116
1.3841152950330613   -0.1775624684137633   0.06840344982604116
1.3841152950330613   -0.1775624684137633   0.06840344982604116
0.27074107980581175   -0.16486407666313366   0.014883681057988379
0.27074107980581175   -0.16486407666313366   0.014883681057988379
0.27074107980581175   -0.16486407666313366   0.014883681057988379
0.27074107980581175   -0.16486407666313366   0.014883681057988379
0.1762017854680869   -0.41573518433106477   0.07368294685736095
0.1762017854680869   -0.41573518433106477   0.07368294685736095
0.1762017854680869   -0.41573518433106477   0.07368294685736095
0.1762017854680869   -0.41573518433106477   0.07368294685736095
1.3917571743679225   0.05345442221605094   0.0529042584617318
1.3917571743679225   0.05345442221605094   0.0529042584617318
1.3917571743679225   0.05345442221605094   0.0529042584617318
1.3917571743679225   0.05345442221605094   0.0529042584617318
0.7933292186541493   -0.17687877834767163   -0.0030078470054061834
0.7933292186541493   -0.17687877834767163   -0.0030078470054061834
0.7933292186541493   -0.17687877834767163   -0.0030078470054061834
0.7933292186541493   -0.17687877834767163   -0.0030078470054061834
1.344882699203308   -0.1852819416537907   0.05726824650851001
1.344882699203308   -0.1852819416537907   0.05726824650851001
1.344882699203308   -0.1852819416537907   0.05726824650851001
1.344882699203308   -0.1852819416537907   0.05726824650851001
0.2112421862415664   -0.18883289485236684   0.021982661246060502
0.2112421862415664   -0.18883289485236684   0.021982661246060502
0.2112421862415664   -0.18883289485236684   0.021982661246060502
0.2112421862415664   -0.18883289485236684   0.021982661246060502
0.13388859103390804   -0.4195506172894682   0.0659797411620262
0.13388859103390804   -0.4195506172894682   0.0659797411620262
0.13388859103390804   -0.4195506172894682   0.0659797411620262
0.13388859103390804   -0.4195506172894682   0.0659797411620262
1.3595449564483957   0.042942208282137   0.06271028258979897
1.3595449564483957   0.042942208282137   0.06271028258979897
1.3595449564483957   0.042942208282137   0.06271028258979897
1.3595449564483957   0.042942208282137   0.06271028258979897
0.7358915985620033   -0.18855381312735126   -0.0381317118838054
0.7358915985620033   -0.18855381312735126   -0.0381317118838054
0.7358915985620033   -0.18855381312735126   -0.0381317118838054
0.7358915985620033   -0.18855381312735126   -0.0381317118838054
1.310279045955992   -0.18800323904623972   0.04732617745614595
1.310279045955992   -0.18800323904623972   0.04732617745614595
1.310279045955992   -0.18800323904623972   0.04732617745614595
1.310279045955992   -0.18800323904623972   0.04732617745614595
0.17029750636632449   -0.20146216512109083   0.029935865655731107
0.17029750636632449   -0.20146216512109083   0.029935865655731107
0.17029750636632449   -0.20146216512109083   0.029935865655731107
0.17029750636632449   -0.20146216512109083   0.029935865655731107
0.08653236552724133   -0.41947696161263104   0.05168683854252887
0.08653236552724133   -0.41947696161263104   0.05168683854252887
0.08653236552724133   -0.41947696161263104   0.05168683854252887
0.08653236552724133   -0.41947696161263104   0.05168683854252887
1.3229876141679986   0.043476474551536234   0.07500366189496349
1.3229876141679986   0.043476474551536234   0.07500366189496349
1.3229876141679986   0.043476474551536234   0.07500366189496349
1.3229876141679986   0.043476474551536234   0.07500366189496349
0.7007498459661332   -0.18721306992767756   -0.06803450505102002
0.7007498459661332   -0.18721306992767756   -0.06803450505102002
0.7007498459661332   -0.18721306992767756   -0.06803450505102002
0.7007498459661332   -0.18721306992767756   -0.06803450505102002
0.21077300758872025   -0.5113041540319233   0.06148339734131669
0.21077300758872025   -0.5113041540319233   0.06148339734131669
0.21077300758872025   -0.5113041540319233   0.06148339734131669
0.21077300758872025   -0.5113041540319233   0.06148339734131669
-0.8118631130043936   -0.25610241210313056   0.0011166947802411231
-0.8118631130043936   -0.25610241210313056   0.0011166947802411231
-0.8118631130043936   -0.25610241210313056   0.0011166947802411231
-0.8118631130043936   -0.25610241210313056   0.0011166947802411231
-0.9829012333469863   -0.7580321387443594   0.08445208822690531
-0.9829012333469863   -0.7580321387443594   0.08445208822690531
-0.9829012333469863   -0.7580321387443594   0.08445208822690531
-0.9829012333469863   -0.7580321387443594   0.08445208822690531
0.24248015950789029   -0.04405389967143136   0.033393532396744544
0.24248015950789029   -0.04405389967143136   0.033393532396744544
0.24248015950789029   -0.04405389967143136   0.033393532396744544
0.24248015950789029   -0.04405389967143136   0.033393532396744544
-0.3308525585840479   -0.3868546904169685   0.014501653481939852
-0.3308525585840479   -0.3868546904169685   0.014501653481939852
-0.3308525585840479   -0.3868546904169685   0.014501653481939852
-0.3308525585840479   -0.3868546904169685   0.014501653481939852
0.14533854681780373   -0.5404569054181821   0.044088474693062554
0.14533854681780373   -0.5404569054181821   0.044088474693062554
0.14533854681780373   -0.5404569054181821   0.044088474693062554
0.14533854681780373   -0.5404569054181821   0.044088474693062554
-0.9023015531369283   -0.27817106547765885   0.007589416010487182
-0.9023015531369283   -0.27817106547765885   0.007589416010487182
-0.9023015531369283   -0.27817106547765885   0.007589416010487182
-0.9023015531369283   -0.27817106547765885   0.007589416010487182
-1.0418738290834024   -0.7703694028567384   0.06866294269325196
-1.0418738290834024   -0.7703694028567384   0.06866294269325196
-1.0418738290834024   -0.7703694028567384   0.06866294269325196
-1.0418738290834024   -0.7703694028567384   0.06866294269325196
0.20284183304279194   -0.05572819638316785   0.0469235303001454
0.20284183304279194   -0.05572819638316785   0.0469235303001454
0.20284183304279194   -0.05572819638316785   0.0469235303001454
0.20284183304279194   -0.05572819638316785   0.0469235303001454
-0.4045258845435747   -0.41046790951730866   -0.03473113399407457
-0.4045258845435747   -0.41046790951730866   -0.03473113399407457
-0.4045258845435747   -0.41046790951730866   -0.03473113399407457
-0.4045258845435747   -0.41046790951730866   -0.03473113399407457
0.10026655478291144   -0.5500084384155085   0.02832738103308738
0.10026655478291144   -0.5500084384155085   0.02832738103308738
0.10026655478291144   -0.5500084384155085   0.02832738103308738
0.10026655478291144   -0.5500084384155085   0.02832738103308738
-0.9589463104371068   -0.29573692043798333   0.008668053505966722
-0.9589463104371068   -0.29573692043798333   0.008668053505966722
-0.9589463104371068   -0.29573692043798333   0.008668053505966722
-0.9589463104371068   -0.29573692043798333   0.008668053505966722
-1.1057434160417385   -0.7651948239673253   0.057995269436635355
-1.1057434160417385   -0.7651948239673253   0.057995269436635355
-1.1057434160417385   -0.7651948239673253   0.057995269436635355
-1.1057434160417385   -0.7651948239673253   0.057995269436635355
0.15872914857805495   -0.06226736244860848   0.05546115463257444
0.15872914857805495   -0.06226736244860848   0.05546115463257444
0.15872914857805495   -0.06226736244860848   0.05546115463257444
0.15872914857805495   -0.06226736244860848   0.05546115463257444
-0.4642688574865268   -0.41948107892021735   -0.08384832976770018
-0.4642688574865268   -0.41948107892021735   -0.08384832976770018
-0.4642688574865268   -0.41948107892021735   -0.08384832976770018
-0.4642688574865268   -0.41948107892021735   -0.08384832976770018
-0.9214761677739419   -0.8761621002175067   0.073111109046884
-0.9214761677739419   -0.8761621002175067   0.073111109046884
-0.9214761677739419   -0.8761621002175067   0.073111109046884
-0.9214761677739419   -0.8761621002175067   0.073111109046884
-2.0437085393991974   -0.3189357532848636   -0.04748167845220902
-2.0437085393991974   -0.3189357532848636   -0.04748167845220902
-2.0437085393991974   -0.3189357532848636   -0.04748167845220902
-2.0437085393991974   -0.3189357532848636   -0.04748167845220902
-2.3425245833625894   -1.2701537381417056   -0.06611441027877663
-2.3425245833625894   -1.2701537381417056   -0.06611441027877663
-2.3425245833625894   -1.2701537381417056   -0.06611441027877663
-2.3425245833625894   -1.2701537381417056   -0.06611441027877663
-0.8568930723641464   -0.07239202577681564   0.028852780173553555
-0.8568930723641464   -0.07239202577681564   0.028852780173553555
-0.8568930723641464   -0.07239202577681564   0.028852780173553555
-0.8568930723641464   -0.07239202577681564   0.028852780173553555
-1.526438885861594   -0.6099409141277842   -0.05289909371421986
-1.526438885861594   -0.6099409141277842   -0.05289909371421986
-1.526438885861594   -0.6099409141277842   -0.05289909371421986
-1.526438885861594   -0.6099409141277842   -0.05289909371421986
-1.0416820120294805   -0.9918826088377626   0.024398664907829992
-1.0416820120294805   -0.9918826088377626   0.024398664907829992
-1.0416820120294805   -0.9918826088377626   0.024398664907829992
-1.0416820120294805   -0.9918826088377626   0.024398664907829992
-2.1529410757010234   -0.3458685870845296   -0.04248202302813919
-2.1529410757010234   -0.3458685870845296   -0.04248202302813919
-2.1529410757010234   -0.3458685870845296   -0.04248202302813919
-2.1529410757010234   -0.3458685870845296   -0.04248202302813919
-2.4126316420880216   -1.2907351044210489   -0.07646077211505442
-2.4126316420880216   -1.2907351044210489   -0.07646077211505442
-2.4126316420880216   -1.2907351044210489   -0.07646077211505442
-2.4126316420880216   -1.2907351044210489   -0.07646077211505442
-0.9112055650973834   -0.09150663912277227   0.043141498889373464
-0.9112055650973834   -0.09150663912277227   0.043141498889373464
-0.9112055650973834   -0.09150663912277227   0.043141498889373464
-0.9112055650973834   -0.09150663912277227   0.043141498889373464
-1.6120701004371878   -0.6756186073032149   -0.0745306528712143
-1.6120701004371878   -0.6756186073032149   -0.0745306528712143
-1.6120701004371878   -0.6756186073032149   -0.0745306528712143
-1.6120701004371878   -0.6756186073032149   -0.0745306528712143
-1.1019066256513337   -1.011393362759442   0.009522919756291437
-1.1019066256513337   -1.011393362759442   0.009522919756291437
-1.1019066256513337   -1.011393362759442   0.009522919756291437
-1.1019066256513337   -1.011393362759442   0.009522919756291437
-2.222126953359232   -0.3710447526095426   -0.043627680282629866
-2.222126953359232   -0.3710447526095426   -0.043627680282629866
-2.222126953359232   -0.3710447526095426   -0.043627680282629866
-2.222126953359232   -0.3710447526095426   -0.043627680282629866
-2.4724737327303727   -1.2359117642619517   -0.086228709878994
-2.4724737327303727   -1.2359117642619517   -0.086228709878994
-2.4724737327303727   -1.2359117642619517   -0.086228709878994
-2.4724737327303727   -1.2359117642619517   -0.086228709878994
-0.9800188275206456   -0.11848128841840064   0.03990467649317628
-0.9800188275206456   -0.11848128841840064   0.03990467649317628
-0.9800188275206456   -0.11848128841840064   0.03990467649317628
-0.9800188275206456   -0.11848128841840064   0.03990467649317628
-1.6908468073432494   -0.6980775618761293   -0.09513125445230519
-1.6908468073432494   -0.6980775618761293   -0.09513125445230519
-1.6908468073432494   -0.6980775618761293   -0.09513125445230519
-1.6908468073432494   -0.6980775618761293   -0.09513125445230519
-2.007021932829173   -0.36500105528602644   0.18201665639904097
-2.007021932829173   -0.36500105528602644   0.18201665639904097
-2.007021932829173   -0.36500105528602644   0.18201665639904097
-2.007021932829173   -0.36500105528602644   0.18201665639904097
-3.5380524281726236   -0.26519697259749453   -0.06325673077037763
-3.5380524281726236   -0.26519697259749453   -0.06325673077037763
-3.5380524281726236   -0.26519697259749453   -0.06325673077037763
-3.5380524281726236   -0.26519697259749453   -0.06325673077037763
-3.7553269080393252   -0.7410646300506275   0.05000375778618782
-3.7553269080393252   -0.7410646300506275   0.05000375778618782
-3.7553269080393252   -0.7410646300506275   0.05000375778618782
-3.7553269080393252   -0.7410646300506275   0.05000375778618782
-2.0658374798935686   0.029406404015596244   0.017760964909007915
-2.0658374798935686   0.029406404015596244   0.017760964909007915
-2.0658374798935686   0.029406404015596244   0.017760964909007915
-2.0658374798935686   0.029406404015596244   0.017760964909007915
-2.7062286237193565   -0.26034946478997023   0.05448450048130393
-2.7062286237193565   -0.26034946478997023   0.05448450048130393
-2.7062286237193565   -0.26034946478997023   0.05448450048130393
-2.7062286237193565   -0.26034946478997023   0.05448450048130393
-2.121353121535331   -0.3919606601365913   0.16154982085237457
-2.121353121535331   -0.3919606601365913   0.16154982085237457
-2.121353121535331   -0.3919606601365913   0.16154982085237457
-2.121353121535331   -0.3919606601365913   0.16154982085237457
-3.690229280358685   -0.3101155798595585   -0.05545715400164941
-3.690229280358685   -0.3101155798595585   -0.05545715400164941
-3.690229280358685   -0.3101155798595585   -0.05545715400164941
-3.690229280358685   -0.3101155798595585   -0.05545715400164941
-3.847783076425228   -0.772752566356715   -0.01597975535834628
-3.847783076425228   -0.772752566356715   -0.01597975535834628
-3.847783076425228   -0.772752566356715   -0.01597975535834628
-3.847783076425228   -0.772752566356715   -0.01597975535834628
-2.1310547180943233   0.00801648126855281   0.03267226216381741
-2.1310547180943233   0.00801648126855281   0.03267226216381741
-2.1310547180943233   0.00801648126855281   0.03267226216381741
-2.1310547180943233   0.00801648126855281   0.03267226216381741
-2.8687401587404944   -0.34384351608513475   0.022530958088031516
-2.8687401587404944   -0.34384351608513475   0.022530958088031516
-2.8687401587404944   -0.34384351608513475   0.022530958088031516
-2.8687401587404944   -0.34384351608513475   0.022530958088031516
-2.1948115215565887   -0.41215113257259106   0.13405585869363335
-2.1948115215565887   -0.41215113257259106   0.13405585869363335
-2.1948115215565887   -0.41215113257259106   0.13405585869363335
-2.1948115215565887   -0.41215113257259106   0.13405585869363335
-3.764864015195858   -0.3334226947484604   -0.040714320819713934
-3.764864015195858   -0.3334226947484604   -0.040714320819713934
-3.764864015195858   -0.3334226947484604   -0.040714320819713934
-3.764864015195858   -0.3334226947484604   -0.040714320819713934
-3.928482981599861   -0.7857206782828235   -0.00012040981425642805
-3.928482981599861   -0.7857206782828235   -0.00012040981425642805
-3.928482981599861   -0.7857206782828235   -0.00012040981425642805
-3.928482981599861   -0.7857206782828235   -0.00012040981425642805
-2.22258285725343   -0.08598015518056695   0.013294058424327071
-2.22258285725343   -0.08598015518056695   0.013294058424327071
-2.22258285725343   -0.08598015518056695   0.013294058424327071
-2.22258285725343   -0.08598015518056695   0.013294058424327071
-2.9040990603032943   -0.4156108536247497   0.035597774248350755
-2.9040990603032943   -0.4156108536247497   0.035597774248350755
-2.9040990603032943   -0.4156108536247497   0.035597774248350755
-2.9040990603032943   -0.4156108536247497   0.035597774248350755
2.3926610383538773   0.10969706847976948   -0.05226132334826494
2.3926610383538773   0.10969706847976948   -0.05226132334826494
2.3926610383538773   0.10969706847976948   -0.05226132334826494
2.3926610383538773   0.10969706847976948   -0.05226132334826494
1.2050113124748032   -0.02384187125168781   0.0258371633148346
1.2050113124748032   -0.02384187125168781   0.0258371633148346
1.2050113124748032   -0.02384187125168781   0.0258371633148346
1.2050113124748032   -0.02384187125168781   0.0258371633148346
1.1279750918723097   -0.17771514454051113   -0.04608607138870313
1.1279750918723097   -0.17771514454051113   -0.04608607138870313
1.1279750918723097   -0.17771514454051113   -0.04608607138870313
1.1279750918723097   -0.17771514454051113   -0.04608607138870313
2.364852487119545   0.17291404256986254   0.030229251144544667
2.364852487119545   0.17291404256986254   0.030229251144544667
2.364852487119545   0.17291404256986254   0.030229251144544667
2.364852487119545   0.17291404256986254   0.030229251144544667
1.6797015682461707   0.004112031116335735   -0.06489468357524936
1.6797015682461707   0.004112031116335735   -0.06489468357524936
1.6797015682461707   0.004112031116335735   -0.06489468357524936
1.6797015682461707   0.004112031116335735   -0.06489468357524936
2.3257905227441076   0.06052654189919762   -0.052693070061957226
2.3257905227441076   0.06052654189919762   -0.052693070061957226
2.3257905227441076   0.06052654189919762   -0.052693070061957226
2.3257905227441076   0.06052654189919762   -0.052693070061957226
1.1648570866554289   -0.06750761346216252   0.02811637144853535
1.1648570866554289   -0.06750761346216252   0.02811637144853535
1.1648570866554289   -0.06750761346216252   0.02811637144853535
1.1648570866554289   -0.06750761346216252   0.02811637144853535
1.0865116435431696   -0.18770698706715466   -0.038026219061105315
1.0865116435431696   -0.18770698706715466   -0.038026219061105315
1.0865116435431696   -0.18770698706715466   -0.038026219061105315
1.0865116435431696   -0.18770698706715466   -0.038026219061105315
2.3072220842839832   0.15878072009853722   0.04410810928269848
2.3072220842839832   0.15878072009853722   0.04410810928269848
2.3072220842839832   0.15878072009853722   0.04410810928269848
2.3072220842839832   0.15878072009853722   0.04410810928269848
1.6568879852809697   -0.016930347250863356   -0.07758982110789725
1.6568879852809697   -0.016930347250863356   -0.07758982110789725
1.6568879852809697   -0.016930347250863356   -0.07758982110789725
1.6568879852809697   -0.016930347250863356   -0.07758982110789725
2.26787898745674   0.047838662147319994   -0.04166531690230191
2.26787898745674   0.047838662147319994   -0.04166531690230191
2.26787898745674   0.047838662147319994   -0.04166531690230191
2.26787898745674   0.047838662147319994   -0.04166531690230191
1.1228427410687853   -0.07977692841756559   0.03569920991738254
1.1228427410687853   -0.07977692841756559   0.03569920991738254
1.1228427410687853   -0.07977692841756559   0.03569920991738254
1.1228427410687853   -0.07977692841756559   0.03569920991738254
1.0463290050590461   -0.1851421537871339   -0.026051785594561006
1.0463290050590461   -0.1851421537871339   -0.026051785594561006
1.0463290050590461   -0.1851421537871339   -0.026051785594561006
1.0463290050590461   -0.1851421537871339   -0.026051785594561006
2.2358421564784723   0.1490339755499095   0.057313836835149956
2.2358421564784723   0.1490339755499095   0.057313836835149956
2.2358421564784723   0.1490339755499095   0.057313836835149956
2.2358421564784723   0.1490339755499095   0.057313836835149956
1.5746403368228084   -0.029575746122106644   -0.10199002931670964
1.5746403368228084   -0.029575746122106644   -0.10199002931670964
1.5746403368228084   -0.029575746122106644   -0.10199002931670964
1.5746403368228084   -0.029575746122106644   -0.10199002931670964
1.2112005351549275   0.022366132739871217   0.010575272723896856
1.2112005351549275   0.022366132739871217   0.010575272723896856
1.2112005351549275   0.022366132739871217   0.010575272723896856
1.2112005351549275   0.022366132739871217   0.010575272723896856
0.11783779730142313   -0.07232383527333014   -0.0026081713075882702
0.11783779730142313   -0.07232383527333014   -0.0026081713075882702
0.11783779730142313   -0.07232383527333014   -0.0026081713075882702
0.11783779730142313   -0.07232383527333014   -0.0026081713075882702
0.04524955766262713   -0.2352878275259988   -0.04429937354322158
0.04524955766262713   -0.2352878275259988   -0.04429937354322158
0.04524955766262713   -0.2352878275259988   -0.04429937354322158
0.04524955766262713   -0.2352878275259988   -0.04429937354322158
1.212711979102175   0.13978129110788073   0.060101929112222674
1.212711979102175   0.13978129110788073   0.060101929112222674
1.212711979102175   0.13978129110788073   0.060101929112222674
1.212711979102175   0.13978129110788073   0.060101929112222674
0.6348785809126043   -0.03326076833268555   -0.025270682676708484
0.6348785809126043   -0.03326076833268555   -0.025270682676708484
0.6348785809126043   -0.03326076833268555   -0.025270682676708484
0.6348785809126043   -0.03326076833268555   -0.025270682676708484
1.1771323126462299   0.0036213131395350026   0.018363574800844634
1.1771323126462299   0.0036213131395350026   0.018363574800844634
1.1771323126462299   0.0036213131395350026   0.018363574800844634
1.1771323126462299   0.0036213131395350026   0.018363574800844634
0.08216935921491532   -0.09778771446130971   0.002799521153530272
0.08216935921491532   -0.09778771446130971   0.002799521153530272
0.08216935921491532   -0.09778771446130971   0.002799521153530272
0.08216935921491532   -0.09778771446130971   0.002799521153530272
0.00527115347460599   -0.24660791885203373   -0.030766550107264968
0.00527115347460599   -0.24660791885203373   -0.030766550107264968
0.00527115347460599   -0.24660791885203373   -0.030766550107264968
0.00527115347460599   -0.24660791885203373   -0.030766550107264968
1.1688180576476146   0.11949064671213283   0.0663082176818316
1.1688180576476146   0.11949064671213283   0.0663082176818316
1.1688180576476146   0.11949064671213283   0.0663082176818316
1.1688180576476146   0.11949064671213283   0.0663082176818316
0.5889164351386645   -0.05191612904647498   -0.03578194080083605
0.5889164351386645   -0.05191612904647498   -0.03578194080083605
0.5889164351386645   -0.05191612904647498   -0.03578194080083605
0.5889164351386645   -0.05191612904647498   -0.03578194080083605
1.1352319843613425   -0.009073952550592082   0.02694245051320665
1.1352319843613425   -0.009073952550592082   0.02694245051320665
1.1352319843613425   -0.009073952550592082   0.02694245051320665
1.1352319843613425   -0.009073952550592082   0.02694245051320665
0.038661586160949786   -0.11823896018923534   0.007816654661655608
0.038661586160949786   -0.11823896018923534   0.007816654661655608
0.038661586160949786   -0.11823896018923534   0.007816654661655608
0.038661586160949786   -0.11823896018923534   0.007816654661655608
-0.03766197303113207   -0.24784051531999063   -0.020931700263540166
-0.03766197303113207   -0.24784051531999063   -0.020931700263540166
-0.03766197303113207   -0.24784051531999063   -0.020931700263540166
-0.03766197303113207   -0.24784051531999063   -0.020931700263540166
1.1245344438454303   0.10653359866166984   0.07329965588855866
1.1245344438454303   0.10653359866166984   0.07329965588855866
1.1245344438454303   0.10653359866166984   0.07329965588855866
1.1245344438454303   0.10653359866166984   0.07329965588855866
0.552872420083255   -0.05943003133445129   -0.04484567734937994
0.552872420083255   -0.05943003133445129   -0.04484567734937994
0.552872420083255   -0.05943003133445129   -0.04484567734937994
0.552872420083255   -0.05943003133445129   -0.04484567734937994
0.11973665178932863   -0.06924445410726106   0.0038067199658662707
0.11973665178932863   -0.06924445410726106   0.0038067199658662707
0.11973665178932863   -0.06924445410726106   0.0038067199658662707
0.11973665178932863   -0.06924445410726106   0.0038067199658662707
-0.9328876739978776   -0.10790464373650369   -0.029377810102664798
-0.9328876739978776   -0.10790464373650369   -0.029377810102664798
-0.9328876739978776   -0.10790464373650369   -0.029377810102664798
-0.9328876739978776   -0.10790464373650369   -0.029377810102664798
-1.0135844678978716   -0.3120280733203234   -0.050412708441892246
-1.0135844678978716   -0.3120280733203234   -0.050412708441892246
-1.0135844678978716   -0.3120280733203234   -0.050412708441892246
-1.0135844678978716   -0.3120280733203234   -0.050412708441892246
0.12850508843269765   0.1022503323398336   0.03444012044129861
0.12850508843269765   0.1022503323398336   0.03444012044129861
0.12850508843269765   0.1022503323398336   0.03444012044129861
0.12850508843269765   0.1022503323398336   0.03444012044129861
-0.42583286407764004   -0.09209396003018763   -0.02511466349572214
-0.42583286407764004   -0.09209396003018763   -0.02511466349572214
-0.42583286407764004   -0.09209396003018763   -0.02511466349572214
-0.42583286407764004   -0.09209396003018763   -0.02511466349572214
0.08970559900603745   -0.0772907642679974   0.019983769915828595
0.08970559900603745   -0.0772907642679974   0.019983769915828595
0.08970559900603745   -0.0772907642679974   0.019983769915828595
0.08970559900603745   -0.0772907642679974   0.019983769915828595
-0.9718238825352223   -0.12952588077650318   -0.024111974172465495
-0.9718238825352223   -0.12952588077650318   -0.024111974172465495
-0.9718238825352223   -0.12952588077650318   -0.024111974172465495
-0.9718238825352223   -0.12952588077650318   -0.024111974172465495
-1.0604790208352375   -0.324436923026608   -0.033299249038964474
-1.0604790208352375   -0.324436923026608   -0.033299249038964474
-1.0604790208352375   -0.324436923026608   -0.033299249038964474
-1.0604790208352375   -0.324436923026608   -0.033299249038964474
0.08464171809834446   0.08052234861409571   0.03895600554529795
0.08464171809834446   0.08052234861409571   0.03895600554529795
0.08464171809834446   0.08052234861409571   0.03895600554529795
0.08464171809834446   0.08052234861409571   0.03895600554529795
-0.46461640901249174   -0.10506102430017208   -0.0301348126519088
-0.46461640901249174   -0.10506102430017208   -0.0301348126519088
-0.46461640901249174   -0.10506102430017208   -0.0301348126519088
-0.46461640901249174   -0.10506102430017208   -0.0301348126519088
0.048186588172442216   -0.090502842092742   0.027705546622624425
0.048186588172442216   -0.090502842092742   0.027705546622624425
0.048186588172442216   -0.090502842092742   0.027705546622624425
0.048186588172442216   -0.090502842092742   0.027705546622624425
-1.0234086312865835   -0.15279647269700844   -0.019587751625294775
-1.0234086312865835   -0.15279647269700844   -0.019587751625294775
-1.0234086312865835   -0.15279647269700844   -0.019587751625294775
-1.0234086312865835   -0.15279647269700844   -0.019587751625294775
-1.112525274938849   -0.33353182202068854   -0.02960671971092199
-1.112525274938849   -0.33353182202068854   -0.02960671971092199
-1.112525274938849   -0.33353182202068854   -0.02960671971092199
-1.112525274938849   -0.33353182202068854   -0.02960671971092199
0.0371986788334603   0.061965982087855205   0.04356506165157582
0.0371986788334603   0.061965982087855205   0.04356506165157582
0.0371986788334603   0.061965982087855205   0.04356506165157582
0.0371986788334603   0.061965982087855205   0.04356506165157582
-0.5150176970560314   -0.1205873145118823   -0.042212860982012046
-0.5150176970560314   -0.1205873145118823   -0.042212860982012046
-0.5150176970560314   -0.1205873145118823   -0.042212860982012046
-0.5150176970560314   -0.1205873145118823   -0.042212860982012046
-0.91880906745361   -0.08153117285739542   0.01464175173954485
-0.91880906745361   -0.08153117285739542   0.01464175173954485
-0.91880906745361   -0.08153117285739542   0.01464175173954485
-0.91880906745361   -0.08153117285739542   0.01464175173954485
-1.9579643579514794   -0.12626008500890362   -0.051867210441948974
-1.9579643579514794   -0.12626008500890362   -0.051867210441948974
-1.9579643579514794   -0.12626008500890362   -0.051867210441948974
-1.9579643579514794   -0.12626008500890362   -0.051867210441948974
-2.0497344537760243   -0.3267820835708565   -0.050256127384772975
-2.0497344537760243   -0.3267820835708565   -0.050256127384772975
-2.0497344537760243   -0.3267820835708565   -0.050256127384772975
-2.0497344537760243   -0.3267820835708565   -0.050256127384772975
-0.9235665321727163   0.07798462487823749   0.009664271985314943
-0.9235665321727163   0.07798462487823749   0.009664271985314943
-0.9235665321727163   0.07798462487823749   0.009664271985314943
-0.9235665321727163   0.07798462487823749   0.009664271985314943
-1.4504483831837645   -0.10885332891504938   -0.02116486923865929
-1.4504483831837645   -0.10885332891504938   -0.02116486923865929
-1.4504483831837645   -0.10885332891504938   -0.02116486923865929
-1.4504483831837645   -0.10885332891504938   -0.02116486923865929
-0.9520792427186129   -0.09015228921300339   0.035237633347081326
-0.9520792427186129   -0.09015228921300339   0.035237633347081326
-0.9520792427186129   -0.09015228921300339   0.035237633347081326
-0.9520792427186129   -0.09015228921300339   0.035237633347081326
-2.0154024916673934   -0.15282591791688221   -0.05255248249560679
-2.0154024916673934   -0.15282591791688221   -0.05255248249560679
-2.0154024916673934   -0.15282591791688221   -0.05255248249560679
-2.0154024916673934   -0.15282591791688221   -0.05255248249560679
-2.114640659508969   -0.3478662523515921   -0.03522147284313992
-2.114640659508969   -0.3478662523515921   -0.03522147284313992
-2.114640659508969   -0.3478662523515921   -0.03522147284313992
-2.114640659508969   -0.3478662523515921   -0.03522147284313992
-0.9757242124796119   0.05418727809883122   0.011850591613723455
-0.9757242124796119   0.05418727809883122   0.011850591613723455
-0.9757242124796119   0.05418727809883122   0.011850591613723455
-0.9757242124796119   0.05418727809883122   0.011850591613723455
-1.49156514206805   -0.1205764397445864   -0.02125819036850435
-1.49156514206805   -0.1205764397445864   -0.02125819036850435
-1.49156514206805   -0.1205764397445864   -0.02125819036850435
-1.49156514206805   -0.1205764397445864   -0.02125819036850435
-1.0038934088579659   -0.1113617750738387   0.03655366289462386
-1.0038934088579659   -0.1113617750738387   0.03655366289462386
-1.0038934088579659   -0.1113617750738387   0.03655366289462386
-1.0038934088579659   -0.1113617750738387   0.03655366289462386
-2.0825741632923473   -0.1784198993406573   -0.044335344770983665
-2.0825741632923473   -0.1784198993406573   -0.044335344770983665
-2.0825741632923473   -0.1784198993406573   -0.044335344770983665
-2.0825741632923473   -0.1784198993406573   -0.044335344770983665
-2.188110091220718   -0.375628695753806   -0.037741096483778214
-2.188110091220718   -0.375628695753806   -0.037741096483778214
-2.188110091220718   -0.375628695753806   -0.037741096483778214
-2.188110091220718   -0.375628695753806   -0.037741096483778214
-1.0320870017152126   0.0248474629651552   0.0142053614214121
-1.0320870017152126   0.0248474629651552   0.0142053614214121
-1.0320870017152126   0.0248474629651552   0.0142053614214121
-1.0320870017152126   0.0248474629651552   0.0142053614214121
-1.564334365526503   -0.1489876097041653   -0.03447912934323566
-1.564334365526503   -0.1489876097041653   -0.03447912934323566
-1.564334365526503   -0.1489876097041653   -0.03447912934323566
-1.564334365526503   -0.1489876097041653   -0.03447912934323566
-1.8914565433804247   0.08971325499658778   0.06469852240783508
-1.8914565433804247   0.08971325499658778   0.06469852240783508
-1.8914565433804247   0.08971325499658778   0.06469852240783508
-1.8914565433804247   0.08971325499658778   0.06469852240783508
-2.933113026366763   -0.14617243790211484   -0.039684128792772055
-2.933113026366763   -0.14617243790211484   -0.039684128792772055
-2.933113026366763   -0.14617243790211484   -0.039684128792772055
-2.933113026366763   -0.14617243790211484   -0.039684128792772055
-3.0057076492595423   -0.14882239472192968   0.06648714058735161
-3.0057076492595423   -0.14882239472192968   0.06648714058735161
-3.0057076492595423   -0.14882239472192968   0.06648714058735161
-3.0057076492595423   -0.14882239472192968   0.06648714058735161
-1.9653938989744315   0.06063805391423101   -0.015973490861911632
-1.9653938989744315   0.06063805391423101   -0.015973490861911632
-1.9653938989744315   0.06063805391423101   -0.015973490861911632
-1.9653938989744315   0.06063805391423101   -0.015973490861911632
-2.3348132280117966   0.0018746431182131151   0.05920451140191518
-2.3348132280117966   0.0018746431182131151   0.05920451140191518
-2.3348132280117966   0.0018746431182131151   0.05920451140191518
-2.3348132280117966   0.0018746431182131151   0.05920451140191518
-1.9447237860550262   0.06639997944280895   0.08161514820652882
-1.9447237860550262   0.06639997944280895   0.08161514820652882
-1.9447237860550262   0.06639997944280895   0.08161514820652882
-1.9447237860550262   0.06639997944280895   0.08161514820652882
-3.0250312971452176   -0.15323785521677902   -0.02571563834617574
-3.0250312971452176   -0.15323785521677902   -0.02571563834617574
-3.0250312971452176   -0.15323785521677902   -0.02571563834617574
-3.0250312971452176   -0.15323785521677902   -0.02571563834617574
-3.0973997175186443   -0.17370895431398037   0.09039008367547274
-3.0973997175186443   -0.17370895431398037   0.09039008367547274
-3.0973997175186443   -0.17370895431398037   0.09039008367547274
-3.0973997175186443   -0.17370895431398037   0.09039008367547274
-2.0326124173222926   0.04373564148486912   -0.016682155746236438
-2.0326124173222926   0.04373564148486912   -0.016682155746236438
-2.0326124173222926   0.04373564148486912   -0.016682155746236438
-2.0326124173222926   0.04373564148486912   -0.016682155746236438
-2.4528736387664316   -0.02727684107779449   0.032185769472497405
-2.4528736387664316   -0.02727684107779449   0.032185769472497405
-2.4528736387664316   -0.02727684107779449   0.032185769472497405
-2.4528736387664316   -0.02727684107779449   0.032185769472497405
-2.0137202290317493   0.04104317673881197   0.08047125045253917
-2.0137202290317493   0.04104317673881197   0.08047125045253917
-2.0137202290317493   0.04104317673881197   0.08047125045253917
-2.0137202290317493   0.04104317673881197   0.08047125045253917
-3.1198492724653004   -0.17457385622403193   -0.020992789147733726
-3.1198492724653004   -0.17457385622403193   -0.020992789147733726
-3.1198492724653004   -0.17457385622403193   -0.020992789147733726
-3.1198492724653004   -0.17457385622403193   -0.020992789147733726
-3.2276923731820184   -0.27393745910895945   0.0786170547109527
-3.2276923731820184   -0.27393745910895945   0.0786170547109527
-3.2276923731820184   -0.27393745910895945   0.0786170547109527
-3.2276923731820184   -0.27393745910895945   0.0786170547109527
-2.110109239203192   -0.007672626720790429   -0.015692905429177728
-2.110109239203192   -0.007672626720790429   -0.015692905429177728
-2.110109239203192   -0.007672626720790429   -0.015692905429177728
-2.110109239203192   -0.007672626720790429   -0.015692905429177728
-2.503499383682609   -0.06392044418891288   0.00832863988604382
-2.503499383682609   -0.06392044418891288   0.00832863988604382
-2.503499383682609   -0.06392044418891288   0.00832863988604382
-2.503499383682609   -0.06392044418891288   0.00832863988604382
1.9363314176626962   0.10337829465704618   -0.06938211232938835
1.9363314176626962   0.10337829465704618   -0.06938211232938835
1.9363314176626962   0.10337829465704618   -0.06938211232938835
1.9363314176626962   0.10337829465704618   -0.06938211232938835
0.9604828708422074   -0.0006006424220494772   0.025238822897845403
0.9604828708422074   -0.0006006424220494772   0.025238822897845403
0.9604828708422074   -0.0006006424220494772   0.025238822897845403
0.9604828708422074   -0.0006006424220494772   0.025238822897845403
0.8774618934044833   -0.14332374547066348   -0.0635690953430238
0.8774618934044833   -0.14332374547066348   -0.0635690953430238
0.8774618934044833   -0.14332374547066348   -0.0635690953430238
0.8774618934044833   -0.14332374547066348   -0.0635690953430238
1.899676366913797   0.15675534098467855   0.031640147411629294
1.899676366913797   0.15675534098467855   0.031640147411629294
1.899676366913797   0.15675534098467855   0.031640147411629294
1.899676366913797   0.15675534098467855   0.031640147411629294
1.3451542666353673   0.011899143931165729   -0.044259705257961635
1.3451542666353673   0.011899143931165729   -0.044259705257961635
1.3451542666353673   0.011899143931165729   -0.044259705257961635
1.3451542666353673   0.011899143931165729   -0.044259705257961635
1.8591095334059355   0.052359888141362554   -0.06679856728434597
1.8591095334059355   0.052359888141362554   -0.06679856728434597
1.8591095334059355   0.052359888141362554   -0.06679856728434597
1.8591095334059355   0.052359888141362554   -0.06679856728434597
0.9162826595687683   -0.04067435997092377   0.027885349978646473
0.9162826595687683   -0.04067435997092377   0.027885349978646473
0.9162826595687683   -0.04067435997092377   0.027885349978646473
0.9162826595687683   -0.04067435997092377   0.027885349978646473
0.8359347640736252   -0.1553454998699507   -0.05523567034938304
0.8359347640736252   -0.1553454998699507   -0.05523567034938304
0.8359347640736252   -0.1553454998699507   -0.05523567034938304
0.8359347640736252   -0.1553454998699507   -0.05523567034938304
1.837549910447748   0.14024973525720125   0.043208519537995815
1.837549910447748   0.14024973525720125   0.043208519537995815
1.837549910447748   0.14024973525720125   0.043208519537995815
1.837549910447748   0.14024973525720125   0.043208519537995815
1.3125301479209033   -0.009728009057430806   -0.05825288081701113
1.3125301479209033   -0.009728009057430806   -0.05825288081701113
1.3125301479209033   -0.009728009057430806   -0.05825288081701113
1.3125301479209033   -0.009728009057430806   -0.05825288081701113
1.7978573138248573   0.03757099873860566   -0.052575727057833144
1.7978573138248573   0.03757099873860566   -0.052575727057833144
1.7978573138248573   0.03757099873860566   -0.052575727057833144
1.7978573138248573   0.03757099873860566   -0.052575727057833144
0.8740673198836232   -0.05422680416424425   0.03430841299489301
0.8740673198836232   -0.05422680416424425   0.03430841299489301
0.8740673198836232   -0.05422680416424425   0.03430841299489301
0.8740673198836232   -0.05422680416424425   0.03430841299489301
0.797998936373951   -0.15902111344337397   -0.04511838802674595
0.797998936373951   -0.15902111344337397   -0.04511838802674595
0.797998936373951   -0.15902111344337397   -0.04511838802674595
0.797998936373951   -0.15902111344337397   -0.04511838802674595
1.7675117936552562   0.12569447408393866   0.05372293135036088
1.7675117936552562   0.12569447408393866   0.05372293135036088
1.7675117936552562   0.12569447408393866   0.05372293135036088
1.7675117936552562   0.12569447408393866   0.05372293135036088
1.236915121304345   -0.024657532254236794   -0.07916986424288264
1.236915121304345   -0.024657532254236794   -0.07916986424288264
1.236915121304345   -0.024657532254236794   -0.07916986424288264
1.236915121304345   -0.024657532254236794   -0.07916986424288264
0.9767929037739742   0.10102207442468646   0.00516627070994366
0.9767929037739742   0.10102207442468646   0.00516627070994366
0.9767929037739742   0.10102207442468646   0.00516627070994366
0.9767929037739742   0.10102207442468646   0.00516627070994366
0.03422115942478535   -0.03172876042915463   -0.003882804047883614
0.03422115942478535   -0.03172876042915463   -0.003882804047883614
0.03422115942478535   -0.03172876042915463   -0.003882804047883614
0.03422115942478535   -0.03172876042915463   -0.003882804047883614
-0.028351855348171556   -0.12909180058458478   -0.04319969489975813
-0.028351855348171556   -0.12909180058458478   -0.04319969489975813
-0.028351855348171556   -0.12909180058458478   -0.04319969489975813
-0.028351855348171556   -0.12909180058458478   -0.04319969489975813
0.9578579087403573   0.14187773075315202   0.05320950511251568
0.9578579087403573   0.14187773075315202   0.05320950511251568
0.9578579087403573   0.14187773075315202   0.05320950511251568
0.9578579087403573   0.14187773075315202   0.05320950511251568
0.4775752525015487   0.02020456501234637   -0.005508020126979207
0.4775752525015487   0.02020456501234637   -0.005508020126979207
0.4775752525015487   0.02020456501234637   -0.005508020126979207
0.4775752525015487   0.02020456501234637   -0.005508020126979207
0.9358963423732711   0.07454471562141943   0.010734688408820192
0.9358963423732711   0.07454471562141943   0.010734688408820192
0.9358963423732711   0.07454471562141943   0.010734688408820192
0.9358963423732711   0.07454471562141943   0.010734688408820192
-0.00600331864368945   -0.061371815115455794   0.0008230031535234363
-0.00600331864368945   -0.061371815115455794   0.0008230031535234363
-0.00600331864368945   -0.061371815115455794   0.0008230031535234363
-0.00600331864368945   -0.061371815115455794   0.0008230031535234363
-0.06769162219963099   -0.1485374575428186   -0.03732262374568
-0.06769162219963099   -0.1485374575428186   -0.03732262374568
-0.06769162219963099   -0.1485374575428186   -0.03732262374568
-0.06769162219963099   -0.1485374575428186   -0.03732262374568
0.913296621610661   0.11733758590385676   0.058890531561981124
0.913296621610661   0.11733758590385676   0.058890531561981124
0.913296621610661   0.11733758590385676   0.058890531561981124
0.913296621610661   0.11733758590385676   0.058890531561981124
0.4295612265296154   -0.003964878021690443   -0.019248167320859808
0.4295612265296154   -0.003964878021690443   -0.019248167320859808
0.4295612265296154   -0.003964878021690443   -0.019248167320859808
0.4295612265296154   -0.003964878021690443   -0.019248167320859808
0.8921542865287047   0.05416628113598753   0.016350160920076323
0.8921542865287047   0.05416628113598753   0.016350160920076323
0.8921542865287047   0.05416628113598753   0.016350160920076323
0.8921542865287047   0.05416628113598753   0.016350160920076323
-0.04651031640511865   -0.08532718206240232   0.00537362974646536
-0.04651031640511865   -0.08532718206240232   0.00537362974646536
-0.04651031640511865   -0.08532718206240232   0.00537362974646536
-0.04651031640511865   -0.08532718206240232   0.00537362974646536
-0.10663881521724676   -0.16029178233729646   -0.029653990043595924
-0.10663881521724676   -0.16029178233729646   -0.029653990043595924
-0.10663881521724676   -0.16029178233729646   -0.029653990043595924
-0.10663881521724676   -0.16029178233729646   -0.029653990043595924
0.8709162232144215   0.09660281519859962   0.06384411753362146
0.8709162232144215   0.09660281519859962   0.06384411753362146
0.8709162232144215   0.09660281519859962   0.06384411753362146
0.8709162232144215   0.09660281519859962   0.06384411753362146
0.3939969512491289   -0.019478246917402783   -0.029393548873489217
0.3939969512491289   -0.019478246917402783   -0.029393548873489217
0.3939969512491289   -0.019478246917402783   -0.029393548873489217
0.3939969512491289   -0.019478246917402783   -0.029393548873489217
0.06616982740310616   0.10217397803929289   0.021957797375272946
0.06616982740310616   0.10217397803929289   0.021957797375272946
0.06616982740310616   0.10217397803929289   0.021957797375272946
0.06616982740310616   0.10217397803929289   0.021957797375272946
-0.8631927858907339   -0.05569188070749417   -0.029722940754005972
-0.8631927858907339   -0.05569188070749417   -0.029722940754005972
-0.8631927858907339   -0.05569188070749417   -0.029722940754005972
-0.8631927858907339   -0.05569188070749417   -0.029722940754005972
-0.9120131548122657   -0.11819347489694493   -0.027260672497630645
-0.9120131548122657   -0.11819347489694493   -0.027260672497630645
-0.9120131548122657   -0.11819347489694493   -0.027260672497630645
-0.9120131548122657   -0.11819347489694493   -0.027260672497630645
0.03448785894796417   0.11615899004479388   0.025748085951541856
0.03448785894796417   0.11615899004479388   0.025748085951541856
0.03448785894796417   0.11615899004479388   0.025748085951541856
0.03448785894796417   0.11615899004479388   0.025748085951541856
-0.4181152945874129   0.013100271940670594   0.0015656211335252912
-0.4181152945874129   0.013100271940670594   0.0015656211335252912
-0.4181152945874129   0.013100271940670594   0.0015656211335252912
-0.4181152945874129   0.013100271940670594   0.0015656211335252912
0.027780627156286552   0.08074299950323433   0.027627917534713324
0.027780627156286552   0.08074299950323433   0.027627917534713324
0.027780627156286552   0.08074299950323433   0.027627917534713324
0.027780627156286552   0.08074299950323433   0.027627917534713324
-0.9042348019281982   -0.08170636326299544   -0.02485601971124246
-0.9042348019281982   -0.08170636326299544   -0.02485601971124246
-0.9042348019281982   -0.08170636326299544   -0.02485601971124246
-0.9042348019281982   -0.08170636326299544   -0.02485601971124246
-0.9542349342005942   -0.13956456731749944   -0.022601921813739156
-0.9542349342005942   -0.13956456731749944   -0.022601921813739156
-0.9542349342005942   -0.13956456731749944   -0.022601921813739156
-0.9542349342005942   -0.13956456731749944   -0.022601921813739156
-0.006084588635835672   0.09091164529357715   0.03126344123690078
-0.006084588635835672   0.09091164529357715   0.03126344123690078
-0.006084588635835672   0.09091164529357715   0.03126344123690078
-0.006084588635835672   0.09091164529357715   0.03126344123690078
-0.458562751822542   -0.007791102833570623   -0.008774127302046936
-0.458562751822542   -0.007791102833570623   -0.008774127302046936
-0.458562751822542   -0.007791102833570623   -0.008774127302046936
-0.458562751822542   -0.007791102833570623   -0.008774127302046936
-0.011817636226401411   0.060117705296347336   0.033392143281301905
-0.011817636226401411   0.060117705296347336   0.033392143281301905
-0.011817636226401411   0.060117705296347336   0.033392143281301905
-0.011817636226401411   0.060117705296347336   0.033392143281301905
-0.9475789252038527   -0.10784766591409387   -0.021038778233437166
-0.9475789252038527   -0.10784766591409387   -0.021038778233437166
-0.9475789252038527   -0.10784766591409387   -0.021038778233437166
-0.9475789252038527   -0.10784766591409387   -0.021038778233437166
-0.9961764040921612   -0.15639421787184746   -0.014860855221377367
-0.9961764040921612   -0.15639421787184746   -0.014860855221377367
-0.9961764040921612   -0.15639421787184746   -0.014860855221377367
-0.9961764040921612   -0.15639421787184746   -0.014860855221377367
-0.048115359832735016   0.06712787255686983   0.035543631984796514
-0.048115359832735016   0.06712787255686983   0.035543631984796514
-0.048115359832735016   0.06712787255686983   0.035543631984796514
-0.048115359832735016   0.06712787255686983   0.035543631984796514
-0.5020816431125656   -0.029039461347578902   -0.020066246731736154
-0.5020816431125656   -0.029039461347578902   -0.020066246731736154
-0.5020816431125656   -0.029039461347578902   -0.020066246731736154
-0.5020816431125656   -0.029039461347578902   -0.020066246731736154
-0.8138756678554838   0.12097104070137563   0.04019972801338986
-0.8138756678554838   0.12097104070137563   0.04019972801338986
-0.8138756678554838   0.12097104070137563   0.04019972801338986
-0.8138756678554838   0.12097104070137563   0.04019972801338986
-1.7304481468388353   -0.07665019526812773   -0.04875308257432526
-1.7304481468388353   -0.07665019526812773   -0.04875308257432526
-1.7304481468388353   -0.07665019526812773   -0.04875308257432526
-1.7304481468388353   -0.07665019526812773   -0.04875308257432526
-1.7685241788064086   -0.09446373996645252   -0.0076199056044430336
-1.7685241788064086   -0.09446373996645252   -0.0076199056044430336
-1.7685241788064086   -0.09446373996645252   -0.0076199056044430336
-1.7685241788064086   -0.09446373996645252   -0.0076199056044430336
-0.865666627394663   0.08779818550561433   -0.0015196958121693471
-0.865666627394663   0.08779818550561433   -0.0015196958121693471
-0.865666627394663   0.08779818550561433   -0.0015196958121693471
-0.865666627394663   0.08779818550561433   -0.0015196958121693471
-1.2852827997229954   0.013417652311650152   0.009347219048287947
-1.2852827997229954   0.013417652311650152   0.009347219048287947
-1.2852827997229954   0.013417652311650152   0.009347219048287947
-1.2852827997229954   0.013417652311650152   0.009347219048287947
-0.8541017349799475   0.09897110022761074   0.04513185153941224
-0.8541017349799475   0.09897110022761074   0.04513185153941224
-0.8541017349799475   0.09897110022761074   0.04513185153941224
-0.8541017349799475   0.09897110022761074   0.04513185153941224
-1.7786254984547423   -0.1041730819220671   -0.04841716189049727
-1.7786254984547423   -0.1041730819220671   -0.04841716189049727
-1.7786254984547423   -0.1041730819220671   -0.04841716189049727
-1.7786254984547423   -0.1041730819220671   -0.04841716189049727
-1.8205275360818374   -0.11848538177435665   -0.006709384149990505
-1.8205275360818374   -0.11848538177435665   -0.006709384149990505
-1.8205275360818374   -0.11848538177435665   -0.006709384149990505
-1.8205275360818374   -0.11848538177435665   -0.006709384149990505
-0.9083812205251779   0.06370509168657465   0.0033969875592755883
-0.9083812205251779   0.06370509168657465   0.0033969875592755883
-0.9083812205251779   0.06370509168657465   0.0033969875592755883
-0.9083812205251779   0.06370509168657465   0.0033969875592755883
-1.3217473130567534   -0.005724938664227325   0.0008602291658484917
-1.3217473130567534   -0.005724938664227325   0.0008602291658484917
-1.3217473130567534   -0.005724938664227325   0.0008602291658484917
-1.3217473130567534   -0.005724938664227325   0.0008602291658484917
-0.8957197983483186   0.07824990052365569   0.052159289606490994
-0.8957197983483186   0.07824990052365569   0.052159289606490994
-0.8957197983483186   0.07824990052365569   0.052159289606490994
-0.8957197983483186   0.07824990052365569   0.052159289606490994
-1.8302283496100848   -0.13006958196281587   -0.043629251602769814
-1.8302283496100848   -0.13006958196281587   -0.043629251602769814
-1.8302283496100848   -0.13006958196281587   -0.043629251602769814
-1.8302283496100848   -0.13006958196281587   -0.043629251602769814
-1.8684223025315163   -0.14419257086722628   0.005340493075869535
-1.8684223025315163   -0.14419257086722628   0.005340493075869535
-1.8684223025315163   -0.14419257086722628   0.005340493075869535
-1.8684223025315163   -0.14419257086722628   0.005340493075869535
-0.9536465145391366   0.035064281324643364   0.006330093347254234
-0.9536465145391366   0.035064281324643364   0.006330093347254234
-0.9536465145391366   0.035064281324643364   0.006330093347254234
-0.9536465145391366   0.035064281324643364   0.006330093347254234
-1.3785154539455462   -0.03251729976535378   -0.010522775664640993
-1.3785154539455462   -0.03251729976535378   -0.010522775664640993
-1.3785154539455462   -0.03251729976535378   -0.010522775664640993
-1.3785154539455462   -0.03251729976535378   -0.010522775664640993
-1.6689181371670685   0.12587726649970987   0.056369504016656746
-1.6689181371670685   0.12587726649970987   0.056369504016656746
-1.6689181371670685   0.12587726649970987   0.056369504016656746
-1.6689181371670685   0.12587726649970987   0.056369504016656746
-2.554042566858888   -0.11808344307565996   -0.045124566620459716
-2.554042566858888   -0.11808344307565996   -0.045124566620459716
-2.554042566858888   -0.11808344307565996   -0.045124566620459716
-2.554042566858888   -0.11808344307565996   -0.045124566620459716
-2.5893671493632318   -0.051356240784870194   0.04802828603138243
-2.5893671493632318   -0.051356240784870194   0.04802828603138243
-2.5893671493632318   -0.051356240784870194   0.04802828603138243
-2.5893671493632318   -0.051356240784870194   0.04802828603138243
-1.7427284585138343   0.05231171812306261   -0.025416762231086965
-1.7427284585138343   0.05231171812306261   -0.025416762231086965
-1.7427284585138343   0.05231171812306261   -0.025416762231086965
-1.7427284585138343   0.05231171812306261   -0.025416762231086965
-2.044296075750003   0.026304260777764765   0.046861967726825826
-2.044296075750003   0.026304260777764765   0.046861967726825826
-2.044296075750003   0.026304260777764765   0.046861967726825826
-2.044296075750003   0.026304260777764765   0.046861967726825826
-1.7095625187405978   0.12795329923750592   0.06477135552062918
-1.7095625187405978   0.12795329923750592   0.06477135552062918
-1.7095625187405978   0.12795329923750592   0.06477135552062918
-1.7095625187405978   0.12795329923750592   0.06477135552062918
-2.6205742872090734   -0.12503901997193048   -0.03432462401075209
-2.6205742872090734   -0.12503901997193048   -0.03432462401075209
-2.6205742872090734   -0.12503901997193048   -0.03432462401075209
-2.6205742872090734   -0.12503901997193048   -0.03432462401075209
-2.6539460118552523   -0.06392171700151372   0.06636464635487038
-2.6539460118552523   -0.06392171700151372   0.06636464635487038
-2.6539460118552523   -0.06392171700151372   0.06636464635487038
-2.6539460118552523   -0.06392171700151372   0.06636464635487038
-1.7923218407677832   0.038462937178845163   -0.02262922653292232
-1.7923218407677832   0.038462937178845163   -0.02262922653292232
-1.7923218407677832   0.038462937178845163   -0.02262922653292232
-1.7923218407677832   0.038462937178845163   -0.02262922653292232
-2.132904472071443   0.012954431985075537   0.029996166173312078
-2.132904472071443   0.012954431985075537   0.029996166173312078
-2.132904472071443   0.012954431985075537   0.029996166173312078
-2.132904472071443   0.012954431985075537   0.029996166173312078
-1.755693418814914   0.118542530348028   0.08043329006224087
-1.755693418814914   0.118542530348028   0.08043329006224087
-1.755693418814914   0.118542530348028   0.08043329006224087
-1.755693418814914   0.118542530348028   0.08043329006224087
-2.6886871914448243   -0.14211406780739538   -0.029148900787084098
-2.6886871914448243   -0.14211406780739538   -0.029148900787084098
-2.6886871914448243   -0.14211406780739538   -0.029148900787084098
-2.6886871914448243   -0.14211406780739538   -0.029148900787084098
-2.741528386682625   -0.11760483675012531   0.06606519190358118
-2.741528386682625   -0.11760483675012531   0.06606519190358118
-2.741528386682625   -0.11760483675012531   0.06606519190358118
-2.741528386682625   -0.11760483675012531   0.06606519190358118
-1.8454804114155217   -0.00289739553341338   -0.021245226677976625
-1.8454804114155217   -0.00289739553341338   -0.021245226677976625
-1.8454804114155217   -0.00289739553341338   -0.021245226677976625
-1.8454804114155217   -0.00289739553341338   -0.021245226677976625
-2.1590183844830872   -0.006186608948196032   0.024342211758273058
-2.1590183844830872   -0.006186608948196032   0.024342211758273058
-2.1590183844830872   -0.006186608948196032   0.024342211758273058
-2.1590183844830872   -0.006186608948196032   0.024342211758273058
1.465304170226833   0.08124873005288205   -0.07033561411212247
1.465304170226833   0.08124873005288205   -0.07033561411212247
1.465304170226833   0.08124873005288205   -0.07033561411212247
1.465304170226833   0.08124873005288205   -0.07033561411212247
0.6972007741524876   0.014341746089074611   0.02690225580300762
0.6972007741524876   0.014341746089074611   0.02690225580300762
0.6972007741524876   0.014341746089074611   0.02690225580300762
0.6972007741524876   0.014341746089074611   0.02690225580300762
0.6190152923062378   -0.11905397529598619   -0.0667453593841351
0.6190152923062378   -0.11905397529598619   -0.0667453593841351
0.6190152923062378   -0.11905397529598619   -0.0667453593841351
0.6190152923062378   -0.11905397529598619   -0.0667453593841351
1.4333434362694404   0.1348764973174024   0.033253729287326284
1.4333434362694404   0.1348764973174024   0.033253729287326284
1.4333434362694404   0.1348764973174024   0.033253729287326284
1.4333434362694404   0.1348764973174024   0.033253729287326284
0.9992962235333583   0.013528721130222937   -0.029540003715475827
0.9992962235333583   0.013528721130222937   -0.029540003715475827
0.9992962235333583   0.013528721130222937   -0.029540003715475827
0.9992962235333583   0.013528721130222937   -0.029540003715475827
1.3936139423084914   0.03592614828440893   -0.0664433914844132
1.3936139423084914   0.03592614828440893   -0.0664433914844132
1.3936139423084914   0.03592614828440893   -0.0664433914844132
1.3936139423084914   0.03592614828440893   -0.0664433914844132
0.6579591159271593   -0.020889296603019022   0.02980908002750028
0.6579591159271593   -0.020889296603019022   0.02980908002750028
0.6579591159271593   -0.020889296603019022   0.02980908002750028
0.6579591159271593   -0.020889296603019022   0.02980908002750028
0.5824724269425867   -0.13078732318949082   -0.05689928919030328
0.5824724269425867   -0.13078732318949082   -0.05689928919030328
0.5824724269425867   -0.13078732318949082   -0.05689928919030328
0.5824724269425867   -0.13078732318949082   -0.05689928919030328
1.3765276358086858   0.11811855295998841   0.043690399580432526
1.3765276358086858   0.11811855295998841   0.043690399580432526
1.3765276358086858   0.11811855295998841   0.043690399580432526
1.3765276358086858   0.11811855295998841   0.043690399580432526
0.966466992295559   -0.0067849295648434865   -0.04158278671409529
0.966466992295559   -0.0067849295648434865   -0.04158278671409529
0.966466992295559   -0.0067849295648434865   -0.04158278671409529
0.966466992295559   -0.0067849295648434865   -0.04158278671409529
1.33773419674027   0.021011033373147775   -0.05316927617479372
1.33773419674027   0.021011033373147775   -0.05316927617479372
1.33773419674027   0.021011033373147775   -0.05316927617479372
1.33773419674027   0.021011033373147775   -0.05316927617479372
0.620280874003742   -0.03466479560990947   0.036020418535887014
0.620280874003742   -0.03466479560990947   0.036020418535887014
0.620280874003742   -0.03466479560990947   0.036020418535887014
0.620280874003742   -0.03466479560990947   0.036020418535887014
0.5495218933095868   -0.1381241193257088   -0.047380135352207156
0.5495218933095868   -0.1381241193257088   -0.047380135352207156
0.5495218933095868   -0.1381241193257088   -0.047380135352207156
0.5495218933095868   -0.1381241193257088   -0.047380135352207156
1.3124729097623546   0.09989616146918254   0.051863315368090634
1.3124729097623546   0.09989616146918254   0.051863315368090634
1.3124729097623546   0.09989616146918254   0.051863315368090634
1.3124729097623546   0.09989616146918254   0.051863315368090634
0.9019324972729835   -0.0221733569874413   -0.0593403568161964
0.9019324972729835   -0.0221733569874413   -0.0593403568161964
0.9019324972729835   -0.0221733569874413   -0.0593403568161964
0.9019324972729835   -0.0221733569874413   -0.0593403568161964
0.7086871780015429   0.10306350693603983   -0.0043874857986688776
0.7086871780015429   0.10306350693603983   -0.0043874857986688776
0.7086871780015429   0.10306350693603983   -0.0043874857986688776
0.7086871780015429   0.10306350693603983   -0.0043874857986688776
-0.045910324673803515   -0.009793516465056495   -0.00026005270244799407
-0.045910324673803515   -0.009793516465056495   -0.00026005270244799407
-0.045910324673803515   -0.009793516465056495   -0.00026005270244799407
-0.045910324673803515   -0.009793516465056495   -0.00026005270244799407
-0.10098535255755761   -0.0890088472923318   -0.0423801238169884
-0.10098535255755761   -0.0890088472923318   -0.0423801238169884
-0.10098535255755761   -0.0890088472923318   -0.0423801238169884
-0.10098535255755761   -0.0890088472923318   -0.0423801238169884
0.6901085087500123   0.12254274502837416   0.047124002510372465
0.6901085087500123   0.12254274502837416   0.047124002510372465
0.6901085087500123   0.12254274502837416   0.047124002510372465
0.6901085087500123   0.12254274502837416   0.047124002510372465
0.30815751656242835   0.030286357723917974   0.002170303588446054
0.30815751656242835   0.030286357723917974   0.002170303588446054
0.30815751656242835   0.030286357723917974   0.002170303588446054
0.30815751656242835   0.030286357723917974   0.002170303588446054
0.6714246041696412   0.0743321781199158   0.0019150465169893438
0.6714246041696412   0.0743321781199158   0.0019150465169893438
0.6714246041696412   0.0743321781199158   0.0019150465169893438
0.6714246041696412   0.0743321781199158   0.0019150465169893438
-0.08197961203566502   -0.04047644444233937   0.004116175942482099
-0.08197961203566502   -0.04047644444233937   0.004116175942482099
-0.08197961203566502   -0.04047644444233937   0.004116175942482099
-0.08197961203566502   -0.04047644444233937   0.004116175942482099
-0.13540959806239386   -0.111185981546433   -0.03502108601641288
-0.13540959806239386   -0.111185981546433   -0.03502108601641288
-0.13540959806239386   -0.111185981546433   -0.03502108601641288
-0.13540959806239386   -0.111185981546433   -0.03502108601641288
0.6495335826395487   0.09609777784535754   0.05152138825965351
0.6495335826395487   0.09609777784535754   0.05152138825965351
0.6495335826395487   0.09609777784535754   0.05152138825965351
0.6495335826395487   0.09609777784535754   0.05152138825965351
0.26576706385577287   0.004148385854619619   -0.010956076632006581
0.26576706385577287   0.004148385854619619   -0.010956076632006581
0.26576706385577287   0.004148385854619619   -0.010956076632006581
0.26576706385577287   0.004148385854619619   -0.010956076632006581
0.6314665174429243   0.05054185565191002   0.006741984469984086
0.6314665174429243   0.05054185565191002   0.006741984469984086
0.6314665174429243   0.05054185565191002   0.006741984469984086
0.6314665174429243   0.05054185565191002   0.006741984469984086
-0.11760124497319421   -0.06588877146040939   0.00872346934356167
-0.11760124497319421   -0.06588877146040939   0.00872346934356167
-0.11760124497319421   -0.06588877146040939   0.00872346934356167
-0.11760124497319421   -0.06588877146040939   0.00872346934356167
-0.16938867630936139   -0.12984823893464773   -0.028106253608832274
-0.16938867630936139   -0.12984823893464773   -0.028106253608832274
-0.16938867630936139   -0.12984823893464773   -0.028106253608832274
-0.16938867630936139   -0.12984823893464773   -0.028106253608832274
0.6120720462471684   0.07161241491953055   0.055634095090460314
0.6120720462471684   0.07161241491953055   0.055634095090460314
0.6120720462471684   0.07161241491953055   0.055634095090460314
0.6120720462471684   0.07161241491953055   0.055634095090460314
0.23320070095689652   -0.015708492754642138   -0.021906406726996563
0.23320070095689652   -0.015708492754642138   -0.021906406726996563
0.23320070095689652   -0.015708492754642138   -0.021906406726996563
0.23320070095689652   -0.015708492754642138   -0.021906406726996563
-0.015857906274101784   0.12313448994402856   0.0170740328869756
-0.015857906274101784   0.12313448994402856   0.0170740328869756
-0.015857906274101784   0.12313448994402856   0.0170740328869756
-0.015857906274101784   0.12313448994402856   0.0170740328869756
-0.7731714357634701   -0.03331690576845463   -0.02564797676403005
-0.7731714357634701   -0.03331690576845463   -0.02564797676403005
-0.7731714357634701   -0.03331690576845463   -0.02564797676403005
-0.7731714357634701   -0.03331690576845463   -0.02564797676403005
-0.8086710819630931   -0.06162339593033515   -0.020004903013046
-0.8086710819630931   -0.06162339593033515   -0.020004903013046
-0.8086710819630931   -0.06162339593033515   -0.020004903013046
-0.8086710819630931   -0.06162339593033515   -0.020004903013046
-0.05081001071224696   0.09897418727863203   0.02051355083860102
-0.05081001071224696   0.09897418727863203   0.02051355083860102
-0.05081001071224696   0.09897418727863203   0.02051355083860102
-0.05081001071224696   0.09897418727863203   0.02051355083860102
-0.41115254270694995   0.03201417639264464   0.00806961399631742
-0.41115254270694995   0.03201417639264464   0.00806961399631742
-0.41115254270694995   0.03201417639264464   0.00806961399631742
-0.41115254270694995   0.03201417639264464   0.00806961399631742
-0.05011677843681364   0.09889935439700824   0.024054545097391404
-0.05011677843681364   0.09889935439700824   0.024054545097391404
-0.05011677843681364   0.09889935439700824   0.024054545097391404
-0.05011677843681364   0.09889935439700824   0.024054545097391404
-0.808697829471727   -0.06088207828191191   -0.020879958204638616
-0.808697829471727   -0.06088207828191191   -0.020879958204638616
-0.808697829471727   -0.06088207828191191   -0.020879958204638616
-0.808697829471727   -0.06088207828191191   -0.020879958204638616
-0.8439304239759057   -0.0856260253285979   -0.013579076533904444
-0.8439304239759057   -0.0856260253285979   -0.013579076533904444
-0.8439304239759057   -0.0856260253285979   -0.013579076533904444
-0.8439304239759057   -0.0856260253285979   -0.013579076533904444
-0.08669626793608234   0.07174287451487064   0.025616708553841027
-0.08669626793608234   0.07174287451487064   0.025616708553841027
-0.08669626793608234   0.07174287451487064   0.025616708553841027
-0.08669626793608234   0.07174287451487064   0.025616708553841027
-0.4467746226540915   0.008350797547980116   -0.002587805181804792
-0.4467746226540915   0.008350797547980116   -0.002587805181804792
-0.4467746226540915   0.008350797547980116   -0.002587805181804792
-0.4467746226540915   0.008350797547980116   -0.002587805181804792
-0.08529325944054583   0.0747434566621115   0.029631168884282685
-0.08529325944054583   0.0747434566621115   0.029631168884282685
-0.08529325944054583   0.0747434566621115   0.029631168884282685
-0.08529325944054583   0.0747434566621115   0.029631168884282685
-0.8451347954326203   -0.08842797043701633   -0.01679898870905583
-0.8451347954326203   -0.08842797043701633   -0.01679898870905583
-0.8451347954326203   -0.08842797043701633   -0.01679898870905583
-0.8451347954326203   -0.08842797043701633   -0.01679898870905583
-0.8787799530850011   -0.10755798189157531   -0.007221047005163156
-0.8787799530850011   -0.10755798189157531   -0.007221047005163156
-0.8787799530850011   -0.10755798189157531   -0.007221047005163156
-0.8787799530850011   -0.10755798189157531   -0.007221047005163156
-0.12272519967108217   0.04540538162654175   0.02995750902137431
-0.12272519967108217   0.04540538162654175   0.02995750902137431
-0.12272519967108217   0.04540538162654175   0.02995750902137431
-0.12272519967108217   0.04540538162654175   0.02995750902137431
-0.48402452462516393   -0.01551427531367932   -0.014453253478470443
-0.48402452462516393   -0.01551427531367932   -0.014453253478470443
-0.48402452462516393   -0.01551427531367932   -0.014453253478470443
-0.48402452462516393   -0.01551427531367932   -0.014453253478470443
-0.7256304982910439   0.14150992660184322   0.03722987822779952
-0.7256304982910439   0.14150992660184322   0.03722987822779952
-0.7256304982910439   0.14150992660184322   0.03722987822779952
-0.7256304982910439   0.14150992660184322   0.03722987822779952
-1.4835396577208726   -0.05732856060030937   -0.046288163725228204
-1.4835396577208726   -0.05732856060030937   -0.046288163725228204
-1.4835396577208726   -0.05732856060030937   -0.046288163725228204
-1.4835396577208726   -0.05732856060030937   -0.046288163725228204
-1.5029512218994798   -0.0384786728536259   0.00438060689644626
-1.5029512218994798   -0.0384786728536259   0.00438060689644626
-1.5029512218994798   -0.0384786728536259   0.00438060689644626
-1.5029512218994798   -0.0384786728536259   0.00438060689644626
-0.779339576239582   0.07103954448312304   -0.0060103148089368785
-0.779339576239582   0.07103954448312304   -0.0060103148089368785
-0.779339576239582   0.07103954448312304   -0.0060103148089368785
-0.779339576239582   0.07103954448312304   -0.0060103148089368785
-1.115585805105762   0.030620077863492343   0.013680394985916056
-1.115585805105762   0.030620077863492343   0.013680394985916056
-1.115585805105762   0.030620077863492343   0.013680394985916056
-1.115585805105762   0.030620077863492343   0.013680394985916056
-0.7599483403399105   0.118035719927931   0.043949689244600326
-0.7599483403399105   0.118035719927931   0.043949689244600326
-0.7599483403399105   0.118035719927931   0.043949689244600326
-0.7599483403399105   0.118035719927931   0.043949689244600326
-1.5221565146484626   -0.08528890514773955   -0.04483562455436918
-1.5221565146484626   -0.08528890514773955   -0.04483562455436918
-1.5221565146484626   -0.08528890514773955   -0.04483562455436918
-1.5221565146484626   -0.08528890514773955   -0.04483562455436918
-1.5440055184405033   -0.06274049511353415   0.006793351474057074
-1.5440055184405033   -0.06274049511353415   0.006793351474057074
-1.5440055184405033   -0.06274049511353415   0.006793351474057074
-1.5440055184405033   -0.06274049511353415   0.006793351474057074
-0.8150888571356558   0.045820400349826124   -0.0008176680110760226
-0.8150888571356558   0.045820400349826124   -0.0008176680110760226
-0.8150888571356558   0.045820400349826124   -0.0008176680110760226
-0.8150888571356558   0.045820400349826124   -0.0008176680110760226
-1.1457519206385396   0.0094878859716067   0.003755431172206225
-1.1457519206385396   0.0094878859716067   0.003755431172206225
-1.1457519206385396   0.0094878859716067   0.003755431172206225
-1.1457519206385396   0.0094878859716067   0.003755431172206225
-0.7948914267065879   0.09576802486271296   0.05022185962137718
-0.7948914267065879   0.09576802486271296   0.05022185962137718
-0.7948914267065879   0.09576802486271296   0.05022185962137718
-0.7948914267065879   0.09576802486271296   0.05022185962137718
-1.563160952960986   -0.11164612371783801   -0.040078192524066636
-1.563160952960986   -0.11164612371783801   -0.040078192524066636
-1.563160952960986   -0.11164612371783801   -0.040078192524066636
-1.563160952960986   -0.11164612371783801   -0.040078192524066636
-1.5812561987978917   -0.08884151583970011   0.014410791784291999
-1.5812561987978917   -0.08884151583970011   0.014410791784291999
-1.5812561987978917   -0.08884151583970011   0.014410791784291999
-1.5812561987978917   -0.08884151583970011   0.014410791784291999
-0.8518375909299009   0.01698894633322893   0.0029438355455370935
-0.8518375909299009   0.01698894633322893   0.0029438355455370935
-0.8518375909299009   0.01698894633322893   0.0029438355455370935
-0.8518375909299009   0.01698894633322893   0.0029438355455370935
-1.1915892497898664   -0.016967768654449905   -0.008827572947821827
-1.1915892497898664   -0.016967768654449905   -0.008827572947821827
-1.1915892497898664   -0.016967768654449905   -0.008827572947821827
-1.1915892497898664   -0.016967768654449905   -0.008827572947821827
-1.4269024116543845   0.12690283540892794   0.052666670597976084
-1.4269024116543845   0.12690283540892794   0.052666670597976084
-1.4269024116543845   0.12690283540892794   0.052666670597976084
-1.4269024116543845   0.12690283540892794   0.052666670597976084
-2.1585870779189777   -0.09953265363044451   -0.05114249935733023
-2.1585870779189777   -0.09953265363044451   -0.05114249935733023
-2.1585870779189777   -0.09953265363044451   -0.05114249935733023
-2.1585870779189777   -0.09953265363044451   -0.05114249935733023
-2.182769618971082   -0.02089981167471161   0.0485667492372896
-2.182769618971082   -0.02089981167471161   0.0485667492372896
-2.182769618971082   -0.02089981167471161   0.0485667492372896
-2.182769618971082   -0.02089981167471161   0.0485667492372896
-1.4950037078711866   0.03562897151626149   -0.029989467331976105
-1.4950037078711866   0.03562897151626149   -0.029989467331976105
-1.4950037078711866   0.03562897151626149   -0.029989467331976105
-1.4950037078711866   0.03562897151626149   -0.029989467331976105
-1.7355218485319257   0.028635236362006863   0.04242939005165269
-1.7355218485319257   0.028635236362006863   0.04242939005165269
-1.7355218485319257   0.028635236362006863   0.04242939005165269
-1.7355218485319257   0.028635236362006863   0.04242939005165269
-1.458456421770902   0.12660388737915723   0.061772047306514866
-1.458456421770902   0.12660388737915723   0.061772047306514866
-1.458456421770902   0.12660388737915723   0.061772047306514866
-1.458456421770902   0.12660388737915723   0.061772047306514866
-2.218693802427513   -0.11125162489376586   -0.04070235482578677
-2.218693802427513   -0.11125162489376586   -0.04070235482578677
-2.218693802427513   -0.11125162489376586   -0.04070235482578677
-2.218693802427513   -0.11125162489376586   -0.04070235482578677
-2.236498945384582   -0.03369477996689954   0.06075929235515243
-2.236498945384582   -0.03369477996689954   0.06075929235515243
-2.236498945384582   -0.03369477996689954   0.06075929235515243
-2.236498945384582   -0.03369477996689954   0.06075929235515243
-1.5335969688358642   0.021801282288350543   -0.025705677904630686
-1.5335969688358642   0.021801282288350543   -0.025705677904630686
-1.5335969688358642   0.021801282288350543   -0.025705677904630686
-1.5335969688358642   0.021801282288350543   -0.025705677904630686
-1.810409433265735   0.01434389145621126   0.025715188882669104
-1.810409433265735   0.01434389145621126   0.025715188882669104
-1.810409433265735   0.01434389145621126   0.025715188882669104
-1.810409433265735   0.01434389145621126   0.025715188882669104
-1.4948280204165652   0.11706301320976321   0.07287733327044993
-1.4948280204165652   0.11706301320976321   0.07287733327044993
-1.4948280204165652   0.11706301320976321   0.07287733327044993
-1.4948280204165652   0.11706301320976321   0.07287733327044993
-2.274246033494774   -0.12793465057921177   -0.03373627758347142
-2.274246033494774   -0.12793465057921177   -0.03373627758347142
-2.274246033494774   -0.12793465057921177   -0.03373627758347142
-2.274246033494774   -0.12793465057921177   -0.03373627758347142
-2.3074073137388176   -0.07909140937433118   0.05971160644073015
-2.3074073137388176   -0.07909140937433118   0.05971160644073015
-2.3074073137388176   -0.07909140937433118   0.05971160644073015
-2.3074073137388176   -0.07909140937433118   0.05971160644073015
-1.5743343926030604   -0.016531697810288057   -0.023289995270971198
-1.5743343926030604   -0.016531697810288057   -0.023289995270971198
-1.5743343926030604   -0.016531697810288057   -0.023289995270971198
-1.5743343926030604   -0.016531697810288057   -0.023289995270971198
-1.829938379190771   -0.00339328773108849   0.020101312416609562
-1.829938379190771   -0.00339328773108849   0.020101312416609562
-1.829938379190771   -0.00339328773108849   0.020101312416609562
-1.829938379190771   -0.00339328773108849   0.020101312416609562
1.0041480954563473   0.05670690783488605   -0.0682192567717948
1.0041480954563473   0.05670690783488605   -0.0682192567717948
1.0041480954563473   0.05670690783488605   -0.0682192567717948
1.0041480954563473   0.05670690783488605   -0.0682192567717948
0.42893304310942404   0.027745209260606335   0.029343436894250757
0.42893304310942404   0.027745209260606335   0.029343436894250757
0.42893304310942404   0.027745209260606335   0.029343436894250757
0.42893304310942404   0.027745209260606335   0.029343436894250757
0.35856870524931156   -0.09944551685747616   -0.06358161056693773
0.35856870524931156   -0.09944551685747616   -0.06358161056693773
0.35856870524931156   -0.09944551685747616   -0.06358161056693773
0.35856870524931156   -0.09944551685747616   -0.06358161056693773
0.9803988433066114   0.11431294916293872   0.03564402819517806
0.9803988433066114   0.11431294916293872   0.03564402819517806
0.9803988433066114   0.11431294916293872   0.03564402819517806
0.9803988433066114   0.11431294916293872   0.03564402819517806
0.6563029701571141   0.014572144772861464   -0.017938022377731233
0.6563029701571141   0.014572144772861464   -0.017938022377731233
0.6563029701571141   0.014572144772861464   -0.017938022377731233
0.6563029701571141   0.014572144772861464   -0.017938022377731233
0.9410966714924223   0.017054685134981554   -0.06360856684782121
0.9410966714924223   0.017054685134981554   -0.06360856684782121
0.9410966714924223   0.017054685134981554   -0.06360856684782121
0.9410966714924223   0.017054685134981554   -0.06360856684782121
0.3971330396659647   -0.0029250902270454345   0.032719634885904174
0.3971330396659647   -0.0029250902270454345   0.032719634885904174
0.3971330396659647   -0.0029250902270454345   0.032719634885904174
0.3971330396659647   -0.0029250902270454345   0.032719634885904174
0.3285784584127901   -0.1110283342356575   -0.05409485900190123
0.3285784584127901   -0.1110283342356575   -0.05409485900190123
0.3285784584127901   -0.1110283342356575   -0.05409485900190123
0.3285784584127901   -0.1110283342356575   -0.05409485900190123
0.9310689305402988   0.09788178113336699   0.04589999233756398
0.9310689305402988   0.09788178113336699   0.04589999233756398
0.9310689305402988   0.09788178113336699   0.04589999233756398
0.9310689305402988   0.09788178113336699   0.04589999233756398
0.6252129580945771   -0.004510980920451921   -0.029300757244473563
0.6252129580945771   -0.004510980920451921   -0.029300757244473563
0.6252129580945771   -0.004510980920451921   -0.029300757244473563
0.6252129580945771   -0.004510980920451921   -0.029300757244473563
0.8924207639967787   0.0022227390268211716   -0.051681798273496504
0.8924207639967787   0.0022227390268211716   -0.051681798273496504
0.8924207639967787   0.0022227390268211716   -0.051681798273496504
0.8924207639967787   0.0022227390268211716   -0.051681798273496504
0.3661419124635827   -0.016454004621839692   0.039148081638246575
0.3661419124635827   -0.016454004621839692   0.039148081638246575
0.3661419124635827   -0.016454004621839692   0.039148081638246575
0.3661419124635827   -0.016454004621839692   0.039148081638246575
0.30175906484915443   -0.12163486189758892   -0.045077956552566384
0.30175906484915443   -0.12163486189758892   -0.045077956552566384
0.30175906484915443   -0.12163486189758892   -0.045077956552566384
0.30175906484915443   -0.12163486189758892   -0.045077956552566384
0.8735030015217222   0.07622135490112786   0.052357814358906296
0.8735030015217222   0.07622135490112786   0.052357814358906296
0.8735030015217222   0.07622135490112786   0.052357814358906296
0.8735030015217222   0.07622135490112786   0.052357814358906296
0.572864357963224   -0.020201873507090767   -0.044861138274982615
0.572864357963224   -0.020201873507090767   -0.044861138274982615
0.572864357963224   -0.020201873507090767   -0.044861138274982615
0.572864357963224   -0.020201873507090767   -0.044861138274982615
0.4316932128551991   0.08329758379832586   -0.012408088914600185
0.4316932128551991   0.08329758379832586   -0.012408088914600185
0.4316932128551991   0.08329758379832586   -0.012408088914600185
0.4316932128551991   0.08329758379832586   -0.012408088914600185
-0.13297219983790787   0.00740985345588078   0.004048796120683162
-0.13297219983790787   0.00740985345588078   0.004048796120683162
-0.13297219983790787   0.00740985345588078   0.004048796120683162
-0.13297219983790787   0.00740985345588078   0.004048796120683162
-0.18107496488214272   -0.06894333926078358   -0.039122945303261256
-0.18107496488214272   -0.06894333926078358   -0.039122945303261256
-0.18107496488214272   -0.06894333926078358   -0.039122945303261256
-0.18107496488214272   -0.06894333926078358   -0.039122945303261256
0.41960490840665504   0.10018760021727882   0.041966288145031436
0.41960490840665504   0.10018760021727882   0.041966288145031436
0.41960490840665504   0.10018760021727882   0.041966288145031436
0.41960490840665504   0.10018760021727882   0.041966288145031436
0.1313627212614023   0.02901056575227763   0.0050269752870549175
0.1313627212614023   0.02901056575227763   0.0050269752870549175
0.1313627212614023   0.02901056575227763   0.0050269752870549175
0.1313627212614023   0.02901056575227763   0.0050269752870549175
0.4006077449654814   0.053876171667223874   -0.006708100510786699
0.4006077449654814   0.053876171667223874   -0.006708100510786699
0.4006077449654814   0.053876171667223874   -0.006708100510786699
0.4006077449654814   0.053876171667223874   -0.006708100510786699
-0.1623553819116202   -0.022909491181390802   0.008441121469958568
-0.1623553819116202   -0.022909491181390802   0.008441121469958568
-0.1623553819116202   -0.022909491181390802   0.008441121469958568
-0.1623553819116202   -0.022909491181390802   0.008441121469958568
-0.20897272759230762   -0.09223457657189596   -0.031634073594757735
-0.20897272759230762   -0.09223457657189596   -0.031634073594757735
-0.20897272759230762   -0.09223457657189596   -0.031634073594757735
-0.20897272759230762   -0.09223457657189596   -0.031634073594757735
0.38539572137812006   0.07333827692945802   0.045624844659635934
0.38539572137812006   0.07333827692945802   0.045624844659635934
0.38539572137812006   0.07333827692945802   0.045624844659635934
0.38539572137812006   0.07333827692945802   0.045624844659635934
0.09698474640364722   0.002707287010995838   -0.007608920279920484
0.09698474640364722   0.002707287010995838   -0.007608920279920484
0.09698474640364722   0.002707287010995838   -0.007608920279920484
0.09698474640364722   0.002707287010995838   -0.007608920279920484
0.36699899298995786   0.028902065160969978   -0.001922585512693531
0.36699899298995786   0.028902065160969978   -0.001922585512693531
0.36699899298995786   0.028902065160969978   -0.001922585512693531
0.36699899298995786   0.028902065160969978   -0.001922585512693531
-0.19128214881776426   -0.04850451441702718   0.013088758123094263
-0.19128214881776426   -0.04850451441702718   0.013088758123094263
-0.19128214881776426   -0.04850451441702718   0.013088758123094263
-0.19128214881776426   -0.04850451441702718   0.013088758123094263
-0.236503189667535   -0.11417217118973658   -0.024713599541171923
-0.236503189667535   -0.11417217118973658   -0.024713599541171923
-0.236503189667535   -0.11417217118973658   -0.024713599541171923
-0.236503189667535   -0.11417217118973658   -0.024713599541171923
0.35452462131819806   0.04749961630127757   0.04961534759379311
0.35452462131819806   0.04749961630127757   0.04961534759379311
0.35452462131819806   0.04749961630127757   0.04961534759379311
0.35452462131819806   0.04749961630127757   0.04961534759379311
0.06934432221660157   -0.019169596640063492   -0.01878345115205641
0.06934432221660157   -0.019169596640063492   -0.01878345115205641
0.06934432221660157   -0.019169596640063492   -0.01878345115205641
0.06934432221660157   -0.019169596640063492   -0.01878345115205641
-0.11214667409736478   0.10594574797785694   0.009640530301422439
-0.11214667409736478   0.10594574797785694   0.009640530301422439
-0.11214667409736478   0.10594574797785694   0.009640530301422439
-0.11214667409736478   0.10594574797785694   0.009640530301422439
-0.6865810520682217   -0.01711922700054179   -0.02085288011183689
-0.6865810520682217   -0.01711922700054179   -0.02085288011183689
-0.6865810520682217   -0.01711922700054179   -0.02085288011183689
-0.6865810520682217   -0.01711922700054179   -0.02085288011183689
-0.7140910655720459   -0.04085253976610294   -0.015339029525274855
-0.7140910655720459   -0.04085253976610294   -0.015339029525274855
-0.7140910655720459   -0.04085253976610294   -0.015339029525274855
-0.7140910655720459   -0.04085253976610294   -0.015339029525274855
-0.14093033591403567   0.07640138505183758   0.01625547522464896
-0.14093033591403567   0.07640138505183758   0.01625547522464896
-0.14093033591403567   0.07640138505183758   0.01625547522464896
-0.14093033591403567   0.07640138505183758   0.01625547522464896
-0.412433281594128   0.030619666439254782   0.008137089199627565
-0.412433281594128   0.030619666439254782   0.008137089199627565
-0.412433281594128   0.030619666439254782   0.008137089199627565
-0.412433281594128   0.030619666439254782   0.008137089199627565
-0.1400572126071919   0.08035544341172057   0.016667033398988715
-0.1400572126071919   0.08035544341172057   0.016667033398988715
-0.1400572126071919   0.08035544341172057   0.016667033398988715
-0.1400572126071919   0.08035544341172057   0.016667033398988715
-0.7150389827822212   -0.044881392029316874   -0.016049763312937726
-0.7150389827822212   -0.044881392029316874   -0.016049763312937726
-0.7150389827822212   -0.044881392029316874   -0.016049763312937726
-0.7150389827822212   -0.044881392029316874   -0.016049763312937726
-0.7422745103842114   -0.06622905357466027   -0.00866468944568441
-0.7422745103842114   -0.06622905357466027   -0.00866468944568441
-0.7422745103842114   -0.06622905357466027   -0.00866468944568441
-0.7422745103842114   -0.06622905357466027   -0.00866468944568441
-0.17020367905918118   0.04876936018521195   0.021207232313766533
-0.17020367905918118   0.04876936018521195   0.021207232313766533
-0.17020367905918118   0.04876936018521195   0.021207232313766533
-0.17020367905918118   0.04876936018521195   0.021207232313766533
-0.4414106426281469   0.005924579483342893   -0.0027320294243540766
-0.4414106426281469   0.005924579483342893   -0.0027320294243540766
-0.4414106426281469   0.005924579483342893   -0.0027320294243540766
-0.4414106426281469   0.005924579483342893   -0.0027320294243540766
-0.1687265920039748   0.05473822795460565   0.02262379982040856
-0.1687265920039748   0.05473822795460565   0.02262379982040856
-0.1687265920039748   0.05473822795460565   0.02262379982040856
-0.1687265920039748   0.05473822795460565   0.02262379982040856
-0.7441965303833562   -0.07264285428798911   -0.011860988728063737
-0.7441965303833562   -0.07264285428798911   -0.011860988728063737
-0.7441965303833562   -0.07264285428798911   -0.011860988728063737
-0.7441965303833562   -0.07264285428798911   -0.011860988728063737
-0.7699877620288771   -0.09047440649736754   -0.0021788692403770515
-0.7699877620288771   -0.09047440649736754   -0.0021788692403770515
-0.7699877620288771   -0.09047440649736754   -0.0021788692403770515
-0.7699877620288771   -0.09047440649736754   -0.0021788692403770515
-0.19922549165134354   0.021918105758554206   0.02558461359149468
-0.19922549165134354   0.021918105758554206   0.02558461359149468
-0.19922549165134354   0.021918105758554206   0.02558461359149468
-0.19922549165134354   0.021918105758554206   0.02558461359149468
-0.4715776471646892   -0.018799673643153433   -0.014511160256043473
-0.4715776471646892   -0.018799673643153433   -0.014511160256043473
-0.4715776471646892   -0.018799673643153433   -0.014511160256043473
-0.4715776471646892   -0.018799673643153433   -0.014511160256043473
-0.6476832853754808   0.12533640990338962   0.0311803164479363
-0.6476832853754808   0.12533640990338962   0.0311803164479363
-0.6476832853754808   0.12533640990338962   0.0311803164479363
-0.6476832853754808   0.12533640990338962   0.0311803164479363
-1.2302202010491134   -0.04149732967951838   -0.042501727065719225
-1.2302202010491134   -0.04149732967951838   -0.042501727065719225
-1.2302202010491134   -0.04149732967951838   -0.042501727065719225
-1.2302202010491134   -0.04149732967951838   -0.042501727065719225
-1.240570846097627   -0.017969150398751965   0.010177480639733172
-1.240570846097627   -0.017969150398751965   0.010177480639733172
-1.240570846097627   -0.017969150398751965   0.010177480639733172
-1.240570846097627   -0.017969150398751965   0.010177480639733172
-0.6947198987174258   0.04976755751940361   -0.009103292537688656
-0.6947198987174258   0.04976755751940361   -0.009103292537688656
-0.6947198987174258   0.04976755751940361   -0.009103292537688656
-0.6947198987174258   0.04976755751940361   -0.009103292537688656
-0.9476597626978995   0.029196561351881964   0.011827642940300032
-0.9476597626978995   0.029196561351881964   0.011827642940300032
-0.9476597626978995   0.029196561351881964   0.011827642940300032
-0.9476597626978995   0.029196561351881964   0.011827642940300032
-0.6750737391156012   0.10072815622322967   0.03816690676761561
-0.6750737391156012   0.10072815622322967   0.03816690676761561
-0.6750737391156012   0.10072815622322967   0.03816690676761561
-0.6750737391156012   0.10072815622322967   0.03816690676761561
-1.2610695986285234   -0.06978234203165   -0.040503090381859064
-1.2610695986285234   -0.06978234203165   -0.040503090381859064
-1.2610695986285234   -0.06978234203165   -0.040503090381859064
-1.2610695986285234   -0.06978234203165   -0.040503090381859064
-1.2737875127076514   -0.043100631030926456   0.013275830657156484
-1.2737875127076514   -0.043100631030926456   0.013275830657156484
-1.2737875127076514   -0.043100631030926456   0.013275830657156484
-1.2737875127076514   -0.043100631030926456   0.013275830657156484
-0.7232034292663242   0.024306697310822988   -0.003845034741731118
-0.7232034292663242   0.024306697310822988   -0.003845034741731118
-0.7232034292663242   0.024306697310822988   -0.003845034741731118
-0.7232034292663242   0.024306697310822988   -0.003845034741731118
-0.9720852238601435   0.006786633298913457   0.0009258978249278571
-0.9720852238601435   0.006786633298913457   0.0009258978249278571
-0.9720852238601435   0.006786633298913457   0.0009258978249278571
-0.9720852238601435   0.006786633298913457   0.0009258978249278571
-0.702852160354594   0.07739572894483773   0.04482227818292023
-0.702852160354594   0.07739572894483773   0.04482227818292023
-0.702852160354594   0.07739572894483773   0.04482227818292023
-0.702852160354594   0.07739572894483773   0.04482227818292023
-1.294210097847508   -0.09626097889307665   -0.0356767471799842
-1.294210097847508   -0.09626097889307665   -0.0356767471799842
-1.294210097847508   -0.09626097889307665   -0.0356767471799842
-1.294210097847508   -0.09626097889307665   -0.0356767471799842
-1.303374740390768   -0.06985999554306559   0.020236275624931743
-1.303374740390768   -0.06985999554306559   0.020236275624931743
-1.303374740390768   -0.06985999554306559   0.020236275624931743
-1.303374740390768   -0.06985999554306559   0.020236275624931743
-0.7521826743745954   -0.003915158998024609   0.00028732153168131713
-0.7521826743745954   -0.003915158998024609   0.00028732153168131713
-0.7521826743745954   -0.003915158998024609   0.00028732153168131713
-0.7521826743745954   -0.003915158998024609   0.00028732153168131713
-1.0086631693940789   -0.019188124623761176   -0.011713012077012391
-1.0086631693940789   -0.019188124623761176   -0.011713012077012391
-1.0086631693940789   -0.019188124623761176   -0.011713012077012391
-1.0086631693940789   -0.019188124623761176   -0.011713012077012391
-1.1803841158434552   0.11614392709394745   0.04903744218910669
-1.1803841158434552   0.11614392709394745   0.04903744218910669
-1.1803841158434552   0.11614392709394745   0.04903744218910669
-1.1803841158434552   0.11614392709394745   0.04903744218910669
-1.7411536531523562   -0.08009361773886851   -0.055322194576140626
-1.7411536531523562   -0.08009361773886851   -0.055322194576140626
-1.7411536531523562   -0.08009361773886851   -0.055322194576140626
-1.7411536531523562   -0.08009361773886851   -0.055322194576140626
-1.7580767773708748   -0.0012651360641717513   0.04861306426554568
-1.7580767773708748   -0.0012651360641717513   0.04861306426554568
-1.7580767773708748   -0.0012651360641717513   0.04861306426554568
-1.7580767773708748   -0.0012651360641717513   0.04861306426554568
-1.2422984295310295   0.0168235999167876   -0.033253186842841564
-1.2422984295310295   0.0168235999167876   -0.033253186842841564
-1.2422984295310295   0.0168235999167876   -0.033253186842841564
-1.2422984295310295   0.0168235999167876   -0.033253186842841564
-1.415364451147644   0.02703939105984912   0.03576996397958998
-1.415364451147644   0.02703939105984912   0.03576996397958998
-1.415364451147644   0.02703939105984912   0.03576996397958998
-1.415364451147644   0.02703939105984912   0.03576996397958998
-1.2052136062837557   0.11115315930184072   0.05784137000848899
-1.2052136062837557   0.11115315930184072   0.05784137000848899
-1.2052136062837557   0.11115315930184072   0.05784137000848899
-1.2052136062837557   0.11115315930184072   0.05784137000848899
-1.7958876650206606   -0.09632075985173685   -0.0453857501958328
-1.7958876650206606   -0.09632075985173685   -0.0453857501958328
-1.7958876650206606   -0.09632075985173685   -0.0453857501958328
-1.7958876650206606   -0.09632075985173685   -0.0453857501958328
-1.8049871564983397   -0.015080999786935542   0.061273099381414675
-1.8049871564983397   -0.015080999786935542   0.061273099381414675
-1.8049871564983397   -0.015080999786935542   0.061273099381414675
-1.8049871564983397   -0.015080999786935542   0.061273099381414675
-1.2729193473975566   0.002860498255014207   -0.028344472078333183
-1.2729193473975566   0.002860498255014207   -0.028344472078333183
-1.2729193473975566   0.002860498255014207   -0.028344472078333183
-1.2729193473975566   0.002860498255014207   -0.028344472078333183
-1.478520261030666   0.011148678804033224   0.01865374362730049
-1.478520261030666   0.011148678804033224   0.01865374362730049
-1.478520261030666   0.011148678804033224   0.01865374362730049
-1.478520261030666   0.011148678804033224   0.01865374362730049
-1.234095882245402   0.1004744213123754   0.06815893062509282
-1.234095882245402   0.1004744213123754   0.06815893062509282
-1.234095882245402   0.1004744213123754   0.06815893062509282
-1.234095882245402   0.1004744213123754   0.06815893062509282
-1.8443359199021798   -0.11322022109599385   -0.03733149632875027
-1.8443359199021798   -0.11322022109599385   -0.03733149632875027
-1.8443359199021798   -0.11322022109599385   -0.03733149632875027
-1.8443359199021798   -0.11322022109599385   -0.03733149632875027
-1.8677441035278353   -0.05825565962072604   0.06149990660161375
-1.8677441035278353   -0.05825565962072604   0.06149990660161375
-1.8677441035278353   -0.05825565962072604   0.06149990660161375
-1.8677441035278353   -0.05825565962072604   0.06149990660161375
-1.30495007992165   -0.032439891463639944   -0.02506052610892523
-1.30495007992165   -0.032439891463639944   -0.02506052610892523
-1.30495007992165   -0.032439891463639944   -0.02506052610892523
-1.30495007992165   -0.032439891463639944   -0.02506052610892523
-1.496540981141381   -0.006954418990994388   0.010483443193120723
-1.496540981141381   -0.006954418990994388   0.010483443193120723
-1.496540981141381   -0.006954418990994388   0.010483443193120723
-1.496540981141381   -0.006954418990994388   0.010483443193120723
0.5503542989530646   0.032828415571729684   -0.0666617873937731
0.5503542989530646   0.032828415571729684   -0.0666617873937731
0.5503542989530646   0.032828415571729684   -0.0666617873937731
0.5503542989530646   0.032828415571729684   -0.0666617873937731
0.15939413675560876   0.04015836362149394   0.031938067493016586
0.15939413675560876   0.04015836362149394   0.031938067493016586
0.15939413675560876   0.04015836362149394   0.031938067493016586
0.15939413675560876   0.04015836362149394   0.031938067493016586
0.09731024946573734   -0.08118709164749305   -0.05876758201610647
0.09731024946573734   -0.08118709164749305   -0.05876758201610647
0.09731024946573734   -0.08118709164749305   -0.05876758201610647
0.09731024946573734   -0.08118709164749305   -0.05876758201610647
0.5350413130059939   0.0942148470945029   0.03842999020493608
0.5350413130059939   0.0942148470945029   0.03842999020493608
0.5350413130059939   0.0942148470945029   0.03842999020493608
0.5350413130059939   0.0942148470945029   0.03842999020493608
0.3159000458625033   0.015698887707128344   -0.0073278762912742795
0.3159000458625033   0.015698887707128344   -0.0073278762912742795
0.3159000458625033   0.015698887707128344   -0.0073278762912742795
0.3159000458625033   0.015698887707128344   -0.0073278762912742795
0.4959065575138441   -0.0019334180557609854   -0.06109552210555293
0.4959065575138441   -0.0019334180557609854   -0.06109552210555293
0.4959065575138441   -0.0019334180557609854   -0.06109552210555293
0.4959065575138441   -0.0019334180557609854   -0.06109552210555293
0.1352233363778104   0.013739504922693588   0.035871255974073084
0.1352233363778104   0.013739504922693588   0.035871255974073084
0.1352233363778104   0.013739504922693588   0.035871255974073084
0.1352233363778104   0.013739504922693588   0.035871255974073084
0.07386565233699383   -0.09271733112678679   -0.04989229075983866
0.07386565233699383   -0.09271733112678679   -0.04989229075983866
0.07386565233699383   -0.09271733112678679   -0.04989229075983866
0.07386565233699383   -0.09271733112678679   -0.04989229075983866
0.4929011124447918   0.07830139910227056   0.04934057013587524
0.4929011124447918   0.07830139910227056   0.04934057013587524
0.4929011124447918   0.07830139910227056   0.04934057013587524
0.4929011124447918   0.07830139910227056   0.04934057013587524
0.28641733859457547   -0.0022997301123374933   -0.019023144752892227
0.28641733859457547   -0.0022997301123374933   -0.019023144752892227
0.28641733859457547   -0.0022997301123374933   -0.019023144752892227
0.28641733859457547   -0.0022997301123374933   -0.019023144752892227
0.4539977261168815   -0.016739542249269844   -0.05013542015214162
0.4539977261168815   -0.016739542249269844   -0.05013542015214162
0.4539977261168815   -0.016739542249269844   -0.05013542015214162
0.4539977261168815   -0.016739542249269844   -0.05013542015214162
0.11113530981138749   0.0006898813712361684   0.04304878411410768
0.11113530981138749   0.0006898813712361684   0.04304878411410768
0.11113530981138749   0.0006898813712361684   0.04304878411410768
0.11113530981138749   0.0006898813712361684   0.04304878411410768
0.052897070436876005   -0.1066806368293417   -0.041546213208595154
0.052897070436876005   -0.1066806368293417   -0.041546213208595154
0.052897070436876005   -0.1066806368293417   -0.041546213208595154
0.052897070436876005   -0.1066806368293417   -0.041546213208595154
0.4407350579365449   0.05280667917055609   0.054757159414248704
0.4407350579365449   0.05280667917055609   0.054757159414248704
0.4407350579365449   0.05280667917055609   0.054757159414248704
0.4407350579365449   0.05280667917055609   0.054757159414248704
0.24580974838183958   -0.018352388965594102   -0.03329590650242276
0.24580974838183958   -0.018352388965594102   -0.03329590650242276
0.24580974838183958   -0.018352388965594102   -0.03329590650242276
0.24580974838183958   -0.018352388965594102   -0.03329590650242276
0.1530838118751072   0.05993354826394595   -0.0193887415519447
0.1530838118751072   0.05993354826394595   -0.0193887415519447
0.1530838118751072   0.05993354826394595   -0.0193887415519447
0.1530838118751072   0.05993354826394595   -0.0193887415519447
-0.2251734514772552   0.019469558341581476   0.007797324851286917
-0.2251734514772552   0.019469558341581476   0.007797324851286917
-0.2251734514772552   0.019469558341581476   0.007797324851286917
-0.2251734514772552   0.019469558341581476   0.007797324851286917
-0.26515884005605483   -0.05201302877822283   -0.03427310836976696
-0.26515884005605483   -0.05201302877822283   -0.03427310836976696
-0.26515884005605483   -0.05201302877822283   -0.03427310836976696
-0.26515884005605483   -0.05201302877822283   -0.03427310836976696
0.14746338806715892   0.0744089785937346   0.03640204074977475
0.14746338806715892   0.0744089785937346   0.03640204074977475
0.14746338806715892   0.0744089785937346   0.03640204074977475
0.14746338806715892   0.0744089785937346   0.03640204074977475
-0.04875833627843784   0.024378986200193492   0.006145674826744088
-0.04875833627843784   0.024378986200193492   0.006145674826744088
-0.04875833627843784   0.024378986200193492   0.006145674826744088
-0.04875833627843784   0.024378986200193492   0.006145674826744088
0.1285989285274731   0.030742409117886872   -0.014253687472807697
0.1285989285274731   0.030742409117886872   -0.014253687472807697
0.1285989285274731   0.030742409117886872   -0.014253687472807697
0.1285989285274731   0.030742409117886872   -0.014253687472807697
-0.24733379168250955   -0.009385870468506249   0.012224975188238889
-0.24733379168250955   -0.009385870468506249   0.012224975188238889
-0.24733379168250955   -0.009385870468506249   0.012224975188238889
-0.24733379168250955   -0.009385870468506249   0.012224975188238889
-0.2861337699085828   -0.07545741858170936   -0.026824141609498052
-0.2861337699085828   -0.07545741858170936   -0.026824141609498052
-0.2861337699085828   -0.07545741858170936   -0.026824141609498052
-0.2861337699085828   -0.07545741858170936   -0.026824141609498052
0.1199428273180756   0.048090833200997496   0.039685419817786914
0.1199428273180756   0.048090833200997496   0.039685419817786914
0.1199428273180756   0.048090833200997496   0.039685419817786914
0.1199428273180756   0.048090833200997496   0.039685419817786914
-0.07466333794388476   -0.0008881960450098582   -0.005959702054447099
-0.07466333794388476   -0.0008881960450098582   -0.005959702054447099
-0.07466333794388476   -0.0008881960450098582   -0.005959702054447099
-0.07466333794388476   -0.0008881960450098582   -0.005959702054447099
0.1016374918469668   0.005592981019956714   -0.009343405356717311
0.1016374918469668   0.005592981019956714   -0.009343405356717311
0.1016374918469668   0.005592981019956714   -0.009343405356717311
0.1016374918469668   0.005592981019956714   -0.009343405356717311
-0.2691734683569783   -0.03430460032017815   0.016824547886993266
-0.2691734683569783   -0.03430460032017815   0.016824547886993266
-0.2691734683569783   -0.03430460032017815   0.016824547886993266
-0.2691734683569783   -0.03430460032017815   0.016824547886993266
-0.3069497877503172   -0.09873657123665239   -0.02009118102734138
-0.3069497877503172   -0.09873657123665239   -0.02009118102734138
-0.3069497877503172   -0.09873657123665239   -0.02009118102734138
-0.3069497877503172   -0.09873657123665239   -0.02009118102734138
0.09584750922862051   0.022226746831233053   0.044298597089553665
0.09584750922862051   0.022226746831233053   0.044298597089553665
0.09584750922862051   0.022226746831233053   0.044298597089553665
0.09584750922862051   0.022226746831233053   0.044298597089553665
-0.09710270894188447   -0.023540813813233995   -0.017399160862797223
-0.09710270894188447   -0.023540813813233995   -0.017399160862797223
-0.09710270894188447   -0.023540813813233995   -0.017399160862797223
-0.09710270894188447   -0.023540813813233995   -0.017399160862797223
-0.21360513545298807   0.08222352083976095   0.002884942474443153
-0.21360513545298807   0.08222352083976095   0.002884942474443153
-0.21360513545298807   0.08222352083976095   0.002884942474443153
-0.21360513545298807   0.08222352083976095   0.002884942474443153
-0.6046833238322407   -0.007084827876816798   -0.016588423740228828
-0.6046833238322407   -0.007084827876816798   -0.016588423740228828
-0.6046833238322407   -0.007084827876816798   -0.016588423740228828
-0.6046833238322407   -0.007084827876816798   -0.016588423740228828
-0.6235672423259001   -0.025356610237635566   -0.009897594810790944
-0.6235672423259001   -0.025356610237635566   -0.009897594810790944
-0.6235672423259001   -0.025356610237635566   -0.009897594810790944
-0.6235672423259001   -0.025356610237635566   -0.009897594810790944
-0.23579271596637613   0.04897076917938096   0.011573714121022628
-0.23579271596637613   0.04897076917938096   0.011573714121022628
-0.23579271596637613   0.04897076917938096   0.011573714121022628
-0.23579271596637613   0.04897076917938096   0.011573714121022628
-0.4184209349282831   0.024175389093403804   0.006380326917113238
-0.4184209349282831   0.024175389093403804   0.006380326917113238
-0.4184209349282831   0.024175389093403804   0.006380326917113238
-0.4184209349282831   0.024175389093403804   0.006380326917113238
-0.23465999922987812   0.05637164228358747   0.009836424699302251
-0.23465999922987812   0.05637164228358747   0.009836424699302251
-0.23465999922987812   0.05637164228358747   0.009836424699302251
-0.23465999922987812   0.05637164228358747   0.009836424699302251
-0.6256094273015153   -0.0336669515809598   -0.011798178345542115
-0.6256094273015153   -0.0336669515809598   -0.011798178345542115
-0.6256094273015153   -0.0336669515809598   -0.011798178345542115
-0.6256094273015153   -0.0336669515809598   -0.011798178345542115
-0.6444493400430684   -0.05095034348559128   -0.0031456250563624
-0.6444493400430684   -0.05095034348559128   -0.0031456250563624
-0.6444493400430684   -0.05095034348559128   -0.0031456250563624
-0.6444493400430684   -0.05095034348559128   -0.0031456250563624
-0.2579339911958237   0.022279353327755994   0.016437980044828507
-0.2579339911958237   0.022279353327755994   0.016437980044828507
-0.2579339911958237   0.022279353327755994   0.016437980044828507
-0.2579339911958237   0.022279353327755994   0.016437980044828507
-0.4402098323973645   -0.00012816778361565695   -0.004475206782519142
-0.4402098323973645   -0.00012816778361565695   -0.004475206782519142
-0.4402098323973645   -0.00012816778361565695   -0.004475206782519142
-0.4402098323973645   -0.00012816778361565695   -0.004475206782519142
-0.2564153031047238   0.030456453065816617   0.015854320762271112
-0.2564153031047238   0.030456453065816617   0.015854320762271112
-0.2564153031047238   0.030456453065816617   0.015854320762271112
-0.2564153031047238   0.030456453065816617   0.015854320762271112
-0.6472612403595684   -0.06042065544904128   -0.007734814675413038
-0.6472612403595684   -0.06042065544904128   -0.007734814675413038
-0.6472612403595684   -0.06042065544904128   -0.007734814675413038
-0.6472612403595684   -0.06042065544904128   -0.007734814675413038
-0.6649335838610133   -0.07566291782801081   0.0033875878684008764
-0.6649335838610133   -0.07566291782801081   0.0033875878684008764
-0.6649335838610133   -0.07566291782801081   0.0033875878684008764
-0.6649335838610133   -0.07566291782801081   0.0033875878684008764
-0.27969255030123086   -0.0034360138172864867   0.02089444879872089
-0.27969255030123086   -0.0034360138172864867   0.02089444879872089
-0.27969255030123086   -0.0034360138172864867   0.02089444879872089
-0.27969255030123086   -0.0034360138172864867   0.02089444879872089
-0.46313288393255597   -0.024491338420946314   -0.016260233222748527
-0.46313288393255597   -0.024491338420946314   -0.016260233222748527
-0.46313288393255597   -0.024491338420946314   -0.016260233222748527
-0.46313288393255597   -0.024491338420946314   -0.016260233222748527
-0.574127906219434   0.10336853499079911   0.02573530145618881
-0.574127906219434   0.10336853499079911   0.02573530145618881
-0.574127906219434   0.10336853499079911   0.02573530145618881
-0.574127906219434   0.10336853499079911   0.02573530145618881
-0.9757795755730743   -0.02884379944316088   -0.03790140668279274
-0.9757795755730743   -0.02884379944316088   -0.03790140668279274
-0.9757795755730743   -0.02884379944316088   -0.03790140668279274
-0.9757795755730743   -0.02884379944316088   -0.03790140668279274
-0.9776526195476092   -0.0018084136510397794   0.015949572440277754
-0.9776526195476092   -0.0018084136510397794   0.015949572440277754
-0.9776526195476092   -0.0018084136510397794   0.015949572440277754
-0.9776526195476092   -0.0018084136510397794   0.015949572440277754
-0.6138809823451461   0.02515673726898499   -0.01197964241364953
-0.6138809823451461   0.02515673726898499   -0.01197964241364953
-0.6138809823451461   0.02515673726898499   -0.01197964241364953
-0.6138809823451461   0.02515673726898499   -0.01197964241364953
-0.7813741536975594   0.02442695098628011   0.008416256808739725
-0.7813741536975594   0.02442695098628011   0.008416256808739725
-0.7813741536975594   0.02442695098628011   0.008416256808739725
-0.7813741536975594   0.02442695098628011   0.008416256808739725
-0.5943330827347413   0.078207414837461   0.03270917806991383
-0.5943330827347413   0.078207414837461   0.03270917806991383
-0.5943330827347413   0.078207414837461   0.03270917806991383
-0.5943330827347413   0.078207414837461   0.03270917806991383
-0.9989481838769952   -0.0566067559384959   -0.035729906919204774
-0.9989481838769952   -0.0566067559384959   -0.035729906919204774
-0.9989481838769952   -0.0566067559384959   -0.035729906919204774
-0.9989481838769952   -0.0566067559384959   -0.035729906919204774
-1.0033571288316292   -0.027037355476181274   0.01958840088861391
-1.0033571288316292   -0.027037355476181274   0.01958840088861391
-1.0033571288316292   -0.027037355476181274   0.01958840088861391
-1.0033571288316292   -0.027037355476181274   0.01958840088861391
-0.6348728430671837   0.0005866562666215006   -0.0068001399291595654
-0.6348728430671837   0.0005866562666215006   -0.0068001399291595654
-0.6348728430671837   0.0005866562666215006   -0.0068001399291595654
-0.6348728430671837   0.0005866562666215006   -0.0068001399291595654
-0.7999049986840028   0.001769515954526818   -0.0029671956890630624
-0.7999049986840028   0.001769515954526818   -0.0029671956890630624
-0.7999049986840028   0.001769515954526818   -0.0029671956890630624
-0.7999049986840028   0.001769515954526818   -0.0029671956890630624
-0.6148048075055754   0.0546506395336843   0.03947605461182671
-0.6148048075055754   0.0546506395336843   0.03947605461182671
-0.6148048075055754   0.0546506395336843   0.03947605461182671
-0.6148048075055754   0.0546506395336843   0.03947605461182671
-1.0245142793902389   -0.08219045374023531   -0.031044253640388653
-1.0245142793902389   -0.08219045374023531   -0.031044253640388653
-1.0245142793902389   -0.08219045374023531   -0.031044253640388653
-1.0245142793902389   -0.08219045374023531   -0.031044253640388653
-1.025568500060504   -0.053321911260753876   0.026639385903881985
-1.025568500060504   -0.053321911260753876   0.026639385903881985
-1.025568500060504   -0.053321911260753876   0.026639385903881985
-1.025568500060504   -0.053321911260753876   0.026639385903881985
-0.6561256260437424   -0.025676650125691793   -0.002558890747578091
-0.6561256260437424   -0.025676650125691793   -0.002558890747578091
-0.6561256260437424   -0.025676650125691793   -0.002558890747578091
-0.6561256260437424   -0.025676650125691793   -0.002558890747578091
-0.8274261249317383   -0.022894982284160682   -0.015364727580956333
-0.8274261249317383   -0.022894982284160682   -0.015364727580956333
-0.8274261249317383   -0.022894982284160682   -0.015364727580956333
-0.8274261249317383   -0.022894982284160682   -0.015364727580956333
-0.9329663351401916   0.10172706998874861   0.045593926049718986
-0.9329663351401916   0.10172706998874861   0.045593926049718986
-0.9329663351401916   0.10172706998874861   0.045593926049718986
-0.9329663351401916   0.10172706998874861   0.045593926049718986
-1.3124240138055125   -0.06032729895927289   -0.05763382177993118
-1.3124240138055125   -0.06032729895927289   -0.05763382177993118
-1.3124240138055125   -0.06032729895927289   -0.05763382177993118
-1.3124240138055125   -0.06032729895927289   -0.05763382177993118
-1.3220757277987298   0.017105417125299407   0.04793319746741781
-1.3220757277987298   0.017105417125299407   0.04793319746741781
-1.3220757277987298   0.017105417125299407   0.04793319746741781
-1.3220757277987298   0.017105417125299407   0.04793319746741781
-0.9881448220422061   -0.0030951313298062944   -0.03522472235394858
-0.9881448220422061   -0.0030951313298062944   -0.03522472235394858
-0.9881448220422061   -0.0030951313298062944   -0.03522472235394858
-0.9881448220422061   -0.0030951313298062944   -0.03522472235394858
-1.0899799185998953   0.024468591336336706   0.02634088201680196
-1.0899799185998953   0.024468591336336706   0.02634088201680196
-1.0899799185998953   0.024468591336336706   0.02634088201680196
-1.0899799185998953   0.024468591336336706   0.02634088201680196
-0.9512006067444675   0.09247837200304668   0.053922850801891825
-0.9512006067444675   0.09247837200304668   0.053922850801891825
-0.9512006067444675   0.09247837200304668   0.053922850801891825
-0.9512006067444675   0.09247837200304668   0.053922850801891825
-1.3608787864152463   -0.08032692952632355   -0.048649748963525585
-1.3608787864152463   -0.08032692952632355   -0.048649748963525585
-1.3608787864152463   -0.08032692952632355   -0.048649748963525585
-1.3608787864152463   -0.08032692952632355   -0.048649748963525585
-1.3620946684609783   0.0029393007034362595   0.06122486122713783
-1.3620946684609783   0.0029393007034362595   0.06122486122713783
-1.3620946684609783   0.0029393007034362595   0.06122486122713783
-1.3620946684609783   0.0029393007034362595   0.06122486122713783
-1.0112754348399127   -0.01680539892075423   -0.030235085708239545
-1.0112754348399127   -0.01680539892075423   -0.030235085708239545
-1.0112754348399127   -0.01680539892075423   -0.030235085708239545
-1.0112754348399127   -0.01680539892075423   -0.030235085708239545
-1.1410744396489594   0.007706482537679402   0.009423638073460527
-1.1410744396489594   0.007706482537679402   0.009423638073460527
-1.1410744396489594   0.007706482537679402   0.009423638073460527
-1.1410744396489594   0.007706482537679402   0.009423638073460527
-0.9727607281494808   0.08138977190410769   0.0641432769190585
-0.9727607281494808   0.08138977190410769   0.0641432769190585
-0.9727607281494808   0.08138977190410769   0.0641432769190585
-0.9727607281494808   0.08138977190410769   0.0641432769190585
-1.4023708259608854   -0.09701732093090833   -0.04019930463803739
-1.4023708259608854   -0.09701732093090833   -0.04019930463803739
-1.4023708259608854   -0.09701732093090833   -0.04019930463803739
-1.4023708259608854   -0.09701732093090833   -0.04019930463803739
-1.417448235306042   -0.03728062537166478   0.06323395973534268
-1.417448235306042   -0.03728062537166478   0.06323395973534268
-1.417448235306042   -0.03728062537166478   0.06323395973534268
-1.417448235306042   -0.03728062537166478   0.06323395973534268
-1.0351400392715646   -0.04817408878633267   -0.026366132625873673
-1.0351400392715646   -0.04817408878633267   -0.026366132625873673
-1.0351400392715646   -0.04817408878633267   -0.026366132625873673
-1.0351400392715646   -0.04817408878633267   -0.026366132625873673
-1.1578141807093818   -0.010103406136144327   -0.0006568993304318926
-1.1578141807093818   -0.010103406136144327   -0.0006568993304318926
-1.1578141807093818   -0.010103406136144327   -0.0006568993304318926
-1.1578141807093818   -0.010103406136144327   -0.0006568993304318926
0.09687377174993667   0.007976437113251033   -0.06645120004252586
0.09687377174993667   0.007976437113251033   -0.06645120004252586
0.09687377174993667   0.007976437113251033   -0.06645120004252586
0.09687377174993667   0.007976437113251033   -0.06645120004252586
-0.10956981183937138   0.049880770453789074   0.034017034849777854
-0.10956981183937138   0.049880770453789074   0.034017034849777854
-0.10956981183937138   0.049880770453789074   0.034017034849777854
-0.10956981183937138   0.049880770453789074   0.034017034849777854
-0.16372075173134262   -0.06392383383300639   -0.05350134969527376
-0.16372075173134262   -0.06392383383300639   -0.05350134969527376
-0.16372075173134262   -0.06392383383300639   -0.05350134969527376
-0.16372075173134262   -0.06392383383300639   -0.05350134969527376
0.0886687308634357   0.0702158159366976   0.0417857323592972
0.0886687308634357   0.0702158159366976   0.0417857323592972
0.0886687308634357   0.0702158159366976   0.0417857323592972
0.0886687308634357   0.0702158159366976   0.0417857323592972
-0.024112760027039007   0.015406157052134009   0.0057862918377817076
-0.024112760027039007   0.015406157052134009   0.0057862918377817076
-0.024112760027039007   0.015406157052134009   0.0057862918377817076
-0.024112760027039007   0.015406157052134009   0.0057862918377817076
0.04991509419325742   -0.022374768100009115   -0.05939186695488747
0.04991509419325742   -0.022374768100009115   -0.05939186695488747
0.04991509419325742   -0.022374768100009115   -0.05939186695488747
0.04991509419325742   -0.022374768100009115   -0.05939186695488747
-0.12726157382066364   0.026372291444201026   0.03849841458091372
-0.12726157382066364   0.026372291444201026   0.03849841458091372
-0.12726157382066364   0.026372291444201026   0.03849841458091372
-0.12726157382066364   0.026372291444201026   0.03849841458091372
-0.18155437441161967   -0.07552526013526785   -0.04533723919540521
-0.18155437441161967   -0.07552526013526785   -0.04533723919540521
-0.18155437441161967   -0.07552526013526785   -0.04533723919540521
-0.18155437441161967   -0.07552526013526785   -0.04533723919540521
0.05193214051139739   0.05445216557293097   0.05729233170180288
0.05193214051139739   0.05445216557293097   0.05729233170180288
0.05193214051139739   0.05445216557293097   0.05729233170180288
0.05193214051139739   0.05445216557293097   0.05729233170180288
-0.05313101557067722   -0.001973032417373696   -0.007623222931946205
-0.05313101557067722   -0.001973032417373696   -0.007623222931946205
-0.05313101557067722   -0.001973032417373696   -0.007623222931946205
-0.05313101557067722   -0.001973032417373696   -0.007623222931946205
0.012287455223546679   -0.03748769350171456   -0.048991235662805166
0.012287455223546679   -0.03748769350171456   -0.048991235662805166
0.012287455223546679   -0.03748769350171456   -0.048991235662805166
0.012287455223546679   -0.03748769350171456   -0.048991235662805166
-0.14509194247012266   0.013232345593023834   0.04821731478378728
-0.14509194247012266   0.013232345593023834   0.04821731478378728
-0.14509194247012266   0.013232345593023834   0.04821731478378728
-0.14509194247012266   0.013232345593023834   0.04821731478378728
-0.19788952312897692   -0.09338385486984026   -0.037570929722180485
-0.19788952312897692   -0.09338385486984026   -0.037570929722180485
-0.19788952312897692   -0.09338385486984026   -0.037570929722180485
-0.19788952312897692   -0.09338385486984026   -0.037570929722180485
0.0009144129717950679   0.021391717544780718   0.0653023958921417
0.0009144129717950679   0.021391717544780718   0.0653023958921417
0.0009144129717950679   0.021391717544780718   0.0653023958921417
0.0009144129717950679   0.021391717544780718   0.0653023958921417
-0.08423441472393653   -0.019482315395227164   -0.02307381538160571
-0.08423441472393653   -0.019482315395227164   -0.02307381538160571
-0.08423441472393653   -0.019482315395227164   -0.02307381538160571
-0.08423441472393653   -0.019482315395227164   -0.02307381538160571
-0.12511809458777054   0.03262703588460758   -0.02647064432303655
-0.12511809458777054   0.03262703588460758   -0.02647064432303655
-0.12511809458777054   0.03262703588460758   -0.02647064432303655
-0.12511809458777054   0.03262703588460758   -0.02647064432303655
-0.318583463792495   0.01339591812867685   0.008892148624576685
-0.318583463792495   0.01339591812867685   0.008892148624576685
-0.318583463792495   0.01339591812867685   0.008892148624576685
-0.318583463792495   0.01339591812867685   0.008892148624576685
-0.34650377457651377   -0.03722645038784488   -0.02780794151445007
-0.34650377457651377   -0.03722645038784488   -0.02780794151445007
-0.34650377457651377   -0.03722645038784488   -0.02780794151445007
-0.34650377457651377   -0.03722645038784488   -0.02780794151445007
-0.12860367627673724   0.03160507156099993   0.02655512218374685
-0.12860367627673724   0.03160507156099993   0.02655512218374685
-0.12860367627673724   0.03160507156099993   0.02655512218374685
-0.12860367627673724   0.03160507156099993   0.02655512218374685
-0.22922705886988667   0.009455323325418848   0.005027287691197722
-0.22922705886988667   0.009455323325418848   0.005027287691197722
-0.22922705886988667   0.009455323325418848   0.005027287691197722
-0.22922705886988667   0.009455323325418848   0.005027287691197722
-0.14367452209956239   0.004551817780466003   -0.021745853149846988
-0.14367452209956239   0.004551817780466003   -0.021745853149846988
-0.14367452209956239   0.004551817780466003   -0.021745853149846988
-0.14367452209956239   0.004551817780466003   -0.021745853149846988
-0.33331415049277263   -0.012054418346394005   0.012968146862812543
-0.33331415049277263   -0.012054418346394005   0.012968146862812543
-0.33331415049277263   -0.012054418346394005   0.012968146862812543
-0.33331415049277263   -0.012054418346394005   0.012968146862812543
-0.3603839695164037   -0.0600137368608642   -0.020510633657011543
-0.3603839695164037   -0.0600137368608642   -0.020510633657011543
-0.3603839695164037   -0.0600137368608642   -0.020510633657011543
-0.3603839695164037   -0.0600137368608642   -0.020510633657011543
-0.15010868003671482   0.006426197912489221   0.029939774631361132
-0.15010868003671482   0.006426197912489221   0.029939774631361132
-0.15010868003671482   0.006426197912489221   0.029939774631361132
-0.15010868003671482   0.006426197912489221   0.029939774631361132
-0.2467623301175083   -0.0134032435815581   -0.006437679070071055
-0.2467623301175083   -0.0134032435815581   -0.006437679070071055
-0.2467623301175083   -0.0134032435815581   -0.006437679070071055
-0.2467623301175083   -0.0134032435815581   -0.006437679070071055
-0.16463293570292548   -0.020010387103500546   -0.01624491868370225
-0.16463293570292548   -0.020010387103500546   -0.01624491868370225
-0.16463293570292548   -0.020010387103500546   -0.01624491868370225
-0.16463293570292548   -0.020010387103500546   -0.01624491868370225
-0.3478785749956849   -0.03559601299036112   0.017598615076079488
-0.3478785749956849   -0.03559601299036112   0.017598615076079488
-0.3478785749956849   -0.03559601299036112   0.017598615076079488
-0.3478785749956849   -0.03559601299036112   0.017598615076079488
-0.374355691813402   -0.08348313348242418   -0.014047603436740677
-0.374355691813402   -0.08348313348242418   -0.014047603436740677
-0.374355691813402   -0.08348313348242418   -0.014047603436740677
-0.374355691813402   -0.08348313348242418   -0.014047603436740677
-0.16809105063075908   -0.019111205111657262   0.03714878301072378
-0.16809105063075908   -0.019111205111657262   0.03714878301072378
-0.16809105063075908   -0.019111205111657262   0.03714878301072378
-0.16809105063075908   -0.019111205111657262   0.03714878301072378
-0.2642909389482197   -0.036036182210813006   -0.018103938623952737
-0.2642909389482197   -0.036036182210813006   -0.018103938623952737
-0.2642909389482197   -0.036036182210813006   -0.018103938623952737
-0.2642909389482197   -0.036036182210813006   -0.018103938623952737
-0.3127935231823567   0.054048642468329   -0.0028108726643838733
-0.3127935231823567   0.054048642468329   -0.0028108726643838733
-0.3127935231823567   0.054048642468329   -0.0028108726643838733
-0.3127935231823567   0.054048642468329   -0.0028108726643838733
-0.5257811529282473   -0.017972997070192658   -0.014833874499202288
-0.5257811529282473   -0.017972997070192658   -0.014833874499202288
-0.5257811529282473   -0.017972997070192658   -0.014833874499202288
-0.5257811529282473   -0.017972997070192658   -0.014833874499202288
-0.531292327563501   -0.013065153902575035   -0.0031062896916324995
-0.531292327563501   -0.013065153902575035   -0.0031062896916324995
-0.531292327563501   -0.013065153902575035   -0.0031062896916324995
-0.531292327563501   -0.013065153902575035   -0.0031062896916324995
-0.3320946678509496   0.002917014615319357   0.004094127110214271
-0.3320946678509496   0.002917014615319357   0.004094127110214271
-0.3320946678509496   0.002917014615319357   0.004094127110214271
-0.3320946678509496   0.002917014615319357   0.004094127110214271
-0.4246037783663857   0.006071268152008404   0.0016923052992913468
-0.4246037783663857   0.006071268152008404   0.0016923052992913468
-0.4246037783663857   0.006071268152008404   0.0016923052992913468
-0.4246037783663857   0.006071268152008404   0.0016923052992913468
-0.3268344743381477   0.02925841378227561   0.004053695507267446
-0.3268344743381477   0.02925841378227561   0.004053695507267446
-0.3268344743381477   0.02925841378227561   0.004053695507267446
-0.3268344743381477   0.02925841378227561   0.004053695507267446
-0.5383612583450956   -0.04121529033832407   -0.010300807163856812
-0.5383612583450956   -0.04121529033832407   -0.010300807163856812
-0.5383612583450956   -0.04121529033832407   -0.010300807163856812
-0.5383612583450956   -0.04121529033832407   -0.010300807163856812
-0.5443046338199831   -0.03754493445067735   0.0036871837768211735
-0.5443046338199831   -0.03754493445067735   0.0036871837768211735
-0.5443046338199831   -0.03754493445067735   0.0036871837768211735
-0.5443046338199831   -0.03754493445067735   0.0036871837768211735
-0.346818419704873   -0.02114566512491083   0.008449043664688904
-0.346818419704873   -0.02114566512491083   0.008449043664688904
-0.346818419704873   -0.02114566512491083   0.008449043664688904
-0.346818419704873   -0.02114566512491083   0.008449043664688904
-0.43871322946461133   -0.01619207710916727   -0.008837981056415839
-0.43871322946461133   -0.01619207710916727   -0.008837981056415839
-0.43871322946461133   -0.01619207710916727   -0.008837981056415839
-0.43871322946461133   -0.01619207710916727   -0.008837981056415839
-0.3413937956863725   0.004320913455942089   0.010105585176338486
-0.3413937956863725   0.004320913455942089   0.010105585176338486
-0.3413937956863725   0.004320913455942089   0.010105585176338486
-0.3413937956863725   0.004320913455942089   0.010105585176338486
-0.5519094501964019   -0.06519170538945371   -0.006690127166496501
-0.5519094501964019   -0.06519170538945371   -0.006690127166496501
-0.5519094501964019   -0.06519170538945371   -0.006690127166496501
-0.5519094501964019   -0.06519170538945371   -0.006690127166496501
-0.5569788138206532   -0.06103228743383281   0.01019934423541169
-0.5569788138206532   -0.06103228743383281   0.01019934423541169
-0.5569788138206532   -0.06103228743383281   0.01019934423541169
-0.5569788138206532   -0.06103228743383281   0.01019934423541169
-0.36095369904576496   -0.04385297162092944   0.01333219853994981
-0.36095369904576496   -0.04385297162092944   0.01333219853994981
-0.36095369904576496   -0.04385297162092944   0.01333219853994981
-0.36095369904576496   -0.04385297162092944   0.01333219853994981
-0.4538962320228448   -0.038596214417213524   -0.020279755273921646
-0.4538962320228448   -0.038596214417213524   -0.020279755273921646
-0.4538962320228448   -0.038596214417213524   -0.020279755273921646
-0.4538962320228448   -0.038596214417213524   -0.020279755273921646
-0.49922819745774544   0.07836528222757314   0.021592623555548612
-0.49922819745774544   0.07836528222757314   0.021592623555548612
-0.49922819745774544   0.07836528222757314   0.021592623555548612
-0.49922819745774544   0.07836528222757314   0.021592623555548612
-0.7247221885772424   -0.029852817900646006   -0.03329432086280676
-0.7247221885772424   -0.029852817900646006   -0.03329432086280676
-0.7247221885772424   -0.029852817900646006   -0.03329432086280676
-0.7247221885772424   -0.029852817900646006   -0.03329432086280676
-0.7149580618215348   0.011816230257979746   0.022394902007743633
-0.7149580618215348   0.011816230257979746   0.022394902007743633
-0.7149580618215348   0.011816230257979746   0.022394902007743633
-0.7149580618215348   0.011816230257979746   0.022394902007743633
-0.5331464216633302   -0.010607987717644023   -0.014833926375709128
-0.5331464216633302   -0.010607987717644023   -0.014833926375709128
-0.5331464216633302   -0.010607987717644023   -0.014833926375709128
-0.5331464216633302   -0.010607987717644023   -0.014833926375709128
-0.6158871941275625   0.01252186762383288   0.0029389660835373588
-0.6158871941275625   0.01252186762383288   0.0029389660835373588
-0.6158871941275625   0.01252186762383288   0.0029389660835373588
-0.6158871941275625   0.01252186762383288   0.0029389660835373588
-0.5116239432574836   0.05369847429701941   0.028472003638860044
-0.5116239432574836   0.05369847429701941   0.028472003638860044
-0.5116239432574836   0.05369847429701941   0.028472003638860044
-0.5116239432574836   0.05369847429701941   0.028472003638860044
-0.7391214781503949   -0.05513116967969592   -0.03147477969890386
-0.7391214781503949   -0.05513116967969592   -0.03147477969890386
-0.7391214781503949   -0.05513116967969592   -0.03147477969890386
-0.7391214781503949   -0.05513116967969592   -0.03147477969890386
-0.7324024845265003   -0.012269924178838522   0.026446599302826085
-0.7324024845265003   -0.012269924178838522   0.026446599302826085
-0.7324024845265003   -0.012269924178838522   0.026446599302826085
-0.7324024845265003   -0.012269924178838522   0.026446599302826085
-0.5460466413433602   -0.0324774688290805   -0.010090319461661001
-0.5460466413433602   -0.0324774688290805   -0.010090319461661001
-0.5460466413433602   -0.0324774688290805   -0.010090319461661001
-0.5460466413433602   -0.0324774688290805   -0.010090319461661001
-0.6277398640906992   -0.008933520985976065   -0.008476333892487975
-0.6277398640906992   -0.008933520985976065   -0.008476333892487975
-0.6277398640906992   -0.008933520985976065   -0.008476333892487975
-0.6277398640906992   -0.008933520985976065   -0.008476333892487975
-0.5242804214968467   0.031098192295738306   0.03516511864608743
-0.5242804214968467   0.031098192295738306   0.03516511864608743
-0.5242804214968467   0.031098192295738306   0.03516511864608743
-0.5242804214968467   0.031098192295738306   0.03516511864608743
-0.7562541376881218   -0.07793101861877309   -0.027150572065362366
-0.7562541376881218   -0.07793101861877309   -0.027150572065362366
-0.7562541376881218   -0.07793101861877309   -0.027150572065362366
-0.7562541376881218   -0.07793101861877309   -0.027150572065362366
-0.7465847031954272   -0.03652160097623847   0.03367543215137342
-0.7465847031954272   -0.03652160097623847   0.03367543215137342
-0.7465847031954272   -0.03652160097623847   0.03367543215137342
-0.7465847031954272   -0.03652160097623847   0.03367543215137342
-0.5589924215076016   -0.05486050106859775   -0.006040480564565465
-0.5589924215076016   -0.05486050106859775   -0.006040480564565465
-0.5589924215076016   -0.05486050106859775   -0.006040480564565465
-0.5589924215076016   -0.05486050106859775   -0.006040480564565465
-0.6455696729109173   -0.03080111250276899   -0.020169593927087365
-0.6455696729109173   -0.03080111250276899   -0.020169593927087365
-0.6455696729109173   -0.03080111250276899   -0.020169593927087365
-0.6455696729109173   -0.03080111250276899   -0.020169593927087365
-0.6865731963388714   0.084907661146435   0.04269016128196701
-0.6865731963388714   0.084907661146435   0.04269016128196701
-0.6865731963388714   0.084907661146435   0.04269016128196701
-0.6865731963388714   0.084907661146435   0.04269016128196701
-0.8828950518944989   -0.0441019778806447   -0.05576555701312555
-0.8828950518944989   -0.0441019778806447   -0.05576555701312555
-0.8828950518944989   -0.0441019778806447   -0.05576555701312555
-0.8828950518944989   -0.0441019778806447   -0.05576555701312555
-0.8835653040719554   0.034277492423715146   0.04705887844337714
-0.8835653040719554   0.034277492423715146   0.04705887844337714
-0.8835653040719554   0.034277492423715146   0.04705887844337714
-0.8835653040719554   0.034277492423715146   0.04705887844337714
-0.73363897534202   -0.02507193391756482   -0.03412150141914608
-0.73363897534202   -0.02507193391756482   -0.03412150141914608
-0.73363897534202   -0.02507193391756482   -0.03412150141914608
-0.73363897534202   -0.02507193391756482   -0.03412150141914608
-0.764460913721075   0.020207600652884662   0.01472864236136781
-0.764460913721075   0.020207600652884662   0.01472864236136781
-0.764460913721075   0.020207600652884662   0.01472864236136781
-0.764460913721075   0.020207600652884662   0.01472864236136781
-0.697289248473717   0.07219330637970564   0.05036189262509119
-0.697289248473717   0.07219330637970564   0.05036189262509119
-0.697289248473717   0.07219330637970564   0.05036189262509119
-0.697289248473717   0.07219330637970564   0.05036189262509119
-0.9226559512307512   -0.06572866816404925   -0.04838819676283712
-0.9226559512307512   -0.06572866816404925   -0.04838819676283712
-0.9226559512307512   -0.06572866816404925   -0.04838819676283712
-0.9226559512307512   -0.06572866816404925   -0.04838819676283712
-0.9152966947739805   0.02056643467508175   0.06064534220500817
-0.9152966947739805   0.02056643467508175   0.06064534220500817
-0.9152966947739805   0.02056643467508175   0.06064534220500817
-0.9152966947739805   0.02056643467508175   0.06064534220500817
-0.748746583778408   -0.03764187853915958   -0.029901942596399222
-0.748746583778408   -0.03764187853915958   -0.029901942596399222
-0.748746583778408   -0.03764187853915958   -0.029901942596399222
-0.748746583778408   -0.03764187853915958   -0.029901942596399222
-0.8022069313455413   0.003528978690358335   -0.0010899420789203806
-0.8022069313455413   0.003528978690358335   -0.0010899420789203806
-0.8022069313455413   0.003528978690358335   -0.0010899420789203806
-0.8022069313455413   0.003528978690358335   -0.0010899420789203806
-0.7108771888973878   0.06140158171942763   0.060401571550114136
-0.7108771888973878   0.06140158171942763   0.060401571550114136
-0.7108771888973878   0.06140158171942763   0.060401571550114136
-0.7108771888973878   0.06140158171942763   0.060401571550114136
-0.9559623319179674   -0.08127326784646455   -0.040843140993364585
-0.9559623319179674   -0.08127326784646455   -0.040843140993364585
-0.9559623319179674   -0.08127326784646455   -0.040843140993364585
-0.9559623319179674   -0.08127326784646455   -0.040843140993364585
-0.9622196956311324   -0.01548949626068627   0.06413648636195685
-0.9622196956311324   -0.01548949626068627   0.06413648636195685
-0.9622196956311324   -0.01548949626068627   0.06413648636195685
-0.9622196956311324   -0.01548949626068627   0.06413648636195685
-0.7639141665820582   -0.06366425969802704   -0.025829226060000432
-0.7639141665820582   -0.06366425969802704   -0.025829226060000432
-0.7639141665820582   -0.06366425969802704   -0.025829226060000432
-0.7639141665820582   -0.06366425969802704   -0.025829226060000432
-0.8167385239517221   -0.012981821542128333   -0.01233165671999148
-0.8167385239517221   -0.012981821542128333   -0.01233165671999148
-0.8167385239517221   -0.012981821542128333   -0.01233165671999148
-0.8167385239517221   -0.012981821542128333   -0.01233165671999148
-0.3779287779238847   -0.024697725260594203   -0.07051647763762522
-0.3779287779238847   -0.024697725260594203   -0.07051647763762522
-0.3779287779238847   -0.024697725260594203   -0.07051647763762522
-0.3779287779238847   -0.024697725260594203   -0.07051647763762522
-0.37285354926900866   0.054085147717928175   0.03174255270069244
-0.37285354926900866   0.054085147717928175   0.03174255270069244
-0.37285354926900866   0.054085147717928175   0.03174255270069244
-0.37285354926900866   0.054085147717928175   0.03174255270069244
-0.4193403077620179   -0.049297689526410865   -0.04777275633079144
-0.4193403077620179   -0.049297689526410865   -0.04777275633079144
-0.4193403077620179   -0.049297689526410865   -0.04777275633079144
-0.4193403077620179   -0.049297689526410865   -0.04777275633079144
-0.3856595733958205   0.028062005014514883   0.0477504306315779
-0.3856595733958205   0.028062005014514883   0.0477504306315779
-0.3856595733958205   0.028062005014514883   0.0477504306315779
-0.3856595733958205   0.028062005014514883   0.0477504306315779
-0.369427414437206   0.0090642715160795   0.03238291592042619
-0.369427414437206   0.0090642715160795   0.03238291592042619
-0.369427414437206   0.0090642715160795   0.03238291592042619
-0.369427414437206   0.0090642715160795   0.03238291592042619
-0.42309662453418423   -0.052307471353187106   -0.05906534869253701
-0.42309662453418423   -0.052307471353187106   -0.05906534869253701
-0.42309662453418423   -0.052307471353187106   -0.05906534869253701
-0.42309662453418423   -0.052307471353187106   -0.05906534869253701
-0.38656669776981684   0.0264083456951339   0.04038925840866929
-0.38656669776981684   0.0264083456951339   0.04038925840866929
-0.38656669776981684   0.0264083456951339   0.04038925840866929
-0.38656669776981684   0.0264083456951339   0.04038925840866929
-0.4332983857226885   -0.06213446586657613   -0.04041029926164667
-0.4332983857226885   -0.06213446586657613   -0.04041029926164667
-0.4332983857226885   -0.06213446586657613   -0.04041029926164667
-0.4332983857226885   -0.06213446586657613   -0.04041029926164667
-0.42172385315486793   0.010573320673238545   0.08870902973696582
-0.42172385315486793   0.010573320673238545   0.08870902973696582
-0.42172385315486793   0.010573320673238545   0.08870902973696582
-0.42172385315486793   0.010573320673238545   0.08870902973696582
-0.40270601267660633   -0.012994867210900318   0.012921174464055205
-0.40270601267660633   -0.012994867210900318   0.012921174464055205
-0.40270601267660633   -0.012994867210900318   0.012921174464055205
-0.40270601267660633   -0.012994867210900318   0.012921174464055205
-0.46468690334125573   -0.069530574701922   -0.046002325819808884
-0.46468690334125573   -0.069530574701922   -0.046002325819808884
-0.46468690334125573   -0.069530574701922   -0.046002325819808884
-0.46468690334125573   -0.069530574701922   -0.046002325819808884
-0.40135414342747183   0.0069506216174139365   0.05022582473044662
-0.40135414342747183   0.0069506216174139365   0.05022582473044662
-0.40135414342747183   0.0069506216174139365   0.05022582473044662
-0.40135414342747183   0.0069506216174139365   0.05022582473044662
-0.4447191475322482   -0.08715249250407386   -0.031785093848057264
-0.4447191475322482   -0.08715249250407386   -0.031785093848057264
-0.4447191475322482   -0.08715249250407386   -0.031785093848057264
-0.4447191475322482   -0.08715249250407386   -0.031785093848057264
-0.47779695109806775   -0.04721955308079911   0.08302799286179172
-0.47779695109806775   -0.04721955308079911   0.08302799286179172
-0.47779695109806775   -0.04721955308079911   0.08302799286179172
-0.47779695109806775   -0.04721955308079911   0.08302799286179172
-0.43146835245235243   -0.03907956005979381   -0.017882086264979502
-0.43146835245235243   -0.03907956005979381   -0.017882086264979502
-0.43146835245235243   -0.03907956005979381   -0.017882086264979502
-0.43146835245235243   -0.03907956005979381   -0.017882086264979502
-0.39966314808938225   -0.011868755993554548   -0.03635153768969305
-0.39966314808938225   -0.011868755993554548   -0.03635153768969305
-0.39966314808938225   -0.011868755993554548   -0.03635153768969305
-0.39966314808938225   -0.011868755993554548   -0.03635153768969305
-0.4041823915361705   -0.04962298056679523   -0.002108987964808892
-0.4041823915361705   -0.04962298056679523   -0.002108987964808892
-0.4041823915361705   -0.04962298056679523   -0.002108987964808892
-0.4041823915361705   -0.04962298056679523   -0.002108987964808892
-0.4070511043589938   -0.03301203241155461   -0.018082969596769347
-0.4070511043589938   -0.03301203241155461   -0.018082969596769347
-0.4070511043589938   -0.03301203241155461   -0.018082969596769347
-0.4070511043589938   -0.03301203241155461   -0.018082969596769347
-0.4136054556864662   -0.06764277279421567   -0.0007534126852278417
-0.4136054556864662   -0.06764277279421567   -0.0007534126852278417
-0.4136054556864662   -0.06764277279421567   -0.0007534126852278417
-0.4136054556864662   -0.06764277279421567   -0.0007534126852278417
-0.4026695407893029   -0.04229503352048543   -0.001498762206904647
-0.4026695407893029   -0.04229503352048543   -0.001498762206904647
-0.4026695407893029   -0.04229503352048543   -0.001498762206904647
-0.4026695407893029   -0.04229503352048543   -0.001498762206904647
-0.4136149502573629   -0.03699744944888311   -0.031446208885042765
-0.4136149502573629   -0.03699744944888311   -0.031446208885042765
-0.4136149502573629   -0.03699744944888311   -0.031446208885042765
-0.4136149502573629   -0.03699744944888311   -0.031446208885042765
-0.4096363138900744   -0.0662520598588643   0.0022310101951371897
-0.4096363138900744   -0.0662520598588643   0.0022310101951371897
-0.4096363138900744   -0.0662520598588643   0.0022310101951371897
-0.4096363138900744   -0.0662520598588643   0.0022310101951371897
-0.4138132027493842   -0.0546321016043429   -0.011647200240099367
-0.4138132027493842   -0.0546321016043429   -0.011647200240099367
-0.4138132027493842   -0.0546321016043429   -0.011647200240099367
-0.4138132027493842   -0.0546321016043429   -0.011647200240099367
-0.42849644586695324   -0.08771392124980149   0.00917885540025494
-0.42849644586695324   -0.08771392124980149   0.00917885540025494
-0.42849644586695324   -0.08771392124980149   0.00917885540025494
-0.42849644586695324   -0.08771392124980149   0.00917885540025494
-0.4118454832894304   -0.059749417959182476   -0.011495294978228529
-0.4118454832894304   -0.059749417959182476   -0.011495294978228529
-0.4118454832894304   -0.059749417959182476   -0.011495294978228529
-0.4118454832894304   -0.059749417959182476   -0.011495294978228529
-0.4294745882320597   -0.060100078489894876   -0.02332569918518386
-0.4294745882320597   -0.060100078489894876   -0.02332569918518386
-0.4294745882320597   -0.060100078489894876   -0.02332569918518386
-0.4294745882320597   -0.060100078489894876   -0.02332569918518386
-0.4161543353437406   -0.08556521932371294   0.007580254507484993
-0.4161543353437406   -0.08556521932371294   0.007580254507484993
-0.4161543353437406   -0.08556521932371294   0.007580254507484993
-0.4161543353437406   -0.08556521932371294   0.007580254507484993
-0.4198744409043404   -0.07795199048961891   -0.005271753605503179
-0.4198744409043404   -0.07795199048961891   -0.005271753605503179
-0.4198744409043404   -0.07795199048961891   -0.005271753605503179
-0.4198744409043404   -0.07795199048961891   -0.005271753605503179
-0.43988229441615956   -0.1132361591507656   0.018482838379073163
-0.43988229441615956   -0.1132361591507656   0.018482838379073163
-0.43988229441615956   -0.1132361591507656   0.018482838379073163
-0.43988229441615956   -0.1132361591507656   0.018482838379073163
-0.42450153679282127   -0.08086511262189165   -0.024224339538482798
-0.42450153679282127   -0.08086511262189165   -0.024224339538482798
-0.42450153679282127   -0.08086511262189165   -0.024224339538482798
-0.42450153679282127   -0.08086511262189165   -0.024224339538482798
-0.3931289792074329   0.010192692663528718   -0.0066575995514405045
-0.3931289792074329   0.010192692663528718   -0.0066575995514405045
-0.3931289792074329   0.010192692663528718   -0.0066575995514405045
-0.3931289792074329   0.010192692663528718   -0.0066575995514405045
-0.4440271149835688   -0.0842885207644613   -0.02126202572143722
-0.4440271149835688   -0.0842885207644613   -0.02126202572143722
-0.4440271149835688   -0.0842885207644613   -0.02126202572143722
-0.4440271149835688   -0.0842885207644613   -0.02126202572143722
-0.4258302089848319   -0.015519516971662567   0.005647010309186989
-0.4258302089848319   -0.015519516971662567   0.005647010309186989
-0.4258302089848319   -0.015519516971662567   0.005647010309186989
-0.4258302089848319   -0.015519516971662567   0.005647010309186989
-0.41772212659421376   -0.09129814526780478   -0.013151967916619281
-0.41772212659421376   -0.09129814526780478   -0.013151967916619281
-0.41772212659421376   -0.09129814526780478   -0.013151967916619281
-0.41772212659421376   -0.09129814526780478   -0.013151967916619281
-0.41988400896139644   -0.046658227595050075   -0.009541775249300694
-0.41988400896139644   -0.046658227595050075   -0.009541775249300694
-0.41988400896139644   -0.046658227595050075   -0.009541775249300694
-0.41988400896139644   -0.046658227595050075   -0.009541775249300694
-0.3991026201208898   -0.01131159785356034   -4.0982964243985176e-05
-0.3991026201208898   -0.01131159785356034   -4.0982964243985176e-05
-0.3991026201208898   -0.01131159785356034   -4.0982964243985176e-05
-0.3991026201208898   -0.01131159785356034   -4.0982964243985176e-05
-0.44680407074527734   -0.09786041967302592   -0.016881395791676704
-0.44680407074527734   -0.09786041967302592   -0.016881395791676704
-0.44680407074527734   -0.09786041967302592   -0.016881395791676704
-0.44680407074527734   -0.09786041967302592   -0.016881395791676704
-0.43067198611907526   -0.037198089657173604   0.012040487417577364
-0.43067198611907526   -0.037198089657173604   0.012040487417577364
-0.43067198611907526   -0.037198089657173604   0.012040487417577364
-0.43067198611907526   -0.037198089657173604   0.012040487417577364
-0.4240507180142997   -0.10838784959257389   -0.009079028576449794
-0.4240507180142997   -0.10838784959257389   -0.009079028576449794
-0.4240507180142997   -0.10838784959257389   -0.009079028576449794
-0.4240507180142997   -0.10838784959257389   -0.009079028576449794
-0.4250330695891029   -0.06317740748991556   -0.018113262870635055
-0.4250330695891029   -0.06317740748991556   -0.018113262870635055
-0.4250330695891029   -0.06317740748991556   -0.018113262870635055
-0.4250330695891029   -0.06317740748991556   -0.018113262870635055
-0.4059465629904331   -0.033375269270743815   0.006429166221053398
-0.4059465629904331   -0.033375269270743815   0.006429166221053398
-0.4059465629904331   -0.033375269270743815   0.006429166221053398
-0.4059465629904331   -0.033375269270743815   0.006429166221053398
-0.45140604046064053   -0.11484056929669716   -0.013987304650725355
-0.45140604046064053   -0.11484056929669716   -0.013987304650725355
-0.45140604046064053   -0.11484056929669716   -0.013987304650725355
-0.45140604046064053   -0.11484056929669716   -0.013987304650725355
-0.43460331726057444   -0.05759109049184305   0.018291222400191307
-0.43460331726057444   -0.05759109049184305   0.018291222400191307
-0.43460331726057444   -0.05759109049184305   0.018291222400191307
-0.43460331726057444   -0.05759109049184305   0.018291222400191307
-0.42874600849773303   -0.1247971215029286   -0.00278446055915664
-0.42874600849773303   -0.1247971215029286   -0.00278446055915664
-0.42874600849773303   -0.1247971215029286   -0.00278446055915664
-0.42874600849773303   -0.1247971215029286   -0.00278446055915664
-0.4311777842135716   -0.08045670233789395   -0.027531883536985338
-0.4311777842135716   -0.08045670233789395   -0.027531883536985338
-0.4311777842135716   -0.08045670233789395   -0.027531883536985338
-0.4311777842135716   -0.08045670233789395   -0.027531883536985338
-0.4100001620160297   0.04388941271209773   0.020694805639699318
-0.4100001620160297   0.04388941271209773   0.020694805639699318
-0.4100001620160297   0.04388941271209773   0.020694805639699318
-0.4100001620160297   0.04388941271209773   0.020694805639699318
-0.48394348359299477   -0.06278701178763249   -0.029600224917888315
-0.48394348359299477   -0.06278701178763249   -0.029600224917888315
-0.48394348359299477   -0.06278701178763249   -0.029600224917888315
-0.48394348359299477   -0.06278701178763249   -0.029600224917888315
-0.4577518399654878   0.013178933734375967   0.028706099186548525
-0.4577518399654878   0.013178933734375967   0.028706099186548525
-0.4577518399654878   0.013178933734375967   0.028706099186548525
-0.4577518399654878   0.013178933734375967   0.028706099186548525
-0.4414976501220683   -0.07025940312701051   -0.01795030922164706
-0.4414976501220683   -0.07025940312701051   -0.01795030922164706
-0.4414976501220683   -0.07025940312701051   -0.01795030922164706
-0.4414976501220683   -0.07025940312701051   -0.01795030922164706
-0.4482707922155565   -0.018520010803809724   -0.005699514511664006
-0.4482707922155565   -0.018520010803809724   -0.005699514511664006
-0.4482707922155565   -0.018520010803809724   -0.005699514511664006
-0.4482707922155565   -0.018520010803809724   -0.005699514511664006
-0.4141167350406545   0.021586422911429336   0.02710844014698209
-0.4141167350406545   0.021586422911429336   0.02710844014698209
-0.4141167350406545   0.021586422911429336   0.02710844014698209
-0.4141167350406545   0.021586422911429336   0.02710844014698209
-0.48825724304367246   -0.08179138030083605   -0.028850602169170667
-0.48825724304367246   -0.08179138030083605   -0.028850602169170667
-0.48825724304367246   -0.08179138030083605   -0.028850602169170667
-0.48825724304367246   -0.08179138030083605   -0.028850602169170667
-0.4661882195017877   -0.007979270182377478   0.032542251930281624
-0.4661882195017877   -0.007979270182377478   0.032542251930281624
-0.4661882195017877   -0.007979270182377478   0.032542251930281624
-0.4661882195017877   -0.007979270182377478   0.032542251930281624
-0.44570447420410186   -0.08602554176324408   -0.01429450090148525
-0.44570447420410186   -0.08602554176324408   -0.01429450090148525
-0.44570447420410186   -0.08602554176324408   -0.01429450090148525
-0.44570447420410186   -0.08602554176324408   -0.01429450090148525
-0.45250353420342365   -0.03642015619991074   -0.01575017038264835
-0.45250353420342365   -0.03642015619991074   -0.01575017038264835
-0.45250353420342365   -0.03642015619991074   -0.01575017038264835
-0.45250353420342365   -0.03642015619991074   -0.01575017038264835
-0.41863384316722946   0.0016914810020037044   0.03334163151762928
-0.41863384316722946   0.0016914810020037044   0.03334163151762928
-0.41863384316722946   0.0016914810020037044   0.03334163151762928
-0.41863384316722946   0.0016914810020037044   0.03334163151762928
-0.4959667553136388   -0.09840419772260398   -0.02592549958874782
-0.4959667553136388   -0.09840419772260398   -0.02592549958874782
-0.4959667553136388   -0.09840419772260398   -0.02592549958874782
-0.4959667553136388   -0.09840419772260398   -0.02592549958874782
-0.4717544109647505   -0.02826842442343863   0.039681892118378984
-0.4717544109647505   -0.02826842442343863   0.039681892118378984
-0.4717544109647505   -0.02826842442343863   0.039681892118378984
-0.4717544109647505   -0.02826842442343863   0.039681892118378984
-0.4493096829846909   -0.1018598145133648   -0.010971882198869048
-0.4493096829846909   -0.1018598145133648   -0.010971882198869048
-0.4493096829846909   -0.1018598145133648   -0.010971882198869048
-0.4493096829846909   -0.1018598145133648   -0.010971882198869048
-0.4599425306236207   -0.05328167863761406   -0.025484502749189925
-0.4599425306236207   -0.05328167863761406   -0.025484502749189925
-0.4599425306236207   -0.05328167863761406   -0.025484502749189925
-0.4599425306236207   -0.05328167863761406   -0.025484502749189925
-0.4446148112983087   0.0629653388290003   0.041290785938909225
-0.4446148112983087   0.0629653388290003   0.041290785938909225
-0.4446148112983087   0.0629653388290003   0.041290785938909225
-0.4446148112983087   0.0629653388290003   0.041290785938909225
-0.4744327517630965   -0.03784008919615041   -0.04291975980198444
-0.4744327517630965   -0.03784008919615041   -0.04291975980198444
-0.4744327517630965   -0.03784008919615041   -0.04291975980198444
-0.4744327517630965   -0.03784008919615041   -0.04291975980198444
-0.4636788819060594   0.04492083288082145   0.045882239136855185
-0.4636788819060594   0.04492083288082145   0.045882239136855185
-0.4636788819060594   0.04492083288082145   0.045882239136855185
-0.4636788819060594   0.04492083288082145   0.045882239136855185
-0.4811285371617161   -0.04876551648843219   -0.02623293657179253
-0.4811285371617161   -0.04876551648843219   -0.02623293657179253
-0.4811285371617161   -0.04876551648843219   -0.02623293657179253
-0.4811285371617161   -0.04876551648843219   -0.02623293657179253
-0.4501432310366257   0.011296450403634285   0.0016874544605208347
-0.4501432310366257   0.011296450403634285   0.0016874544605208347
-0.4501432310366257   0.011296450403634285   0.0016874544605208347
-0.4501432310366257   0.011296450403634285   0.0016874544605208347
-0.4468498541380283   0.048657652515581615   0.04773730954262495
-0.4468498541380283   0.048657652515581615   0.04773730954262495
-0.4468498541380283   0.048657652515581615   0.04773730954262495
-0.4468498541380283   0.048657652515581615   0.04773730954262495
-0.5004991581033111   -0.05504392929675511   -0.03825437967181207
-0.5004991581033111   -0.05504392929675511   -0.03825437967181207
-0.5004991581033111   -0.05504392929675511   -0.03825437967181207
-0.5004991581033111   -0.05504392929675511   -0.03825437967181207
-0.4841031383604058   0.03308418640887809   0.059084936725817605
-0.4841031383604058   0.03308418640887809   0.059084936725817605
-0.4841031383604058   0.03308418640887809   0.059084936725817605
-0.4841031383604058   0.03308418640887809   0.059084936725817605
-0.4874981014412496   -0.05803827513407893   -0.023948152815334675
-0.4874981014412496   -0.05803827513407893   -0.023948152815334675
-0.4874981014412496   -0.05803827513407893   -0.023948152815334675
-0.4874981014412496   -0.05803827513407893   -0.023948152815334675
-0.4721338161169072   -0.003051697954883033   -0.01015515993965134
-0.4721338161169072   -0.003051697954883033   -0.01015515993965134
-0.4721338161169072   -0.003051697954883033   -0.01015515993965134
-0.4721338161169072   -0.003051697954883033   -0.01015515993965134
-0.45184138263156914   0.03914915285773814   0.0571480132412506
-0.45184138263156914   0.03914915285773814   0.0571480132412506
-0.45184138263156914   0.03914915285773814   0.0571480132412506
-0.45184138263156914   0.03914915285773814   0.0571480132412506
-0.5230764037546113   -0.06741978816745643   -0.035277415668860515
-0.5230764037546113   -0.06741978816745643   -0.035277415668860515
-0.5230764037546113   -0.06741978816745643   -0.035277415668860515
-0.5230764037546113   -0.06741978816745643   -0.035277415668860515
-0.5201950003117127   0.002873348486956126   0.0631396485945699
-0.5201950003117127   0.002873348486956126   0.0631396485945699
-0.5201950003117127   0.002873348486956126   0.0631396485945699
-0.5201950003117127   0.002873348486956126   0.0631396485945699
-0.49330381616544716   -0.07551790507830122   -0.020815653230249115
-0.49330381616544716   -0.07551790507830122   -0.020815653230249115
-0.49330381616544716   -0.07551790507830122   -0.020815653230249115
-0.49330381616544716   -0.07551790507830122   -0.020815653230249115
-0.4825662435191933   -0.016242705350709895   -0.020849630751416104
-0.4825662435191933   -0.016242705350709895   -0.020849630751416104
-0.4825662435191933   -0.016242705350709895   -0.020849630751416104
-0.4825662435191933   -0.016242705350709895   -0.020849630751416104
-0.959438427564375   -0.08760821533571961   -0.09013938427218002
-0.959438427564375   -0.08760821533571961   -0.09013938427218002
-0.959438427564375   -0.08760821533571961   -0.09013938427218002
-0.959438427564375   -0.08760821533571961   -0.09013938427218002
-0.6077776755795126   0.05221104318288543   0.02127662773861219
-0.6077776755795126   0.05221104318288543   0.02127662773861219
-0.6077776755795126   0.05221104318288543   0.02127662773861219
-0.6077776755795126   0.05221104318288543   0.02127662773861219
-0.6381156869287167   -0.040004879888903   -0.040127880352615344
-0.6381156869287167   -0.040004879888903   -0.040127880352615344
-0.6381156869287167   -0.040004879888903   -0.040127880352615344
-0.6381156869287167   -0.040004879888903   -0.040127880352615344
-1.0195848450066234   -0.11435768861933532   0.10121854031328698
-1.0195848450066234   -0.11435768861933532   0.10121854031328698
-1.0195848450066234   -0.11435768861933532   0.10121854031328698
-1.0195848450066234   -0.11435768861933532   0.10121854031328698
-0.7412825609442953   -0.02804516127349349   0.09805884778814691
-0.7412825609442953   -0.02804516127349349   0.09805884778814691
-0.7412825609442953   -0.02804516127349349   0.09805884778814691
-0.7412825609442953   -0.02804516127349349   0.09805884778814691
-1.0559014143280567   -0.12873404023407484   -0.06598795467913443
-1.0559014143280567   -0.12873404023407484   -0.06598795467913443
-1.0559014143280567   -0.12873404023407484   -0.06598795467913443
-1.0559014143280567   -0.12873404023407484   -0.06598795467913443
-0.6273271822315607   -0.051156592898440684   0.024966356142697682
-0.6273271822315607   -0.051156592898440684   0.024966356142697682
-0.6273271822315607   -0.051156592898440684   0.024966356142697682
-0.6273271822315607   -0.051156592898440684   0.024966356142697682
-0.6477234675738253   -0.05811787614184878   -0.02874733991952884
-0.6477234675738253   -0.05811787614184878   -0.02874733991952884
-0.6477234675738253   -0.05811787614184878   -0.02874733991952884
-0.6477234675738253   -0.05811787614184878   -0.02874733991952884
-1.0517763782391758   -0.1598589823635396   0.0026386615294048954
-1.0517763782391758   -0.1598589823635396   0.0026386615294048954
-1.0517763782391758   -0.1598589823635396   0.0026386615294048954
-1.0517763782391758   -0.1598589823635396   0.0026386615294048954
-0.8203629327177201   -0.09646444801515172   0.02260839976143153
-0.8203629327177201   -0.09646444801515172   0.02260839976143153
-0.8203629327177201   -0.09646444801515172   0.02260839976143153
-0.8203629327177201   -0.09646444801515172   0.02260839976143153
-1.0600337992319497   -0.14544329970764158   -0.053064126090352964
-1.0600337992319497   -0.14544329970764158   -0.053064126090352964
-1.0600337992319497   -0.14544329970764158   -0.053064126090352964
-1.0600337992319497   -0.14544329970764158   -0.053064126090352964
-0.6472175314369822   -0.08028504365367954   -0.0040504917234883975
-0.6472175314369822   -0.08028504365367954   -0.0040504917234883975
-0.6472175314369822   -0.08028504365367954   -0.0040504917234883975
-0.6472175314369822   -0.08028504365367954   -0.0040504917234883975
-0.6479887883267735   -0.10204350501403947   -0.02089992957570433
-0.6479887883267735   -0.10204350501403947   -0.02089992957570433
-0.6479887883267735   -0.10204350501403947   -0.02089992957570433
-0.6479887883267735   -0.10204350501403947   -0.02089992957570433
-1.0766270454366065   -0.24425053022787463   0.016232448132252275
-1.0766270454366065   -0.24425053022787463   0.016232448132252275
-1.0766270454366065   -0.24425053022787463   0.016232448132252275
-1.0766270454366065   -0.24425053022787463   0.016232448132252275
-0.8192700525569812   -0.13264706681599173   0.0016377792927387835
-0.8192700525569812   -0.13264706681599173   0.0016377792927387835
-0.8192700525569812   -0.13264706681599173   0.0016377792927387835
-0.8192700525569812   -0.13264706681599173   0.0016377792927387835
-0.6563248085308173   -0.11123272094980599   -0.05801527288521598
-0.6563248085308173   -0.11123272094980599   -0.05801527288521598
-0.6563248085308173   -0.11123272094980599   -0.05801527288521598
-0.6563248085308173   -0.11123272094980599   -0.05801527288521598
-0.4502906820855647   -0.29028941067413205   -0.05445918211985172
-0.4502906820855647   -0.29028941067413205   -0.05445918211985172
-0.4502906820855647   -0.29028941067413205   -0.05445918211985172
-0.4502906820855647   -0.29028941067413205   -0.05445918211985172
-0.3955574276749222   -0.06455662965698052   -0.003370725010596043
-0.3955574276749222   -0.06455662965698052   -0.003370725010596043
-0.3955574276749222   -0.06455662965698052   -0.003370725010596043
-0.3955574276749222   -0.06455662965698052   -0.003370725010596043
-0.6974535834652869   -0.30810123370771153   -0.06872100921666208
-0.6974535834652869   -0.30810123370771153   -0.06872100921666208
-0.6974535834652869   -0.30810123370771153   -0.06872100921666208
-0.6974535834652869   -0.30810123370771153   -0.06872100921666208
-0.5435100671372051   -0.20546024633238583   -0.015823805922537654
-0.5435100671372051   -0.20546024633238583   -0.015823805922537654
-0.5435100671372051   -0.20546024633238583   -0.015823805922537654
-0.5435100671372051   -0.20546024633238583   -0.015823805922537654
-0.655751836060534   -0.1246533895934206   -0.04366011630718482
-0.655751836060534   -0.1246533895934206   -0.04366011630718482
-0.655751836060534   -0.1246533895934206   -0.04366011630718482
-0.655751836060534   -0.1246533895934206   -0.04366011630718482
-0.4399212532964678   -0.25066655198806415   -0.03907993078724399
-0.4399212532964678   -0.25066655198806415   -0.03907993078724399
-0.4399212532964678   -0.25066655198806415   -0.03907993078724399
-0.4399212532964678   -0.25066655198806415   -0.03907993078724399
-0.39986876455429116   -0.08368455172969769   0.0006980216881272011
-0.39986876455429116   -0.08368455172969769   0.0006980216881272011
-0.39986876455429116   -0.08368455172969769   0.0006980216881272011
-0.39986876455429116   -0.08368455172969769   0.0006980216881272011
-0.6997704881378026   -0.30650777701867293   -0.04059254186259714
-0.6997704881378026   -0.30650777701867293   -0.04059254186259714
-0.6997704881378026   -0.30650777701867293   -0.04059254186259714
-0.6997704881378026   -0.30650777701867293   -0.04059254186259714
-0.5373467543616323   -0.1925938262310072   -0.01680960013737426
-0.5373467543616323   -0.1925938262310072   -0.01680960013737426
-0.5373467543616323   -0.1925938262310072   -0.01680960013737426
-0.5373467543616323   -0.1925938262310072   -0.01680960013737426
-0.6655959920861674   -0.1435126410819274   -0.03271519754116056
-0.6655959920861674   -0.1435126410819274   -0.03271519754116056
-0.6655959920861674   -0.1435126410819274   -0.03271519754116056
-0.6655959920861674   -0.1435126410819274   -0.03271519754116056
-0.4395405807478978   -0.2521770078084123   -0.029168603201198892
-0.4395405807478978   -0.2521770078084123   -0.029168603201198892
-0.4395405807478978   -0.2521770078084123   -0.029168603201198892
-0.4395405807478978   -0.2521770078084123   -0.029168603201198892
-0.39949699424738183   -0.10755282653596335   0.00651420128430677
-0.39949699424738183   -0.10755282653596335   0.00651420128430677
-0.39949699424738183   -0.10755282653596335   0.00651420128430677
-0.39949699424738183   -0.10755282653596335   0.00651420128430677
-0.6978285673141785   -0.31168886613215496   -0.060453463394622736
-0.6978285673141785   -0.31168886613215496   -0.060453463394622736
-0.6978285673141785   -0.31168886613215496   -0.060453463394622736
-0.6978285673141785   -0.31168886613215496   -0.060453463394622736
-0.5452405919608211   -0.20720262253592175   -0.031205303173745758
-0.5452405919608211   -0.20720262253592175   -0.031205303173745758
-0.5452405919608211   -0.20720262253592175   -0.031205303173745758
-0.5452405919608211   -0.20720262253592175   -0.031205303173745758
-0.39665068340965204   -0.07155879099022884   -0.004989808424191625
-0.39665068340965204   -0.07155879099022884   -0.004989808424191625
-0.39665068340965204   -0.07155879099022884   -0.004989808424191625
-0.39665068340965204   -0.07155879099022884   -0.004989808424191625
-0.3319888633112705   -0.22195369259810913   -0.0383172410984087
-0.3319888633112705   -0.22195369259810913   -0.0383172410984087
-0.3319888633112705   -0.22195369259810913   -0.0383172410984087
-0.3319888633112705   -0.22195369259810913   -0.0383172410984087
-0.2860684845930071   -0.05927035664825319   0.015333333179916656
-0.2860684845930071   -0.05927035664825319   0.015333333179916656
-0.2860684845930071   -0.05927035664825319   0.015333333179916656
-0.2860684845930071   -0.05927035664825319   0.015333333179916656
-0.43874385319871223   -0.24147295673239605   -0.04238652555413426
-0.43874385319871223   -0.24147295673239605   -0.04238652555413426
-0.43874385319871223   -0.24147295673239605   -0.04238652555413426
-0.43874385319871223   -0.24147295673239605   -0.04238652555413426
-0.36175205444645375   -0.1506658584155338   -0.01769203739812565
-0.36175205444645375   -0.1506658584155338   -0.01769203739812565
-0.36175205444645375   -0.1506658584155338   -0.01769203739812565
-0.36175205444645375   -0.1506658584155338   -0.01769203739812565
-0.3987784634406494   -0.08473793812750942   0.0007054046312931633
-0.3987784634406494   -0.08473793812750942   0.0007054046312931633
-0.3987784634406494   -0.08473793812750942   0.0007054046312931633
-0.3987784634406494   -0.08473793812750942   0.0007054046312931633
-0.32838744841960144   -0.21835894932167393   -0.03717289327963434
-0.32838744841960144   -0.21835894932167393   -0.03717289327963434
-0.32838744841960144   -0.21835894932167393   -0.03717289327963434
-0.32838744841960144   -0.21835894932167393   -0.03717289327963434
-0.28597900576258767   -0.07498600124900859   0.019858500889664704
-0.28597900576258767   -0.07498600124900859   0.019858500889664704
-0.28597900576258767   -0.07498600124900859   0.019858500889664704
-0.28597900576258767   -0.07498600124900859   0.019858500889664704
-0.43993410768257296   -0.24530337868011257   -0.0380098670028748
-0.43993410768257296   -0.24530337868011257   -0.0380098670028748
-0.43993410768257296   -0.24530337868011257   -0.0380098670028748
-0.43993410768257296   -0.24530337868011257   -0.0380098670028748
-0.36094239062146827   -0.15660239854230598   -0.022953845981838264
-0.36094239062146827   -0.15660239854230598   -0.022953845981838264
-0.36094239062146827   -0.15660239854230598   -0.022953845981838264
-0.36094239062146827   -0.15660239854230598   -0.022953845981838264
-0.4019232136159307   -0.10066524838963772   0.007406473039862013
-0.4019232136159307   -0.10066524838963772   0.007406473039862013
-0.4019232136159307   -0.10066524838963772   0.007406473039862013
-0.4019232136159307   -0.10066524838963772   0.007406473039862013
-0.32528142839820656   -0.22091566010846003   -0.030723953428978545
-0.32528142839820656   -0.22091566010846003   -0.030723953428978545
-0.32528142839820656   -0.22091566010846003   -0.030723953428978545
-0.32528142839820656   -0.22091566010846003   -0.030723953428978545
-0.2823950729311479   -0.09001400180716433   0.024780202353079636
-0.2823950729311479   -0.09001400180716433   0.024780202353079636
-0.2823950729311479   -0.09001400180716433   0.024780202353079636
-0.2823950729311479   -0.09001400180716433   0.024780202353079636
-0.4344664834529883   -0.24847307424929505   -0.02741299703039364
-0.4344664834529883   -0.24847307424929505   -0.02741299703039364
-0.4344664834529883   -0.24847307424929505   -0.02741299703039364
-0.4344664834529883   -0.24847307424929505   -0.02741299703039364
-0.35964899961912816   -0.1643926573591647   -0.02657797096889991
-0.35964899961912816   -0.1643926573591647   -0.02657797096889991
-0.35964899961912816   -0.1643926573591647   -0.02657797096889991
-0.35964899961912816   -0.1643926573591647   -0.02657797096889991
-0.27650440970698736   -0.009957404301561543   0.02710873862645903
-0.27650440970698736   -0.009957404301561543   0.02710873862645903
-0.27650440970698736   -0.009957404301561543   0.02710873862645903
-0.27650440970698736   -0.009957404301561543   0.02710873862645903
-0.26071148910119935   -0.1173394594419318   -0.022870243222841508
-0.26071148910119935   -0.1173394594419318   -0.022870243222841508
-0.26071148910119935   -0.1173394594419318   -0.022870243222841508
-0.26071148910119935   -0.1173394594419318   -0.022870243222841508
-0.22461395484331853   -0.017008318321892136   0.031421419525195
-0.22461395484331853   -0.017008318321892136   0.031421419525195
-0.22461395484331853   -0.017008318321892136   0.031421419525195
-0.22461395484331853   -0.017008318321892136   0.031421419525195
-0.3076878826396104   -0.13580642271408153   -0.016227590987271362
-0.3076878826396104   -0.13580642271408153   -0.016227590987271362
-0.3076878826396104   -0.13580642271408153   -0.016227590987271362
-0.3076878826396104   -0.13580642271408153   -0.016227590987271362
-0.26827783036394753   -0.06939307954267522   -0.009587867135461198
-0.26827783036394753   -0.06939307954267522   -0.009587867135461198
-0.26827783036394753   -0.06939307954267522   -0.009587867135461198
-0.26827783036394753   -0.06939307954267522   -0.009587867135461198
-0.27651184126767847   -0.027419117400118206   0.0312653105584246
-0.27651184126767847   -0.027419117400118206   0.0312653105584246
-0.27651184126767847   -0.027419117400118206   0.0312653105584246
-0.27651184126767847   -0.027419117400118206   0.0312653105584246
-0.2582857974169746   -0.12789142483758098   -0.026054686827396638
-0.2582857974169746   -0.12789142483758098   -0.026054686827396638
-0.2582857974169746   -0.12789142483758098   -0.026054686827396638
-0.2582857974169746   -0.12789142483758098   -0.026054686827396638
-0.2247572428614194   -0.0322246463842928   0.033762744650588594
-0.2247572428614194   -0.0322246463842928   0.033762744650588594
-0.2247572428614194   -0.0322246463842928   0.033762744650588594
-0.2247572428614194   -0.0322246463842928   0.033762744650588594
-0.3073911473857658   -0.14407197105558506   -0.01811623741964949
-0.3073911473857658   -0.14407197105558506   -0.01811623741964949
-0.3073911473857658   -0.14407197105558506   -0.01811623741964949
-0.3073911473857658   -0.14407197105558506   -0.01811623741964949
-0.26693504903366094   -0.0816276567723235   -0.016258668478436503
-0.26693504903366094   -0.0816276567723235   -0.016258668478436503
-0.26693504903366094   -0.0816276567723235   -0.016258668478436503
-0.26693504903366094   -0.0816276567723235   -0.016258668478436503
-0.2762715978345183   -0.04216513204402356   0.035574671325033794
-0.2762715978345183   -0.04216513204402356   0.035574671325033794
-0.2762715978345183   -0.04216513204402356   0.035574671325033794
-0.2762715978345183   -0.04216513204402356   0.035574671325033794
-0.25738737552357893   -0.13564206850676513   -0.025970496537736643
-0.25738737552357893   -0.13564206850676513   -0.025970496537736643
-0.25738737552357893   -0.13564206850676513   -0.025970496537736643
-0.25738737552357893   -0.13564206850676513   -0.025970496537736643
-0.22263689204649653   -0.04650689308761654   0.039119933991677944
-0.22263689204649653   -0.04650689308761654   0.039119933991677944
-0.22263689204649653   -0.04650689308761654   0.039119933991677944
-0.22263689204649653   -0.04650689308761654   0.039119933991677944
-0.30230158528724904   -0.15235125704124616   -0.012415104193344378
-0.30230158528724904   -0.15235125704124616   -0.012415104193344378
-0.30230158528724904   -0.15235125704124616   -0.012415104193344378
-0.30230158528724904   -0.15235125704124616   -0.012415104193344378
-0.26592259378295835   -0.09212057120748357   -0.020873809914966783
-0.26592259378295835   -0.09212057120748357   -0.020873809914966783
-0.26592259378295835   -0.09212057120748357   -0.020873809914966783
-0.26592259378295835   -0.09212057120748357   -0.020873809914966783
-0.21813941861052102   0.030443882793737675   0.042206766994880456
-0.21813941861052102   0.030443882793737675   0.042206766994880456
-0.21813941861052102   0.030443882793737675   0.042206766994880456
-0.21813941861052102   0.030443882793737675   0.042206766994880456
-0.1439390751370627   -0.03847694107974296   -0.014016913402866513
-0.1439390751370627   -0.03847694107974296   -0.014016913402866513
-0.1439390751370627   -0.03847694107974296   -0.014016913402866513
-0.1439390751370627   -0.03847694107974296   -0.014016913402866513
-0.1253571372782536   0.03596669478068913   0.04165671989035166
-0.1253571372782536   0.03596669478068913   0.04165671989035166
-0.1253571372782536   0.03596669478068913   0.04165671989035166
-0.1253571372782536   0.03596669478068913   0.04165671989035166
-0.24077892177533816   -0.05916324632292695   -0.007248487133868303
-0.24077892177533816   -0.05916324632292695   -0.007248487133868303
-0.24077892177533816   -0.05916324632292695   -0.007248487133868303
-0.24077892177533816   -0.05916324632292695   -0.007248487133868303
-0.17959575571678002   -0.00374264862842158   -0.0076817192392884814
-0.17959575571678002   -0.00374264862842158   -0.0076817192392884814
-0.17959575571678002   -0.00374264862842158   -0.0076817192392884814
-0.17959575571678002   -0.00374264862842158   -0.0076817192392884814
-0.2144778887716433   0.019024905680230558   0.04606852588144849
-0.2144778887716433   0.019024905680230558   0.04606852588144849
-0.2144778887716433   0.019024905680230558   0.04606852588144849
-0.2144778887716433   0.019024905680230558   0.04606852588144849
-0.15190059599523908   -0.04246388293576155   -0.01262999597814039
-0.15190059599523908   -0.04246388293576155   -0.01262999597814039
-0.15190059599523908   -0.04246388293576155   -0.01262999597814039
-0.15190059599523908   -0.04246388293576155   -0.01262999597814039
-0.13076747593443616   0.028580863598555713   0.05241691534102509
-0.13076747593443616   0.028580863598555713   0.05241691534102509
-0.13076747593443616   0.028580863598555713   0.05241691534102509
-0.13076747593443616   0.028580863598555713   0.05241691534102509
-0.23951884598655315   -0.06295575482131388   -0.009314162538059126
-0.23951884598655315   -0.06295575482131388   -0.009314162538059126
-0.23951884598655315   -0.06295575482131388   -0.009314162538059126
-0.23951884598655315   -0.06295575482131388   -0.009314162538059126
-0.18477009317512963   -0.01181298606918219   -0.010767020503039869
-0.18477009317512963   -0.01181298606918219   -0.010767020503039869
-0.18477009317512963   -0.01181298606918219   -0.010767020503039869
-0.18477009317512963   -0.01181298606918219   -0.010767020503039869
-0.21196105092304882   0.012468814270214922   0.053050243687933776
-0.21196105092304882   0.012468814270214922   0.053050243687933776
-0.21196105092304882   0.012468814270214922   0.053050243687933776
-0.21196105092304882   0.012468814270214922   0.053050243687933776
-0.16021177652317015   -0.04873021101820274   -0.017493512985886417
-0.16021177652317015   -0.04873021101820274   -0.017493512985886417
-0.16021177652317015   -0.04873021101820274   -0.017493512985886417
-0.16021177652317015   -0.04873021101820274   -0.017493512985886417
-0.14967789421932134   0.008278811178449405   0.05454200610737827
-0.14967789421932134   0.008278811178449405   0.05454200610737827
-0.14967789421932134   0.008278811178449405   0.05454200610737827
-0.14967789421932134   0.008278811178449405   0.05454200610737827
-0.23598619880748384   -0.0663097045064255   -0.007823788394449797
-0.23598619880748384   -0.0663097045064255   -0.007823788394449797
-0.23598619880748384   -0.0663097045064255   -0.007823788394449797
-0.23598619880748384   -0.0663097045064255   -0.007823788394449797
-0.18720155098654065   -0.01762526407646901   -0.015811477612192856
-0.18720155098654065   -0.01762526407646901   -0.015811477612192856
-0.18720155098654065   -0.01762526407646901   -0.015811477612192856
-0.18720155098654065   -0.01762526407646901   -0.015811477612192856
-2.258571628282944   -0.3197338839886929   -0.18765405541584762
-2.258571628282944   -0.3197338839886929   -0.18765405541584762
-2.258571628282944   -0.3197338839886929   -0.18765405541584762
-2.258571628282944   -0.3197338839886929   -0.18765405541584762
-0.7834054323149598   -1.2295733402430835   -0.1469426597935884
-0.7834054323149598   -1.2295733402430835   -0.1469426597935884
-0.7834054323149598   -1.2295733402430835   -0.1469426597935884
-0.7834054323149598   -1.2295733402430835   -0.1469426597935884
-0.6058631991548544   -0.05168083816067251   0.0008811467548323071
-0.6058631991548544   -0.05168083816067251   0.0008811467548323071
-0.6058631991548544   -0.05168083816067251   0.0008811467548323071
-0.6058631991548544   -0.05168083816067251   0.0008811467548323071
-2.4107687099651214   -1.4458864907778244   -0.7713310401485892
-2.4107687099651214   -1.4458864907778244   -0.7713310401485892
-2.4107687099651214   -1.4458864907778244   -0.7713310401485892
-2.4107687099651214   -1.4458864907778244   -0.7713310401485892
-1.476808394364138   -0.7193881197009724   -0.10481467046735815
-1.476808394364138   -0.7193881197009724   -0.10481467046735815
-1.476808394364138   -0.7193881197009724   -0.10481467046735815
-1.476808394364138   -0.7193881197009724   -0.10481467046735815
-2.0986165303194615   -0.4014158835701553   -0.2550407491279748
-2.0986165303194615   -0.4014158835701553   -0.2550407491279748
-2.0986165303194615   -0.4014158835701553   -0.2550407491279748
-2.0986165303194615   -0.4014158835701553   -0.2550407491279748
-0.8458766022781373   -1.0240126688459665   -0.2268540381762837
-0.8458766022781373   -1.0240126688459665   -0.2268540381762837
-0.8458766022781373   -1.0240126688459665   -0.2268540381762837
-0.8458766022781373   -1.0240126688459665   -0.2268540381762837
-0.6179732963876704   -0.06897125825092362   0.023274200240979287
-0.6179732963876704   -0.06897125825092362   0.023274200240979287
-0.6179732963876704   -0.06897125825092362   0.023274200240979287
-0.6179732963876704   -0.06897125825092362   0.023274200240979287
-2.2558570838410805   -1.289465907342291   -0.7090645982366743
-2.2558570838410805   -1.289465907342291   -0.7090645982366743
-2.2558570838410805   -1.289465907342291   -0.7090645982366743
-2.2558570838410805   -1.289465907342291   -0.7090645982366743
-1.390905509352101   -0.6485984671743829   0.05637363478064089
-1.390905509352101   -0.6485984671743829   0.05637363478064089
-1.390905509352101   -0.6485984671743829   0.05637363478064089
-1.390905509352101   -0.6485984671743829   0.05637363478064089
-1.9706187240715483   -0.3821857709851326   -0.1901529357461874
-1.9706187240715483   -0.3821857709851326   -0.1901529357461874
-1.9706187240715483   -0.3821857709851326   -0.1901529357461874
-1.9706187240715483   -0.3821857709851326   -0.1901529357461874
-0.8230639663344791   -0.8961037047853601   -0.1750467029586218
-0.8230639663344791   -0.8961037047853601   -0.1750467029586218
-0.8230639663344791   -0.8961037047853601   -0.1750467029586218
-0.8230639663344791   -0.8961037047853601   -0.1750467029586218
-0.7098862291674826   -0.181514896987782   -0.03683020193640857
-0.7098862291674826   -0.181514896987782   -0.03683020193640857
-0.7098862291674826   -0.181514896987782   -0.03683020193640857
-0.7098862291674826   -0.181514896987782   -0.03683020193640857
-2.0560009167044133   -1.0833489969856585   -0.6278699827380143
-2.0560009167044133   -1.0833489969856585   -0.6278699827380143
-2.0560009167044133   -1.0833489969856585   -0.6278699827380143
-2.0560009167044133   -1.0833489969856585   -0.6278699827380143
-1.2883283361260374   -0.5622412192399386   0.2384263606936406
-1.2883283361260374   -0.5622412192399386   0.2384263606936406
-1.2883283361260374   -0.5622412192399386   0.2384263606936406
-1.2883283361260374   -0.5622412192399386   0.2384263606936406
-0.5803773369015582   -0.3147416748394117   -0.046633848130256284
-0.5803773369015582   -0.3147416748394117   -0.046633848130256284
-0.5803773369015582   -0.3147416748394117   -0.046633848130256284
-0.5803773369015582   -0.3147416748394117   -0.046633848130256284
-0.2680053949673909   -0.38740688626528247   -0.0662034059684386
-0.2680053949673909   -0.38740688626528247   -0.0662034059684386
-0.2680053949673909   -0.38740688626528247   -0.0662034059684386
-0.2680053949673909   -0.38740688626528247   -0.0662034059684386
-0.23660761808186948   -0.20095914190057443   0.006143484435598687
-0.23660761808186948   -0.20095914190057443   0.006143484435598687
-0.23660761808186948   -0.20095914190057443   0.006143484435598687
-0.23660761808186948   -0.20095914190057443   0.006143484435598687
-0.7092761148824823   -0.5680517848212494   0.00018751477727396715
-0.7092761148824823   -0.5680517848212494   0.00018751477727396715
-0.7092761148824823   -0.5680517848212494   0.00018751477727396715
-0.7092761148824823   -0.5680517848212494   0.00018751477727396715
-0.38112901427312385   -0.2755828612476257   0.12199562453640142
-0.38112901427312385   -0.2755828612476257   0.12199562453640142
-0.38112901427312385   -0.2755828612476257   0.12199562453640142
-0.38112901427312385   -0.2755828612476257   0.12199562453640142
-0.6602822909714904   -0.29291816955285244   -0.029976980936170433
-0.6602822909714904   -0.29291816955285244   -0.029976980936170433
-0.6602822909714904   -0.29291816955285244   -0.029976980936170433
-0.6602822909714904   -0.29291816955285244   -0.029976980936170433
-0.3055831135882352   -0.49607442876434577   -0.04361870623245476
-0.3055831135882352   -0.49607442876434577   -0.04361870623245476
-0.3055831135882352   -0.49607442876434577   -0.04361870623245476
-0.3055831135882352   -0.49607442876434577   -0.04361870623245476
-0.2554529478383558   -0.20826703379777692   0.006293633942436011
-0.2554529478383558   -0.20826703379777692   0.006293633942436011
-0.2554529478383558   -0.20826703379777692   0.006293633942436011
-0.2554529478383558   -0.20826703379777692   0.006293633942436011
-0.743710420581341   -0.5606370090921331   -0.11374566988615775
-0.743710420581341   -0.5606370090921331   -0.11374566988615775
-0.743710420581341   -0.5606370090921331   -0.11374566988615775
-0.743710420581341   -0.5606370090921331   -0.11374566988615775
-0.4542557600876996   -0.35364202054584065   0.05579143464216943
-0.4542557600876996   -0.35364202054584065   0.05579143464216943
-0.4542557600876996   -0.35364202054584065   0.05579143464216943
-0.4542557600876996   -0.35364202054584065   0.05579143464216943
-0.6812001907962981   -0.3058679293237231   -0.0559636007293603
-0.6812001907962981   -0.3058679293237231   -0.0559636007293603
-0.6812001907962981   -0.3058679293237231   -0.0559636007293603
-0.6812001907962981   -0.3058679293237231   -0.0559636007293603
-0.31609377064277416   -0.46116670658556225   -0.044010807291870305
-0.31609377064277416   -0.46116670658556225   -0.044010807291870305
-0.31609377064277416   -0.46116670658556225   -0.044010807291870305
-0.31609377064277416   -0.46116670658556225   -0.044010807291870305
-0.2844804133835499   -0.21507580864628698   0.00926367010409597
-0.2844804133835499   -0.21507580864628698   0.00926367010409597
-0.2844804133835499   -0.21507580864628698   0.00926367010409597
-0.2844804133835499   -0.21507580864628698   0.00926367010409597
-0.7949741043922108   -0.5446470711956151   -0.09913740385221914
-0.7949741043922108   -0.5446470711956151   -0.09913740385221914
-0.7949741043922108   -0.5446470711956151   -0.09913740385221914
-0.7949741043922108   -0.5446470711956151   -0.09913740385221914
-0.47514581348410606   -0.33328334808191035   0.05905009102079509
-0.47514581348410606   -0.33328334808191035   0.05905009102079509
-0.47514581348410606   -0.33328334808191035   0.05905009102079509
-0.47514581348410606   -0.33328334808191035   0.05905009102079509
-0.21204693926852008   -0.18755455193145895   0.013736538192091821
-0.21204693926852008   -0.18755455193145895   0.013736538192091821
-0.21204693926852008   -0.18755455193145895   0.013736538192091821
-0.21204693926852008   -0.18755455193145895   0.013736538192091821
-0.12923154990309596   -0.12021339885752944   -0.0322883802890451
-0.12923154990309596   -0.12021339885752944   -0.0322883802890451
-0.12923154990309596   -0.12021339885752944   -0.0322883802890451
-0.12923154990309596   -0.12021339885752944   -0.0322883802890451
-0.12543162754648418   -0.16755855997530322   0.013873232579109732
-0.12543162754648418   -0.16755855997530322   0.013873232579109732
-0.12543162754648418   -0.16755855997530322   0.013873232579109732
-0.12543162754648418   -0.16755855997530322   0.013873232579109732
-0.23369743964435763   -0.16533693968886448   -0.014927825588548174
-0.23369743964435763   -0.16533693968886448   -0.014927825588548174
-0.23369743964435763   -0.16533693968886448   -0.014927825588548174
-0.23369743964435763   -0.16533693968886448   -0.014927825588548174
-0.14791540853003599   -0.13514585347487745   0.0611493504296067
-0.14791540853003599   -0.13514585347487745   0.0611493504296067
-0.14791540853003599   -0.13514585347487745   0.0611493504296067
-0.14791540853003599   -0.13514585347487745   0.0611493504296067
-0.23244088807435004   -0.1887762167351425   0.014794209307763886
-0.23244088807435004   -0.1887762167351425   0.014794209307763886
-0.23244088807435004   -0.1887762167351425   0.014794209307763886
-0.23244088807435004   -0.1887762167351425   0.014794209307763886
-0.12869141680971818   -0.1461225206222497   -0.023861753090113784
-0.12869141680971818   -0.1461225206222497   -0.023861753090113784
-0.12869141680971818   -0.1461225206222497   -0.023861753090113784
-0.12869141680971818   -0.1461225206222497   -0.023861753090113784
-0.12671372195227204   -0.17259437474775588   0.012314766928615287
-0.12671372195227204   -0.17259437474775588   0.012314766928615287
-0.12671372195227204   -0.17259437474775588   0.012314766928615287
-0.12671372195227204   -0.17259437474775588   0.012314766928615287
-0.24795821537976567   -0.19301741393708208   0.028517676374691964
-0.24795821537976567   -0.19301741393708208   0.028517676374691964
-0.24795821537976567   -0.19301741393708208   0.028517676374691964
-0.24795821537976567   -0.19301741393708208   0.028517676374691964
-0.16063081112612815   -0.15054465706249792   0.051920681345053635
-0.16063081112612815   -0.15054465706249792   0.051920681345053635
-0.16063081112612815   -0.15054465706249792   0.051920681345053635
-0.16063081112612815   -0.15054465706249792   0.051920681345053635
-0.2502146501950311   -0.19576158009147845   0.019979668452761445
-0.2502146501950311   -0.19576158009147845   0.019979668452761445
-0.2502146501950311   -0.19576158009147845   0.019979668452761445
-0.2502146501950311   -0.19576158009147845   0.019979668452761445
-0.13517006844995377   -0.1805629899063066   -0.021998350401242546
-0.13517006844995377   -0.1805629899063066   -0.021998350401242546
-0.13517006844995377   -0.1805629899063066   -0.021998350401242546
-0.13517006844995377   -0.1805629899063066   -0.021998350401242546
-0.1279308334275727   -0.17822654720912873   0.01728398814501461
-0.1279308334275727   -0.17822654720912873   0.01728398814501461
-0.1279308334275727   -0.17822654720912873   0.01728398814501461
-0.1279308334275727   -0.17822654720912873   0.01728398814501461
-0.2896787436405511   -0.23775777437740314   0.005953984550206237
-0.2896787436405511   -0.23775777437740314   0.005953984550206237
-0.2896787436405511   -0.23775777437740314   0.005953984550206237
-0.2896787436405511   -0.23775777437740314   0.005953984550206237
-0.17913920489695256   -0.17172670489300632   0.02469958666148249
-0.17913920489695256   -0.17172670489300632   0.02469958666148249
-0.17913920489695256   -0.17172670489300632   0.02469958666148249
-0.17913920489695256   -0.17172670489300632   0.02469958666148249
-0.10641017199688352   -0.07465343774966901   0.036258548134156715
-0.10641017199688352   -0.07465343774966901   0.036258548134156715
-0.10641017199688352   -0.07465343774966901   0.036258548134156715
-0.10641017199688352   -0.07465343774966901   0.036258548134156715
-0.07424280663327927   0.0007181701115626742   -0.007225516159159557
-0.07424280663327927   0.0007181701115626742   -0.007225516159159557
-0.07424280663327927   0.0007181701115626742   -0.007225516159159557
-0.07424280663327927   0.0007181701115626742   -0.007225516159159557
-0.07048397433670306   -0.08061613805454011   0.02251992400753608
-0.07048397433670306   -0.08061613805454011   0.02251992400753608
-0.07048397433670306   -0.08061613805454011   0.02251992400753608
-0.07048397433670306   -0.08061613805454011   0.02251992400753608
-0.09831938999744486   -0.013384059262156517   -0.004740080388840336
-0.09831938999744486   -0.013384059262156517   -0.004740080388840336
-0.09831938999744486   -0.013384059262156517   -0.004740080388840336
-0.09831938999744486   -0.013384059262156517   -0.004740080388840336
-0.08080184546857838   -0.04047504916880362   0.01798726980125645
-0.08080184546857838   -0.04047504916880362   0.01798726980125645
-0.08080184546857838   -0.04047504916880362   0.01798726980125645
-0.08080184546857838   -0.04047504916880362   0.01798726980125645
-0.10489588610807397   -0.08516985770929038   0.034163237505148006
-0.10489588610807397   -0.08516985770929038   0.034163237505148006
-0.10489588610807397   -0.08516985770929038   0.034163237505148006
-0.10489588610807397   -0.08516985770929038   0.034163237505148006
-0.06203916532968929   -0.006962026711020309   -0.008910142300914869
-0.06203916532968929   -0.006962026711020309   -0.008910142300914869
-0.06203916532968929   -0.006962026711020309   -0.008910142300914869
-0.06203916532968929   -0.006962026711020309   -0.008910142300914869
-0.06446873237454498   -0.08771545660384368   0.020743919827836653
-0.06446873237454498   -0.08771545660384368   0.020743919827836653
-0.06446873237454498   -0.08771545660384368   0.020743919827836653
-0.06446873237454498   -0.08771545660384368   0.020743919827836653
-0.09888156595191382   -0.027036290852705425   0.005917463035355987
-0.09888156595191382   -0.027036290852705425   0.005917463035355987
-0.09888156595191382   -0.027036290852705425   0.005917463035355987
-0.09888156595191382   -0.027036290852705425   0.005917463035355987
-0.07398225879396456   -0.046361890379984935   0.021536782107434496
-0.07398225879396456   -0.046361890379984935   0.021536782107434496
-0.07398225879396456   -0.046361890379984935   0.021536782107434496
-0.07398225879396456   -0.046361890379984935   0.021536782107434496
-0.10530173093775634   -0.09222897569280475   0.03900932294624268
-0.10530173093775634   -0.09222897569280475   0.03900932294624268
-0.10530173093775634   -0.09222897569280475   0.03900932294624268
-0.10530173093775634   -0.09222897569280475   0.03900932294624268
-0.058579275640778854   -0.023053480015820752   -0.014470773091355643
-0.058579275640778854   -0.023053480015820752   -0.014470773091355643
-0.058579275640778854   -0.023053480015820752   -0.014470773091355643
-0.058579275640778854   -0.023053480015820752   -0.014470773091355643
-0.053676245898066466   -0.09558660386145519   0.022782822316427837
-0.053676245898066466   -0.09558660386145519   0.022782822316427837
-0.053676245898066466   -0.09558660386145519   0.022782822316427837
-0.053676245898066466   -0.09558660386145519   0.022782822316427837
-0.10629254221520175   -0.06053404652435712   0.007782943522097734
-0.10629254221520175   -0.06053404652435712   0.007782943522097734
-0.10629254221520175   -0.06053404652435712   0.007782943522097734
-0.10629254221520175   -0.06053404652435712   0.007782943522097734
-0.07096989209224011   -0.05857245440221925   0.01874186778959498
-0.07096989209224011   -0.05857245440221925   0.01874186778959498
-0.07096989209224011   -0.05857245440221925   0.01874186778959498
-0.07096989209224011   -0.05857245440221925   0.01874186778959498
-0.06830865182805847   -0.013262323451388204   0.036425751429895376
-0.06830865182805847   -0.013262323451388204   0.036425751429895376
-0.06830865182805847   -0.013262323451388204   0.036425751429895376
-0.06830865182805847   -0.013262323451388204   0.036425751429895376
-0.011693417145726862   0.008118530735209238   -0.0007352769507985881
-0.011693417145726862   0.008118530735209238   -0.0007352769507985881
-0.011693417145726862   0.008118530735209238   -0.0007352769507985881
-0.011693417145726862   0.008118530735209238   -0.0007352769507985881
0.004327334734959717   -0.004193693996454595   0.02249301798819564
0.004327334734959717   -0.004193693996454595   0.02249301798819564
0.004327334734959717   -0.004193693996454595   0.02249301798819564
0.004327334734959717   -0.004193693996454595   0.02249301798819564
-0.05821404401023035   0.00618069603518487   -0.0029272584498253335
-0.05821404401023035   0.00618069603518487   -0.0029272584498253335
-0.05821404401023035   0.00618069603518487   -0.0029272584498253335
-0.05821404401023035   0.00618069603518487   -0.0029272584498253335
-0.03405595419847614   -0.0025271246765905565   -0.0028557651930212176
-0.03405595419847614   -0.0025271246765905565   -0.0028557651930212176
-0.03405595419847614   -0.0025271246765905565   -0.0028557651930212176
-0.03405595419847614   -0.0025271246765905565   -0.0028557651930212176
-0.05384331472966117   -0.01275417557448068   0.03786125956268611
-0.05384331472966117   -0.01275417557448068   0.03786125956268611
-0.05384331472966117   -0.01275417557448068   0.03786125956268611
-0.05384331472966117   -0.01275417557448068   0.03786125956268611
0.0020042162672786637   0.01678878842609652   -0.01010505677277608
0.0020042162672786637   0.01678878842609652   -0.01010505677277608
0.0020042162672786637   0.01678878842609652   -0.01010505677277608
0.0020042162672786637   0.01678878842609652   -0.01010505677277608
0.012498139475054008   -0.005146895500798454   0.02771314860291085
0.012498139475054008   -0.005146895500798454   0.02771314860291085
0.012498139475054008   -0.005146895500798454   0.02771314860291085
0.012498139475054008   -0.005146895500798454   0.02771314860291085
-0.050966024860193214   0.004870924717136145   -0.0043289239213843604
-0.050966024860193214   0.004870924717136145   -0.0043289239213843604
-0.050966024860193214   0.004870924717136145   -0.0043289239213843604
-0.050966024860193214   0.004870924717136145   -0.0043289239213843604
-0.02209764659039409   -0.0005099120931801645   0.0036250383084696627
-0.02209764659039409   -0.0005099120931801645   0.0036250383084696627
-0.02209764659039409   -0.0005099120931801645   0.0036250383084696627
-0.02209764659039409   -0.0005099120931801645   0.0036250383084696627
-0.0457920724792871   -0.014221012560160309   0.040632775260442684
-0.0457920724792871   -0.014221012560160309   0.040632775260442684
-0.0457920724792871   -0.014221012560160309   0.040632775260442684
-0.0457920724792871   -0.014221012560160309   0.040632775260442684
0.009180904202107489   0.015801758884457597   -0.009821682147077801
0.009180904202107489   0.015801758884457597   -0.009821682147077801
0.009180904202107489   0.015801758884457597   -0.009821682147077801
0.009180904202107489   0.015801758884457597   -0.009821682147077801
0.020914221120085286   -0.007988871971606453   0.026879954352083932
0.020914221120085286   -0.007988871971606453   0.026879954352083932
0.020914221120085286   -0.007988871971606453   0.026879954352083932
0.020914221120085286   -0.007988871971606453   0.026879954352083932
-0.03906234676663043   0.005185337854595544   -0.004919623742442699
-0.03906234676663043   0.005185337854595544   -0.004919623742442699
-0.03906234676663043   0.005185337854595544   -0.004919623742442699
-0.03906234676663043   0.005185337854595544   -0.004919623742442699
-0.011388003339313064   0.0007913978667154604   0.009369319744992272
-0.011388003339313064   0.0007913978667154604   0.009369319744992272
-0.011388003339313064   0.0007913978667154604   0.009369319744992272
-0.011388003339313064   0.0007913978667154604   0.009369319744992272
              </DataArray>   
             <DataArray type="Float64" NumberOfComponents="3" Name="Displacements" format="ascii">   
0.0   0.0   0.0
-0.006283313862669019   -0.004119436492683157   -0.002104658905569917
0.0   0.0   0.0
0.0   0.0   0.0
-0.006283313862669019   -0.004119436492683157   -0.002104658905569917
-0.003998621041038968   -0.0037014506658946673   -0.0015462695827691648
0.0   0.0   0.0
-0.003919847921212263   -0.0038873672626571106   -0.0012953571749367626
0.0   0.0   0.0
0.0   0.0   0.0
-0.003919847921212263   -0.0038873672626571106   -0.0012953571749367626
0.0   0.0   0.0
0.0   0.0   0.0
-0.003919847921212263   -0.0038873672626571106   -0.0012953571749367626
-0.006576164546350583   -0.00438880769512682   -0.0016896178275339815
-0.006283313862669019   -0.004119436492683157   -0.002104658905569917
0.0   0.0   0.0
-0.003919847921212263   -0.0038873672626571106   -0.0012953571749367626
-0.006283313862669019   -0.004119436492683157   -0.002104658905569917
0.0   0.0   0.0
0.0   0.0   0.0
-0.006576164546350583   -0.00438880769512682   -0.0016896178275339815
0.0   0.0   0.0
0.0   0.0   0.0
-0.006576164546350583   -0.00438880769512682   -0.0016896178275339815
-0.003919847921212263   -0.0038873672626571106   -0.0012953571749367626
0.0   0.0   0.0
-0.003931234190646616   -0.003982605609615298   -0.0010447683963699407
0.0   0.0   0.0
0.0   0.0   0.0
-0.003931234190646616   -0.003982605609615298   -0.0010447683963699407
0.0   0.0   0.0
0.0   0.0   0.0
-0.003931234190646616   -0.003982605609615298   -0.0010447683963699407
-0.006781982945178699   -0.004519778807406857   -0.0012918721919029327
-0.006576164546350583   -0.00438880769512682   -0.0016896178275339815
0.0   0.0   0.0
-0.003931234190646616   -0.003982605609615298   -0.0010447683963699407
-0.006576164546350583   -0.00438880769512682   -0.0016896178275339815
0.0   0.0   0.0
0.0   0.0   0.0
-0.006781982945178699   -0.004519778807406857   -0.0012918721919029327
0.0   0.0   0.0
0.0   0.0   0.0
-0.006781982945178699   -0.004519778807406857   -0.0012918721919029327
-0.003931234190646616   -0.003982605609615298   -0.0010447683963699407
0.0   0.0   0.0
-0.00392954165819545   -0.0040070257758443514   -0.0007856091420165065
0.0   0.0   0.0
0.0   0.0   0.0
-0.00392954165819545   -0.0040070257758443514   -0.0007856091420165065
0.0   0.0   0.0
0.0   0.0   0.0
-0.00392954165819545   -0.0040070257758443514   -0.0007856091420165065
-0.007225043396320609   -0.004618836715819921   -0.000830383987892581
-0.006781982945178699   -0.004519778807406857   -0.0012918721919029327
0.0   0.0   0.0
-0.00392954165819545   -0.0040070257758443514   -0.0007856091420165065
-0.006781982945178699   -0.004519778807406857   -0.0012918721919029327
0.0   0.0   0.0
0.0   0.0   0.0
-0.003998621041038968   -0.0037014506658946673   -0.0015462695827691648
0.0   0.0   0.0
0.0   0.0   0.0
-0.003998621041038968   -0.0037014506658946673   -0.0015462695827691648
-0.0018206101683570452   -0.0035480836406448293   -0.0011759822786904987
0.0   0.0   0.0
-0.001751360297914533   -0.0036691332569497538   -0.0010575689211671229
0.0   0.0   0.0
0.0   0.0   0.0
-0.001751360297914533   -0.0036691332569497538   -0.0010575689211671229
0.0   0.0   0.0
0.0   0.0   0.0
-0.001751360297914533   -0.0036691332569497538   -0.0010575689211671229
-0.003919847921212263   -0.0038873672626571106   -0.0012953571749367626
-0.003998621041038968   -0.0037014506658946673   -0.0015462695827691648
0.0   0.0   0.0
-0.001751360297914533   -0.0036691332569497538   -0.0010575689211671229
-0.003998621041038968   -0.0037014506658946673   -0.0015462695827691648
0.0   0.0   0.0
0.0   0.0   0.0
-0.003919847921212263   -0.0038873672626571106   -0.0012953571749367626
0.0   0.0   0.0
0.0   0.0   0.0
-0.003919847921212263   -0.0038873672626571106   -0.0012953571749367626
-0.001751360297914533   -0.0036691332569497538   -0.0010575689211671229
0.0   0.0   0.0
-0.0017126029901399294   -0.003715259354468516   -0.0009422106242231705
0.0   0.0   0.0
0.0   0.0   0.0
-0.0017126029901399294   -0.003715259354468516   -0.0009422106242231705
0.0   0.0   0.0
0.0   0.0   0.0
-0.0017126029901399294   -0.003715259354468516   -0.0009422106242231705
-0.003931234190646616   -0.003982605609615298   -0.0010447683963699407
-0.003919847921212263   -0.0038873672626571106   -0.0012953571749367626
0.0   0.0   0.0
-0.0017126029901399294   -0.003715259354468516   -0.0009422106242231705
-0.003919847921212263   -0.0038873672626571106   -0.0012953571749367626
0.0   0.0   0.0
0.0   0.0   0.0
-0.003931234190646616   -0.003982605609615298   -0.0010447683963699407
0.0   0.0   0.0
0.0   0.0   0.0
-0.003931234190646616   -0.003982605609615298   -0.0010447683963699407
-0.0017126029901399294   -0.003715259354468516   -0.0009422106242231705
0.0   0.0   0.0
-0.0016773662048459208   -0.0036959843996205327   -0.000822912236739275
0.0   0.0   0.0
0.0   0.0   0.0
-0.0016773662048459208   -0.0036959843996205327   -0.000822912236739275
0.0   0.0   0.0
0.0   0.0   0.0
-0.0016773662048459208   -0.0036959843996205327   -0.000822912236739275
-0.00392954165819545   -0.0040070257758443514   -0.0007856091420165065
-0.003931234190646616   -0.003982605609615298   -0.0010447683963699407
0.0   0.0   0.0
-0.0016773662048459208   -0.0036959843996205327   -0.000822912236739275
-0.003931234190646616   -0.003982605609615298   -0.0010447683963699407
0.0   0.0   0.0
0.0   0.0   0.0
-0.0018206101683570452   -0.0035480836406448293   -0.0011759822786904987
0.0   0.0   0.0
0.0   0.0   0.0
-0.0018206101683570452   -0.0035480836406448293   -0.0011759822786904987
0.0002374843549972454   -0.003567682339640062   -0.0009399425342335445
0.0   0.0   0.0
0.00028153271579636286   -0.003630465370020575   -0.0009564229580366596
0.0   0.0   0.0
0.0   0.0   0.0
0.00028153271579636286   -0.003630465370020575   -0.0009564229580366596
0.0   0.0   0.0
0.0   0.0   0.0
0.00028153271579636286   -0.003630465370020575   -0.0009564229580366596
-0.001751360297914533   -0.0036691332569497538   -0.0010575689211671229
-0.0018206101683570452   -0.0035480836406448293   -0.0011759822786904987
0.0   0.0   0.0
0.00028153271579636286   -0.003630465370020575   -0.0009564229580366596
-0.0018206101683570452   -0.0035480836406448293   -0.0011759822786904987
0.0   0.0   0.0
0.0   0.0   0.0
-0.001751360297914533   -0.0036691332569497538   -0.0010575689211671229
0.0   0.0   0.0
0.0   0.0   0.0
-0.001751360297914533   -0.0036691332569497538   -0.0010575689211671229
0.00028153271579636286   -0.003630465370020575   -0.0009564229580366596
0.0   0.0   0.0
0.00031625464464313106   -0.0036252969067417772   -0.0009712774981966958
0.0   0.0   0.0
0.0   0.0   0.0
0.00031625464464313106   -0.0036252969067417772   -0.0009712774981966958
0.0   0.0   0.0
0.0   0.0   0.0
0.00031625464464313106   -0.0036252969067417772   -0.0009712774981966958
-0.0017126029901399294   -0.003715259354468516   -0.0009422106242231705
-0.001751360297914533   -0.0036691332569497538   -0.0010575689211671229
0.0   0.0   0.0
0.00031625464464313106   -0.0036252969067417772   -0.0009712774981966958
-0.001751360297914533   -0.0036691332569497538   -0.0010575689211671229
0.0   0.0   0.0
0.0   0.0   0.0
-0.0017126029901399294   -0.003715259354468516   -0.0009422106242231705
0.0   0.0   0.0
0.0   0.0   0.0
-0.0017126029901399294   -0.003715259354468516   -0.0009422106242231705
0.00031625464464313106   -0.0036252969067417772   -0.0009712774981966958
0.0   0.0   0.0
0.0003630832439904735   -0.0035465979479011715   -0.0009865057932116823
0.0   0.0   0.0
0.0   0.0   0.0
0.0003630832439904735   -0.0035465979479011715   -0.0009865057932116823
0.0   0.0   0.0
0.0   0.0   0.0
0.0003630832439904735   -0.0035465979479011715   -0.0009865057932116823
-0.0016773662048459208   -0.0036959843996205327   -0.000822912236739275
-0.0017126029901399294   -0.003715259354468516   -0.0009422106242231705
0.0   0.0   0.0
0.0003630832439904735   -0.0035465979479011715   -0.0009865057932116823
-0.0017126029901399294   -0.003715259354468516   -0.0009422106242231705
0.0   0.0   0.0
0.0   0.0   0.0
0.0002374843549972454   -0.003567682339640062   -0.0009399425342335445
0.0   0.0   0.0
0.0   0.0   0.0
0.0002374843549972454   -0.003567682339640062   -0.0009399425342335445
0.002471232698488505   -0.0037415915038025516   -0.0008231076275051077
0.0   0.0   0.0
0.002475172640719246   -0.0037616259478494784   -0.0009815234977756636
0.0   0.0   0.0
0.0   0.0   0.0
0.002475172640719246   -0.0037616259478494784   -0.0009815234977756636
0.0   0.0   0.0
0.0   0.0   0.0
0.002475172640719246   -0.0037616259478494784   -0.0009815234977756636
0.00028153271579636286   -0.003630465370020575   -0.0009564229580366596
0.0002374843549972454   -0.003567682339640062   -0.0009399425342335445
0.0   0.0   0.0
0.002475172640719246   -0.0037616259478494784   -0.0009815234977756636
0.0002374843549972454   -0.003567682339640062   -0.0009399425342335445
0.0   0.0   0.0
0.0   0.0   0.0
0.00028153271579636286   -0.003630465370020575   -0.0009564229580366596
0.0   0.0   0.0
0.0   0.0   0.0
0.00028153271579636286   -0.003630465370020575   -0.0009564229580366596
0.002475172640719246   -0.0037616259478494784   -0.0009815234977756636
0.0   0.0   0.0
0.002464180306374323   -0.003707908094729905   -0.0011334550364600641
0.0   0.0   0.0
0.0   0.0   0.0
0.002464180306374323   -0.003707908094729905   -0.0011334550364600641
0.0   0.0   0.0
0.0   0.0   0.0
0.002464180306374323   -0.003707908094729905   -0.0011334550364600641
0.00031625464464313106   -0.0036252969067417772   -0.0009712774981966958
0.00028153271579636286   -0.003630465370020575   -0.0009564229580366596
0.0   0.0   0.0
0.002464180306374323   -0.003707908094729905   -0.0011334550364600641
0.00028153271579636286   -0.003630465370020575   -0.0009564229580366596
0.0   0.0   0.0
0.0   0.0   0.0
0.00031625464464313106   -0.0036252969067417772   -0.0009712774981966958
0.0   0.0   0.0
0.0   0.0   0.0
0.00031625464464313106   -0.0036252969067417772   -0.0009712774981966958
0.002464180306374323   -0.003707908094729905   -0.0011334550364600641
0.0   0.0   0.0
0.002511527856815884   -0.003563955280620201   -0.0012824619227766985
0.0   0.0   0.0
0.0   0.0   0.0
0.002511527856815884   -0.003563955280620201   -0.0012824619227766985
0.0   0.0   0.0
0.0   0.0   0.0
0.002511527856815884   -0.003563955280620201   -0.0012824619227766985
0.0003630832439904735   -0.0035465979479011715   -0.0009865057932116823
0.00031625464464313106   -0.0036252969067417772   -0.0009712774981966958
0.0   0.0   0.0
0.002511527856815884   -0.003563955280620201   -0.0012824619227766985
0.00031625464464313106   -0.0036252969067417772   -0.0009712774981966958
0.0   0.0   0.0
0.0   0.0   0.0
0.002471232698488505   -0.0037415915038025516   -0.0008231076275051077
0.0   0.0   0.0
0.0   0.0   0.0
0.002471232698488505   -0.0037415915038025516   -0.0008231076275051077
0.005576758508883189   -0.004182267046973467   -0.0007763962944613349
0.0   0.0   0.0
0.005236886073537561   -0.004136714689428383   -0.0011354401688838118
0.0   0.0   0.0
0.0   0.0   0.0
0.005236886073537561   -0.004136714689428383   -0.0011354401688838118
0.0   0.0   0.0
0.0   0.0   0.0
0.005236886073537561   -0.004136714689428383   -0.0011354401688838118
0.002475172640719246   -0.0037616259478494784   -0.0009815234977756636
0.002471232698488505   -0.0037415915038025516   -0.0008231076275051077
0.0   0.0   0.0
0.005236886073537561   -0.004136714689428383   -0.0011354401688838118
0.002471232698488505   -0.0037415915038025516   -0.0008231076275051077
0.0   0.0   0.0
0.0   0.0   0.0
0.002475172640719246   -0.0037616259478494784   -0.0009815234977756636
0.0   0.0   0.0
0.0   0.0   0.0
0.002475172640719246   -0.0037616259478494784   -0.0009815234977756636
0.005236886073537561   -0.004136714689428383   -0.0011354401688838118
0.0   0.0   0.0
0.005079980454315221   -0.004050705835234223   -0.0014390263842116375
0.0   0.0   0.0
0.0   0.0   0.0
0.005079980454315221   -0.004050705835234223   -0.0014390263842116375
0.0   0.0   0.0
0.0   0.0   0.0
0.005079980454315221   -0.004050705835234223   -0.0014390263842116375
0.002464180306374323   -0.003707908094729905   -0.0011334550364600641
0.002475172640719246   -0.0037616259478494784   -0.0009815234977756636
0.0   0.0   0.0
0.005079980454315221   -0.004050705835234223   -0.0014390263842116375
0.002475172640719246   -0.0037616259478494784   -0.0009815234977756636
0.0   0.0   0.0
0.0   0.0   0.0
0.002464180306374323   -0.003707908094729905   -0.0011334550364600641
0.0   0.0   0.0
0.0   0.0   0.0
0.002464180306374323   -0.003707908094729905   -0.0011334550364600641
0.005079980454315221   -0.004050705835234223   -0.0014390263842116375
0.0   0.0   0.0
0.0048466657783380615   -0.003830555176942029   -0.0017602173512787623
0.0   0.0   0.0
0.0   0.0   0.0
0.0048466657783380615   -0.003830555176942029   -0.0017602173512787623
0.0   0.0   0.0
0.0   0.0   0.0
0.0048466657783380615   -0.003830555176942029   -0.0017602173512787623
0.002511527856815884   -0.003563955280620201   -0.0012824619227766985
0.002464180306374323   -0.003707908094729905   -0.0011334550364600641
0.0   0.0   0.0
0.0048466657783380615   -0.003830555176942029   -0.0017602173512787623
0.002464180306374323   -0.003707908094729905   -0.0011334550364600641
0.0   0.0   0.0
-0.006283313862669019   -0.004119436492683157   -0.002104658905569917
-0.011738174951866484   -0.011503482726857554   -0.0028354177589976232
-0.003998621041038968   -0.0037014506658946673   -0.0015462695827691648
-0.006576164546350583   -0.00438880769512682   -0.0016896178275339815
-0.011738174951866484   -0.011503482726857554   -0.0028354177589976232
-0.007492127915141154   -0.011127479239735788   -0.0023336471756329963
-0.003998621041038968   -0.0037014506658946673   -0.0015462695827691648
-0.007501444880027918   -0.011317743860466732   -0.0021015185417737063
-0.006576164546350583   -0.00438880769512682   -0.0016896178275339815
-0.003919847921212263   -0.0038873672626571106   -0.0012953571749367626
-0.007501444880027918   -0.011317743860466732   -0.0021015185417737063
-0.003998621041038968   -0.0037014506658946673   -0.0015462695827691648
-0.006576164546350583   -0.00438880769512682   -0.0016896178275339815
-0.007501444880027918   -0.011317743860466732   -0.0021015185417737063
-0.0120904771282652   -0.011768927961811572   -0.002458408196649155
-0.011738174951866484   -0.011503482726857554   -0.0028354177589976232
-0.006576164546350583   -0.00438880769512682   -0.0016896178275339815
-0.007501444880027918   -0.011317743860466732   -0.0021015185417737063
-0.011738174951866484   -0.011503482726857554   -0.0028354177589976232
-0.003998621041038968   -0.0037014506658946673   -0.0015462695827691648
-0.006576164546350583   -0.00438880769512682   -0.0016896178275339815
-0.0120904771282652   -0.011768927961811572   -0.002458408196649155
-0.003919847921212263   -0.0038873672626571106   -0.0012953571749367626
-0.006781982945178699   -0.004519778807406857   -0.0012918721919029327
-0.0120904771282652   -0.011768927961811572   -0.002458408196649155
-0.007501444880027918   -0.011317743860466732   -0.0021015185417737063
-0.003919847921212263   -0.0038873672626571106   -0.0012953571749367626
-0.007531488929063477   -0.011433688536513918   -0.0018784223020597152
-0.006781982945178699   -0.004519778807406857   -0.0012918721919029327
-0.003931234190646616   -0.003982605609615298   -0.0010447683963699407
-0.007531488929063477   -0.011433688536513918   -0.0018784223020597152
-0.003919847921212263   -0.0038873672626571106   -0.0012953571749367626
-0.006781982945178699   -0.004519778807406857   -0.0012918721919029327
-0.007531488929063477   -0.011433688536513918   -0.0018784223020597152
-0.012335450401938421   -0.01191879962859134   -0.0020892098216203376
-0.0120904771282652   -0.011768927961811572   -0.002458408196649155
-0.006781982945178699   -0.004519778807406857   -0.0012918721919029327
-0.007531488929063477   -0.011433688536513918   -0.0018784223020597152
-0.0120904771282652   -0.011768927961811572   -0.002458408196649155
-0.003919847921212263   -0.0038873672626571106   -0.0012953571749367626
-0.006781982945178699   -0.004519778807406857   -0.0012918721919029327
-0.012335450401938421   -0.01191879962859134   -0.0020892098216203376
-0.003931234190646616   -0.003982605609615298   -0.0010447683963699407
-0.007225043396320609   -0.004618836715819921   -0.000830383987892581
-0.012335450401938421   -0.01191879962859134   -0.0020892098216203376
-0.007531488929063477   -0.011433688536513918   -0.0018784223020597152
-0.003931234190646616   -0.003982605609615298   -0.0010447683963699407
-0.007509569581949747   -0.011493786076911093   -0.0016695665301953984
-0.007225043396320609   -0.004618836715819921   -0.000830383987892581
-0.00392954165819545   -0.0040070257758443514   -0.0007856091420165065
-0.007509569581949747   -0.011493786076911093   -0.0016695665301953984
-0.003931234190646616   -0.003982605609615298   -0.0010447683963699407
-0.007225043396320609   -0.004618836715819921   -0.000830383987892581
-0.007509569581949747   -0.011493786076911093   -0.0016695665301953984
-0.012625020389783045   -0.012005818285154509   -0.0017532411588704277
-0.012335450401938421   -0.01191879962859134   -0.0020892098216203376
-0.007225043396320609   -0.004618836715819921   -0.000830383987892581
-0.007509569581949747   -0.011493786076911093   -0.0016695665301953984
-0.012335450401938421   -0.01191879962859134   -0.0020892098216203376
-0.003931234190646616   -0.003982605609615298   -0.0010447683963699407
-0.003998621041038968   -0.0037014506658946673   -0.0015462695827691648
-0.007492127915141154   -0.011127479239735788   -0.0023336471756329963
-0.0018206101683570452   -0.0035480836406448293   -0.0011759822786904987
-0.003919847921212263   -0.0038873672626571106   -0.0012953571749367626
-0.007492127915141154   -0.011127479239735788   -0.0023336471756329963
-0.003475519364845858   -0.01095252266622244   -0.0019910804079234967
-0.0018206101683570452   -0.0035480836406448293   -0.0011759822786904987
-0.003446012925884868   -0.011073651346487426   -0.0018721703820606564
-0.003919847921212263   -0.0038873672626571106   -0.0012953571749367626
-0.001751360297914533   -0.0036691332569497538   -0.0010575689211671229
-0.003446012925884868   -0.011073651346487426   -0.0018721703820606564
-0.0018206101683570452   -0.0035480836406448293   -0.0011759822786904987
-0.003919847921212263   -0.0038873672626571106   -0.0012953571749367626
-0.003446012925884868   -0.011073651346487426   -0.0018721703820606564
-0.007501444880027918   -0.011317743860466732   -0.0021015185417737063
-0.007492127915141154   -0.011127479239735788   -0.0023336471756329963
-0.003919847921212263   -0.0038873672626571106   -0.0012953571749367626
-0.003446012925884868   -0.011073651346487426   -0.0018721703820606564
-0.007492127915141154   -0.011127479239735788   -0.0023336471756329963
-0.0018206101683570452   -0.0035480836406448293   -0.0011759822786904987
-0.003919847921212263   -0.0038873672626571106   -0.0012953571749367626
-0.007501444880027918   -0.011317743860466732   -0.0021015185417737063
-0.001751360297914533   -0.0036691332569497538   -0.0010575689211671229
-0.003931234190646616   -0.003982605609615298   -0.0010447683963699407
-0.007501444880027918   -0.011317743860466732   -0.0021015185417737063
-0.003446012925884868   -0.011073651346487426   -0.0018721703820606564
-0.001751360297914533   -0.0036691332569497538   -0.0010575689211671229
-0.0034199193027541017   -0.011132383235494073   -0.001764356146498947
-0.003931234190646616   -0.003982605609615298   -0.0010447683963699407
-0.0017126029901399294   -0.003715259354468516   -0.0009422106242231705
-0.0034199193027541017   -0.011132383235494073   -0.001764356146498947
-0.001751360297914533   -0.0036691332569497538   -0.0010575689211671229
-0.003931234190646616   -0.003982605609615298   -0.0010447683963699407
-0.0034199193027541017   -0.011132383235494073   -0.001764356146498947
-0.007531488929063477   -0.011433688536513918   -0.0018784223020597152
-0.007501444880027918   -0.011317743860466732   -0.0021015185417737063
-0.003931234190646616   -0.003982605609615298   -0.0010447683963699407
-0.0034199193027541017   -0.011132383235494073   -0.001764356146498947
-0.007501444880027918   -0.011317743860466732   -0.0021015185417737063
-0.001751360297914533   -0.0036691332569497538   -0.0010575689211671229
-0.003931234190646616   -0.003982605609615298   -0.0010447683963699407
-0.007531488929063477   -0.011433688536513918   -0.0018784223020597152
-0.0017126029901399294   -0.003715259354468516   -0.0009422106242231705
-0.00392954165819545   -0.0040070257758443514   -0.0007856091420165065
-0.007531488929063477   -0.011433688536513918   -0.0018784223020597152
-0.0034199193027541017   -0.011132383235494073   -0.001764356146498947
-0.0017126029901399294   -0.003715259354468516   -0.0009422106242231705
-0.003380756804644795   -0.01113093340895745   -0.0016704674922521227
-0.00392954165819545   -0.0040070257758443514   -0.0007856091420165065
-0.0016773662048459208   -0.0036959843996205327   -0.000822912236739275
-0.003380756804644795   -0.01113093340895745   -0.0016704674922521227
-0.0017126029901399294   -0.003715259354468516   -0.0009422106242231705
-0.00392954165819545   -0.0040070257758443514   -0.0007856091420165065
-0.003380756804644795   -0.01113093340895745   -0.0016704674922521227
-0.007509569581949747   -0.011493786076911093   -0.0016695665301953984
-0.007531488929063477   -0.011433688536513918   -0.0018784223020597152
-0.00392954165819545   -0.0040070257758443514   -0.0007856091420165065
-0.003380756804644795   -0.01113093340895745   -0.0016704674922521227
-0.007531488929063477   -0.011433688536513918   -0.0018784223020597152
-0.0017126029901399294   -0.003715259354468516   -0.0009422106242231705
-0.0018206101683570452   -0.0035480836406448293   -0.0011759822786904987
-0.003475519364845858   -0.01095252266622244   -0.0019910804079234967
0.0002374843549972454   -0.003567682339640062   -0.0009399425342335445
-0.001751360297914533   -0.0036691332569497538   -0.0010575689211671229
-0.003475519364845858   -0.01095252266622244   -0.0019910804079234967
0.00039801525241021647   -0.010957703114182354   -0.001774416652629967
0.0002374843549972454   -0.003567682339640062   -0.0009399425342335445
0.00043436594412172273   -0.011015138996181475   -0.0017666314908512987
-0.001751360297914533   -0.0036691332569497538   -0.0010575689211671229
0.00028153271579636286   -0.003630465370020575   -0.0009564229580366596
0.00043436594412172273   -0.011015138996181475   -0.0017666314908512987
0.0002374843549972454   -0.003567682339640062   -0.0009399425342335445
-0.001751360297914533   -0.0036691332569497538   -0.0010575689211671229
0.00043436594412172273   -0.011015138996181475   -0.0017666314908512987
-0.003446012925884868   -0.011073651346487426   -0.0018721703820606564
-0.003475519364845858   -0.01095252266622244   -0.0019910804079234967
-0.001751360297914533   -0.0036691332569497538   -0.0010575689211671229
0.00043436594412172273   -0.011015138996181475   -0.0017666314908512987
-0.003475519364845858   -0.01095252266622244   -0.0019910804079234967
0.0002374843549972454   -0.003567682339640062   -0.0009399425342335445
-0.001751360297914533   -0.0036691332569497538   -0.0010575689211671229
-0.003446012925884868   -0.011073651346487426   -0.0018721703820606564
0.00028153271579636286   -0.003630465370020575   -0.0009564229580366596
-0.0017126029901399294   -0.003715259354468516   -0.0009422106242231705
-0.003446012925884868   -0.011073651346487426   -0.0018721703820606564
0.00043436594412172273   -0.011015138996181475   -0.0017666314908512987
0.00028153271579636286   -0.003630465370020575   -0.0009564229580366596
0.000458672844546882   -0.011011642433772607   -0.0017714416935142399
-0.0017126029901399294   -0.003715259354468516   -0.0009422106242231705
0.00031625464464313106   -0.0036252969067417772   -0.0009712774981966958
0.000458672844546882   -0.011011642433772607   -0.0017714416935142399
0.00028153271579636286   -0.003630465370020575   -0.0009564229580366596
-0.0017126029901399294   -0.003715259354468516   -0.0009422106242231705
0.000458672844546882   -0.011011642433772607   -0.0017714416935142399
-0.0034199193027541017   -0.011132383235494073   -0.001764356146498947
-0.003446012925884868   -0.011073651346487426   -0.0018721703820606564
-0.0017126029901399294   -0.003715259354468516   -0.0009422106242231705
0.000458672844546882   -0.011011642433772607   -0.0017714416935142399
-0.003446012925884868   -0.011073651346487426   -0.0018721703820606564
0.00028153271579636286   -0.003630465370020575   -0.0009564229580366596
-0.0017126029901399294   -0.003715259354468516   -0.0009422106242231705
-0.0034199193027541017   -0.011132383235494073   -0.001764356146498947
0.00031625464464313106   -0.0036252969067417772   -0.0009712774981966958
-0.0016773662048459208   -0.0036959843996205327   -0.000822912236739275
-0.0034199193027541017   -0.011132383235494073   -0.001764356146498947
0.000458672844546882   -0.011011642433772607   -0.0017714416935142399
0.00031625464464313106   -0.0036252969067417772   -0.0009712774981966958
0.0004847861522391612   -0.010945351721983784   -0.0017890470233925613
-0.0016773662048459208   -0.0036959843996205327   -0.000822912236739275
0.0003630832439904735   -0.0035465979479011715   -0.0009865057932116823
0.0004847861522391612   -0.010945351721983784   -0.0017890470233925613
0.00031625464464313106   -0.0036252969067417772   -0.0009712774981966958
-0.0016773662048459208   -0.0036959843996205327   -0.000822912236739275
0.0004847861522391612   -0.010945351721983784   -0.0017890470233925613
-0.003380756804644795   -0.01113093340895745   -0.0016704674922521227
-0.0034199193027541017   -0.011132383235494073   -0.001764356146498947
-0.0016773662048459208   -0.0036959843996205327   -0.000822912236739275
0.0004847861522391612   -0.010945351721983784   -0.0017890470233925613
-0.0034199193027541017   -0.011132383235494073   -0.001764356146498947
0.00031625464464313106   -0.0036252969067417772   -0.0009712774981966958
0.0002374843549972454   -0.003567682339640062   -0.0009399425342335445
0.00039801525241021647   -0.010957703114182354   -0.001774416652629967
0.002471232698488505   -0.0037415915038025516   -0.0008231076275051077
0.00028153271579636286   -0.003630465370020575   -0.0009564229580366596
0.00039801525241021647   -0.010957703114182354   -0.001774416652629967
0.004502612190269766   -0.011136509061787161   -0.0016732205172403777
0.002471232698488505   -0.0037415915038025516   -0.0008231076275051077
0.00452292761129497   -0.011136094056629369   -0.0017801671377396919
0.00028153271579636286   -0.003630465370020575   -0.0009564229580366596
0.002475172640719246   -0.0037616259478494784   -0.0009815234977756636
0.00452292761129497   -0.011136094056629369   -0.0017801671377396919
0.002471232698488505   -0.0037415915038025516   -0.0008231076275051077
0.00028153271579636286   -0.003630465370020575   -0.0009564229580366596
0.00452292761129497   -0.011136094056629369   -0.0017801671377396919
0.00043436594412172273   -0.011015138996181475   -0.0017666314908512987
0.00039801525241021647   -0.010957703114182354   -0.001774416652629967
0.00028153271579636286   -0.003630465370020575   -0.0009564229580366596
0.00452292761129497   -0.011136094056629369   -0.0017801671377396919
0.00039801525241021647   -0.010957703114182354   -0.001774416652629967
0.002471232698488505   -0.0037415915038025516   -0.0008231076275051077
0.00028153271579636286   -0.003630465370020575   -0.0009564229580366596
0.00043436594412172273   -0.011015138996181475   -0.0017666314908512987
0.002475172640719246   -0.0037616259478494784   -0.0009815234977756636
0.00031625464464313106   -0.0036252969067417772   -0.0009712774981966958
0.00043436594412172273   -0.011015138996181475   -0.0017666314908512987
0.00452292761129497   -0.011136094056629369   -0.0017801671377396919
0.002475172640719246   -0.0037616259478494784   -0.0009815234977756636
0.004501523036459268   -0.011075916989475994   -0.0019013644223086204
0.00031625464464313106   -0.0036252969067417772   -0.0009712774981966958
0.002464180306374323   -0.003707908094729905   -0.0011334550364600641
0.004501523036459268   -0.011075916989475994   -0.0019013644223086204
0.002475172640719246   -0.0037616259478494784   -0.0009815234977756636
0.00031625464464313106   -0.0036252969067417772   -0.0009712774981966958
0.004501523036459268   -0.011075916989475994   -0.0019013644223086204
0.000458672844546882   -0.011011642433772607   -0.0017714416935142399
0.00043436594412172273   -0.011015138996181475   -0.0017666314908512987
0.00031625464464313106   -0.0036252969067417772   -0.0009712774981966958
0.004501523036459268   -0.011075916989475994   -0.0019013644223086204
0.00043436594412172273   -0.011015138996181475   -0.0017666314908512987
0.002475172640719246   -0.0037616259478494784   -0.0009815234977756636
0.00031625464464313106   -0.0036252969067417772   -0.0009712774981966958
0.000458672844546882   -0.011011642433772607   -0.0017714416935142399
0.002464180306374323   -0.003707908094729905   -0.0011334550364600641
0.0003630832439904735   -0.0035465979479011715   -0.0009865057932116823
0.000458672844546882   -0.011011642433772607   -0.0017714416935142399
0.004501523036459268   -0.011075916989475994   -0.0019013644223086204
0.002464180306374323   -0.003707908094729905   -0.0011334550364600641
0.0044890740059907175   -0.010939503609827246   -0.0020323299946703637
0.0003630832439904735   -0.0035465979479011715   -0.0009865057932116823
0.002511527856815884   -0.003563955280620201   -0.0012824619227766985
0.0044890740059907175   -0.010939503609827246   -0.0020323299946703637
0.002464180306374323   -0.003707908094729905   -0.0011334550364600641
0.0003630832439904735   -0.0035465979479011715   -0.0009865057932116823
0.0044890740059907175   -0.010939503609827246   -0.0020323299946703637
0.0004847861522391612   -0.010945351721983784   -0.0017890470233925613
0.000458672844546882   -0.011011642433772607   -0.0017714416935142399
0.0003630832439904735   -0.0035465979479011715   -0.0009865057932116823
0.0044890740059907175   -0.010939503609827246   -0.0020323299946703637
0.000458672844546882   -0.011011642433772607   -0.0017714416935142399
0.002464180306374323   -0.003707908094729905   -0.0011334550364600641
0.002471232698488505   -0.0037415915038025516   -0.0008231076275051077
0.004502612190269766   -0.011136509061787161   -0.0016732205172403777
0.005576758508883189   -0.004182267046973467   -0.0007763962944613349
0.002475172640719246   -0.0037616259478494784   -0.0009815234977756636
0.004502612190269766   -0.011136509061787161   -0.0016732205172403777
0.009455037094240604   -0.011468953909542983   -0.0016457685221534875
0.005576758508883189   -0.004182267046973467   -0.0007763962944613349
0.009261952664164836   -0.011437792522108407   -0.0018863044287247036
0.002475172640719246   -0.0037616259478494784   -0.0009815234977756636
0.005236886073537561   -0.004136714689428383   -0.0011354401688838118
0.009261952664164836   -0.011437792522108407   -0.0018863044287247036
0.005576758508883189   -0.004182267046973467   -0.0007763962944613349
0.002475172640719246   -0.0037616259478494784   -0.0009815234977756636
0.009261952664164836   -0.011437792522108407   -0.0018863044287247036
0.00452292761129497   -0.011136094056629369   -0.0017801671377396919
0.004502612190269766   -0.011136509061787161   -0.0016732205172403777
0.002475172640719246   -0.0037616259478494784   -0.0009815234977756636
0.009261952664164836   -0.011437792522108407   -0.0018863044287247036
0.004502612190269766   -0.011136509061787161   -0.0016732205172403777
0.005576758508883189   -0.004182267046973467   -0.0007763962944613349
0.002475172640719246   -0.0037616259478494784   -0.0009815234977756636
0.00452292761129497   -0.011136094056629369   -0.0017801671377396919
0.005236886073537561   -0.004136714689428383   -0.0011354401688838118
0.002464180306374323   -0.003707908094729905   -0.0011334550364600641
0.00452292761129497   -0.011136094056629369   -0.0017801671377396919
0.009261952664164836   -0.011437792522108407   -0.0018863044287247036
0.005236886073537561   -0.004136714689428383   -0.0011354401688838118
0.009089458358342578   -0.011344994395080485   -0.002156830493164265
0.002464180306374323   -0.003707908094729905   -0.0011334550364600641
0.005079980454315221   -0.004050705835234223   -0.0014390263842116375
0.009089458358342578   -0.011344994395080485   -0.002156830493164265
0.005236886073537561   -0.004136714689428383   -0.0011354401688838118
0.002464180306374323   -0.003707908094729905   -0.0011334550364600641
0.009089458358342578   -0.011344994395080485   -0.002156830493164265
0.004501523036459268   -0.011075916989475994   -0.0019013644223086204
0.00452292761129497   -0.011136094056629369   -0.0017801671377396919
0.002464180306374323   -0.003707908094729905   -0.0011334550364600641
0.009089458358342578   -0.011344994395080485   -0.002156830493164265
0.00452292761129497   -0.011136094056629369   -0.0017801671377396919
0.005236886073537561   -0.004136714689428383   -0.0011354401688838118
0.002464180306374323   -0.003707908094729905   -0.0011334550364600641
0.004501523036459268   -0.011075916989475994   -0.0019013644223086204
0.005079980454315221   -0.004050705835234223   -0.0014390263842116375
0.002511527856815884   -0.003563955280620201   -0.0012824619227766985
0.004501523036459268   -0.011075916989475994   -0.0019013644223086204
0.009089458358342578   -0.011344994395080485   -0.002156830493164265
0.005079980454315221   -0.004050705835234223   -0.0014390263842116375
0.008831290254140414   -0.011138372183828599   -0.0024383945559810273
0.002511527856815884   -0.003563955280620201   -0.0012824619227766985
0.0048466657783380615   -0.003830555176942029   -0.0017602173512787623
0.008831290254140414   -0.011138372183828599   -0.0024383945559810273
0.005079980454315221   -0.004050705835234223   -0.0014390263842116375
0.002511527856815884   -0.003563955280620201   -0.0012824619227766985
0.008831290254140414   -0.011138372183828599   -0.0024383945559810273
0.0044890740059907175   -0.010939503609827246   -0.0020323299946703637
0.004501523036459268   -0.011075916989475994   -0.0019013644223086204
0.002511527856815884   -0.003563955280620201   -0.0012824619227766985
0.008831290254140414   -0.011138372183828599   -0.0024383945559810273
0.004501523036459268   -0.011075916989475994   -0.0019013644223086204
0.005079980454315221   -0.004050705835234223   -0.0014390263842116375
-0.011738174951866484   -0.011503482726857554   -0.0028354177589976232
-0.016086092719078286   -0.02157935143739845   -0.0032292131560490026
-0.007492127915141154   -0.011127479239735788   -0.0023336471756329963
-0.0120904771282652   -0.011768927961811572   -0.002458408196649155
-0.016086092719078286   -0.02157935143739845   -0.0032292131560490026
-0.010341950933057342   -0.02129191058972769   -0.0028220807679442297
-0.007492127915141154   -0.011127479239735788   -0.0023336471756329963
-0.010365172899553222   -0.02145619328779034   -0.0026419270731211785
-0.0120904771282652   -0.011768927961811572   -0.002458408196649155
-0.007501444880027918   -0.011317743860466732   -0.0021015185417737063
-0.010365172899553222   -0.02145619328779034   -0.0026419270731211785
-0.007492127915141154   -0.011127479239735788   -0.0023336471756329963
-0.0120904771282652   -0.011768927961811572   -0.002458408196649155
-0.010365172899553222   -0.02145619328779034   -0.0026419270731211785
-0.016372886730327323   -0.021803840553269865   -0.0029479189023971257
-0.016086092719078286   -0.02157935143739845   -0.0032292131560490026
-0.0120904771282652   -0.011768927961811572   -0.002458408196649155
-0.010365172899553222   -0.02145619328779034   -0.0026419270731211785
-0.016086092719078286   -0.02157935143739845   -0.0032292131560490026
-0.007492127915141154   -0.011127479239735788   -0.0023336471756329963
-0.0120904771282652   -0.011768927961811572   -0.002458408196649155
-0.016372886730327323   -0.021803840553269865   -0.0029479189023971257
-0.007501444880027918   -0.011317743860466732   -0.0021015185417737063
-0.012335450401938421   -0.01191879962859134   -0.0020892098216203376
-0.016372886730327323   -0.021803840553269865   -0.0029479189023971257
-0.010365172899553222   -0.02145619328779034   -0.0026419270731211785
-0.007501444880027918   -0.011317743860466732   -0.0021015185417737063
-0.010392451937609107   -0.021570482974013566   -0.0024747916825967244
-0.012335450401938421   -0.01191879962859134   -0.0020892098216203376
-0.007531488929063477   -0.011433688536513918   -0.0018784223020597152
-0.010392451937609107   -0.021570482974013566   -0.0024747916825967244
-0.007501444880027918   -0.011317743860466732   -0.0021015185417737063
-0.012335450401938421   -0.01191879962859134   -0.0020892098216203376
-0.010392451937609107   -0.021570482974013566   -0.0024747916825967244
-0.01655393592878064   -0.021944569728211752   -0.002685709524135673
-0.016372886730327323   -0.021803840553269865   -0.0029479189023971257
-0.012335450401938421   -0.01191879962859134   -0.0020892098216203376
-0.010392451937609107   -0.021570482974013566   -0.0024747916825967244
-0.016372886730327323   -0.021803840553269865   -0.0029479189023971257
-0.007501444880027918   -0.011317743860466732   -0.0021015185417737063
-0.012335450401938421   -0.01191879962859134   -0.0020892098216203376
-0.01655393592878064   -0.021944569728211752   -0.002685709524135673
-0.007531488929063477   -0.011433688536513918   -0.0018784223020597152
-0.012625020389783045   -0.012005818285154509   -0.0017532411588704277
-0.01655393592878064   -0.021944569728211752   -0.002685709524135673
-0.010392451937609107   -0.021570482974013566   -0.0024747916825967244
-0.007531488929063477   -0.011433688536513918   -0.0018784223020597152
-0.01037354882463014   -0.02164561893204256   -0.0023179024202032703
-0.012625020389783045   -0.012005818285154509   -0.0017532411588704277
-0.007509569581949747   -0.011493786076911093   -0.0016695665301953984
-0.01037354882463014   -0.02164561893204256   -0.0023179024202032703
-0.007531488929063477   -0.011433688536513918   -0.0018784223020597152
-0.012625020389783045   -0.012005818285154509   -0.0017532411588704277
-0.01037354882463014   -0.02164561893204256   -0.0023179024202032703
-0.016759933654173807   -0.02204568854138708   -0.002444369312522967
-0.01655393592878064   -0.021944569728211752   -0.002685709524135673
-0.012625020389783045   -0.012005818285154509   -0.0017532411588704277
-0.01037354882463014   -0.02164561893204256   -0.0023179024202032703
-0.01655393592878064   -0.021944569728211752   -0.002685709524135673
-0.007531488929063477   -0.011433688536513918   -0.0018784223020597152
-0.007492127915141154   -0.011127479239735788   -0.0023336471756329963
-0.010341950933057342   -0.02129191058972769   -0.0028220807679442297
-0.003475519364845858   -0.01095252266622244   -0.0019910804079234967
-0.007501444880027918   -0.011317743860466732   -0.0021015185417737063
-0.010341950933057342   -0.02129191058972769   -0.0028220807679442297
-0.00492528760180539   -0.02114863513339717   -0.0025392026229777206
-0.003475519364845858   -0.01095252266622244   -0.0019910804079234967
-0.004913498836423241   -0.021253716245568446   -0.002437437262847938
-0.007501444880027918   -0.011317743860466732   -0.0021015185417737063
-0.003446012925884868   -0.011073651346487426   -0.0018721703820606564
-0.004913498836423241   -0.021253716245568446   -0.002437437262847938
-0.003475519364845858   -0.01095252266622244   -0.0019910804079234967
-0.007501444880027918   -0.011317743860466732   -0.0021015185417737063
-0.004913498836423241   -0.021253716245568446   -0.002437437262847938
-0.010365172899553222   -0.02145619328779034   -0.0026419270731211785
-0.010341950933057342   -0.02129191058972769   -0.0028220807679442297
-0.007501444880027918   -0.011317743860466732   -0.0021015185417737063
-0.004913498836423241   -0.021253716245568446   -0.002437437262847938
-0.010341950933057342   -0.02129191058972769   -0.0028220807679442297
-0.003475519364845858   -0.01095252266622244   -0.0019910804079234967
-0.007501444880027918   -0.011317743860466732   -0.0021015185417737063
-0.010365172899553222   -0.02145619328779034   -0.0026419270731211785
-0.003446012925884868   -0.011073651346487426   -0.0018721703820606564
-0.007531488929063477   -0.011433688536513918   -0.0018784223020597152
-0.010365172899553222   -0.02145619328779034   -0.0026419270731211785
-0.004913498836423241   -0.021253716245568446   -0.002437437262847938
-0.003446012925884868   -0.011073651346487426   -0.0018721703820606564
-0.004898932418926433   -0.021315426208608663   -0.0023480715457504485
-0.007531488929063477   -0.011433688536513918   -0.0018784223020597152
-0.0034199193027541017   -0.011132383235494073   -0.001764356146498947
-0.004898932418926433   -0.021315426208608663   -0.0023480715457504485
-0.003446012925884868   -0.011073651346487426   -0.0018721703820606564
-0.007531488929063477   -0.011433688536513918   -0.0018784223020597152
-0.004898932418926433   -0.021315426208608663   -0.0023480715457504485
-0.010392451937609107   -0.021570482974013566   -0.0024747916825967244
-0.010365172899553222   -0.02145619328779034   -0.0026419270731211785
-0.007531488929063477   -0.011433688536513918   -0.0018784223020597152
-0.004898932418926433   -0.021315426208608663   -0.0023480715457504485
-0.010365172899553222   -0.02145619328779034   -0.0026419270731211785
-0.003446012925884868   -0.011073651346487426   -0.0018721703820606564
-0.007531488929063477   -0.011433688536513918   -0.0018784223020597152
-0.010392451937609107   -0.021570482974013566   -0.0024747916825967244
-0.0034199193027541017   -0.011132383235494073   -0.001764356146498947
-0.007509569581949747   -0.011493786076911093   -0.0016695665301953984
-0.010392451937609107   -0.021570482974013566   -0.0024747916825967244
-0.004898932418926433   -0.021315426208608663   -0.0023480715457504485
-0.0034199193027541017   -0.011132383235494073   -0.001764356146498947
-0.004874645492486501   -0.021334647336942954   -0.002271067040380782
-0.007509569581949747   -0.011493786076911093   -0.0016695665301953984
-0.003380756804644795   -0.01113093340895745   -0.0016704674922521227
-0.004874645492486501   -0.021334647336942954   -0.002271067040380782
-0.0034199193027541017   -0.011132383235494073   -0.001764356146498947
-0.007509569581949747   -0.011493786076911093   -0.0016695665301953984
-0.004874645492486501   -0.021334647336942954   -0.002271067040380782
-0.01037354882463014   -0.02164561893204256   -0.0023179024202032703
-0.010392451937609107   -0.021570482974013566   -0.0024747916825967244
-0.007509569581949747   -0.011493786076911093   -0.0016695665301953984
-0.004874645492486501   -0.021334647336942954   -0.002271067040380782
-0.010392451937609107   -0.021570482974013566   -0.0024747916825967244
-0.0034199193027541017   -0.011132383235494073   -0.001764356146498947
-0.003475519364845858   -0.01095252266622244   -0.0019910804079234967
-0.00492528760180539   -0.02114863513339717   -0.0025392026229777206
0.00039801525241021647   -0.010957703114182354   -0.001774416652629967
-0.003446012925884868   -0.011073651346487426   -0.0018721703820606564
-0.00492528760180539   -0.02114863513339717   -0.0025392026229777206
0.00033252268596084485   -0.021141017213873806   -0.002363730623957059
0.00039801525241021647   -0.010957703114182354   -0.001774416652629967
0.00035464350756994996   -0.021187837516884404   -0.0023399302660182366
-0.003446012925884868   -0.011073651346487426   -0.0018721703820606564
0.00043436594412172273   -0.011015138996181475   -0.0017666314908512987
0.00035464350756994996   -0.021187837516884404   -0.0023399302660182366
0.00039801525241021647   -0.010957703114182354   -0.001774416652629967
-0.003446012925884868   -0.011073651346487426   -0.0018721703820606564
0.00035464350756994996   -0.021187837516884404   -0.0023399302660182366
-0.004913498836423241   -0.021253716245568446   -0.002437437262847938
-0.00492528760180539   -0.02114863513339717   -0.0025392026229777206
-0.003446012925884868   -0.011073651346487426   -0.0018721703820606564
0.00035464350756994996   -0.021187837516884404   -0.0023399302660182366
-0.00492528760180539   -0.02114863513339717   -0.0025392026229777206
0.00039801525241021647   -0.010957703114182354   -0.001774416652629967
-0.003446012925884868   -0.011073651346487426   -0.0018721703820606564
-0.004913498836423241   -0.021253716245568446   -0.002437437262847938
0.00043436594412172273   -0.011015138996181475   -0.0017666314908512987
-0.0034199193027541017   -0.011132383235494073   -0.001764356146498947
-0.004913498836423241   -0.021253716245568446   -0.002437437262847938
0.00035464350756994996   -0.021187837516884404   -0.0023399302660182366
0.00043436594412172273   -0.011015138996181475   -0.0017666314908512987
0.0003686301296535125   -0.021191461790622906   -0.0023282038809385977
-0.0034199193027541017   -0.011132383235494073   -0.001764356146498947
0.000458672844546882   -0.011011642433772607   -0.0017714416935142399
0.0003686301296535125   -0.021191461790622906   -0.0023282038809385977
0.00043436594412172273   -0.011015138996181475   -0.0017666314908512987
-0.0034199193027541017   -0.011132383235494073   -0.001764356146498947
0.0003686301296535125   -0.021191461790622906   -0.0023282038809385977
-0.004898932418926433   -0.021315426208608663   -0.0023480715457504485
-0.004913498836423241   -0.021253716245568446   -0.002437437262847938
-0.0034199193027541017   -0.011132383235494073   -0.001764356146498947
0.0003686301296535125   -0.021191461790622906   -0.0023282038809385977
-0.004913498836423241   -0.021253716245568446   -0.002437437262847938
0.00043436594412172273   -0.011015138996181475   -0.0017666314908512987
-0.0034199193027541017   -0.011132383235494073   -0.001764356146498947
-0.004898932418926433   -0.021315426208608663   -0.0023480715457504485
0.000458672844546882   -0.011011642433772607   -0.0017714416935142399
-0.003380756804644795   -0.01113093340895745   -0.0016704674922521227
-0.004898932418926433   -0.021315426208608663   -0.0023480715457504485
0.0003686301296535125   -0.021191461790622906   -0.0023282038809385977
0.000458672844546882   -0.011011642433772607   -0.0017714416935142399
0.00037859041997575203   -0.02115124531994577   -0.0023292872051899473
-0.003380756804644795   -0.01113093340895745   -0.0016704674922521227
0.0004847861522391612   -0.010945351721983784   -0.0017890470233925613
0.00037859041997575203   -0.02115124531994577   -0.0023292872051899473
0.000458672844546882   -0.011011642433772607   -0.0017714416935142399
-0.003380756804644795   -0.01113093340895745   -0.0016704674922521227
0.00037859041997575203   -0.02115124531994577   -0.0023292872051899473
-0.004874645492486501   -0.021334647336942954   -0.002271067040380782
-0.004898932418926433   -0.021315426208608663   -0.0023480715457504485
-0.003380756804644795   -0.01113093340895745   -0.0016704674922521227
0.00037859041997575203   -0.02115124531994577   -0.0023292872051899473
-0.004898932418926433   -0.021315426208608663   -0.0023480715457504485
0.000458672844546882   -0.011011642433772607   -0.0017714416935142399
0.00039801525241021647   -0.010957703114182354   -0.001774416652629967
0.00033252268596084485   -0.021141017213873806   -0.002363730623957059
0.004502612190269766   -0.011136509061787161   -0.0016732205172403777
0.00043436594412172273   -0.011015138996181475   -0.0017666314908512987
0.00033252268596084485   -0.021141017213873806   -0.002363730623957059
0.005814588910568538   -0.021260997799847303   -0.00229265156678233
0.004502612190269766   -0.011136509061787161   -0.0016732205172403777
0.005833789072642241   -0.02125443486275515   -0.002348439535174304
0.00043436594412172273   -0.011015138996181475   -0.0017666314908512987
0.00452292761129497   -0.011136094056629369   -0.0017801671377396919
0.005833789072642241   -0.02125443486275515   -0.002348439535174304
0.004502612190269766   -0.011136509061787161   -0.0016732205172403777
0.00043436594412172273   -0.011015138996181475   -0.0017666314908512987
0.005833789072642241   -0.02125443486275515   -0.002348439535174304
0.00035464350756994996   -0.021187837516884404   -0.0023399302660182366
0.00033252268596084485   -0.021141017213873806   -0.002363730623957059
0.00043436594412172273   -0.011015138996181475   -0.0017666314908512987
0.005833789072642241   -0.02125443486275515   -0.002348439535174304
0.00033252268596084485   -0.021141017213873806   -0.002363730623957059
0.004502612190269766   -0.011136509061787161   -0.0016732205172403777
0.00043436594412172273   -0.011015138996181475   -0.0017666314908512987
0.00035464350756994996   -0.021187837516884404   -0.0023399302660182366
0.00452292761129497   -0.011136094056629369   -0.0017801671377396919
0.000458672844546882   -0.011011642433772607   -0.0017714416935142399
0.00035464350756994996   -0.021187837516884404   -0.0023399302660182366
0.005833789072642241   -0.02125443486275515   -0.002348439535174304
0.00452292761129497   -0.011136094056629369   -0.0017801671377396919
0.005818425318661836   -0.021205586090141375   -0.002415414279724001
0.000458672844546882   -0.011011642433772607   -0.0017714416935142399
0.004501523036459268   -0.011075916989475994   -0.0019013644223086204
0.005818425318661836   -0.021205586090141375   -0.002415414279724001
0.00452292761129497   -0.011136094056629369   -0.0017801671377396919
0.000458672844546882   -0.011011642433772607   -0.0017714416935142399
0.005818425318661836   -0.021205586090141375   -0.002415414279724001
0.0003686301296535125   -0.021191461790622906   -0.0023282038809385977
0.00035464350756994996   -0.021187837516884404   -0.0023399302660182366
0.000458672844546882   -0.011011642433772607   -0.0017714416935142399
0.005818425318661836   -0.021205586090141375   -0.002415414279724001
0.00035464350756994996   -0.021187837516884404   -0.0023399302660182366
0.00452292761129497   -0.011136094056629369   -0.0017801671377396919
0.000458672844546882   -0.011011642433772607   -0.0017714416935142399
0.0003686301296535125   -0.021191461790622906   -0.0023282038809385977
0.004501523036459268   -0.011075916989475994   -0.0019013644223086204
0.0004847861522391612   -0.010945351721983784   -0.0017890470233925613
0.0003686301296535125   -0.021191461790622906   -0.0023282038809385977
0.005818425318661836   -0.021205586090141375   -0.002415414279724001
0.004501523036459268   -0.011075916989475994   -0.0019013644223086204
0.005795741982312491   -0.021103998736349265   -0.0024948995994495543
0.0004847861522391612   -0.010945351721983784   -0.0017890470233925613
0.0044890740059907175   -0.010939503609827246   -0.0020323299946703637
0.005795741982312491   -0.021103998736349265   -0.0024948995994495543
0.004501523036459268   -0.011075916989475994   -0.0019013644223086204
0.0004847861522391612   -0.010945351721983784   -0.0017890470233925613
0.005795741982312491   -0.021103998736349265   -0.0024948995994495543
0.00037859041997575203   -0.02115124531994577   -0.0023292872051899473
0.0003686301296535125   -0.021191461790622906   -0.0023282038809385977
0.0004847861522391612   -0.010945351721983784   -0.0017890470233925613
0.005795741982312491   -0.021103998736349265   -0.0024948995994495543
0.0003686301296535125   -0.021191461790622906   -0.0023282038809385977
0.004501523036459268   -0.011075916989475994   -0.0019013644223086204
0.004502612190269766   -0.011136509061787161   -0.0016732205172403777
0.005814588910568538   -0.021260997799847303   -0.00229265156678233
0.009455037094240604   -0.011468953909542983   -0.0016457685221534875
0.00452292761129497   -0.011136094056629369   -0.0017801671377396919
0.005814588910568538   -0.021260997799847303   -0.00229265156678233
0.012057536517447596   -0.021478729588412   -0.0022937140321152008
0.009455037094240604   -0.011468953909542983   -0.0016457685221534875
0.01195182682183846   -0.021441435387579876   -0.0024393865952444613
0.00452292761129497   -0.011136094056629369   -0.0017801671377396919
0.009261952664164836   -0.011437792522108407   -0.0018863044287247036
0.01195182682183846   -0.021441435387579876   -0.0024393865952444613
0.009455037094240604   -0.011468953909542983   -0.0016457685221534875
0.00452292761129497   -0.011136094056629369   -0.0017801671377396919
0.01195182682183846   -0.021441435387579876   -0.0024393865952444613
0.005833789072642241   -0.02125443486275515   -0.002348439535174304
0.005814588910568538   -0.021260997799847303   -0.00229265156678233
0.00452292761129497   -0.011136094056629369   -0.0017801671377396919
0.01195182682183846   -0.021441435387579876   -0.0024393865952444613
0.005814588910568538   -0.021260997799847303   -0.00229265156678233
0.009455037094240604   -0.011468953909542983   -0.0016457685221534875
0.00452292761129497   -0.011136094056629369   -0.0017801671377396919
0.005833789072642241   -0.02125443486275515   -0.002348439535174304
0.009261952664164836   -0.011437792522108407   -0.0018863044287247036
0.004501523036459268   -0.011075916989475994   -0.0019013644223086204
0.005833789072642241   -0.02125443486275515   -0.002348439535174304
0.01195182682183846   -0.021441435387579876   -0.0024393865952444613
0.009261952664164836   -0.011437792522108407   -0.0018863044287247036
0.011846421421259199   -0.021366194741374238   -0.0026052312964324927
0.004501523036459268   -0.011075916989475994   -0.0019013644223086204
0.009089458358342578   -0.011344994395080485   -0.002156830493164265
0.011846421421259199   -0.021366194741374238   -0.0026052312964324927
0.009261952664164836   -0.011437792522108407   -0.0018863044287247036
0.004501523036459268   -0.011075916989475994   -0.0019013644223086204
0.011846421421259199   -0.021366194741374238   -0.0026052312964324927
0.005818425318661836   -0.021205586090141375   -0.002415414279724001
0.005833789072642241   -0.02125443486275515   -0.002348439535174304
0.004501523036459268   -0.011075916989475994   -0.0019013644223086204
0.011846421421259199   -0.021366194741374238   -0.0026052312964324927
0.005833789072642241   -0.02125443486275515   -0.002348439535174304
0.009261952664164836   -0.011437792522108407   -0.0018863044287247036
0.004501523036459268   -0.011075916989475994   -0.0019013644223086204
0.005818425318661836   -0.021205586090141375   -0.002415414279724001
0.009089458358342578   -0.011344994395080485   -0.002156830493164265
0.0044890740059907175   -0.010939503609827246   -0.0020323299946703637
0.005818425318661836   -0.021205586090141375   -0.002415414279724001
0.011846421421259199   -0.021366194741374238   -0.0026052312964324927
0.009089458358342578   -0.011344994395080485   -0.002156830493164265
0.011659687416017538   -0.021208201928155673   -0.002791269400011555
0.0044890740059907175   -0.010939503609827246   -0.0020323299946703637
0.008831290254140414   -0.011138372183828599   -0.0024383945559810273
0.011659687416017538   -0.021208201928155673   -0.002791269400011555
0.009089458358342578   -0.011344994395080485   -0.002156830493164265
0.0044890740059907175   -0.010939503609827246   -0.0020323299946703637
0.011659687416017538   -0.021208201928155673   -0.002791269400011555
0.005795741982312491   -0.021103998736349265   -0.0024948995994495543
0.005818425318661836   -0.021205586090141375   -0.002415414279724001
0.0044890740059907175   -0.010939503609827246   -0.0020323299946703637
0.011659687416017538   -0.021208201928155673   -0.002791269400011555
0.005818425318661836   -0.021205586090141375   -0.002415414279724001
0.009089458358342578   -0.011344994395080485   -0.002156830493164265
-0.016086092719078286   -0.02157935143739845   -0.0032292131560490026
-0.01921271151358149   -0.03353025167563901   -0.003443447691349473
-0.010341950933057342   -0.02129191058972769   -0.0028220807679442297
-0.016372886730327323   -0.021803840553269865   -0.0029479189023971257
-0.01921271151358149   -0.03353025167563901   -0.003443447691349473
-0.012470042383608283   -0.03334727754843262   -0.0031113573937216863
-0.010341950933057342   -0.02129191058972769   -0.0028220807679442297
-0.012485534012123857   -0.03348865046668488   -0.002982363902207826
-0.016372886730327323   -0.021803840553269865   -0.0029479189023971257
-0.010365172899553222   -0.02145619328779034   -0.0026419270731211785
-0.012485534012123857   -0.03348865046668488   -0.002982363902207826
-0.010341950933057342   -0.02129191058972769   -0.0028220807679442297
-0.016372886730327323   -0.021803840553269865   -0.0029479189023971257
-0.012485534012123857   -0.03348865046668488   -0.002982363902207826
-0.01940618327287832   -0.03372148724000742   -0.0032565543455445596
-0.01921271151358149   -0.03353025167563901   -0.003443447691349473
-0.016372886730327323   -0.021803840553269865   -0.0029479189023971257
-0.012485534012123857   -0.03348865046668488   -0.002982363902207826
-0.01921271151358149   -0.03353025167563901   -0.003443447691349473
-0.010341950933057342   -0.02129191058972769   -0.0028220807679442297
-0.016372886730327323   -0.021803840553269865   -0.0029479189023971257
-0.01940618327287832   -0.03372148724000742   -0.0032565543455445596
-0.010365172899553222   -0.02145619328779034   -0.0026419270731211785
-0.01655393592878064   -0.021944569728211752   -0.002685709524135673
-0.01940618327287832   -0.03372148724000742   -0.0032565543455445596
-0.012485534012123857   -0.03348865046668488   -0.002982363902207826
-0.010365172899553222   -0.02145619328779034   -0.0026419270731211785
-0.012496743549194207   -0.033600692486287075   -0.0028662161530630973
-0.01655393592878064   -0.021944569728211752   -0.002685709524135673
-0.010392451937609107   -0.021570482974013566   -0.0024747916825967244
-0.012496743549194207   -0.033600692486287075   -0.0028662161530630973
-0.010365172899553222   -0.02145619328779034   -0.0026419270731211785
-0.01655393592878064   -0.021944569728211752   -0.002685709524135673
-0.012496743549194207   -0.033600692486287075   -0.0028662161530630973
-0.019517437923713316   -0.033856745846937854   -0.003087574190935393
-0.01940618327287832   -0.03372148724000742   -0.0032565543455445596
-0.01655393592878064   -0.021944569728211752   -0.002685709524135673
-0.012496743549194207   -0.033600692486287075   -0.0028662161530630973
-0.01940618327287832   -0.03372148724000742   -0.0032565543455445596
-0.010365172899553222   -0.02145619328779034   -0.0026419270731211785
-0.01655393592878064   -0.021944569728211752   -0.002685709524135673
-0.019517437923713316   -0.033856745846937854   -0.003087574190935393
-0.010392451937609107   -0.021570482974013566   -0.0024747916825967244
-0.016759933654173807   -0.02204568854138708   -0.002444369312522967
-0.019517437923713316   -0.033856745846937854   -0.003087574190935393
-0.012496743549194207   -0.033600692486287075   -0.0028662161530630973
-0.010392451937609107   -0.021570482974013566   -0.0024747916825967244
-0.012471385787323224   -0.03369269115663381   -0.002761209590733206
-0.016759933654173807   -0.02204568854138708   -0.002444369312522967
-0.01037354882463014   -0.02164561893204256   -0.0023179024202032703
-0.012471385787323224   -0.03369269115663381   -0.002761209590733206
-0.010392451937609107   -0.021570482974013566   -0.0024747916825967244
-0.016759933654173807   -0.02204568854138708   -0.002444369312522967
-0.012471385787323224   -0.03369269115663381   -0.002761209590733206
-0.019632076158832293   -0.03397791484190278   -0.0029386337087397834
-0.019517437923713316   -0.033856745846937854   -0.003087574190935393
-0.016759933654173807   -0.02204568854138708   -0.002444369312522967
-0.012471385787323224   -0.03369269115663381   -0.002761209590733206
-0.019517437923713316   -0.033856745846937854   -0.003087574190935393
-0.010392451937609107   -0.021570482974013566   -0.0024747916825967244
-0.010341950933057342   -0.02129191058972769   -0.0028220807679442297
-0.012470042383608283   -0.03334727754843262   -0.0031113573937216863
-0.00492528760180539   -0.02114863513339717   -0.0025392026229777206
-0.010365172899553222   -0.02145619328779034   -0.0026419270731211785
-0.012470042383608283   -0.03334727754843262   -0.0031113573937216863
-0.006148559162412263   -0.033252758504582154   -0.002881389698000437
-0.00492528760180539   -0.02114863513339717   -0.0025392026229777206
-0.006137356768132453   -0.03334150079866076   -0.002796278213715475
-0.010365172899553222   -0.02145619328779034   -0.0026419270731211785
-0.004913498836423241   -0.021253716245568446   -0.002437437262847938
-0.006137356768132453   -0.03334150079866076   -0.002796278213715475
-0.00492528760180539   -0.02114863513339717   -0.0025392026229777206
-0.010365172899553222   -0.02145619328779034   -0.0026419270731211785
-0.006137356768132453   -0.03334150079866076   -0.002796278213715475
-0.012485534012123857   -0.03348865046668488   -0.002982363902207826
-0.012470042383608283   -0.03334727754843262   -0.0031113573937216863
-0.010365172899553222   -0.02145619328779034   -0.0026419270731211785
-0.006137356768132453   -0.03334150079866076   -0.002796278213715475
-0.012470042383608283   -0.03334727754843262   -0.0031113573937216863
-0.00492528760180539   -0.02114863513339717   -0.0025392026229777206
-0.010365172899553222   -0.02145619328779034   -0.0026419270731211785
-0.012485534012123857   -0.03348865046668488   -0.002982363902207826
-0.004913498836423241   -0.021253716245568446   -0.002437437262847938
-0.010392451937609107   -0.021570482974013566   -0.0024747916825967244
-0.012485534012123857   -0.03348865046668488   -0.002982363902207826
-0.006137356768132453   -0.03334150079866076   -0.002796278213715475
-0.004913498836423241   -0.021253716245568446   -0.002437437262847938
-0.006121872571554442   -0.0334056681763859   -0.002723821780960148
-0.010392451937609107   -0.021570482974013566   -0.0024747916825967244
-0.004898932418926433   -0.021315426208608663   -0.0023480715457504485
-0.006121872571554442   -0.0334056681763859   -0.002723821780960148
-0.004913498836423241   -0.021253716245568446   -0.002437437262847938
-0.010392451937609107   -0.021570482974013566   -0.0024747916825967244
-0.006121872571554442   -0.0334056681763859   -0.002723821780960148
-0.012496743549194207   -0.033600692486287075   -0.0028662161530630973
-0.012485534012123857   -0.03348865046668488   -0.002982363902207826
-0.010392451937609107   -0.021570482974013566   -0.0024747916825967244
-0.006121872571554442   -0.0334056681763859   -0.002723821780960148
-0.012485534012123857   -0.03348865046668488   -0.002982363902207826
-0.004913498836423241   -0.021253716245568446   -0.002437437262847938
-0.010392451937609107   -0.021570482974013566   -0.0024747916825967244
-0.012496743549194207   -0.033600692486287075   -0.0028662161530630973
-0.004898932418926433   -0.021315426208608663   -0.0023480715457504485
-0.01037354882463014   -0.02164561893204256   -0.0023179024202032703
-0.012496743549194207   -0.033600692486287075   -0.0028662161530630973
-0.006121872571554442   -0.0334056681763859   -0.002723821780960148
-0.004898932418926433   -0.021315426208608663   -0.0023480715457504485
-0.006098544904471967   -0.033445680758732485   -0.0026642283781368307
-0.01037354882463014   -0.02164561893204256   -0.0023179024202032703
-0.004874645492486501   -0.021334647336942954   -0.002271067040380782
-0.006098544904471967   -0.033445680758732485   -0.0026642283781368307
-0.004898932418926433   -0.021315426208608663   -0.0023480715457504485
-0.01037354882463014   -0.02164561893204256   -0.0023179024202032703
-0.006098544904471967   -0.033445680758732485   -0.0026642283781368307
-0.012471385787323224   -0.03369269115663381   -0.002761209590733206
-0.012496743549194207   -0.033600692486287075   -0.0028662161530630973
-0.01037354882463014   -0.02164561893204256   -0.0023179024202032703
-0.006098544904471967   -0.033445680758732485   -0.0026642283781368307
-0.012496743549194207   -0.033600692486287075   -0.0028662161530630973
-0.004898932418926433   -0.021315426208608663   -0.0023480715457504485
-0.00492528760180539   -0.02114863513339717   -0.0025392026229777206
-0.006148559162412263   -0.033252758504582154   -0.002881389698000437
0.00033252268596084485   -0.021141017213873806   -0.002363730623957059
-0.004913498836423241   -0.021253716245568446   -0.002437437262847938
-0.006148559162412263   -0.033252758504582154   -0.002881389698000437
1.377240340226273e-06   -0.03323653496641011   -0.0027473687057004486
0.00033252268596084485   -0.021141017213873806   -0.002363730623957059
2.2882610722251575e-05   -0.03327237747165558   -0.0027064746200860055
-0.004913498836423241   -0.021253716245568446   -0.002437437262847938
0.00035464350756994996   -0.021187837516884404   -0.0023399302660182366
2.2882610722251575e-05   -0.03327237747165558   -0.0027064746200860055
0.00033252268596084485   -0.021141017213873806   -0.002363730623957059
-0.004913498836423241   -0.021253716245568446   -0.002437437262847938
2.2882610722251575e-05   -0.03327237747165558   -0.0027064746200860055
-0.006137356768132453   -0.03334150079866076   -0.002796278213715475
-0.006148559162412263   -0.033252758504582154   -0.002881389698000437
-0.004913498836423241   -0.021253716245568446   -0.002437437262847938
2.2882610722251575e-05   -0.03327237747165558   -0.0027064746200860055
-0.006148559162412263   -0.033252758504582154   -0.002881389698000437
0.00033252268596084485   -0.021141017213873806   -0.002363730623957059
-0.004913498836423241   -0.021253716245568446   -0.002437437262847938
-0.006137356768132453   -0.03334150079866076   -0.002796278213715475
0.00035464350756994996   -0.021187837516884404   -0.0023399302660182366
-0.004898932418926433   -0.021315426208608663   -0.0023480715457504485
-0.006137356768132453   -0.03334150079866076   -0.002796278213715475
2.2882610722251575e-05   -0.03327237747165558   -0.0027064746200860055
0.00035464350756994996   -0.021187837516884404   -0.0023399302660182366
3.805319588363583e-05   -0.03328347620564972   -0.002678073522867797
-0.004898932418926433   -0.021315426208608663   -0.0023480715457504485
0.0003686301296535125   -0.021191461790622906   -0.0023282038809385977
3.805319588363583e-05   -0.03328347620564972   -0.002678073522867797
0.00035464350756994996   -0.021187837516884404   -0.0023399302660182366
-0.004898932418926433   -0.021315426208608663   -0.0023480715457504485
3.805319588363583e-05   -0.03328347620564972   -0.002678073522867797
-0.006121872571554442   -0.0334056681763859   -0.002723821780960148
-0.006137356768132453   -0.03334150079866076   -0.002796278213715475
-0.004898932418926433   -0.021315426208608663   -0.0023480715457504485
3.805319588363583e-05   -0.03328347620564972   -0.002678073522867797
-0.006137356768132453   -0.03334150079866076   -0.002796278213715475
0.00035464350756994996   -0.021187837516884404   -0.0023399302660182366
-0.004898932418926433   -0.021315426208608663   -0.0023480715457504485
-0.006121872571554442   -0.0334056681763859   -0.002723821780960148
0.0003686301296535125   -0.021191461790622906   -0.0023282038809385977
-0.004874645492486501   -0.021334647336942954   -0.002271067040380782
-0.006121872571554442   -0.0334056681763859   -0.002723821780960148
3.805319588363583e-05   -0.03328347620564972   -0.002678073522867797
0.0003686301296535125   -0.021191461790622906   -0.0023282038809385977
4.749955155610415e-05   -0.033269492282462614   -0.002662719667566699
-0.004874645492486501   -0.021334647336942954   -0.002271067040380782
0.00037859041997575203   -0.02115124531994577   -0.0023292872051899473
4.749955155610415e-05   -0.033269492282462614   -0.002662719667566699
0.0003686301296535125   -0.021191461790622906   -0.0023282038809385977
-0.004874645492486501   -0.021334647336942954   -0.002271067040380782
4.749955155610415e-05   -0.033269492282462614   -0.002662719667566699
-0.006098544904471967   -0.033445680758732485   -0.0026642283781368307
-0.006121872571554442   -0.0334056681763859   -0.002723821780960148
-0.004874645492486501   -0.021334647336942954   -0.002271067040380782
4.749955155610415e-05   -0.033269492282462614   -0.002662719667566699
-0.006121872571554442   -0.0334056681763859   -0.002723821780960148
0.0003686301296535125   -0.021191461790622906   -0.0023282038809385977
0.00033252268596084485   -0.021141017213873806   -0.002363730623957059
1.377240340226273e-06   -0.03323653496641011   -0.0027473687057004486
0.005814588910568538   -0.021260997799847303   -0.00229265156678233
0.00035464350756994996   -0.021187837516884404   -0.0023399302660182366
1.377240340226273e-06   -0.03323653496641011   -0.0027473687057004486
0.006362770168693173   -0.033291930026434255   -0.002708736237227845
0.005814588910568538   -0.021260997799847303   -0.00229265156678233
0.00638915658385107   -0.03327796288970475   -0.0027129952551400278
0.00035464350756994996   -0.021187837516884404   -0.0023399302660182366
0.005833789072642241   -0.02125443486275515   -0.002348439535174304
0.00638915658385107   -0.03327796288970475   -0.0027129952551400278
0.005814588910568538   -0.021260997799847303   -0.00229265156678233
0.00035464350756994996   -0.021187837516884404   -0.0023399302660182366
0.00638915658385107   -0.03327796288970475   -0.0027129952551400278
2.2882610722251575e-05   -0.03327237747165558   -0.0027064746200860055
1.377240340226273e-06   -0.03323653496641011   -0.0027473687057004486
0.00035464350756994996   -0.021187837516884404   -0.0023399302660182366
0.00638915658385107   -0.03327796288970475   -0.0027129952551400278
1.377240340226273e-06   -0.03323653496641011   -0.0027473687057004486
0.005814588910568538   -0.021260997799847303   -0.00229265156678233
0.00035464350756994996   -0.021187837516884404   -0.0023399302660182366
2.2882610722251575e-05   -0.03327237747165558   -0.0027064746200860055
0.005833789072642241   -0.02125443486275515   -0.002348439535174304
0.0003686301296535125   -0.021191461790622906   -0.0023282038809385977
2.2882610722251575e-05   -0.03327237747165558   -0.0027064746200860055
0.00638915658385107   -0.03327796288970475   -0.0027129952551400278
0.005833789072642241   -0.02125443486275515   -0.002348439535174304
0.006390683979898181   -0.03324112756393743   -0.002729075984862767
0.0003686301296535125   -0.021191461790622906   -0.0023282038809385977
0.005818425318661836   -0.021205586090141375   -0.002415414279724001
0.006390683979898181   -0.03324112756393743   -0.002729075984862767
0.005833789072642241   -0.02125443486275515   -0.002348439535174304
0.0003686301296535125   -0.021191461790622906   -0.0023282038809385977
0.006390683979898181   -0.03324112756393743   -0.002729075984862767
3.805319588363583e-05   -0.03328347620564972   -0.002678073522867797
2.2882610722251575e-05   -0.03327237747165558   -0.0027064746200860055
0.0003686301296535125   -0.021191461790622906   -0.0023282038809385977
0.006390683979898181   -0.03324112756393743   -0.002729075984862767
2.2882610722251575e-05   -0.03327237747165558   -0.0027064746200860055
0.005833789072642241   -0.02125443486275515   -0.002348439535174304
0.0003686301296535125   -0.021191461790622906   -0.0023282038809385977
3.805319588363583e-05   -0.03328347620564972   -0.002678073522867797
0.005818425318661836   -0.021205586090141375   -0.002415414279724001
0.00037859041997575203   -0.02115124531994577   -0.0023292872051899473
3.805319588363583e-05   -0.03328347620564972   -0.002678073522867797
0.006390683979898181   -0.03324112756393743   -0.002729075984862767
0.005818425318661836   -0.021205586090141375   -0.002415414279724001
0.006376255856727144   -0.03317218722408064   -0.002757426981076471
0.00037859041997575203   -0.02115124531994577   -0.0023292872051899473
0.005795741982312491   -0.021103998736349265   -0.0024948995994495543
0.006376255856727144   -0.03317218722408064   -0.002757426981076471
0.005818425318661836   -0.021205586090141375   -0.002415414279724001
0.00037859041997575203   -0.02115124531994577   -0.0023292872051899473
0.006376255856727144   -0.03317218722408064   -0.002757426981076471
4.749955155610415e-05   -0.033269492282462614   -0.002662719667566699
3.805319588363583e-05   -0.03328347620564972   -0.002678073522867797
0.00037859041997575203   -0.02115124531994577   -0.0023292872051899473
0.006376255856727144   -0.03317218722408064   -0.002757426981076471
3.805319588363583e-05   -0.03328347620564972   -0.002678073522867797
0.005818425318661836   -0.021205586090141375   -0.002415414279724001
0.005814588910568538   -0.021260997799847303   -0.00229265156678233
0.006362770168693173   -0.033291930026434255   -0.002708736237227845
0.012057536517447596   -0.021478729588412   -0.0022937140321152008
0.005833789072642241   -0.02125443486275515   -0.002348439535174304
0.006362770168693173   -0.033291930026434255   -0.002708736237227845
0.013387363724103549   -0.03339381759995402   -0.002744576109453822
0.012057536517447596   -0.021478729588412   -0.0022937140321152008
0.013374252631417567   -0.03334613491219185   -0.0027976105033427007
0.005833789072642241   -0.02125443486275515   -0.002348439535174304
0.01195182682183846   -0.021441435387579876   -0.0024393865952444613
0.013374252631417567   -0.03334613491219185   -0.0027976105033427007
0.012057536517447596   -0.021478729588412   -0.0022937140321152008
0.005833789072642241   -0.02125443486275515   -0.002348439535174304
0.013374252631417567   -0.03334613491219185   -0.0027976105033427007
0.00638915658385107   -0.03327796288970475   -0.0027129952551400278
0.006362770168693173   -0.033291930026434255   -0.002708736237227845
0.005833789072642241   -0.02125443486275515   -0.002348439535174304
0.013374252631417567   -0.03334613491219185   -0.0027976105033427007
0.006362770168693173   -0.033291930026434255   -0.002708736237227845
0.012057536517447596   -0.021478729588412   -0.0022937140321152008
0.005833789072642241   -0.02125443486275515   -0.002348439535174304
0.00638915658385107   -0.03327796288970475   -0.0027129952551400278
0.01195182682183846   -0.021441435387579876   -0.0024393865952444613
0.005818425318661836   -0.021205586090141375   -0.002415414279724001
0.00638915658385107   -0.03327796288970475   -0.0027129952551400278
0.013374252631417567   -0.03334613491219185   -0.0027976105033427007
0.01195182682183846   -0.021441435387579876   -0.0024393865952444613
0.013340093989984049   -0.03328600419623348   -0.0028698214280318862
0.005818425318661836   -0.021205586090141375   -0.002415414279724001
0.011846421421259199   -0.021366194741374238   -0.0026052312964324927
0.013340093989984049   -0.03328600419623348   -0.0028698214280318862
0.01195182682183846   -0.021441435387579876   -0.0024393865952444613
0.005818425318661836   -0.021205586090141375   -0.002415414279724001
0.013340093989984049   -0.03328600419623348   -0.0028698214280318862
0.006390683979898181   -0.03324112756393743   -0.002729075984862767
0.00638915658385107   -0.03327796288970475   -0.0027129952551400278
0.005818425318661836   -0.021205586090141375   -0.002415414279724001
0.013340093989984049   -0.03328600419623348   -0.0028698214280318862
0.00638915658385107   -0.03327796288970475   -0.0027129952551400278
0.01195182682183846   -0.021441435387579876   -0.0024393865952444613
0.005818425318661836   -0.021205586090141375   -0.002415414279724001
0.006390683979898181   -0.03324112756393743   -0.002729075984862767
0.011846421421259199   -0.021366194741374238   -0.0026052312964324927
0.005795741982312491   -0.021103998736349265   -0.0024948995994495543
0.006390683979898181   -0.03324112756393743   -0.002729075984862767
0.013340093989984049   -0.03328600419623348   -0.0028698214280318862
0.011846421421259199   -0.021366194741374238   -0.0026052312964324927
0.013248003640493795   -0.033171232119237795   -0.002961069904744189
0.005795741982312491   -0.021103998736349265   -0.0024948995994495543
0.011659687416017538   -0.021208201928155673   -0.002791269400011555
0.013248003640493795   -0.033171232119237795   -0.002961069904744189
0.011846421421259199   -0.021366194741374238   -0.0026052312964324927
0.005795741982312491   -0.021103998736349265   -0.0024948995994495543
0.013248003640493795   -0.033171232119237795   -0.002961069904744189
0.006376255856727144   -0.03317218722408064   -0.002757426981076471
0.006390683979898181   -0.03324112756393743   -0.002729075984862767
0.005795741982312491   -0.021103998736349265   -0.0024948995994495543
0.013248003640493795   -0.033171232119237795   -0.002961069904744189
0.006390683979898181   -0.03324112756393743   -0.002729075984862767
0.011846421421259199   -0.021366194741374238   -0.0026052312964324927
-0.01921271151358149   -0.03353025167563901   -0.003443447691349473
-0.021107119786360436   -0.046542225757885095   -0.003506042775694663
-0.012470042383608283   -0.03334727754843262   -0.0031113573937216863
-0.01940618327287832   -0.03372148724000742   -0.0032565543455445596
-0.021107119786360436   -0.046542225757885095   -0.003506042775694663
-0.013867884583604728   -0.046467580898461605   -0.003241395640811407
-0.012470042383608283   -0.03334727754843262   -0.0031113573937216863
-0.013862764179851652   -0.046588217966628626   -0.0031622478239955363
-0.01940618327287832   -0.03372148724000742   -0.0032565543455445596
-0.012485534012123857   -0.03348865046668488   -0.002982363902207826
-0.013862764179851652   -0.046588217966628626   -0.0031622478239955363
-0.012470042383608283   -0.03334727754843262   -0.0031113573937216863
-0.01940618327287832   -0.03372148724000742   -0.0032565543455445596
-0.013862764179851652   -0.046588217966628626   -0.0031622478239955363
-0.021197771947691676   -0.04670437407578213   -0.0034095726279517067
-0.021107119786360436   -0.046542225757885095   -0.003506042775694663
-0.01940618327287832   -0.03372148724000742   -0.0032565543455445596
-0.013862764179851652   -0.046588217966628626   -0.0031622478239955363
-0.021107119786360436   -0.046542225757885095   -0.003506042775694663
-0.012470042383608283   -0.03334727754843262   -0.0031113573937216863
-0.01940618327287832   -0.03372148724000742   -0.0032565543455445596
-0.021197771947691676   -0.04670437407578213   -0.0034095726279517067
-0.012485534012123857   -0.03348865046668488   -0.002982363902207826
-0.019517437923713316   -0.033856745846937854   -0.003087574190935393
-0.021197771947691676   -0.04670437407578213   -0.0034095726279517067
-0.013862764179851652   -0.046588217966628626   -0.0031622478239955363
-0.012485534012123857   -0.03348865046668488   -0.002982363902207826
-0.013844571669197121   -0.046699467904848024   -0.0030962409698210404
-0.019517437923713316   -0.033856745846937854   -0.003087574190935393
-0.012496743549194207   -0.033600692486287075   -0.0028662161530630973
-0.013844571669197121   -0.046699467904848024   -0.0030962409698210404
-0.012485534012123857   -0.03348865046668488   -0.002982363902207826
-0.019517437923713316   -0.033856745846937854   -0.003087574190935393
-0.013844571669197121   -0.046699467904848024   -0.0030962409698210404
-0.021226964078382444   -0.04683658024707962   -0.003332017794924937
-0.021197771947691676   -0.04670437407578213   -0.0034095726279517067
-0.019517437923713316   -0.033856745846937854   -0.003087574190935393
-0.013844571669197121   -0.046699467904848024   -0.0030962409698210404
-0.021197771947691676   -0.04670437407578213   -0.0034095726279517067
-0.012485534012123857   -0.03348865046668488   -0.002982363902207826
-0.019517437923713316   -0.033856745846937854   -0.003087574190935393
-0.021226964078382444   -0.04683658024707962   -0.003332017794924937
-0.012496743549194207   -0.033600692486287075   -0.0028662161530630973
-0.019632076158832293   -0.03397791484190278   -0.0029386337087397834
-0.021226964078382444   -0.04683658024707962   -0.003332017794924937
-0.013844571669197121   -0.046699467904848024   -0.0030962409698210404
-0.012496743549194207   -0.033600692486287075   -0.0028662161530630973
-0.013799140459817038   -0.04680980729149463   -0.0030424574923255195
-0.019632076158832293   -0.03397791484190278   -0.0029386337087397834
-0.012471385787323224   -0.03369269115663381   -0.002761209590733206
-0.013799140459817038   -0.04680980729149463   -0.0030424574923255195
-0.012496743549194207   -0.033600692486287075   -0.0028662161530630973
-0.019632076158832293   -0.03397791484190278   -0.0029386337087397834
-0.013799140459817038   -0.04680980729149463   -0.0030424574923255195
-0.021237096000232426   -0.0469801067339048   -0.003274999290626258
-0.021226964078382444   -0.04683658024707962   -0.003332017794924937
-0.019632076158832293   -0.03397791484190278   -0.0029386337087397834
-0.013799140459817038   -0.04680980729149463   -0.0030424574923255195
-0.021226964078382444   -0.04683658024707962   -0.003332017794924937
-0.012496743549194207   -0.033600692486287075   -0.0028662161530630973
-0.012470042383608283   -0.03334727754843262   -0.0031113573937216863
-0.013867884583604728   -0.046467580898461605   -0.003241395640811407
-0.006148559162412263   -0.033252758504582154   -0.002881389698000437
-0.012485534012123857   -0.03348865046668488   -0.002982363902207826
-0.013867884583604728   -0.046467580898461605   -0.003241395640811407
-0.007143049391399752   -0.04642481955275032   -0.0030612132093318658
-0.006148559162412263   -0.033252758504582154   -0.002881389698000437
-0.0071183150744264095   -0.04649786698986452   -0.0029922664523039026
-0.012485534012123857   -0.03348865046668488   -0.002982363902207826
-0.006137356768132453   -0.03334150079866076   -0.002796278213715475
-0.0071183150744264095   -0.04649786698986452   -0.0029922664523039026
-0.006148559162412263   -0.033252758504582154   -0.002881389698000437
-0.012485534012123857   -0.03348865046668488   -0.002982363902207826
-0.0071183150744264095   -0.04649786698986452   -0.0029922664523039026
-0.013862764179851652   -0.046588217966628626   -0.0031622478239955363
-0.013867884583604728   -0.046467580898461605   -0.003241395640811407
-0.012485534012123857   -0.03348865046668488   -0.002982363902207826
-0.0071183150744264095   -0.04649786698986452   -0.0029922664523039026
-0.013867884583604728   -0.046467580898461605   -0.003241395640811407
-0.006148559162412263   -0.033252758504582154   -0.002881389698000437
-0.012485534012123857   -0.03348865046668488   -0.002982363902207826
-0.013862764179851652   -0.046588217966628626   -0.0031622478239955363
-0.006137356768132453   -0.03334150079866076   -0.002796278213715475
-0.012496743549194207   -0.033600692486287075   -0.0028662161530630973
-0.013862764179851652   -0.046588217966628626   -0.0031622478239955363
-0.0071183150744264095   -0.04649786698986452   -0.0029922664523039026
-0.006137356768132453   -0.03334150079866076   -0.002796278213715475
-0.0070878910145480215   -0.04656488061101897   -0.002936473295001072
-0.012496743549194207   -0.033600692486287075   -0.0028662161530630973
-0.006121872571554442   -0.0334056681763859   -0.002723821780960148
-0.0070878910145480215   -0.04656488061101897   -0.002936473295001072
-0.006137356768132453   -0.03334150079866076   -0.002796278213715475
-0.012496743549194207   -0.033600692486287075   -0.0028662161530630973
-0.0070878910145480215   -0.04656488061101897   -0.002936473295001072
-0.013844571669197121   -0.046699467904848024   -0.0030962409698210404
-0.013862764179851652   -0.046588217966628626   -0.0031622478239955363
-0.012496743549194207   -0.033600692486287075   -0.0028662161530630973
-0.0070878910145480215   -0.04656488061101897   -0.002936473295001072
-0.013862764179851652   -0.046588217966628626   -0.0031622478239955363
-0.006137356768132453   -0.03334150079866076   -0.002796278213715475
-0.012496743549194207   -0.033600692486287075   -0.0028662161530630973
-0.013844571669197121   -0.046699467904848024   -0.0030962409698210404
-0.006121872571554442   -0.0334056681763859   -0.002723821780960148
-0.012471385787323224   -0.03369269115663381   -0.002761209590733206
-0.013844571669197121   -0.046699467904848024   -0.0030962409698210404
-0.0070878910145480215   -0.04656488061101897   -0.002936473295001072
-0.006121872571554442   -0.0334056681763859   -0.002723821780960148
-0.0070512630797081016   -0.04662608010195423   -0.00289414820756123
-0.012471385787323224   -0.03369269115663381   -0.002761209590733206
-0.006098544904471967   -0.033445680758732485   -0.0026642283781368307
-0.0070512630797081016   -0.04662608010195423   -0.00289414820756123
-0.006121872571554442   -0.0334056681763859   -0.002723821780960148
-0.012471385787323224   -0.03369269115663381   -0.002761209590733206
-0.0070512630797081016   -0.04662608010195423   -0.00289414820756123
-0.013799140459817038   -0.04680980729149463   -0.0030424574923255195
-0.013844571669197121   -0.046699467904848024   -0.0030962409698210404
-0.012471385787323224   -0.03369269115663381   -0.002761209590733206
-0.0070512630797081016   -0.04662608010195423   -0.00289414820756123
-0.013844571669197121   -0.046699467904848024   -0.0030962409698210404
-0.006121872571554442   -0.0334056681763859   -0.002723821780960148
-0.006148559162412263   -0.033252758504582154   -0.002881389698000437
-0.007143049391399752   -0.04642481955275032   -0.0030612132093318658
1.377240340226273e-06   -0.03323653496641011   -0.0027473687057004486
-0.006137356768132453   -0.03334150079866076   -0.002796278213715475
-0.007143049391399752   -0.04642481955275032   -0.0030612132093318658
-0.0006001628599421636   -0.046400374156966476   -0.002967923358565074
1.377240340226273e-06   -0.03323653496641011   -0.0027473687057004486
-0.0005654611022261701   -0.04642496703517463   -0.0029098625441433034
-0.006137356768132453   -0.03334150079866076   -0.002796278213715475
2.2882610722251575e-05   -0.03327237747165558   -0.0027064746200860055
-0.0005654611022261701   -0.04642496703517463   -0.0029098625441433034
1.377240340226273e-06   -0.03323653496641011   -0.0027473687057004486
-0.006137356768132453   -0.03334150079866076   -0.002796278213715475
-0.0005654611022261701   -0.04642496703517463   -0.0029098625441433034
-0.0071183150744264095   -0.04649786698986452   -0.0029922664523039026
-0.007143049391399752   -0.04642481955275032   -0.0030612132093318658
-0.006137356768132453   -0.03334150079866076   -0.002796278213715475
-0.0005654611022261701   -0.04642496703517463   -0.0029098625441433034
-0.007143049391399752   -0.04642481955275032   -0.0030612132093318658
1.377240340226273e-06   -0.03323653496641011   -0.0027473687057004486
-0.006137356768132453   -0.03334150079866076   -0.002796278213715475
-0.0071183150744264095   -0.04649786698986452   -0.0029922664523039026
2.2882610722251575e-05   -0.03327237747165558   -0.0027064746200860055
-0.006121872571554442   -0.0334056681763859   -0.002723821780960148
-0.0071183150744264095   -0.04649786698986452   -0.0029922664523039026
-0.0005654611022261701   -0.04642496703517463   -0.0029098625441433034
2.2882610722251575e-05   -0.03327237747165558   -0.0027064746200860055
-0.0005354586968871997   -0.04644310086463576   -0.002864840370088019
-0.006121872571554442   -0.0334056681763859   -0.002723821780960148
3.805319588363583e-05   -0.03328347620564972   -0.002678073522867797
-0.0005354586968871997   -0.04644310086463576   -0.002864840370088019
2.2882610722251575e-05   -0.03327237747165558   -0.0027064746200860055
-0.006121872571554442   -0.0334056681763859   -0.002723821780960148
-0.0005354586968871997   -0.04644310086463576   -0.002864840370088019
-0.0070878910145480215   -0.04656488061101897   -0.002936473295001072
-0.0071183150744264095   -0.04649786698986452   -0.0029922664523039026
-0.006121872571554442   -0.0334056681763859   -0.002723821780960148
-0.0005354586968871997   -0.04644310086463576   -0.002864840370088019
-0.0071183150744264095   -0.04649786698986452   -0.0029922664523039026
2.2882610722251575e-05   -0.03327237747165558   -0.0027064746200860055
-0.006121872571554442   -0.0334056681763859   -0.002723821780960148
-0.0070878910145480215   -0.04656488061101897   -0.002936473295001072
3.805319588363583e-05   -0.03328347620564972   -0.002678073522867797
-0.006098544904471967   -0.033445680758732485   -0.0026642283781368307
-0.0070878910145480215   -0.04656488061101897   -0.002936473295001072
-0.0005354586968871997   -0.04644310086463576   -0.002864840370088019
3.805319588363583e-05   -0.03328347620564972   -0.002678073522867797
-0.0005126827277208706   -0.046454683758024015   -0.0028333331575201405
-0.006098544904471967   -0.033445680758732485   -0.0026642283781368307
4.749955155610415e-05   -0.033269492282462614   -0.002662719667566699
-0.0005126827277208706   -0.046454683758024015   -0.0028333331575201405
3.805319588363583e-05   -0.03328347620564972   -0.002678073522867797
-0.006098544904471967   -0.033445680758732485   -0.0026642283781368307
-0.0005126827277208706   -0.046454683758024015   -0.0028333331575201405
-0.0070512630797081016   -0.04662608010195423   -0.00289414820756123
-0.0070878910145480215   -0.04656488061101897   -0.002936473295001072
-0.006098544904471967   -0.033445680758732485   -0.0026642283781368307
-0.0005126827277208706   -0.046454683758024015   -0.0028333331575201405
-0.0070878910145480215   -0.04656488061101897   -0.002936473295001072
3.805319588363583e-05   -0.03328347620564972   -0.002678073522867797
1.377240340226273e-06   -0.03323653496641011   -0.0027473687057004486
-0.0006001628599421636   -0.046400374156966476   -0.002967923358565074
0.006362770168693173   -0.033291930026434255   -0.002708736237227845
2.2882610722251575e-05   -0.03327237747165558   -0.0027064746200860055
-0.0006001628599421636   -0.046400374156966476   -0.002967923358565074
0.006142501436151001   -0.046390036274601004   -0.0029623300571387933
0.006362770168693173   -0.033291930026434255   -0.002708736237227845
0.006188568969855886   -0.04636770563652313   -0.0029157029724100262
2.2882610722251575e-05   -0.03327237747165558   -0.0027064746200860055
0.00638915658385107   -0.03327796288970475   -0.0027129952551400278
0.006188568969855886   -0.04636770563652313   -0.0029157029724100262
0.006362770168693173   -0.033291930026434255   -0.002708736237227845
2.2882610722251575e-05   -0.03327237747165558   -0.0027064746200860055
0.006188568969855886   -0.04636770563652313   -0.0029157029724100262
-0.0005654611022261701   -0.04642496703517463   -0.0029098625441433034
-0.0006001628599421636   -0.046400374156966476   -0.002967923358565074
2.2882610722251575e-05   -0.03327237747165558   -0.0027064746200860055
0.006188568969855886   -0.04636770563652313   -0.0029157029724100262
-0.0006001628599421636   -0.046400374156966476   -0.002967923358565074
0.006362770168693173   -0.033291930026434255   -0.002708736237227845
2.2882610722251575e-05   -0.03327237747165558   -0.0027064746200860055
-0.0005654611022261701   -0.04642496703517463   -0.0029098625441433034
0.00638915658385107   -0.03327796288970475   -0.0027129952551400278
3.805319588363583e-05   -0.03328347620564972   -0.002678073522867797
-0.0005654611022261701   -0.04642496703517463   -0.0029098625441433034
0.006188568969855886   -0.04636770563652313   -0.0029157029724100262
0.00638915658385107   -0.03327796288970475   -0.0027129952551400278
0.0062192586273813535   -0.046341608498372565   -0.0028817420163472747
3.805319588363583e-05   -0.03328347620564972   -0.002678073522867797
0.006390683979898181   -0.03324112756393743   -0.002729075984862767
0.0062192586273813535   -0.046341608498372565   -0.0028817420163472747
0.00638915658385107   -0.03327796288970475   -0.0027129952551400278
3.805319588363583e-05   -0.03328347620564972   -0.002678073522867797
0.0062192586273813535   -0.046341608498372565   -0.0028817420163472747
-0.0005354586968871997   -0.04644310086463576   -0.002864840370088019
-0.0005654611022261701   -0.04642496703517463   -0.0029098625441433034
3.805319588363583e-05   -0.03328347620564972   -0.002678073522867797
0.0062192586273813535   -0.046341608498372565   -0.0028817420163472747
-0.0005654611022261701   -0.04642496703517463   -0.0029098625441433034
0.00638915658385107   -0.03327796288970475   -0.0027129952551400278
3.805319588363583e-05   -0.03328347620564972   -0.002678073522867797
-0.0005354586968871997   -0.04644310086463576   -0.002864840370088019
0.006390683979898181   -0.03324112756393743   -0.002729075984862767
4.749955155610415e-05   -0.033269492282462614   -0.002662719667566699
-0.0005354586968871997   -0.04644310086463576   -0.002864840370088019
0.0062192586273813535   -0.046341608498372565   -0.0028817420163472747
0.006390683979898181   -0.03324112756393743   -0.002729075984862767
0.006225201493899325   -0.0463031618759428   -0.0028601865549557287
4.749955155610415e-05   -0.033269492282462614   -0.002662719667566699
0.006376255856727144   -0.03317218722408064   -0.002757426981076471
0.006225201493899325   -0.0463031618759428   -0.0028601865549557287
0.006390683979898181   -0.03324112756393743   -0.002729075984862767
4.749955155610415e-05   -0.033269492282462614   -0.002662719667566699
0.006225201493899325   -0.0463031618759428   -0.0028601865549557287
-0.0005126827277208706   -0.046454683758024015   -0.0028333331575201405
-0.0005354586968871997   -0.04644310086463576   -0.002864840370088019
4.749955155610415e-05   -0.033269492282462614   -0.002662719667566699
0.006225201493899325   -0.0463031618759428   -0.0028601865549557287
-0.0005354586968871997   -0.04644310086463576   -0.002864840370088019
0.006390683979898181   -0.03324112756393743   -0.002729075984862767
0.006362770168693173   -0.033291930026434255   -0.002708736237227845
0.006142501436151001   -0.046390036274601004   -0.0029623300571387933
0.013387363724103549   -0.03339381759995402   -0.002744576109453822
0.00638915658385107   -0.03327796288970475   -0.0027129952551400278
0.006142501436151001   -0.046390036274601004   -0.0029623300571387933
0.013449860831173912   -0.04637582507656222   -0.0030355774009609886
0.013387363724103549   -0.03339381759995402   -0.002744576109453822
0.013540217341087598   -0.04631642251485137   -0.0029975083130495133
0.00638915658385107   -0.03327796288970475   -0.0027129952551400278
0.013374252631417567   -0.03334613491219185   -0.0027976105033427007
0.013540217341087598   -0.04631642251485137   -0.0029975083130495133
0.013387363724103549   -0.03339381759995402   -0.002744576109453822
0.00638915658385107   -0.03327796288970475   -0.0027129952551400278
0.013540217341087598   -0.04631642251485137   -0.0029975083130495133
0.006188568969855886   -0.04636770563652313   -0.0029157029724100262
0.006142501436151001   -0.046390036274601004   -0.0029623300571387933
0.00638915658385107   -0.03327796288970475   -0.0027129952551400278
0.013540217341087598   -0.04631642251485137   -0.0029975083130495133
0.006142501436151001   -0.046390036274601004   -0.0029623300571387933
0.013387363724103549   -0.03339381759995402   -0.002744576109453822
0.00638915658385107   -0.03327796288970475   -0.0027129952551400278
0.006188568969855886   -0.04636770563652313   -0.0029157029724100262
0.013374252631417567   -0.03334613491219185   -0.0027976105033427007
0.006390683979898181   -0.03324112756393743   -0.002729075984862767
0.006188568969855886   -0.04636770563652313   -0.0029157029724100262
0.013540217341087598   -0.04631642251485137   -0.0029975083130495133
0.013374252631417567   -0.03334613491219185   -0.0027976105033427007
0.013587747577086468   -0.04626946773651903   -0.002978680263648875
0.006390683979898181   -0.03324112756393743   -0.002729075984862767
0.013340093989984049   -0.03328600419623348   -0.0028698214280318862
0.013587747577086468   -0.04626946773651903   -0.002978680263648875
0.013374252631417567   -0.03334613491219185   -0.0027976105033427007
0.006390683979898181   -0.03324112756393743   -0.002729075984862767
0.013587747577086468   -0.04626946773651903   -0.002978680263648875
0.0062192586273813535   -0.046341608498372565   -0.0028817420163472747
0.006188568969855886   -0.04636770563652313   -0.0029157029724100262
0.006390683979898181   -0.03324112756393743   -0.002729075984862767
0.013587747577086468   -0.04626946773651903   -0.002978680263648875
0.006188568969855886   -0.04636770563652313   -0.0029157029724100262
0.013374252631417567   -0.03334613491219185   -0.0027976105033427007
0.006390683979898181   -0.03324112756393743   -0.002729075984862767
0.0062192586273813535   -0.046341608498372565   -0.0028817420163472747
0.013340093989984049   -0.03328600419623348   -0.0028698214280318862
0.006376255856727144   -0.03317218722408064   -0.002757426981076471
0.0062192586273813535   -0.046341608498372565   -0.0028817420163472747
0.013587747577086468   -0.04626946773651903   -0.002978680263648875
0.013340093989984049   -0.03328600419623348   -0.0028698214280318862
0.013598678122098036   -0.046193993216212086   -0.0029794209190032676
0.006376255856727144   -0.03317218722408064   -0.002757426981076471
0.013248003640493795   -0.033171232119237795   -0.002961069904744189
0.013598678122098036   -0.046193993216212086   -0.0029794209190032676
0.013340093989984049   -0.03328600419623348   -0.0028698214280318862
0.006376255856727144   -0.03317218722408064   -0.002757426981076471
0.013598678122098036   -0.046193993216212086   -0.0029794209190032676
0.006225201493899325   -0.0463031618759428   -0.0028601865549557287
0.0062192586273813535   -0.046341608498372565   -0.0028817420163472747
0.006376255856727144   -0.03317218722408064   -0.002757426981076471
0.013598678122098036   -0.046193993216212086   -0.0029794209190032676
0.0062192586273813535   -0.046341608498372565   -0.0028817420163472747
0.013340093989984049   -0.03328600419623348   -0.0028698214280318862
-0.021107119786360436   -0.046542225757885095   -0.003506042775694663
-0.02176887030418325   -0.05979157488067251   -0.003446388371016037
-0.013867884583604728   -0.046467580898461605   -0.003241395640811407
-0.021197771947691676   -0.04670437407578213   -0.0034095726279517067
-0.02176887030418325   -0.05979157488067251   -0.003446388371016037
-0.0145368187947752   -0.05982613548109471   -0.00325060029032147
-0.013867884583604728   -0.046467580898461605   -0.003241395640811407
-0.014498092979480874   -0.05992560280051056   -0.00322056549651975
-0.021197771947691676   -0.04670437407578213   -0.0034095726279517067
-0.013862764179851652   -0.046588217966628626   -0.0031622478239955363
-0.014498092979480874   -0.05992560280051056   -0.00322056549651975
-0.013867884583604728   -0.046467580898461605   -0.003241395640811407
-0.021197771947691676   -0.04670437407578213   -0.0034095726279517067
-0.014498092979480874   -0.05992560280051056   -0.00322056549651975
-0.02174421810349685   -0.05992464335924193   -0.0034400132564145584
-0.02176887030418325   -0.05979157488067251   -0.003446388371016037
-0.021197771947691676   -0.04670437407578213   -0.0034095726279517067
-0.014498092979480874   -0.05992560280051056   -0.00322056549651975
-0.02176887030418325   -0.05979157488067251   -0.003446388371016037
-0.013867884583604728   -0.046467580898461605   -0.003241395640811407
-0.021197771947691676   -0.04670437407578213   -0.0034095726279517067
-0.02174421810349685   -0.05992464335924193   -0.0034400132564145584
-0.013862764179851652   -0.046588217966628626   -0.0031622478239955363
-0.021226964078382444   -0.04683658024707962   -0.003332017794924937
-0.02174421810349685   -0.05992464335924193   -0.0034400132564145584
-0.014498092979480874   -0.05992560280051056   -0.00322056549651975
-0.013862764179851652   -0.046588217966628626   -0.0031622478239955363
-0.01443752982493781   -0.060035760221254925   -0.003204085893677438
-0.021226964078382444   -0.04683658024707962   -0.003332017794924937
-0.013844571669197121   -0.046699467904848024   -0.0030962409698210404
-0.01443752982493781   -0.060035760221254925   -0.003204085893677438
-0.013862764179851652   -0.046588217966628626   -0.0031622478239955363
-0.021226964078382444   -0.04683658024707962   -0.003332017794924937
-0.01443752982493781   -0.060035760221254925   -0.003204085893677438
-0.02167800170683784   -0.06005378851092383   -0.003453896016818521
-0.02174421810349685   -0.05992464335924193   -0.0034400132564145584
-0.021226964078382444   -0.04683658024707962   -0.003332017794924937
-0.01443752982493781   -0.060035760221254925   -0.003204085893677438
-0.02174421810349685   -0.05992464335924193   -0.0034400132564145584
-0.013862764179851652   -0.046588217966628626   -0.0031622478239955363
-0.021226964078382444   -0.04683658024707962   -0.003332017794924937
-0.02167800170683784   -0.06005378851092383   -0.003453896016818521
-0.013844571669197121   -0.046699467904848024   -0.0030962409698210404
-0.021237096000232426   -0.0469801067339048   -0.003274999290626258
-0.02167800170683784   -0.06005378851092383   -0.003453896016818521
-0.01443752982493781   -0.060035760221254925   -0.003204085893677438
-0.013844571669197121   -0.046699467904848024   -0.0030962409698210404
-0.01435900316298158   -0.06016418926688504   -0.003200945173219112
-0.021237096000232426   -0.0469801067339048   -0.003274999290626258
-0.013799140459817038   -0.04680980729149463   -0.0030424574923255195
-0.01435900316298158   -0.06016418926688504   -0.003200945173219112
-0.013844571669197121   -0.046699467904848024   -0.0030962409698210404
-0.021237096000232426   -0.0469801067339048   -0.003274999290626258
-0.01435900316298158   -0.06016418926688504   -0.003200945173219112
-0.02157033481775926   -0.060220094274358794   -0.0034890563605546837
-0.02167800170683784   -0.06005378851092383   -0.003453896016818521
-0.021237096000232426   -0.0469801067339048   -0.003274999290626258
-0.01435900316298158   -0.06016418926688504   -0.003200945173219112
-0.02167800170683784   -0.06005378851092383   -0.003453896016818521
-0.013844571669197121   -0.046699467904848024   -0.0030962409698210404
-0.013867884583604728   -0.046467580898461605   -0.003241395640811407
-0.0145368187947752   -0.05982613548109471   -0.00325060029032147
-0.007143049391399752   -0.04642481955275032   -0.0030612132093318658
-0.013862764179851652   -0.046588217966628626   -0.0031622478239955363
-0.0145368187947752   -0.05982613548109471   -0.00325060029032147
-0.007912472627859537   -0.05983368747841228   -0.0031204528239785144
-0.007143049391399752   -0.04642481955275032   -0.0030612132093318658
-0.007860548462065249   -0.059890771679903886   -0.0030672069264475674
-0.013862764179851652   -0.046588217966628626   -0.0031622478239955363
-0.0071183150744264095   -0.04649786698986452   -0.0029922664523039026
-0.007860548462065249   -0.059890771679903886   -0.0030672069264475674
-0.007143049391399752   -0.04642481955275032   -0.0030612132093318658
-0.013862764179851652   -0.046588217966628626   -0.0031622478239955363
-0.007860548462065249   -0.059890771679903886   -0.0030672069264475674
-0.014498092979480874   -0.05992560280051056   -0.00322056549651975
-0.0145368187947752   -0.05982613548109471   -0.00325060029032147
-0.013862764179851652   -0.046588217966628626   -0.0031622478239955363
-0.007860548462065249   -0.059890771679903886   -0.0030672069264475674
-0.0145368187947752   -0.05982613548109471   -0.00325060029032147
-0.007143049391399752   -0.04642481955275032   -0.0030612132093318658
-0.013862764179851652   -0.046588217966628626   -0.0031622478239955363
-0.014498092979480874   -0.05992560280051056   -0.00322056549651975
-0.0071183150744264095   -0.04649786698986452   -0.0029922664523039026
-0.013844571669197121   -0.046699467904848024   -0.0030962409698210404
-0.014498092979480874   -0.05992560280051056   -0.00322056549651975
-0.007860548462065249   -0.059890771679903886   -0.0030672069264475674
-0.0071183150744264095   -0.04649786698986452   -0.0029922664523039026
-0.007801849024647764   -0.059960136812818435   -0.0030275688218696596
-0.013844571669197121   -0.046699467904848024   -0.0030962409698210404
-0.0070878910145480215   -0.04656488061101897   -0.002936473295001072
-0.007801849024647764   -0.059960136812818435   -0.0030275688218696596
-0.0071183150744264095   -0.04649786698986452   -0.0029922664523039026
-0.013844571669197121   -0.046699467904848024   -0.0030962409698210404
-0.007801849024647764   -0.059960136812818435   -0.0030275688218696596
-0.01443752982493781   -0.060035760221254925   -0.003204085893677438
-0.014498092979480874   -0.05992560280051056   -0.00322056549651975
-0.013844571669197121   -0.046699467904848024   -0.0030962409698210404
-0.007801849024647764   -0.059960136812818435   -0.0030275688218696596
-0.014498092979480874   -0.05992560280051056   -0.00322056549651975
-0.0071183150744264095   -0.04649786698986452   -0.0029922664523039026
-0.013844571669197121   -0.046699467904848024   -0.0030962409698210404
-0.01443752982493781   -0.060035760221254925   -0.003204085893677438
-0.0070878910145480215   -0.04656488061101897   -0.002936473295001072
-0.013799140459817038   -0.04680980729149463   -0.0030424574923255195
-0.01443752982493781   -0.060035760221254925   -0.003204085893677438
-0.007801849024647764   -0.059960136812818435   -0.0030275688218696596
-0.0070878910145480215   -0.04656488061101897   -0.002936473295001072
-0.007738577748278774   -0.060041999026837656   -0.0030019780049391526
-0.013799140459817038   -0.04680980729149463   -0.0030424574923255195
-0.0070512630797081016   -0.04662608010195423   -0.00289414820756123
-0.007738577748278774   -0.060041999026837656   -0.0030019780049391526
-0.0070878910145480215   -0.04656488061101897   -0.002936473295001072
-0.013799140459817038   -0.04680980729149463   -0.0030424574923255195
-0.007738577748278774   -0.060041999026837656   -0.0030019780049391526
-0.01435900316298158   -0.06016418926688504   -0.003200945173219112
-0.01443752982493781   -0.060035760221254925   -0.003204085893677438
-0.013799140459817038   -0.04680980729149463   -0.0030424574923255195
-0.007738577748278774   -0.060041999026837656   -0.0030019780049391526
-0.01443752982493781   -0.060035760221254925   -0.003204085893677438
-0.0070878910145480215   -0.04656488061101897   -0.002936473295001072
-0.007143049391399752   -0.04642481955275032   -0.0030612132093318658
-0.007912472627859537   -0.05983368747841228   -0.0031204528239785144
-0.0006001628599421636   -0.046400374156966476   -0.002967923358565074
-0.0071183150744264095   -0.04649786698986452   -0.0029922664523039026
-0.007912472627859537   -0.05983368747841228   -0.0031204528239785144
-0.0014755820769342136   -0.05979863063341208   -0.00306714439775176
-0.0006001628599421636   -0.046400374156966476   -0.002967923358565074
-0.0014141503853091933   -0.05981192540797518   -0.002991842028950141
-0.0071183150744264095   -0.04649786698986452   -0.0029922664523039026
-0.0005654611022261701   -0.04642496703517463   -0.0029098625441433034
-0.0014141503853091933   -0.05981192540797518   -0.002991842028950141
-0.0006001628599421636   -0.046400374156966476   -0.002967923358565074
-0.0071183150744264095   -0.04649786698986452   -0.0029922664523039026
-0.0014141503853091933   -0.05981192540797518   -0.002991842028950141
-0.007860548462065249   -0.059890771679903886   -0.0030672069264475674
-0.007912472627859537   -0.05983368747841228   -0.0031204528239785144
-0.0071183150744264095   -0.04649786698986452   -0.0029922664523039026
-0.0014141503853091933   -0.05981192540797518   -0.002991842028950141
-0.007912472627859537   -0.05983368747841228   -0.0031204528239785144
-0.0006001628599421636   -0.046400374156966476   -0.002967923358565074
-0.0071183150744264095   -0.04649786698986452   -0.0029922664523039026
-0.007860548462065249   -0.059890771679903886   -0.0030672069264475674
-0.0005654611022261701   -0.04642496703517463   -0.0029098625441433034
-0.0070878910145480215   -0.04656488061101897   -0.002936473295001072
-0.007860548462065249   -0.059890771679903886   -0.0030672069264475674
-0.0014141503853091933   -0.05981192540797518   -0.002991842028950141
-0.0005654611022261701   -0.04642496703517463   -0.0029098625441433034
-0.0013560472684727134   -0.0598365357835921   -0.0029300497889281213
-0.0070878910145480215   -0.04656488061101897   -0.002936473295001072
-0.0005354586968871997   -0.04644310086463576   -0.002864840370088019
-0.0013560472684727134   -0.0598365357835921   -0.0029300497889281213
-0.0005654611022261701   -0.04642496703517463   -0.0029098625441433034
-0.0070878910145480215   -0.04656488061101897   -0.002936473295001072
-0.0013560472684727134   -0.0598365357835921   -0.0029300497889281213
-0.007801849024647764   -0.059960136812818435   -0.0030275688218696596
-0.007860548462065249   -0.059890771679903886   -0.0030672069264475674
-0.0070878910145480215   -0.04656488061101897   -0.002936473295001072
-0.0013560472684727134   -0.0598365357835921   -0.0029300497889281213
-0.007860548462065249   -0.059890771679903886   -0.0030672069264475674
-0.0005654611022261701   -0.04642496703517463   -0.0029098625441433034
-0.0070878910145480215   -0.04656488061101897   -0.002936473295001072
-0.007801849024647764   -0.059960136812818435   -0.0030275688218696596
-0.0005354586968871997   -0.04644310086463576   -0.002864840370088019
-0.0070512630797081016   -0.04662608010195423   -0.00289414820756123
-0.007801849024647764   -0.059960136812818435   -0.0030275688218696596
-0.0013560472684727134   -0.0598365357835921   -0.0029300497889281213
-0.0005354586968871997   -0.04644310086463576   -0.002864840370088019
-0.0013067650866953307   -0.059873025165707826   -0.002882240300246316
-0.0070512630797081016   -0.04662608010195423   -0.00289414820756123
-0.0005126827277208706   -0.046454683758024015   -0.0028333331575201405
-0.0013067650866953307   -0.059873025165707826   -0.002882240300246316
-0.0005354586968871997   -0.04644310086463576   -0.002864840370088019
-0.0070512630797081016   -0.04662608010195423   -0.00289414820756123
-0.0013067650866953307   -0.059873025165707826   -0.002882240300246316
-0.007738577748278774   -0.060041999026837656   -0.0030019780049391526
-0.007801849024647764   -0.059960136812818435   -0.0030275688218696596
-0.0070512630797081016   -0.04662608010195423   -0.00289414820756123
-0.0013067650866953307   -0.059873025165707826   -0.002882240300246316
-0.007801849024647764   -0.059960136812818435   -0.0030275688218696596
-0.0005354586968871997   -0.04644310086463576   -0.002864840370088019
-0.0006001628599421636   -0.046400374156966476   -0.002967923358565074
-0.0014755820769342136   -0.05979863063341208   -0.00306714439775176
0.006142501436151001   -0.046390036274601004   -0.0029623300571387933
-0.0005654611022261701   -0.04642496703517463   -0.0029098625441433034
-0.0014755820769342136   -0.05979863063341208   -0.00306714439775176
0.005155282683450013   -0.05972067610547275   -0.003093205334210107
0.006142501436151001   -0.046390036274601004   -0.0029623300571387933
0.005233667271931833   -0.059690042630995616   -0.0029962432276782708
-0.0005654611022261701   -0.04642496703517463   -0.0029098625441433034
0.006188568969855886   -0.04636770563652313   -0.0029157029724100262
0.005233667271931833   -0.059690042630995616   -0.0029962432276782708
0.006142501436151001   -0.046390036274601004   -0.0029623300571387933
-0.0005654611022261701   -0.04642496703517463   -0.0029098625441433034
0.005233667271931833   -0.059690042630995616   -0.0029962432276782708
-0.0014141503853091933   -0.05981192540797518   -0.002991842028950141
-0.0014755820769342136   -0.05979863063341208   -0.00306714439775176
-0.0005654611022261701   -0.04642496703517463   -0.0029098625441433034
0.005233667271931833   -0.059690042630995616   -0.0029962432276782708
-0.0014755820769342136   -0.05979863063341208   -0.00306714439775176
0.006142501436151001   -0.046390036274601004   -0.0029623300571387933
-0.0005654611022261701   -0.04642496703517463   -0.0029098625441433034
-0.0014141503853091933   -0.05981192540797518   -0.002991842028950141
0.006188568969855886   -0.04636770563652313   -0.0029157029724100262
-0.0005354586968871997   -0.04644310086463576   -0.002864840370088019
-0.0014141503853091933   -0.05981192540797518   -0.002991842028950141
0.005233667271931833   -0.059690042630995616   -0.0029962432276782708
0.006188568969855886   -0.04636770563652313   -0.0029157029724100262
0.005306061885182983   -0.059674117528654536   -0.00291275170924629
-0.0005354586968871997   -0.04644310086463576   -0.002864840370088019
0.0062192586273813535   -0.046341608498372565   -0.0028817420163472747
0.005306061885182983   -0.059674117528654536   -0.00291275170924629
0.006188568969855886   -0.04636770563652313   -0.0029157029724100262
-0.0005354586968871997   -0.04644310086463576   -0.002864840370088019
0.005306061885182983   -0.059674117528654536   -0.00291275170924629
-0.0013560472684727134   -0.0598365357835921   -0.0029300497889281213
-0.0014141503853091933   -0.05981192540797518   -0.002991842028950141
-0.0005354586968871997   -0.04644310086463576   -0.002864840370088019
0.005306061885182983   -0.059674117528654536   -0.00291275170924629
-0.0014141503853091933   -0.05981192540797518   -0.002991842028950141
0.006188568969855886   -0.04636770563652313   -0.0029157029724100262
-0.0005354586968871997   -0.04644310086463576   -0.002864840370088019
-0.0013560472684727134   -0.0598365357835921   -0.0029300497889281213
0.0062192586273813535   -0.046341608498372565   -0.0028817420163472747
-0.0005126827277208706   -0.046454683758024015   -0.0028333331575201405
-0.0013560472684727134   -0.0598365357835921   -0.0029300497889281213
0.005306061885182983   -0.059674117528654536   -0.00291275170924629
0.0062192586273813535   -0.046341608498372565   -0.0028817420163472747
0.0053447827348551465   -0.05966516181670334   -0.0028418513745338456
-0.0005126827277208706   -0.046454683758024015   -0.0028333331575201405
0.006225201493899325   -0.0463031618759428   -0.0028601865549557287
0.0053447827348551465   -0.05966516181670334   -0.0028418513745338456
0.0062192586273813535   -0.046341608498372565   -0.0028817420163472747
-0.0005126827277208706   -0.046454683758024015   -0.0028333331575201405
0.0053447827348551465   -0.05966516181670334   -0.0028418513745338456
-0.0013067650866953307   -0.059873025165707826   -0.002882240300246316
-0.0013560472684727134   -0.0598365357835921   -0.0029300497889281213
-0.0005126827277208706   -0.046454683758024015   -0.0028333331575201405
0.0053447827348551465   -0.05966516181670334   -0.0028418513745338456
-0.0013560472684727134   -0.0598365357835921   -0.0029300497889281213
0.0062192586273813535   -0.046341608498372565   -0.0028817420163472747
0.006142501436151001   -0.046390036274601004   -0.0029623300571387933
0.005155282683450013   -0.05972067610547275   -0.003093205334210107
0.013449860831173912   -0.04637582507656222   -0.0030355774009609886
0.006188568969855886   -0.04636770563652313   -0.0029157029724100262
0.005155282683450013   -0.05972067610547275   -0.003093205334210107
0.012255328534352418   -0.05958974644321019   -0.0032027473909101785
0.013449860831173912   -0.04637582507656222   -0.0030355774009609886
0.012460090587094264   -0.059519303021952526   -0.003075536428983078
0.006188568969855886   -0.04636770563652313   -0.0029157029724100262
0.013540217341087598   -0.04631642251485137   -0.0029975083130495133
0.012460090587094264   -0.059519303021952526   -0.003075536428983078
0.013449860831173912   -0.04637582507656222   -0.0030355774009609886
0.006188568969855886   -0.04636770563652313   -0.0029157029724100262
0.012460090587094264   -0.059519303021952526   -0.003075536428983078
0.005233667271931833   -0.059690042630995616   -0.0029962432276782708
0.005155282683450013   -0.05972067610547275   -0.003093205334210107
0.006188568969855886   -0.04636770563652313   -0.0029157029724100262
0.012460090587094264   -0.059519303021952526   -0.003075536428983078
0.005155282683450013   -0.05972067610547275   -0.003093205334210107
0.013449860831173912   -0.04637582507656222   -0.0030355774009609886
0.006188568969855886   -0.04636770563652313   -0.0029157029724100262
0.005233667271931833   -0.059690042630995616   -0.0029962432276782708
0.013540217341087598   -0.04631642251485137   -0.0029975083130495133
0.0062192586273813535   -0.046341608498372565   -0.0028817420163472747
0.005233667271931833   -0.059690042630995616   -0.0029962432276782708
0.012460090587094264   -0.059519303021952526   -0.003075536428983078
0.013540217341087598   -0.04631642251485137   -0.0029975083130495133
0.012600673767837883   -0.05948514871356412   -0.0029675046979542098
0.0062192586273813535   -0.046341608498372565   -0.0028817420163472747
0.013587747577086468   -0.04626946773651903   -0.002978680263648875
0.012600673767837883   -0.05948514871356412   -0.0029675046979542098
0.013540217341087598   -0.04631642251485137   -0.0029975083130495133
0.0062192586273813535   -0.046341608498372565   -0.0028817420163472747
0.012600673767837883   -0.05948514871356412   -0.0029675046979542098
0.005306061885182983   -0.059674117528654536   -0.00291275170924629
0.005233667271931833   -0.059690042630995616   -0.0029962432276782708
0.0062192586273813535   -0.046341608498372565   -0.0028817420163472747
0.012600673767837883   -0.05948514871356412   -0.0029675046979542098
0.005233667271931833   -0.059690042630995616   -0.0029962432276782708
0.013540217341087598   -0.04631642251485137   -0.0029975083130495133
0.0062192586273813535   -0.046341608498372565   -0.0028817420163472747
0.005306061885182983   -0.059674117528654536   -0.00291275170924629
0.013587747577086468   -0.04626946773651903   -0.002978680263648875
0.006225201493899325   -0.0463031618759428   -0.0028601865549557287
0.005306061885182983   -0.059674117528654536   -0.00291275170924629
0.012600673767837883   -0.05948514871356412   -0.0029675046979542098
0.013587747577086468   -0.04626946773651903   -0.002978680263648875
0.01272534988224486   -0.05944790429950651   -0.0028794472358144333
0.006225201493899325   -0.0463031618759428   -0.0028601865549557287
0.013598678122098036   -0.046193993216212086   -0.0029794209190032676
0.01272534988224486   -0.05944790429950651   -0.0028794472358144333
0.013587747577086468   -0.04626946773651903   -0.002978680263648875
0.006225201493899325   -0.0463031618759428   -0.0028601865549557287
0.01272534988224486   -0.05944790429950651   -0.0028794472358144333
0.0053447827348551465   -0.05966516181670334   -0.0028418513745338456
0.005306061885182983   -0.059674117528654536   -0.00291275170924629
0.006225201493899325   -0.0463031618759428   -0.0028601865549557287
0.01272534988224486   -0.05944790429950651   -0.0028794472358144333
0.005306061885182983   -0.059674117528654536   -0.00291275170924629
0.013587747577086468   -0.04626946773651903   -0.002978680263648875
-0.02176887030418325   -0.05979157488067251   -0.003446388371016037
-0.021186980969428847   -0.07244605024793202   -0.003294717812337347
-0.0145368187947752   -0.05982613548109471   -0.00325060029032147
-0.02174421810349685   -0.05992464335924193   -0.0034400132564145584
-0.021186980969428847   -0.07244605024793202   -0.003294717812337347
-0.014477429967498325   -0.0725918573503926   -0.0031767108598285145
-0.0145368187947752   -0.05982613548109471   -0.00325060029032147
-0.014392608345314185   -0.07266614393120242   -0.0031945126992093432
-0.02174421810349685   -0.05992464335924193   -0.0034400132564145584
-0.014498092979480874   -0.05992560280051056   -0.00322056549651975
-0.014392608345314185   -0.07266614393120242   -0.0031945126992093432
-0.0145368187947752   -0.05982613548109471   -0.00325060029032147
-0.02174421810349685   -0.05992464335924193   -0.0034400132564145584
-0.014392608345314185   -0.07266614393120242   -0.0031945126992093432
-0.021033881263560646   -0.0725463471771227   -0.0033786868287878865
-0.021186980969428847   -0.07244605024793202   -0.003294717812337347
-0.02174421810349685   -0.05992464335924193   -0.0034400132564145584
-0.014392608345314185   -0.07266614393120242   -0.0031945126992093432
-0.021186980969428847   -0.07244605024793202   -0.003294717812337347
-0.0145368187947752   -0.05982613548109471   -0.00325060029032147
-0.02174421810349685   -0.05992464335924193   -0.0034400132564145584
-0.021033881263560646   -0.0725463471771227   -0.0033786868287878865
-0.014498092979480874   -0.05992560280051056   -0.00322056549651975
-0.02167800170683784   -0.06005378851092383   -0.003453896016818521
-0.021033881263560646   -0.0725463471771227   -0.0033786868287878865
-0.014392608345314185   -0.07266614393120242   -0.0031945126992093432
-0.014498092979480874   -0.05992560280051056   -0.00322056549651975
-0.014277723960191006   -0.07277184015389755   -0.003226223170125694
-0.02167800170683784   -0.06005378851092383   -0.003453896016818521
-0.01443752982493781   -0.060035760221254925   -0.003204085893677438
-0.014277723960191006   -0.07277184015389755   -0.003226223170125694
-0.014498092979480874   -0.05992560280051056   -0.00322056549651975
-0.02167800170683784   -0.06005378851092383   -0.003453896016818521
-0.014277723960191006   -0.07277184015389755   -0.003226223170125694
-0.02085903325948608   -0.0726693604652321   -0.0034845320524678714
-0.021033881263560646   -0.0725463471771227   -0.0033786868287878865
-0.02167800170683784   -0.06005378851092383   -0.003453896016818521
-0.014277723960191006   -0.07277184015389755   -0.003226223170125694
-0.021033881263560646   -0.0725463471771227   -0.0033786868287878865
-0.014498092979480874   -0.05992560280051056   -0.00322056549651975
-0.02167800170683784   -0.06005378851092383   -0.003453896016818521
-0.02085903325948608   -0.0726693604652321   -0.0034845320524678714
-0.01443752982493781   -0.060035760221254925   -0.003204085893677438
-0.02157033481775926   -0.060220094274358794   -0.0034890563605546837
-0.02085903325948608   -0.0726693604652321   -0.0034845320524678714
-0.014277723960191006   -0.07277184015389755   -0.003226223170125694
-0.01443752982493781   -0.060035760221254925   -0.003204085893677438
-0.014154434099105464   -0.07291539049314587   -0.0032722555808761943
-0.02157033481775926   -0.060220094274358794   -0.0034890563605546837
-0.01435900316298158   -0.06016418926688504   -0.003200945173219112
-0.014154434099105464   -0.07291539049314587   -0.0032722555808761943
-0.01443752982493781   -0.060035760221254925   -0.003204085893677438
-0.02157033481775926   -0.060220094274358794   -0.0034890563605546837
-0.014154434099105464   -0.07291539049314587   -0.0032722555808761943
-0.02062087769822514   -0.07285656849633565   -0.003612652416118499
-0.02085903325948608   -0.0726693604652321   -0.0034845320524678714
-0.02157033481775926   -0.060220094274358794   -0.0034890563605546837
-0.014154434099105464   -0.07291539049314587   -0.0032722555808761943
-0.02085903325948608   -0.0726693604652321   -0.0034845320524678714
-0.01443752982493781   -0.060035760221254925   -0.003204085893677438
-0.0145368187947752   -0.05982613548109471   -0.00325060029032147
-0.014477429967498325   -0.0725918573503926   -0.0031767108598285145
-0.007912472627859537   -0.05983368747841228   -0.0031204528239785144
-0.014498092979480874   -0.05992560280051056   -0.00322056549651975
-0.014477429967498325   -0.0725918573503926   -0.0031767108598285145
-0.008463570761703754   -0.072649628263092   -0.0031011620661838294
-0.007912472627859537   -0.05983368747841228   -0.0031204528239785144
-0.0083711781424312   -0.07268827973307765   -0.0030623955296945346
-0.014498092979480874   -0.05992560280051056   -0.00322056549651975
-0.007860548462065249   -0.059890771679903886   -0.0030672069264475674
-0.0083711781424312   -0.07268827973307765   -0.0030623955296945346
-0.007912472627859537   -0.05983368747841228   -0.0031204528239785144
-0.014498092979480874   -0.05992560280051056   -0.00322056549651975
-0.0083711781424312   -0.07268827973307765   -0.0030623955296945346
-0.014392608345314185   -0.07266614393120242   -0.0031945126992093432
-0.014477429967498325   -0.0725918573503926   -0.0031767108598285145
-0.014498092979480874   -0.05992560280051056   -0.00322056549651975
-0.0083711781424312   -0.07268827973307765   -0.0030623955296945346
-0.014477429967498325   -0.0725918573503926   -0.0031767108598285145
-0.007912472627859537   -0.05983368747841228   -0.0031204528239785144
-0.014498092979480874   -0.05992560280051056   -0.00322056549651975
-0.014392608345314185   -0.07266614393120242   -0.0031945126992093432
-0.007860548462065249   -0.059890771679903886   -0.0030672069264475674
-0.01443752982493781   -0.060035760221254925   -0.003204085893677438
-0.014392608345314185   -0.07266614393120242   -0.0031945126992093432
-0.0083711781424312   -0.07268827973307765   -0.0030623955296945346
-0.007860548462065249   -0.059890771679903886   -0.0030672069264475674
-0.008271780884237344   -0.07275713674542321   -0.0030373687510238407
-0.01443752982493781   -0.060035760221254925   -0.003204085893677438
-0.007801849024647764   -0.059960136812818435   -0.0030275688218696596
-0.008271780884237344   -0.07275713674542321   -0.0030373687510238407
-0.007860548462065249   -0.059890771679903886   -0.0030672069264475674
-0.01443752982493781   -0.060035760221254925   -0.003204085893677438
-0.008271780884237344   -0.07275713674542321   -0.0030373687510238407
-0.014277723960191006   -0.07277184015389755   -0.003226223170125694
-0.014392608345314185   -0.07266614393120242   -0.0031945126992093432
-0.01443752982493781   -0.060035760221254925   -0.003204085893677438
-0.008271780884237344   -0.07275713674542321   -0.0030373687510238407
-0.014392608345314185   -0.07266614393120242   -0.0031945126992093432
-0.007860548462065249   -0.059890771679903886   -0.0030672069264475674
-0.01443752982493781   -0.060035760221254925   -0.003204085893677438
-0.014277723960191006   -0.07277184015389755   -0.003226223170125694
-0.007801849024647764   -0.059960136812818435   -0.0030275688218696596
-0.01435900316298158   -0.06016418926688504   -0.003200945173219112
-0.014277723960191006   -0.07277184015389755   -0.003226223170125694
-0.008271780884237344   -0.07275713674542321   -0.0030373687510238407
-0.007801849024647764   -0.059960136812818435   -0.0030275688218696596
-0.008169611795061716   -0.07285707282860451   -0.003026751774349107
-0.01435900316298158   -0.06016418926688504   -0.003200945173219112
-0.007738577748278774   -0.060041999026837656   -0.0030019780049391526
-0.008169611795061716   -0.07285707282860451   -0.003026751774349107
-0.007801849024647764   -0.059960136812818435   -0.0030275688218696596
-0.01435900316298158   -0.06016418926688504   -0.003200945173219112
-0.008169611795061716   -0.07285707282860451   -0.003026751774349107
-0.014154434099105464   -0.07291539049314587   -0.0032722555808761943
-0.014277723960191006   -0.07277184015389755   -0.003226223170125694
-0.01435900316298158   -0.06016418926688504   -0.003200945173219112
-0.008169611795061716   -0.07285707282860451   -0.003026751774349107
-0.014277723960191006   -0.07277184015389755   -0.003226223170125694
-0.007801849024647764   -0.059960136812818435   -0.0030275688218696596
-0.007912472627859537   -0.05983368747841228   -0.0031204528239785144
-0.008463570761703754   -0.072649628263092   -0.0031011620661838294
-0.0014755820769342136   -0.05979863063341208   -0.00306714439775176
-0.007860548462065249   -0.059890771679903886   -0.0030672069264475674
-0.008463570761703754   -0.072649628263092   -0.0031011620661838294
-0.0026319293460993695   -0.07260543053747505   -0.0030885226641364527
-0.0014755820769342136   -0.05979863063341208   -0.00306714439775176
-0.002529734037514136   -0.07260639586009361   -0.0029951281180028407
-0.007860548462065249   -0.059890771679903886   -0.0030672069264475674
-0.0014141503853091933   -0.05981192540797518   -0.002991842028950141
-0.002529734037514136   -0.07260639586009361   -0.0029951281180028407
-0.0014755820769342136   -0.05979863063341208   -0.00306714439775176
-0.007860548462065249   -0.059890771679903886   -0.0030672069264475674
-0.002529734037514136   -0.07260639586009361   -0.0029951281180028407
-0.0083711781424312   -0.07268827973307765   -0.0030623955296945346
-0.008463570761703754   -0.072649628263092   -0.0031011620661838294
-0.007860548462065249   -0.059890771679903886   -0.0030672069264475674
-0.002529734037514136   -0.07260639586009361   -0.0029951281180028407
-0.008463570761703754   -0.072649628263092   -0.0031011620661838294
-0.0014755820769342136   -0.05979863063341208   -0.00306714439775176
-0.007860548462065249   -0.059890771679903886   -0.0030672069264475674
-0.0083711781424312   -0.07268827973307765   -0.0030623955296945346
-0.0014141503853091933   -0.05981192540797518   -0.002991842028950141
-0.007801849024647764   -0.059960136812818435   -0.0030275688218696596
-0.0083711781424312   -0.07268827973307765   -0.0030623955296945346
-0.002529734037514136   -0.07260639586009361   -0.0029951281180028407
-0.0014141503853091933   -0.05981192540797518   -0.002991842028950141
-0.0024302231140904363   -0.07263534610321568   -0.0029155060357905073
-0.007801849024647764   -0.059960136812818435   -0.0030275688218696596
-0.0013560472684727134   -0.0598365357835921   -0.0029300497889281213
-0.0024302231140904363   -0.07263534610321568   -0.0029155060357905073
-0.0014141503853091933   -0.05981192540797518   -0.002991842028950141
-0.007801849024647764   -0.059960136812818435   -0.0030275688218696596
-0.0024302231140904363   -0.07263534610321568   -0.0029155060357905073
-0.008271780884237344   -0.07275713674542321   -0.0030373687510238407
-0.0083711781424312   -0.07268827973307765   -0.0030623955296945346
-0.007801849024647764   -0.059960136812818435   -0.0030275688218696596
-0.0024302231140904363   -0.07263534610321568   -0.0029155060357905073
-0.0083711781424312   -0.07268827973307765   -0.0030623955296945346
-0.0014141503853091933   -0.05981192540797518   -0.002991842028950141
-0.007801849024647764   -0.059960136812818435   -0.0030275688218696596
-0.008271780884237344   -0.07275713674542321   -0.0030373687510238407
-0.0013560472684727134   -0.0598365357835921   -0.0029300497889281213
-0.007738577748278774   -0.060041999026837656   -0.0030019780049391526
-0.008271780884237344   -0.07275713674542321   -0.0030373687510238407
-0.0024302231140904363   -0.07263534610321568   -0.0029155060357905073
-0.0013560472684727134   -0.0598365357835921   -0.0029300497889281213
-0.0023414540708661   -0.07269468649137512   -0.0028501357906665814
-0.007738577748278774   -0.060041999026837656   -0.0030019780049391526
-0.0013067650866953307   -0.059873025165707826   -0.002882240300246316
-0.0023414540708661   -0.07269468649137512   -0.0028501357906665814
-0.0013560472684727134   -0.0598365357835921   -0.0029300497889281213
-0.007738577748278774   -0.060041999026837656   -0.0030019780049391526
-0.0023414540708661   -0.07269468649137512   -0.0028501357906665814
-0.008169611795061716   -0.07285707282860451   -0.003026751774349107
-0.008271780884237344   -0.07275713674542321   -0.0030373687510238407
-0.007738577748278774   -0.060041999026837656   -0.0030019780049391526
-0.0023414540708661   -0.07269468649137512   -0.0028501357906665814
-0.008271780884237344   -0.07275713674542321   -0.0030373687510238407
-0.0013560472684727134   -0.0598365357835921   -0.0029300497889281213
-0.0014755820769342136   -0.05979863063341208   -0.00306714439775176
-0.0026319293460993695   -0.07260543053747505   -0.0030885226641364527
0.005155282683450013   -0.05972067610547275   -0.003093205334210107
-0.0014141503853091933   -0.05981192540797518   -0.002991842028950141
-0.0026319293460993695   -0.07260543053747505   -0.0030885226641364527
0.003401130719148204   -0.07246230504301583   -0.0031437335455143647
0.005155282683450013   -0.05972067610547275   -0.003093205334210107
0.0035260729444593466   -0.07242304538200482   -0.0029962328119982114
-0.0014141503853091933   -0.05981192540797518   -0.002991842028950141
0.005233667271931833   -0.059690042630995616   -0.0029962432276782708
0.0035260729444593466   -0.07242304538200482   -0.0029962328119982114
0.005155282683450013   -0.05972067610547275   -0.003093205334210107
-0.0014141503853091933   -0.05981192540797518   -0.002991842028950141
0.0035260729444593466   -0.07242304538200482   -0.0029962328119982114
-0.002529734037514136   -0.07260639586009361   -0.0029951281180028407
-0.0026319293460993695   -0.07260543053747505   -0.0030885226641364527
-0.0014141503853091933   -0.05981192540797518   -0.002991842028950141
0.0035260729444593466   -0.07242304538200482   -0.0029962328119982114
-0.0026319293460993695   -0.07260543053747505   -0.0030885226641364527
0.005155282683450013   -0.05972067610547275   -0.003093205334210107
-0.0014141503853091933   -0.05981192540797518   -0.002991842028950141
-0.002529734037514136   -0.07260639586009361   -0.0029951281180028407
0.005233667271931833   -0.059690042630995616   -0.0029962432276782708
-0.0013560472684727134   -0.0598365357835921   -0.0029300497889281213
-0.002529734037514136   -0.07260639586009361   -0.0029951281180028407
0.0035260729444593466   -0.07242304538200482   -0.0029962328119982114
0.005233667271931833   -0.059690042630995616   -0.0029962432276782708
0.0036541586044455685   -0.07241575387673005   -0.002863388593670304
-0.0013560472684727134   -0.0598365357835921   -0.0029300497889281213
0.005306061885182983   -0.059674117528654536   -0.00291275170924629
0.0036541586044455685   -0.07241575387673005   -0.002863388593670304
0.005233667271931833   -0.059690042630995616   -0.0029962432276782708
-0.0013560472684727134   -0.0598365357835921   -0.0029300497889281213
0.0036541586044455685   -0.07241575387673005   -0.002863388593670304
-0.0024302231140904363   -0.07263534610321568   -0.0029155060357905073
-0.002529734037514136   -0.07260639586009361   -0.0029951281180028407
-0.0013560472684727134   -0.0598365357835921   -0.0029300497889281213
0.0036541586044455685   -0.07241575387673005   -0.002863388593670304
-0.002529734037514136   -0.07260639586009361   -0.0029951281180028407
0.005233667271931833   -0.059690042630995616   -0.0029962432276782708
-0.0013560472684727134   -0.0598365357835921   -0.0029300497889281213
-0.0024302231140904363   -0.07263534610321568   -0.0029155060357905073
0.005306061885182983   -0.059674117528654536   -0.00291275170924629
-0.0013067650866953307   -0.059873025165707826   -0.002882240300246316
-0.0024302231140904363   -0.07263534610321568   -0.0029155060357905073
0.0036541586044455685   -0.07241575387673005   -0.002863388593670304
0.005306061885182983   -0.059674117528654536   -0.00291275170924629
0.003739290710962004   -0.07243452601110068   -0.002743268736101438
-0.0013067650866953307   -0.059873025165707826   -0.002882240300246316
0.0053447827348551465   -0.05966516181670334   -0.0028418513745338456
0.003739290710962004   -0.07243452601110068   -0.002743268736101438
0.005306061885182983   -0.059674117528654536   -0.00291275170924629
-0.0013067650866953307   -0.059873025165707826   -0.002882240300246316
0.003739290710962004   -0.07243452601110068   -0.002743268736101438
-0.0023414540708661   -0.07269468649137512   -0.0028501357906665814
-0.0024302231140904363   -0.07263534610321568   -0.0029155060357905073
-0.0013067650866953307   -0.059873025165707826   -0.002882240300246316
0.003739290710962004   -0.07243452601110068   -0.002743268736101438
-0.0024302231140904363   -0.07263534610321568   -0.0029155060357905073
0.005306061885182983   -0.059674117528654536   -0.00291275170924629
0.005155282683450013   -0.05972067610547275   -0.003093205334210107
0.003401130719148204   -0.07246230504301583   -0.0031437335455143647
0.012255328534352418   -0.05958974644321019   -0.0032027473909101785
0.005233667271931833   -0.059690042630995616   -0.0029962432276782708
0.003401130719148204   -0.07246230504301583   -0.0031437335455143647
0.009820122919980297   -0.07221626489148872   -0.0032865049343602424
0.012255328534352418   -0.05958974644321019   -0.0032027473909101785
0.010152503409970159   -0.07213525881951655   -0.0030719218716131536
0.005233667271931833   -0.059690042630995616   -0.0029962432276782708
0.012460090587094264   -0.059519303021952526   -0.003075536428983078
0.010152503409970159   -0.07213525881951655   -0.0030719218716131536
0.012255328534352418   -0.05958974644321019   -0.0032027473909101785
0.005233667271931833   -0.059690042630995616   -0.0029962432276782708
0.010152503409970159   -0.07213525881951655   -0.0030719218716131536
0.0035260729444593466   -0.07242304538200482   -0.0029962328119982114
0.003401130719148204   -0.07246230504301583   -0.0031437335455143647
0.005233667271931833   -0.059690042630995616   -0.0029962432276782708
0.010152503409970159   -0.07213525881951655   -0.0030719218716131536
0.003401130719148204   -0.07246230504301583   -0.0031437335455143647
0.012255328534352418   -0.05958974644321019   -0.0032027473909101785
0.005233667271931833   -0.059690042630995616   -0.0029962432276782708
0.0035260729444593466   -0.07242304538200482   -0.0029962328119982114
0.012460090587094264   -0.059519303021952526   -0.003075536428983078
0.005306061885182983   -0.059674117528654536   -0.00291275170924629
0.0035260729444593466   -0.07242304538200482   -0.0029962328119982114
0.010152503409970159   -0.07213525881951655   -0.0030719218716131536
0.012460090587094264   -0.059519303021952526   -0.003075536428983078
0.010398566507013648   -0.07211301425072467   -0.0028768257816532417
0.005306061885182983   -0.059674117528654536   -0.00291275170924629
0.012600673767837883   -0.05948514871356412   -0.0029675046979542098
0.010398566507013648   -0.07211301425072467   -0.0028768257816532417
0.012460090587094264   -0.059519303021952526   -0.003075536428983078
0.005306061885182983   -0.059674117528654536   -0.00291275170924629
0.010398566507013648   -0.07211301425072467   -0.0028768257816532417
0.0036541586044455685   -0.07241575387673005   -0.002863388593670304
0.0035260729444593466   -0.07242304538200482   -0.0029962328119982114
0.005306061885182983   -0.059674117528654536   -0.00291275170924629
0.010398566507013648   -0.07211301425072467   -0.0028768257816532417
0.0035260729444593466   -0.07242304538200482   -0.0029962328119982114
0.012460090587094264   -0.059519303021952526   -0.003075536428983078
0.005306061885182983   -0.059674117528654536   -0.00291275170924629
0.0036541586044455685   -0.07241575387673005   -0.002863388593670304
0.012600673767837883   -0.05948514871356412   -0.0029675046979542098
0.0053447827348551465   -0.05966516181670334   -0.0028418513745338456
0.0036541586044455685   -0.07241575387673005   -0.002863388593670304
0.010398566507013648   -0.07211301425072467   -0.0028768257816532417
0.012600673767837883   -0.05948514871356412   -0.0029675046979542098
0.010647914716063907   -0.07211277732513972   -0.002702101541481133
0.0053447827348551465   -0.05966516181670334   -0.0028418513745338456
0.01272534988224486   -0.05944790429950651   -0.0028794472358144333
0.010647914716063907   -0.07211277732513972   -0.002702101541481133
0.012600673767837883   -0.05948514871356412   -0.0029675046979542098
0.0053447827348551465   -0.05966516181670334   -0.0028418513745338456
0.010647914716063907   -0.07211277732513972   -0.002702101541481133
0.003739290710962004   -0.07243452601110068   -0.002743268736101438
0.0036541586044455685   -0.07241575387673005   -0.002863388593670304
0.0053447827348551465   -0.05966516181670334   -0.0028418513745338456
0.010647914716063907   -0.07211277732513972   -0.002702101541481133
0.0036541586044455685   -0.07241575387673005   -0.002863388593670304
0.012600673767837883   -0.05948514871356412   -0.0029675046979542098
-0.021186980969428847   -0.07244605024793202   -0.003294717812337347
-0.01933528512566147   -0.08364545638091292   -0.0030721750665521647
-0.014477429967498325   -0.0725918573503926   -0.0031767108598285145
-0.021033881263560646   -0.0725463471771227   -0.0033786868287878865
-0.01933528512566147   -0.08364545638091292   -0.0030721750665521647
-0.01368777401871274   -0.08390869994709907   -0.0030530858131022566
-0.014477429967498325   -0.0725918573503926   -0.0031767108598285145
-0.013546712029689814   -0.08394678851072265   -0.0031153048074510697
-0.021033881263560646   -0.0725463471771227   -0.0033786868287878865
-0.014392608345314185   -0.07266614393120242   -0.0031945126992093432
-0.013546712029689814   -0.08394678851072265   -0.0031153048074510697
-0.014477429967498325   -0.0725918573503926   -0.0031767108598285145
-0.021033881263560646   -0.0725463471771227   -0.0033786868287878865
-0.013546712029689814   -0.08394678851072265   -0.0031153048074510697
-0.01904162586350603   -0.08370199694612662   -0.00324628858987088
-0.01933528512566147   -0.08364545638091292   -0.0030721750665521647
-0.021033881263560646   -0.0725463471771227   -0.0033786868287878865
-0.013546712029689814   -0.08394678851072265   -0.0031153048074510697
-0.01933528512566147   -0.08364545638091292   -0.0030721750665521647
-0.014477429967498325   -0.0725918573503926   -0.0031767108598285145
-0.021033881263560646   -0.0725463471771227   -0.0033786868287878865
-0.01904162586350603   -0.08370199694612662   -0.00324628858987088
-0.014392608345314185   -0.07266614393120242   -0.0031945126992093432
-0.02085903325948608   -0.0726693604652321   -0.0034845320524678714
-0.01904162586350603   -0.08370199694612662   -0.00324628858987088
-0.013546712029689814   -0.08394678851072265   -0.0031153048074510697
-0.014392608345314185   -0.07266614393120242   -0.0031945126992093432
-0.01336954096847079   -0.08403797311497299   -0.0031916488541765863
-0.02085903325948608   -0.0726693604652321   -0.0034845320524678714
-0.014277723960191006   -0.07277184015389755   -0.003226223170125694
-0.01336954096847079   -0.08403797311497299   -0.0031916488541765863
-0.014392608345314185   -0.07266614393120242   -0.0031945126992093432
-0.02085903325948608   -0.0726693604652321   -0.0034845320524678714
-0.01336954096847079   -0.08403797311497299   -0.0031916488541765863
-0.018748636926364862   -0.08380900547386284   -0.0034434028687836235
-0.01904162586350603   -0.08370199694612662   -0.00324628858987088
-0.02085903325948608   -0.0726693604652321   -0.0034845320524678714
-0.01336954096847079   -0.08403797311497299   -0.0031916488541765863
-0.01904162586350603   -0.08370199694612662   -0.00324628858987088
-0.014392608345314185   -0.07266614393120242   -0.0031945126992093432
-0.02085903325948608   -0.0726693604652321   -0.0034845320524678714
-0.018748636926364862   -0.08380900547386284   -0.0034434028687836235
-0.014277723960191006   -0.07277184015389755   -0.003226223170125694
-0.02062087769822514   -0.07285656849633565   -0.003612652416118499
-0.018748636926364862   -0.08380900547386284   -0.0034434028687836235
-0.01336954096847079   -0.08403797311497299   -0.0031916488541765863
-0.014277723960191006   -0.07277184015389755   -0.003226223170125694
-0.013194715160822218   -0.08418743160333103   -0.0032819855589411953
-0.02062087769822514   -0.07285656849633565   -0.003612652416118499
-0.014154434099105464   -0.07291539049314587   -0.0032722555808761943
-0.013194715160822218   -0.08418743160333103   -0.0032819855589411953
-0.014277723960191006   -0.07277184015389755   -0.003226223170125694
-0.02062087769822514   -0.07285656849633565   -0.003612652416118499
-0.013194715160822218   -0.08418743160333103   -0.0032819855589411953
-0.018373315488378148   -0.08400854382111053   -0.0036630880233274998
-0.018748636926364862   -0.08380900547386284   -0.0034434028687836235
-0.02062087769822514   -0.07285656849633565   -0.003612652416118499
-0.013194715160822218   -0.08418743160333103   -0.0032819855589411953
-0.018748636926364862   -0.08380900547386284   -0.0034434028687836235
-0.014277723960191006   -0.07277184015389755   -0.003226223170125694
-0.014477429967498325   -0.0725918573503926   -0.0031767108598285145
-0.01368777401871274   -0.08390869994709907   -0.0030530858131022566
-0.008463570761703754   -0.072649628263092   -0.0031011620661838294
-0.014392608345314185   -0.07266614393120242   -0.0031945126992093432
-0.01368777401871274   -0.08390869994709907   -0.0030530858131022566
-0.008798669638732954   -0.08403215530779877   -0.0030454664293637543
-0.008463570761703754   -0.072649628263092   -0.0031011620661838294
-0.008653914500984674   -0.08404466847154209   -0.0030176600077595817
-0.014392608345314185   -0.07266614393120242   -0.0031945126992093432
-0.0083711781424312   -0.07268827973307765   -0.0030623955296945346
-0.008653914500984674   -0.08404466847154209   -0.0030176600077595817
-0.008463570761703754   -0.072649628263092   -0.0031011620661838294
-0.014392608345314185   -0.07266614393120242   -0.0031945126992093432
-0.008653914500984674   -0.08404466847154209   -0.0030176600077595817
-0.013546712029689814   -0.08394678851072265   -0.0031153048074510697
-0.01368777401871274   -0.08390869994709907   -0.0030530858131022566
-0.014392608345314185   -0.07266614393120242   -0.0031945126992093432
-0.008653914500984674   -0.08404466847154209   -0.0030176600077595817
-0.01368777401871274   -0.08390869994709907   -0.0030530858131022566
-0.008463570761703754   -0.072649628263092   -0.0031011620661838294
-0.014392608345314185   -0.07266614393120242   -0.0031945126992093432
-0.013546712029689814   -0.08394678851072265   -0.0031153048074510697
-0.0083711781424312   -0.07268827973307765   -0.0030623955296945346
-0.014277723960191006   -0.07277184015389755   -0.003226223170125694
-0.013546712029689814   -0.08394678851072265   -0.0031153048074510697
-0.008653914500984674   -0.08404466847154209   -0.0030176600077595817
-0.0083711781424312   -0.07268827973307765   -0.0030623955296945346
-0.008504520567828605   -0.08410458565729756   -0.0030035605911556936
-0.014277723960191006   -0.07277184015389755   -0.003226223170125694
-0.008271780884237344   -0.07275713674542321   -0.0030373687510238407
-0.008504520567828605   -0.08410458565729756   -0.0030035605911556936
-0.0083711781424312   -0.07268827973307765   -0.0030623955296945346
-0.014277723960191006   -0.07277184015389755   -0.003226223170125694
-0.008504520567828605   -0.08410458565729756   -0.0030035605911556936
-0.01336954096847079   -0.08403797311497299   -0.0031916488541765863
-0.013546712029689814   -0.08394678851072265   -0.0031153048074510697
-0.014277723960191006   -0.07277184015389755   -0.003226223170125694
-0.008504520567828605   -0.08410458565729756   -0.0030035605911556936
-0.013546712029689814   -0.08394678851072265   -0.0031153048074510697
-0.0083711781424312   -0.07268827973307765   -0.0030623955296945346
-0.014277723960191006   -0.07277184015389755   -0.003226223170125694
-0.01336954096847079   -0.08403797311497299   -0.0031916488541765863
-0.008271780884237344   -0.07275713674542321   -0.0030373687510238407
-0.014154434099105464   -0.07291539049314587   -0.0032722555808761943
-0.01336954096847079   -0.08403797311497299   -0.0031916488541765863
-0.008504520567828605   -0.08410458565729756   -0.0030035605911556936
-0.008271780884237344   -0.07275713674542321   -0.0030373687510238407
-0.008355376706370767   -0.08421471406533775   -0.003002988021395996
-0.014154434099105464   -0.07291539049314587   -0.0032722555808761943
-0.008169611795061716   -0.07285707282860451   -0.003026751774349107
-0.008355376706370767   -0.08421471406533775   -0.003002988021395996
-0.008271780884237344   -0.07275713674542321   -0.0030373687510238407
-0.014154434099105464   -0.07291539049314587   -0.0032722555808761943
-0.008355376706370767   -0.08421471406533775   -0.003002988021395996
-0.013194715160822218   -0.08418743160333103   -0.0032819855589411953
-0.01336954096847079   -0.08403797311497299   -0.0031916488541765863
-0.014154434099105464   -0.07291539049314587   -0.0032722555808761943
-0.008355376706370767   -0.08421471406533775   -0.003002988021395996
-0.01336954096847079   -0.08403797311497299   -0.0031916488541765863
-0.008271780884237344   -0.07275713674542321   -0.0030373687510238407
-0.008463570761703754   -0.072649628263092   -0.0031011620661838294
-0.008798669638732954   -0.08403215530779877   -0.0030454664293637543
-0.0026319293460993695   -0.07260543053747505   -0.0030885226641364527
-0.0083711781424312   -0.07268827973307765   -0.0030623955296945346
-0.008798669638732954   -0.08403215530779877   -0.0030454664293637543
-0.004071974102933354   -0.08401003332787542   -0.0030804233017246536
-0.0026319293460993695   -0.07260543053747505   -0.0030885226641364527
-0.0039134138377342614   -0.08399383388265066   -0.0029657531348576097
-0.0083711781424312   -0.07268827973307765   -0.0030623955296945346
-0.002529734037514136   -0.07260639586009361   -0.0029951281180028407
-0.0039134138377342614   -0.08399383388265066   -0.0029657531348576097
-0.0026319293460993695   -0.07260543053747505   -0.0030885226641364527
-0.0083711781424312   -0.07268827973307765   -0.0030623955296945346
-0.0039134138377342614   -0.08399383388265066   -0.0029657531348576097
-0.008653914500984674   -0.08404466847154209   -0.0030176600077595817
-0.008798669638732954   -0.08403215530779877   -0.0030454664293637543
-0.0083711781424312   -0.07268827973307765   -0.0030623955296945346
-0.0039134138377342614   -0.08399383388265066   -0.0029657531348576097
-0.008798669638732954   -0.08403215530779877   -0.0030454664293637543
-0.0026319293460993695   -0.07260543053747505   -0.0030885226641364527
-0.0083711781424312   -0.07268827973307765   -0.0030623955296945346
-0.008653914500984674   -0.08404466847154209   -0.0030176600077595817
-0.002529734037514136   -0.07260639586009361   -0.0029951281180028407
-0.008271780884237344   -0.07275713674542321   -0.0030373687510238407
-0.008653914500984674   -0.08404466847154209   -0.0030176600077595817
-0.0039134138377342614   -0.08399383388265066   -0.0029657531348576097
-0.002529734037514136   -0.07260639586009361   -0.0029951281180028407
-0.003759545423780733   -0.08402048311910139   -0.0028656933581549947
-0.008271780884237344   -0.07275713674542321   -0.0030373687510238407
-0.0024302231140904363   -0.07263534610321568   -0.0029155060357905073
-0.003759545423780733   -0.08402048311910139   -0.0028656933581549947
-0.002529734037514136   -0.07260639586009361   -0.0029951281180028407
-0.008271780884237344   -0.07275713674542321   -0.0030373687510238407
-0.003759545423780733   -0.08402048311910139   -0.0028656933581549947
-0.008504520567828605   -0.08410458565729756   -0.0030035605911556936
-0.008653914500984674   -0.08404466847154209   -0.0030176600077595817
-0.008271780884237344   -0.07275713674542321   -0.0030373687510238407
-0.003759545423780733   -0.08402048311910139   -0.0028656933581549947
-0.008653914500984674   -0.08404466847154209   -0.0030176600077595817
-0.002529734037514136   -0.07260639586009361   -0.0029951281180028407
-0.008271780884237344   -0.07275713674542321   -0.0030373687510238407
-0.008504520567828605   -0.08410458565729756   -0.0030035605911556936
-0.0024302231140904363   -0.07263534610321568   -0.0029155060357905073
-0.008169611795061716   -0.07285707282860451   -0.003026751774349107
-0.008504520567828605   -0.08410458565729756   -0.0030035605911556936
-0.003759545423780733   -0.08402048311910139   -0.0028656933581549947
-0.0024302231140904363   -0.07263534610321568   -0.0029155060357905073
-0.003620545841926089   -0.08409622676311994   -0.002778976388015469
-0.008169611795061716   -0.07285707282860451   -0.003026751774349107
-0.0023414540708661   -0.07269468649137512   -0.0028501357906665814
-0.003620545841926089   -0.08409622676311994   -0.002778976388015469
-0.0024302231140904363   -0.07263534610321568   -0.0029155060357905073
-0.008169611795061716   -0.07285707282860451   -0.003026751774349107
-0.003620545841926089   -0.08409622676311994   -0.002778976388015469
-0.008355376706370767   -0.08421471406533775   -0.003002988021395996
-0.008504520567828605   -0.08410458565729756   -0.0030035605911556936
-0.008169611795061716   -0.07285707282860451   -0.003026751774349107
-0.003620545841926089   -0.08409622676311994   -0.002778976388015469
-0.008504520567828605   -0.08410458565729756   -0.0030035605911556936
-0.0024302231140904363   -0.07263534610321568   -0.0029155060357905073
-0.0026319293460993695   -0.07260543053747505   -0.0030885226641364527
-0.004071974102933354   -0.08401003332787542   -0.0030804233017246536
0.003401130719148204   -0.07246230504301583   -0.0031437335455143647
-0.002529734037514136   -0.07260639586009361   -0.0029951281180028407
-0.004071974102933354   -0.08401003332787542   -0.0030804233017246536
0.0008769380350044392   -0.08383713198753302   -0.0031656761334808345
0.003401130719148204   -0.07246230504301583   -0.0031437335455143647
0.0010697968969301762   -0.08378444794733324   -0.0029644491293989404
-0.002529734037514136   -0.07260639586009361   -0.0029951281180028407
0.0035260729444593466   -0.07242304538200482   -0.0029962328119982114
0.0010697968969301762   -0.08378444794733324   -0.0029644491293989404
0.003401130719148204   -0.07246230504301583   -0.0031437335455143647
-0.002529734037514136   -0.07260639586009361   -0.0029951281180028407
0.0010697968969301762   -0.08378444794733324   -0.0029644491293989404
-0.0039134138377342614   -0.08399383388265066   -0.0029657531348576097
-0.004071974102933354   -0.08401003332787542   -0.0030804233017246536
-0.002529734037514136   -0.07260639586009361   -0.0029951281180028407
0.0010697968969301762   -0.08378444794733324   -0.0029644491293989404
-0.004071974102933354   -0.08401003332787542   -0.0030804233017246536
0.003401130719148204   -0.07246230504301583   -0.0031437335455143647
-0.002529734037514136   -0.07260639586009361   -0.0029951281180028407
-0.0039134138377342614   -0.08399383388265066   -0.0029657531348576097
0.0035260729444593466   -0.07242304538200482   -0.0029962328119982114
-0.0024302231140904363   -0.07263534610321568   -0.0029155060357905073
-0.0039134138377342614   -0.08399383388265066   -0.0029657531348576097
0.0010697968969301762   -0.08378444794733324   -0.0029644491293989404
0.0035260729444593466   -0.07242304538200482   -0.0029962328119982114
0.0012729896771141087   -0.0837796732341897   -0.0027817467618610134
-0.0024302231140904363   -0.07263534610321568   -0.0029155060357905073
0.0036541586044455685   -0.07241575387673005   -0.002863388593670304
0.0012729896771141087   -0.0837796732341897   -0.0027817467618610134
0.0035260729444593466   -0.07242304538200482   -0.0029962328119982114
-0.0024302231140904363   -0.07263534610321568   -0.0029155060357905073
0.0012729896771141087   -0.0837796732341897   -0.0027817467618610134
-0.003759545423780733   -0.08402048311910139   -0.0028656933581549947
-0.0039134138377342614   -0.08399383388265066   -0.0029657531348576097
-0.0024302231140904363   -0.07263534610321568   -0.0029155060357905073
0.0012729896771141087   -0.0837796732341897   -0.0027817467618610134
-0.0039134138377342614   -0.08399383388265066   -0.0029657531348576097
0.0035260729444593466   -0.07242304538200482   -0.0029962328119982114
-0.0024302231140904363   -0.07263534610321568   -0.0029155060357905073
-0.003759545423780733   -0.08402048311910139   -0.0028656933581549947
0.0036541586044455685   -0.07241575387673005   -0.002863388593670304
-0.0023414540708661   -0.07269468649137512   -0.0028501357906665814
-0.003759545423780733   -0.08402048311910139   -0.0028656933581549947
0.0012729896771141087   -0.0837796732341897   -0.0027817467618610134
0.0036541586044455685   -0.07241575387673005   -0.002863388593670304
0.0014215992091392215   -0.0838206351686517   -0.002611801538039142
-0.0023414540708661   -0.07269468649137512   -0.0028501357906665814
0.003739290710962004   -0.07243452601110068   -0.002743268736101438
0.0014215992091392215   -0.0838206351686517   -0.002611801538039142
0.0036541586044455685   -0.07241575387673005   -0.002863388593670304
-0.0023414540708661   -0.07269468649137512   -0.0028501357906665814
0.0014215992091392215   -0.0838206351686517   -0.002611801538039142
-0.003620545841926089   -0.08409622676311994   -0.002778976388015469
-0.003759545423780733   -0.08402048311910139   -0.0028656933581549947
-0.0023414540708661   -0.07269468649137512   -0.0028501357906665814
0.0014215992091392215   -0.0838206351686517   -0.002611801538039142
-0.003759545423780733   -0.08402048311910139   -0.0028656933581549947
0.0036541586044455685   -0.07241575387673005   -0.002863388593670304
0.003401130719148204   -0.07246230504301583   -0.0031437335455143647
0.0008769380350044392   -0.08383713198753302   -0.0031656761334808345
0.009820122919980297   -0.07221626489148872   -0.0032865049343602424
0.0035260729444593466   -0.07242304538200482   -0.0029962328119982114
0.0008769380350044392   -0.08383713198753302   -0.0031656761334808345
0.0061544296644921925   -0.08349703522620346   -0.0033481984561142468
0.009820122919980297   -0.07221626489148872   -0.0032865049343602424
0.006642487436633233   -0.08339587828847446   -0.003040249833384805
0.0035260729444593466   -0.07242304538200482   -0.0029962328119982114
0.010152503409970159   -0.07213525881951655   -0.0030719218716131536
0.006642487436633233   -0.08339587828847446   -0.003040249833384805
0.009820122919980297   -0.07221626489148872   -0.0032865049343602424
0.0035260729444593466   -0.07242304538200482   -0.0029962328119982114
0.006642487436633233   -0.08339587828847446   -0.003040249833384805
0.0010697968969301762   -0.08378444794733324   -0.0029644491293989404
0.0008769380350044392   -0.08383713198753302   -0.0031656761334808345
0.0035260729444593466   -0.07242304538200482   -0.0029962328119982114
0.006642487436633233   -0.08339587828847446   -0.003040249833384805
0.0008769380350044392   -0.08383713198753302   -0.0031656761334808345
0.009820122919980297   -0.07221626489148872   -0.0032865049343602424
0.0035260729444593466   -0.07242304538200482   -0.0029962328119982114
0.0010697968969301762   -0.08378444794733324   -0.0029644491293989404
0.010152503409970159   -0.07213525881951655   -0.0030719218716131536
0.0036541586044455685   -0.07241575387673005   -0.002863388593670304
0.0010697968969301762   -0.08378444794733324   -0.0029644491293989404
0.006642487436633233   -0.08339587828847446   -0.003040249833384805
0.010152503409970159   -0.07213525881951655   -0.0030719218716131536
0.007016662414420572   -0.08337836391654893   -0.0027552717929731785
0.0036541586044455685   -0.07241575387673005   -0.002863388593670304
0.010398566507013648   -0.07211301425072467   -0.0028768257816532417
0.007016662414420572   -0.08337836391654893   -0.0027552717929731785
0.010152503409970159   -0.07213525881951655   -0.0030719218716131536
0.0036541586044455685   -0.07241575387673005   -0.002863388593670304
0.007016662414420572   -0.08337836391654893   -0.0027552717929731785
0.0012729896771141087   -0.0837796732341897   -0.0027817467618610134
0.0010697968969301762   -0.08378444794733324   -0.0029644491293989404
0.0036541586044455685   -0.07241575387673005   -0.002863388593670304
0.007016662414420572   -0.08337836391654893   -0.0027552717929731785
0.0010697968969301762   -0.08378444794733324   -0.0029644491293989404
0.010152503409970159   -0.07213525881951655   -0.0030719218716131536
0.0036541586044455685   -0.07241575387673005   -0.002863388593670304
0.0012729896771141087   -0.0837796732341897   -0.0027817467618610134
0.010398566507013648   -0.07211301425072467   -0.0028768257816532417
0.003739290710962004   -0.07243452601110068   -0.002743268736101438
0.0012729896771141087   -0.0837796732341897   -0.0027817467618610134
0.007016662414420572   -0.08337836391654893   -0.0027552717929731785
0.010398566507013648   -0.07211301425072467   -0.0028768257816532417
0.007404141870180176   -0.08340829689102988   -0.002495595936107312
0.003739290710962004   -0.07243452601110068   -0.002743268736101438
0.010647914716063907   -0.07211277732513972   -0.002702101541481133
0.007404141870180176   -0.08340829689102988   -0.002495595936107312
0.010398566507013648   -0.07211301425072467   -0.0028768257816532417
0.003739290710962004   -0.07243452601110068   -0.002743268736101438
0.007404141870180176   -0.08340829689102988   -0.002495595936107312
0.0014215992091392215   -0.0838206351686517   -0.002611801538039142
0.0012729896771141087   -0.0837796732341897   -0.0027817467618610134
0.003739290710962004   -0.07243452601110068   -0.002743268736101438
0.007404141870180176   -0.08340829689102988   -0.002495595936107312
0.0012729896771141087   -0.0837796732341897   -0.0027817467618610134
0.010398566507013648   -0.07211301425072467   -0.0028768257816532417
-0.01933528512566147   -0.08364545638091292   -0.0030721750665521647
-0.016190107825313202   -0.09243734439365195   -0.002787080914015484
-0.01368777401871274   -0.08390869994709907   -0.0030530858131022566
-0.01904162586350603   -0.08370199694612662   -0.00324628858987088
-0.016190107825313202   -0.09243734439365195   -0.002787080914015484
-0.012171411643819184   -0.09282739660734646   -0.002904125279918379
-0.01368777401871274   -0.08390869994709907   -0.0030530858131022566
-0.01196800279738811   -0.09280722265283041   -0.0029998917333478284
-0.01904162586350603   -0.08370199694612662   -0.00324628858987088
-0.013546712029689814   -0.08394678851072265   -0.0031153048074510697
-0.01196800279738811   -0.09280722265283041   -0.0029998917333478284
-0.01368777401871274   -0.08390869994709907   -0.0030530858131022566
-0.01904162586350603   -0.08370199694612662   -0.00324628858987088
-0.01196800279738811   -0.09280722265283041   -0.0029998917333478284
-0.015751967284633676   -0.0924263109002315   -0.0030453060868390995
-0.016190107825313202   -0.09243734439365195   -0.002787080914015484
-0.01904162586350603   -0.08370199694612662   -0.00324628858987088
-0.01196800279738811   -0.09280722265283041   -0.0029998917333478284
-0.016190107825313202   -0.09243734439365195   -0.002787080914015484
-0.01368777401871274   -0.08390869994709907   -0.0030530858131022566
-0.01904162586350603   -0.08370199694612662   -0.00324628858987088
-0.015751967284633676   -0.0924263109002315   -0.0030453060868390995
-0.013546712029689814   -0.08394678851072265   -0.0031153048074510697
-0.018748636926364862   -0.08380900547386284   -0.0034434028687836235
-0.015751967284633676   -0.0924263109002315   -0.0030453060868390995
-0.01196800279738811   -0.09280722265283041   -0.0029998917333478284
-0.013546712029689814   -0.08394678851072265   -0.0031153048074510697
-0.011728817220174376   -0.09286321845071006   -0.003110099802705523
-0.018748636926364862   -0.08380900547386284   -0.0034434028687836235
-0.01336954096847079   -0.08403797311497299   -0.0031916488541765863
-0.011728817220174376   -0.09286321845071006   -0.003110099802705523
-0.013546712029689814   -0.08394678851072265   -0.0031153048074510697
-0.018748636926364862   -0.08380900547386284   -0.0034434028687836235
-0.011728817220174376   -0.09286321845071006   -0.003110099802705523
-0.015348037815987703   -0.09249552031419077   -0.003323866113888232
-0.015751967284633676   -0.0924263109002315   -0.0030453060868390995
-0.018748636926364862   -0.08380900547386284   -0.0034434028687836235
-0.011728817220174376   -0.09286321845071006   -0.003110099802705523
-0.015751967284633676   -0.0924263109002315   -0.0030453060868390995
-0.013546712029689814   -0.08394678851072265   -0.0031153048074510697
-0.018748636926364862   -0.08380900547386284   -0.0034434028687836235
-0.015348037815987703   -0.09249552031419077   -0.003323866113888232
-0.01336954096847079   -0.08403797311497299   -0.0031916488541765863
-0.018373315488378148   -0.08400854382111053   -0.0036630880233274998
-0.015348037815987703   -0.09249552031419077   -0.003323866113888232
-0.011728817220174376   -0.09286321845071006   -0.003110099802705523
-0.01336954096847079   -0.08403797311497299   -0.0031916488541765863
-0.01151182594190191   -0.09299665147652446   -0.0032338246518900534
-0.018373315488378148   -0.08400854382111053   -0.0036630880233274998
-0.013194715160822218   -0.08418743160333103   -0.0032819855589411953
-0.01151182594190191   -0.09299665147652446   -0.0032338246518900534
-0.01336954096847079   -0.08403797311497299   -0.0031916488541765863
-0.018373315488378148   -0.08400854382111053   -0.0036630880233274998
-0.01151182594190191   -0.09299665147652446   -0.0032338246518900534
-0.014855418826749721   -0.0926805309761308   -0.003621556714694514
-0.015348037815987703   -0.09249552031419077   -0.003323866113888232
-0.018373315488378148   -0.08400854382111053   -0.0036630880233274998
-0.01151182594190191   -0.09299665147652446   -0.0032338246518900534
-0.015348037815987703   -0.09249552031419077   -0.003323866113888232
-0.01336954096847079   -0.08403797311497299   -0.0031916488541765863
-0.01368777401871274   -0.08390869994709907   -0.0030530858131022566
-0.012171411643819184   -0.09282739660734646   -0.002904125279918379
-0.008798669638732954   -0.08403215530779877   -0.0030454664293637543
-0.013546712029689814   -0.08394678851072265   -0.0031153048074510697
-0.012171411643819184   -0.09282739660734646   -0.002904125279918379
-0.008889230640867378   -0.09308061303707864   -0.002995710253669477
-0.008798669638732954   -0.08403215530779877   -0.0030454664293637543
-0.00868045030684926   -0.09304837882564776   -0.0029664061146362224
-0.013546712029689814   -0.08394678851072265   -0.0031153048074510697
-0.008653914500984674   -0.08404466847154209   -0.0030176600077595817
-0.00868045030684926   -0.09304837882564776   -0.0029664061146362224
-0.008798669638732954   -0.08403215530779877   -0.0030454664293637543
-0.013546712029689814   -0.08394678851072265   -0.0031153048074510697
-0.00868045030684926   -0.09304837882564776   -0.0029664061146362224
-0.01196800279738811   -0.09280722265283041   -0.0029998917333478284
-0.012171411643819184   -0.09282739660734646   -0.002904125279918379
-0.013546712029689814   -0.08394678851072265   -0.0031153048074510697
-0.00868045030684926   -0.09304837882564776   -0.0029664061146362224
-0.012171411643819184   -0.09282739660734646   -0.002904125279918379
-0.008798669638732954   -0.08403215530779877   -0.0030454664293637543
-0.013546712029689814   -0.08394678851072265   -0.0031153048074510697
-0.01196800279738811   -0.09280722265283041   -0.0029998917333478284
-0.008653914500984674   -0.08404466847154209   -0.0030176600077595817
-0.01336954096847079   -0.08403797311497299   -0.0031916488541765863
-0.01196800279738811   -0.09280722265283041   -0.0029998917333478284
-0.00868045030684926   -0.09304837882564776   -0.0029664061146362224
-0.008653914500984674   -0.08404466847154209   -0.0030176600077595817
-0.008474638776525267   -0.09308187537029915   -0.0029511248845232427
-0.01336954096847079   -0.08403797311497299   -0.0031916488541765863
-0.008504520567828605   -0.08410458565729756   -0.0030035605911556936
-0.008474638776525267   -0.09308187537029915   -0.0029511248845232427
-0.008653914500984674   -0.08404466847154209   -0.0030176600077595817
-0.01336954096847079   -0.08403797311497299   -0.0031916488541765863
-0.008474638776525267   -0.09308187537029915   -0.0029511248845232427
-0.011728817220174376   -0.09286321845071006   -0.003110099802705523
-0.01196800279738811   -0.09280722265283041   -0.0029998917333478284
-0.01336954096847079   -0.08403797311497299   -0.0031916488541765863
-0.008474638776525267   -0.09308187537029915   -0.0029511248845232427
-0.01196800279738811   -0.09280722265283041   -0.0029998917333478284
-0.008653914500984674   -0.08404466847154209   -0.0030176600077595817
-0.01336954096847079   -0.08403797311497299   -0.0031916488541765863
-0.011728817220174376   -0.09286321845071006   -0.003110099802705523
-0.008504520567828605   -0.08410458565729756   -0.0030035605911556936
-0.013194715160822218   -0.08418743160333103   -0.0032819855589411953
-0.011728817220174376   -0.09286321845071006   -0.003110099802705523
-0.008474638776525267   -0.09308187537029915   -0.0029511248845232427
-0.008504520567828605   -0.08410458565729756   -0.0030035605911556936
-0.008285302043855514   -0.09318330060206374   -0.0029528098662224903
-0.013194715160822218   -0.08418743160333103   -0.0032819855589411953
-0.008355376706370767   -0.08421471406533775   -0.003002988021395996
-0.008285302043855514   -0.09318330060206374   -0.0029528098662224903
-0.008504520567828605   -0.08410458565729756   -0.0030035605911556936
-0.013194715160822218   -0.08418743160333103   -0.0032819855589411953
-0.008285302043855514   -0.09318330060206374   -0.0029528098662224903
-0.01151182594190191   -0.09299665147652446   -0.0032338246518900534
-0.011728817220174376   -0.09286321845071006   -0.003110099802705523
-0.013194715160822218   -0.08418743160333103   -0.0032819855589411953
-0.008285302043855514   -0.09318330060206374   -0.0029528098662224903
-0.011728817220174376   -0.09286321845071006   -0.003110099802705523
-0.008504520567828605   -0.08410458565729756   -0.0030035605911556936
-0.008798669638732954   -0.08403215530779877   -0.0030454664293637543
-0.008889230640867378   -0.09308061303707864   -0.002995710253669477
-0.004071974102933354   -0.08401003332787542   -0.0030804233017246536
-0.008653914500984674   -0.08404466847154209   -0.0030176600077595817
-0.008889230640867378   -0.09308061303707864   -0.002995710253669477
-0.005745716925321782   -0.09321427344380752   -0.003103799468442946
-0.004071974102933354   -0.08401003332787542   -0.0030804233017246536
-0.005510348412429291   -0.09316784876927373   -0.002956569948938209
-0.008653914500984674   -0.08404466847154209   -0.0030176600077595817
-0.0039134138377342614   -0.08399383388265066   -0.0029657531348576097
-0.005510348412429291   -0.09316784876927373   -0.002956569948938209
-0.004071974102933354   -0.08401003332787542   -0.0030804233017246536
-0.008653914500984674   -0.08404466847154209   -0.0030176600077595817
-0.005510348412429291   -0.09316784876927373   -0.002956569948938209
-0.00868045030684926   -0.09304837882564776   -0.0029664061146362224
-0.008889230640867378   -0.09308061303707864   -0.002995710253669477
-0.008653914500984674   -0.08404466847154209   -0.0030176600077595817
-0.005510348412429291   -0.09316784876927373   -0.002956569948938209
-0.008889230640867378   -0.09308061303707864   -0.002995710253669477
-0.004071974102933354   -0.08401003332787542   -0.0030804233017246536
-0.008653914500984674   -0.08404466847154209   -0.0030176600077595817
-0.00868045030684926   -0.09304837882564776   -0.0029664061146362224
-0.0039134138377342614   -0.08399383388265066   -0.0029657531348576097
-0.008504520567828605   -0.08410458565729756   -0.0030035605911556936
-0.00868045030684926   -0.09304837882564776   -0.0029664061146362224
-0.005510348412429291   -0.09316784876927373   -0.002956569948938209
-0.0039134138377342614   -0.08399383388265066   -0.0029657531348576097
-0.005286011148789016   -0.09317918830632912   -0.0028217209233908722
-0.008504520567828605   -0.08410458565729756   -0.0030035605911556936
-0.003759545423780733   -0.08402048311910139   -0.0028656933581549947
-0.005286011148789016   -0.09317918830632912   -0.0028217209233908722
-0.0039134138377342614   -0.08399383388265066   -0.0029657531348576097
-0.008504520567828605   -0.08410458565729756   -0.0030035605911556936
-0.005286011148789016   -0.09317918830632912   -0.0028217209233908722
-0.008474638776525267   -0.09308187537029915   -0.0029511248845232427
-0.00868045030684926   -0.09304837882564776   -0.0029664061146362224
-0.008504520567828605   -0.08410458565729756   -0.0030035605911556936
-0.005286011148789016   -0.09317918830632912   -0.0028217209233908722
-0.00868045030684926   -0.09304837882564776   -0.0029664061146362224
-0.0039134138377342614   -0.08399383388265066   -0.0029657531348576097
-0.008504520567828605   -0.08410458565729756   -0.0030035605911556936
-0.008474638776525267   -0.09308187537029915   -0.0029511248845232427
-0.003759545423780733   -0.08402048311910139   -0.0028656933581549947
-0.008355376706370767   -0.08421471406533775   -0.003002988021395996
-0.008474638776525267   -0.09308187537029915   -0.0029511248845232427
-0.005286011148789016   -0.09317918830632912   -0.0028217209233908722
-0.003759545423780733   -0.08402048311910139   -0.0028656933581549947
-0.005099488317516535   -0.09325961154504843   -0.002707022327426865
-0.008355376706370767   -0.08421471406533775   -0.003002988021395996
-0.003620545841926089   -0.08409622676311994   -0.002778976388015469
-0.005099488317516535   -0.09325961154504843   -0.002707022327426865
-0.003759545423780733   -0.08402048311910139   -0.0028656933581549947
-0.008355376706370767   -0.08421471406533775   -0.003002988021395996
-0.005099488317516535   -0.09325961154504843   -0.002707022327426865
-0.008285302043855514   -0.09318330060206374   -0.0029528098662224903
-0.008474638776525267   -0.09308187537029915   -0.0029511248845232427
-0.008355376706370767   -0.08421471406533775   -0.003002988021395996
-0.005099488317516535   -0.09325961154504843   -0.002707022327426865
-0.008474638776525267   -0.09308187537029915   -0.0029511248845232427
-0.003759545423780733   -0.08402048311910139   -0.0028656933581549947
-0.004071974102933354   -0.08401003332787542   -0.0030804233017246536
-0.005745716925321782   -0.09321427344380752   -0.003103799468442946
0.0008769380350044392   -0.08383713198753302   -0.0031656761334808345
-0.0039134138377342614   -0.08399383388265066   -0.0029657531348576097
-0.005745716925321782   -0.09321427344380752   -0.003103799468442946
-0.0024019072428965696   -0.09318184354529244   -0.003231005367509456
0.0008769380350044392   -0.08383713198753302   -0.0031656761334808345
-0.0020997155160023843   -0.09310908577423271   -0.0029709942162863346
-0.0039134138377342614   -0.08399383388265066   -0.0029657531348576097
0.0010697968969301762   -0.08378444794733324   -0.0029644491293989404
-0.0020997155160023843   -0.09310908577423271   -0.0029709942162863346
0.0008769380350044392   -0.08383713198753302   -0.0031656761334808345
-0.0039134138377342614   -0.08399383388265066   -0.0029657531348576097
-0.0020997155160023843   -0.09310908577423271   -0.0029709942162863346
-0.005510348412429291   -0.09316784876927373   -0.002956569948938209
-0.005745716925321782   -0.09321427344380752   -0.003103799468442946
-0.0039134138377342614   -0.08399383388265066   -0.0029657531348576097
-0.0020997155160023843   -0.09310908577423271   -0.0029709942162863346
-0.005745716925321782   -0.09321427344380752   -0.003103799468442946
0.0008769380350044392   -0.08383713198753302   -0.0031656761334808345
-0.0039134138377342614   -0.08399383388265066   -0.0029657531348576097
-0.005510348412429291   -0.09316784876927373   -0.002956569948938209
0.0010697968969301762   -0.08378444794733324   -0.0029644491293989404
-0.003759545423780733   -0.08402048311910139   -0.0028656933581549947
-0.005510348412429291   -0.09316784876927373   -0.002956569948938209
-0.0020997155160023843   -0.09310908577423271   -0.0029709942162863346
0.0010697968969301762   -0.08378444794733324   -0.0029644491293989404
-0.0017908832369864774   -0.09309617423139675   -0.002724236263775985
-0.003759545423780733   -0.08402048311910139   -0.0028656933581549947
0.0012729896771141087   -0.0837796732341897   -0.0027817467618610134
-0.0017908832369864774   -0.09309617423139675   -0.002724236263775985
0.0010697968969301762   -0.08378444794733324   -0.0029644491293989404
-0.003759545423780733   -0.08402048311910139   -0.0028656933581549947
-0.0017908832369864774   -0.09309617423139675   -0.002724236263775985
-0.005286011148789016   -0.09317918830632912   -0.0028217209233908722
-0.005510348412429291   -0.09316784876927373   -0.002956569948938209
-0.003759545423780733   -0.08402048311910139   -0.0028656933581549947
-0.0017908832369864774   -0.09309617423139675   -0.002724236263775985
-0.005510348412429291   -0.09316784876927373   -0.002956569948938209
0.0010697968969301762   -0.08378444794733324   -0.0029644491293989404
-0.003759545423780733   -0.08402048311910139   -0.0028656933581549947
-0.005286011148789016   -0.09317918830632912   -0.0028217209233908722
0.0012729896771141087   -0.0837796732341897   -0.0027817467618610134
-0.003620545841926089   -0.08409622676311994   -0.002778976388015469
-0.005286011148789016   -0.09317918830632912   -0.0028217209233908722
-0.0017908832369864774   -0.09309617423139675   -0.002724236263775985
0.0012729896771141087   -0.0837796732341897   -0.0027817467618610134
-0.0015620632390252165   -0.09315606260918821   -0.002500190685543592
-0.003620545841926089   -0.08409622676311994   -0.002778976388015469
0.0014215992091392215   -0.0838206351686517   -0.002611801538039142
-0.0015620632390252165   -0.09315606260918821   -0.002500190685543592
0.0012729896771141087   -0.0837796732341897   -0.0027817467618610134
-0.003620545841926089   -0.08409622676311994   -0.002778976388015469
-0.0015620632390252165   -0.09315606260918821   -0.002500190685543592
-0.005099488317516535   -0.09325961154504843   -0.002707022327426865
-0.005286011148789016   -0.09317918830632912   -0.0028217209233908722
-0.003620545841926089   -0.08409622676311994   -0.002778976388015469
-0.0015620632390252165   -0.09315606260918821   -0.002500190685543592
-0.005286011148789016   -0.09317918830632912   -0.0028217209233908722
0.0012729896771141087   -0.0837796732341897   -0.0027817467618610134
0.0008769380350044392   -0.08383713198753302   -0.0031656761334808345
-0.0024019072428965696   -0.09318184354529244   -0.003231005367509456
0.0061544296644921925   -0.08349703522620346   -0.0033481984561142468
0.0010697968969301762   -0.08378444794733324   -0.0029644491293989404
-0.0024019072428965696   -0.09318184354529244   -0.003231005367509456
0.0011990403978710518   -0.09286105525001573   -0.0034920942752650194
0.0061544296644921925   -0.08349703522620346   -0.0033481984561142468
0.0019023710642230745   -0.09270259841844855   -0.0030667022907616007
0.0010697968969301762   -0.08378444794733324   -0.0029644491293989404
0.006642487436633233   -0.08339587828847446   -0.003040249833384805
0.0019023710642230745   -0.09270259841844855   -0.0030667022907616007
0.0061544296644921925   -0.08349703522620346   -0.0033481984561142468
0.0010697968969301762   -0.08378444794733324   -0.0029644491293989404
0.0019023710642230745   -0.09270259841844855   -0.0030667022907616007
-0.0020997155160023843   -0.09310908577423271   -0.0029709942162863346
-0.0024019072428965696   -0.09318184354529244   -0.003231005367509456
0.0010697968969301762   -0.08378444794733324   -0.0029644491293989404
0.0019023710642230745   -0.09270259841844855   -0.0030667022907616007
-0.0024019072428965696   -0.09318184354529244   -0.003231005367509456
0.0061544296644921925   -0.08349703522620346   -0.0033481984561142468
0.0010697968969301762   -0.08378444794733324   -0.0029644491293989404
-0.0020997155160023843   -0.09310908577423271   -0.0029709942162863346
0.006642487436633233   -0.08339587828847446   -0.003040249833384805
0.0012729896771141087   -0.0837796732341897   -0.0027817467618610134
-0.0020997155160023843   -0.09310908577423271   -0.0029709942162863346
0.0019023710642230745   -0.09270259841844855   -0.0030667022907616007
0.006642487436633233   -0.08339587828847446   -0.003040249833384805
0.002455154404421075   -0.0926704446662091   -0.0026673669794585768
0.0012729896771141087   -0.0837796732341897   -0.0027817467618610134
0.007016662414420572   -0.08337836391654893   -0.0027552717929731785
0.002455154404421075   -0.0926704446662091   -0.0026673669794585768
0.006642487436633233   -0.08339587828847446   -0.003040249833384805
0.0012729896771141087   -0.0837796732341897   -0.0027817467618610134
0.002455154404421075   -0.0926704446662091   -0.0026673669794585768
-0.0017908832369864774   -0.09309617423139675   -0.002724236263775985
-0.0020997155160023843   -0.09310908577423271   -0.0029709942162863346
0.0012729896771141087   -0.0837796732341897   -0.0027817467618610134
0.002455154404421075   -0.0926704446662091   -0.0026673669794585768
-0.0020997155160023843   -0.09310908577423271   -0.0029709942162863346
0.006642487436633233   -0.08339587828847446   -0.003040249833384805
0.0012729896771141087   -0.0837796732341897   -0.0027817467618610134
-0.0017908832369864774   -0.09309617423139675   -0.002724236263775985
0.007016662414420572   -0.08337836391654893   -0.0027552717929731785
0.0014215992091392215   -0.0838206351686517   -0.002611801538039142
-0.0017908832369864774   -0.09309617423139675   -0.002724236263775985
0.002455154404421075   -0.0926704446662091   -0.0026673669794585768
0.007016662414420572   -0.08337836391654893   -0.0027552717929731785
0.003029366353289646   -0.09269716834758958   -0.0023027613176198193
0.0014215992091392215   -0.0838206351686517   -0.002611801538039142
0.007404141870180176   -0.08340829689102988   -0.002495595936107312
0.003029366353289646   -0.09269716834758958   -0.0023027613176198193
0.007016662414420572   -0.08337836391654893   -0.0027552717929731785
0.0014215992091392215   -0.0838206351686517   -0.002611801538039142
0.003029366353289646   -0.09269716834758958   -0.0023027613176198193
-0.0015620632390252165   -0.09315606260918821   -0.002500190685543592
-0.0017908832369864774   -0.09309617423139675   -0.002724236263775985
0.0014215992091392215   -0.0838206351686517   -0.002611801538039142
0.003029366353289646   -0.09269716834758958   -0.0023027613176198193
-0.0017908832369864774   -0.09309617423139675   -0.002724236263775985
0.007016662414420572   -0.08337836391654893   -0.0027552717929731785
-0.016190107825313202   -0.09243734439365195   -0.002787080914015484
-0.011864054594667233   -0.09766165523468603   -0.002452361944273631
-0.012171411643819184   -0.09282739660734646   -0.002904125279918379
-0.015751967284633676   -0.0924263109002315   -0.0030453060868390995
-0.011864054594667233   -0.09766165523468603   -0.002452361944273631
-0.009996166096145702   -0.09815514762451348   -0.002749184146054341
-0.012171411643819184   -0.09282739660734646   -0.002904125279918379
-0.009739372447408906   -0.0980574412933605   -0.002851014013838686
-0.015751967284633676   -0.0924263109002315   -0.0030453060868390995
-0.01196800279738811   -0.09280722265283041   -0.0029998917333478284
-0.009739372447408906   -0.0980574412933605   -0.002851014013838686
-0.012171411643819184   -0.09282739660734646   -0.002904125279918379
-0.015751967284633676   -0.0924263109002315   -0.0030453060868390995
-0.009739372447408906   -0.0980574412933605   -0.002851014013838686
-0.011317806460285367   -0.09755160511406583   -0.00276220968495744
-0.011864054594667233   -0.09766165523468603   -0.002452361944273631
-0.015751967284633676   -0.0924263109002315   -0.0030453060868390995
-0.009739372447408906   -0.0980574412933605   -0.002851014013838686
-0.011864054594667233   -0.09766165523468603   -0.002452361944273631
-0.012171411643819184   -0.09282739660734646   -0.002904125279918379
-0.015751967284633676   -0.0924263109002315   -0.0030453060868390995
-0.011317806460285367   -0.09755160511406583   -0.00276220968495744
-0.01196800279738811   -0.09280722265283041   -0.0029998917333478284
-0.015348037815987703   -0.09249552031419077   -0.003323866113888232
-0.011317806460285367   -0.09755160511406583   -0.00276220968495744
-0.009739372447408906   -0.0980574412933605   -0.002851014013838686
-0.01196800279738811   -0.09280722265283041   -0.0029998917333478284
-0.009455057978237829   -0.09806201258209774   -0.0029538714372788475
-0.015348037815987703   -0.09249552031419077   -0.003323866113888232
-0.011728817220174376   -0.09286321845071006   -0.003110099802705523
-0.009455057978237829   -0.09806201258209774   -0.0029538714372788475
-0.01196800279738811   -0.09280722265283041   -0.0029998917333478284
-0.015348037815987703   -0.09249552031419077   -0.003323866113888232
-0.009455057978237829   -0.09806201258209774   -0.0029538714372788475
-0.010846479111712113   -0.09756073122009039   -0.0030708414266809214
-0.011317806460285367   -0.09755160511406583   -0.00276220968495744
-0.015348037815987703   -0.09249552031419077   -0.003323866113888232
-0.009455057978237829   -0.09806201258209774   -0.0029538714372788475
-0.011317806460285367   -0.09755160511406583   -0.00276220968495744
-0.01196800279738811   -0.09280722265283041   -0.0029998917333478284
-0.015348037815987703   -0.09249552031419077   -0.003323866113888232
-0.010846479111712113   -0.09756073122009039   -0.0030708414266809214
-0.011728817220174376   -0.09286321845071006   -0.003110099802705523
-0.014855418826749721   -0.0926805309761308   -0.003621556714694514
-0.010846479111712113   -0.09756073122009039   -0.0030708414266809214
-0.009455057978237829   -0.09806201258209774   -0.0029538714372788475
-0.011728817220174376   -0.09286321845071006   -0.003110099802705523
-0.009190882532604415   -0.0981693244457813   -0.003058187682229262
-0.014855418826749721   -0.0926805309761308   -0.003621556714694514
-0.01151182594190191   -0.09299665147652446   -0.0032338246518900534
-0.009190882532604415   -0.0981693244457813   -0.003058187682229262
-0.011728817220174376   -0.09286321845071006   -0.003110099802705523
-0.014855418826749721   -0.0926805309761308   -0.003621556714694514
-0.009190882532604415   -0.0981693244457813   -0.003058187682229262
-0.010287499250011828   -0.09769584912527499   -0.003386128191027943
-0.010846479111712113   -0.09756073122009039   -0.0030708414266809214
-0.014855418826749721   -0.0926805309761308   -0.003621556714694514
-0.009190882532604415   -0.0981693244457813   -0.003058187682229262
-0.010846479111712113   -0.09756073122009039   -0.0030708414266809214
-0.011728817220174376   -0.09286321845071006   -0.003110099802705523
-0.012171411643819184   -0.09282739660734646   -0.002904125279918379
-0.009996166096145702   -0.09815514762451348   -0.002749184146054341
-0.008889230640867378   -0.09308061303707864   -0.002995710253669477
-0.01196800279738811   -0.09280722265283041   -0.0029998917333478284
-0.009996166096145702   -0.09815514762451348   -0.002749184146054341
-0.008629211159268041   -0.09865133089382683   -0.0030115796946436754
-0.008889230640867378   -0.09308061303707864   -0.002995710253669477
-0.008358188260114113   -0.0985511290645225   -0.0029399721406802143
-0.01196800279738811   -0.09280722265283041   -0.0029998917333478284
-0.00868045030684926   -0.09304837882564776   -0.0029664061146362224
-0.008358188260114113   -0.0985511290645225   -0.0029399721406802143
-0.008889230640867378   -0.09308061303707864   -0.002995710253669477
-0.01196800279738811   -0.09280722265283041   -0.0029998917333478284
-0.008358188260114113   -0.0985511290645225   -0.0029399721406802143
-0.009739372447408906   -0.0980574412933605   -0.002851014013838686
-0.009996166096145702   -0.09815514762451348   -0.002749184146054341
-0.01196800279738811   -0.09280722265283041   -0.0029998917333478284
-0.008358188260114113   -0.0985511290645225   -0.0029399721406802143
-0.009996166096145702   -0.09815514762451348   -0.002749184146054341
-0.008889230640867378   -0.09308061303707864   -0.002995710253669477
-0.01196800279738811   -0.09280722265283041   -0.0029998917333478284
-0.009739372447408906   -0.0980574412933605   -0.002851014013838686
-0.00868045030684926   -0.09304837882564776   -0.0029664061146362224
-0.011728817220174376   -0.09286321845071006   -0.003110099802705523
-0.009739372447408906   -0.0980574412933605   -0.002851014013838686
-0.008358188260114113   -0.0985511290645225   -0.0029399721406802143
-0.00868045030684926   -0.09304837882564776   -0.0029664061146362224
-0.00809618968734462   -0.09854914079806451   -0.00286746793195634
-0.011728817220174376   -0.09286321845071006   -0.003110099802705523
-0.008474638776525267   -0.09308187537029915   -0.0029511248845232427
-0.00809618968734462   -0.09854914079806451   -0.00286746793195634
-0.00868045030684926   -0.09304837882564776   -0.0029664061146362224
-0.011728817220174376   -0.09286321845071006   -0.003110099802705523
-0.00809618968734462   -0.09854914079806451   -0.00286746793195634
-0.009455057978237829   -0.09806201258209774   -0.0029538714372788475
-0.009739372447408906   -0.0980574412933605   -0.002851014013838686
-0.011728817220174376   -0.09286321845071006   -0.003110099802705523
-0.00809618968734462   -0.09854914079806451   -0.00286746793195634
-0.009739372447408906   -0.0980574412933605   -0.002851014013838686
-0.00868045030684926   -0.09304837882564776   -0.0029664061146362224
-0.011728817220174376   -0.09286321845071006   -0.003110099802705523
-0.009455057978237829   -0.09806201258209774   -0.0029538714372788475
-0.008474638776525267   -0.09308187537029915   -0.0029511248845232427
-0.01151182594190191   -0.09299665147652446   -0.0032338246518900534
-0.009455057978237829   -0.09806201258209774   -0.0029538714372788475
-0.00809618968734462   -0.09854914079806451   -0.00286746793195634
-0.008474638776525267   -0.09308187537029915   -0.0029511248845232427
-0.00782301446519447   -0.09864330409499678   -0.002797812008658574
-0.01151182594190191   -0.09299665147652446   -0.0032338246518900534
-0.008285302043855514   -0.09318330060206374   -0.0029528098662224903
-0.00782301446519447   -0.09864330409499678   -0.002797812008658574
-0.008474638776525267   -0.09308187537029915   -0.0029511248845232427
-0.01151182594190191   -0.09299665147652446   -0.0032338246518900534
-0.00782301446519447   -0.09864330409499678   -0.002797812008658574
-0.009190882532604415   -0.0981693244457813   -0.003058187682229262
-0.009455057978237829   -0.09806201258209774   -0.0029538714372788475
-0.01151182594190191   -0.09299665147652446   -0.0032338246518900534
-0.00782301446519447   -0.09864330409499678   -0.002797812008658574
-0.009455057978237829   -0.09806201258209774   -0.0029538714372788475
-0.008474638776525267   -0.09308187537029915   -0.0029511248845232427
-0.008889230640867378   -0.09308061303707864   -0.002995710253669477
-0.008629211159268041   -0.09865133089382683   -0.0030115796946436754
-0.005745716925321782   -0.09321427344380752   -0.003103799468442946
-0.00868045030684926   -0.09304837882564776   -0.0029664061146362224
-0.008629211159268041   -0.09865133089382683   -0.0030115796946436754
-0.007381200624275138   -0.09925107163766209   -0.0033004052658053332
-0.005745716925321782   -0.09321427344380752   -0.003103799468442946
-0.0070488982870954685   -0.0991642127850741   -0.0030456121193711914
-0.00868045030684926   -0.09304837882564776   -0.0029664061146362224
-0.005510348412429291   -0.09316784876927373   -0.002956569948938209
-0.0070488982870954685   -0.0991642127850741   -0.0030456121193711914
-0.005745716925321782   -0.09321427344380752   -0.003103799468442946
-0.00868045030684926   -0.09304837882564776   -0.0029664061146362224
-0.0070488982870954685   -0.0991642127850741   -0.0030456121193711914
-0.008358188260114113   -0.0985511290645225   -0.0029399721406802143
-0.008629211159268041   -0.09865133089382683   -0.0030115796946436754
-0.00868045030684926   -0.09304837882564776   -0.0029664061146362224
-0.0070488982870954685   -0.0991642127850741   -0.0030456121193711914
-0.008629211159268041   -0.09865133089382683   -0.0030115796946436754
-0.005745716925321782   -0.09321427344380752   -0.003103799468442946
-0.00868045030684926   -0.09304837882564776   -0.0029664061146362224
-0.008358188260114113   -0.0985511290645225   -0.0029399721406802143
-0.005510348412429291   -0.09316784876927373   -0.002956569948938209
-0.008474638776525267   -0.09308187537029915   -0.0029511248845232427
-0.008358188260114113   -0.0985511290645225   -0.0029399721406802143
-0.0070488982870954685   -0.0991642127850741   -0.0030456121193711914
-0.005510348412429291   -0.09316784876927373   -0.002956569948938209
-0.006741054922090499   -0.09915945234461439   -0.0027917183684399317
-0.008474638776525267   -0.09308187537029915   -0.0029511248845232427
-0.005286011148789016   -0.09317918830632912   -0.0028217209233908722
-0.006741054922090499   -0.09915945234461439   -0.0027917183684399317
-0.005510348412429291   -0.09316784876927373   -0.002956569948938209
-0.008474638776525267   -0.09308187537029915   -0.0029511248845232427
-0.006741054922090499   -0.09915945234461439   -0.0027917183684399317
-0.00809618968734462   -0.09854914079806451   -0.00286746793195634
-0.008358188260114113   -0.0985511290645225   -0.0029399721406802143
-0.008474638776525267   -0.09308187537029915   -0.0029511248845232427
-0.006741054922090499   -0.09915945234461439   -0.0027917183684399317
-0.008358188260114113   -0.0985511290645225   -0.0029399721406802143
-0.005510348412429291   -0.09316784876927373   -0.002956569948938209
-0.008474638776525267   -0.09308187537029915   -0.0029511248845232427
-0.00809618968734462   -0.09854914079806451   -0.00286746793195634
-0.005286011148789016   -0.09317918830632912   -0.0028217209233908722
-0.008285302043855514   -0.09318330060206374   -0.0029528098662224903
-0.00809618968734462   -0.09854914079806451   -0.00286746793195634
-0.006741054922090499   -0.09915945234461439   -0.0027917183684399317
-0.005286011148789016   -0.09317918830632912   -0.0028217209233908722
-0.006410468414819646   -0.09923232726953349   -0.002537193682080422
-0.008285302043855514   -0.09318330060206374   -0.0029528098662224903
-0.005099488317516535   -0.09325961154504843   -0.002707022327426865
-0.006410468414819646   -0.09923232726953349   -0.002537193682080422
-0.005286011148789016   -0.09317918830632912   -0.0028217209233908722
-0.008285302043855514   -0.09318330060206374   -0.0029528098662224903
-0.006410468414819646   -0.09923232726953349   -0.002537193682080422
-0.00782301446519447   -0.09864330409499678   -0.002797812008658574
-0.00809618968734462   -0.09854914079806451   -0.00286746793195634
-0.008285302043855514   -0.09318330060206374   -0.0029528098662224903
-0.006410468414819646   -0.09923232726953349   -0.002537193682080422
-0.00809618968734462   -0.09854914079806451   -0.00286746793195634
-0.005286011148789016   -0.09317918830632912   -0.0028217209233908722
-0.005745716925321782   -0.09321427344380752   -0.003103799468442946
-0.007381200624275138   -0.09925107163766209   -0.0033004052658053332
-0.0024019072428965696   -0.09318184354529244   -0.003231005367509456
-0.005510348412429291   -0.09316784876927373   -0.002956569948938209
-0.007381200624275138   -0.09925107163766209   -0.0033004052658053332
-0.006152941450582403   -0.1   -0.00352178508098957
-0.0024019072428965696   -0.09318184354529244   -0.003231005367509456
-0.00573513530663255   -0.1   -0.003135200125735105
-0.005510348412429291   -0.09316784876927373   -0.002956569948938209
-0.0020997155160023843   -0.09310908577423271   -0.0029709942162863346
-0.00573513530663255   -0.1   -0.003135200125735105
-0.0024019072428965696   -0.09318184354529244   -0.003231005367509456
-0.005510348412429291   -0.09316784876927373   -0.002956569948938209
-0.00573513530663255   -0.1   -0.003135200125735105
-0.0070488982870954685   -0.0991642127850741   -0.0030456121193711914
-0.007381200624275138   -0.09925107163766209   -0.0033004052658053332
-0.005510348412429291   -0.09316784876927373   -0.002956569948938209
-0.00573513530663255   -0.1   -0.003135200125735105
-0.007381200624275138   -0.09925107163766209   -0.0033004052658053332
-0.0024019072428965696   -0.09318184354529244   -0.003231005367509456
-0.005510348412429291   -0.09316784876927373   -0.002956569948938209
-0.0070488982870954685   -0.0991642127850741   -0.0030456121193711914
-0.0020997155160023843   -0.09310908577423271   -0.0029709942162863346
-0.005286011148789016   -0.09317918830632912   -0.0028217209233908722
-0.0070488982870954685   -0.0991642127850741   -0.0030456121193711914
-0.00573513530663255   -0.1   -0.003135200125735105
-0.0020997155160023843   -0.09310908577423271   -0.0029709942162863346
-0.00531545944477301   -0.1   -0.002744026640937249
-0.005286011148789016   -0.09317918830632912   -0.0028217209233908722
-0.0017908832369864774   -0.09309617423139675   -0.002724236263775985
-0.00531545944477301   -0.1   -0.002744026640937249
-0.0020997155160023843   -0.09310908577423271   -0.0029709942162863346
-0.005286011148789016   -0.09317918830632912   -0.0028217209233908722
-0.00531545944477301   -0.1   -0.002744026640937249
-0.006741054922090499   -0.09915945234461439   -0.0027917183684399317
-0.0070488982870954685   -0.0991642127850741   -0.0030456121193711914
-0.005286011148789016   -0.09317918830632912   -0.0028217209233908722
-0.00531545944477301   -0.1   -0.002744026640937249
-0.0070488982870954685   -0.0991642127850741   -0.0030456121193711914
-0.0020997155160023843   -0.09310908577423271   -0.0029709942162863346
-0.005286011148789016   -0.09317918830632912   -0.0028217209233908722
-0.006741054922090499   -0.09915945234461439   -0.0027917183684399317
-0.0017908832369864774   -0.09309617423139675   -0.002724236263775985
-0.005099488317516535   -0.09325961154504843   -0.002707022327426865
-0.006741054922090499   -0.09915945234461439   -0.0027917183684399317
-0.00531545944477301   -0.1   -0.002744026640937249
-0.0017908832369864774   -0.09309617423139675   -0.002724236263775985
-0.004905070664007885   -0.1   -0.002358014632975253
-0.005099488317516535   -0.09325961154504843   -0.002707022327426865
-0.0015620632390252165   -0.09315606260918821   -0.002500190685543592
-0.004905070664007885   -0.1   -0.002358014632975253
-0.0017908832369864774   -0.09309617423139675   -0.002724236263775985
-0.005099488317516535   -0.09325961154504843   -0.002707022327426865
-0.004905070664007885   -0.1   -0.002358014632975253
-0.006410468414819646   -0.09923232726953349   -0.002537193682080422
-0.006741054922090499   -0.09915945234461439   -0.0027917183684399317
-0.005099488317516535   -0.09325961154504843   -0.002707022327426865
-0.004905070664007885   -0.1   -0.002358014632975253
-0.006741054922090499   -0.09915945234461439   -0.0027917183684399317
-0.0017908832369864774   -0.09309617423139675   -0.002724236263775985
-0.0024019072428965696   -0.09318184354529244   -0.003231005367509456
-0.006152941450582403   -0.1   -0.00352178508098957
0.0011990403978710518   -0.09286105525001573   -0.0034920942752650194
-0.0020997155160023843   -0.09310908577423271   -0.0029709942162863346
-0.006152941450582403   -0.1   -0.00352178508098957
-0.005263253417690427   -0.1   -0.003789901695727524
0.0011990403978710518   -0.09286105525001573   -0.0034920942752650194
-0.004390626558328954   -0.1   -0.0032308427643940847
-0.0020997155160023843   -0.09310908577423271   -0.0029709942162863346
0.0019023710642230745   -0.09270259841844855   -0.0030667022907616007
-0.004390626558328954   -0.1   -0.0032308427643940847
0.0011990403978710518   -0.09286105525001573   -0.0034920942752650194
-0.0020997155160023843   -0.09310908577423271   -0.0029709942162863346
-0.004390626558328954   -0.1   -0.0032308427643940847
-0.00573513530663255   -0.1   -0.003135200125735105
-0.006152941450582403   -0.1   -0.00352178508098957
-0.0020997155160023843   -0.09310908577423271   -0.0029709942162863346
-0.004390626558328954   -0.1   -0.0032308427643940847
-0.006152941450582403   -0.1   -0.00352178508098957
0.0011990403978710518   -0.09286105525001573   -0.0034920942752650194
-0.0020997155160023843   -0.09310908577423271   -0.0029709942162863346
-0.00573513530663255   -0.1   -0.003135200125735105
0.0019023710642230745   -0.09270259841844855   -0.0030667022907616007
-0.0017908832369864774   -0.09309617423139675   -0.002724236263775985
-0.00573513530663255   -0.1   -0.003135200125735105
-0.004390626558328954   -0.1   -0.0032308427643940847
0.0019023710642230745   -0.09270259841844855   -0.0030667022907616007
-0.0036947099341398015   -0.1   -0.002696020989836933
-0.0017908832369864774   -0.09309617423139675   -0.002724236263775985
0.002455154404421075   -0.0926704446662091   -0.0026673669794585768
-0.0036947099341398015   -0.1   -0.002696020989836933
0.0019023710642230745   -0.09270259841844855   -0.0030667022907616007
-0.0017908832369864774   -0.09309617423139675   -0.002724236263775985
-0.0036947099341398015   -0.1   -0.002696020989836933
-0.00531545944477301   -0.1   -0.002744026640937249
-0.00573513530663255   -0.1   -0.003135200125735105
-0.0017908832369864774   -0.09309617423139675   -0.002724236263775985
-0.0036947099341398015   -0.1   -0.002696020989836933
-0.00573513530663255   -0.1   -0.003135200125735105
0.0019023710642230745   -0.09270259841844855   -0.0030667022907616007
-0.0017908832369864774   -0.09309617423139675   -0.002724236263775985
-0.00531545944477301   -0.1   -0.002744026640937249
0.002455154404421075   -0.0926704446662091   -0.0026673669794585768
-0.0015620632390252165   -0.09315606260918821   -0.002500190685543592
-0.00531545944477301   -0.1   -0.002744026640937249
-0.0036947099341398015   -0.1   -0.002696020989836933
0.002455154404421075   -0.0926704446662091   -0.0026673669794585768
-0.0028350025281004315   -0.1   -0.002140826453816743
-0.0015620632390252165   -0.09315606260918821   -0.002500190685543592
0.003029366353289646   -0.09269716834758958   -0.0023027613176198193
-0.0028350025281004315   -0.1   -0.002140826453816743
0.002455154404421075   -0.0926704446662091   -0.0026673669794585768
-0.0015620632390252165   -0.09315606260918821   -0.002500190685543592
-0.0028350025281004315   -0.1   -0.002140826453816743
-0.004905070664007885   -0.1   -0.002358014632975253
-0.00531545944477301   -0.1   -0.002744026640937249
-0.0015620632390252165   -0.09315606260918821   -0.002500190685543592
-0.0028350025281004315   -0.1   -0.002140826453816743
-0.00531545944477301   -0.1   -0.002744026640937249
0.002455154404421075   -0.0926704446662091   -0.0026673669794585768
-0.011864054594667233   -0.09766165523468603   -0.002452361944273631
-0.007077913418853964   -0.09791667929618686   -0.002098823439599878
-0.009996166096145702   -0.09815514762451348   -0.002749184146054341
-0.011317806460285367   -0.09755160511406583   -0.00276220968495744
-0.007077913418853964   -0.09791667929618686   -0.002098823439599878
-0.007512160621321309   -0.09829659047059112   -0.0024809798642894225
-0.009996166096145702   -0.09815514762451348   -0.002749184146054341
-0.0073180200830407684   -0.0981632043058191   -0.002620048215794171
-0.011317806460285367   -0.09755160511406583   -0.00276220968495744
-0.009739372447408906   -0.0980574412933605   -0.002851014013838686
-0.0073180200830407684   -0.0981632043058191   -0.002620048215794171
-0.009996166096145702   -0.09815514762451348   -0.002749184146054341
-0.011317806460285367   -0.09755160511406583   -0.00276220968495744
-0.0073180200830407684   -0.0981632043058191   -0.002620048215794171
-0.006583078486739812   -0.09774543792917186   -0.0024243434305981073
-0.007077913418853964   -0.09791667929618686   -0.002098823439599878
-0.011317806460285367   -0.09755160511406583   -0.00276220968495744
-0.0073180200830407684   -0.0981632043058191   -0.002620048215794171
-0.007077913418853964   -0.09791667929618686   -0.002098823439599878
-0.009996166096145702   -0.09815514762451348   -0.002749184146054341
-0.011317806460285367   -0.09755160511406583   -0.00276220968495744
-0.006583078486739812   -0.09774543792917186   -0.0024243434305981073
-0.009739372447408906   -0.0980574412933605   -0.002851014013838686
-0.010846479111712113   -0.09756073122009039   -0.0030708414266809214
-0.006583078486739812   -0.09774543792917186   -0.0024243434305981073
-0.0073180200830407684   -0.0981632043058191   -0.002620048215794171
-0.009739372447408906   -0.0980574412933605   -0.002851014013838686
-0.007090368122630039   -0.09811370203689308   -0.0027483091995140225
-0.010846479111712113   -0.09756073122009039   -0.0030708414266809214
-0.009455057978237829   -0.09806201258209774   -0.0029538714372788475
-0.007090368122630039   -0.09811370203689308   -0.0027483091995140225
-0.009739372447408906   -0.0980574412933605   -0.002851014013838686
-0.010846479111712113   -0.09756073122009039   -0.0030708414266809214
-0.007090368122630039   -0.09811370203689308   -0.0027483091995140225
-0.0061711543085905055   -0.09769242563551828   -0.002736449722112017
-0.006583078486739812   -0.09774543792917186   -0.0024243434305981073
-0.010846479111712113   -0.09756073122009039   -0.0030708414266809214
-0.007090368122630039   -0.09811370203689308   -0.0027483091995140225
-0.006583078486739812   -0.09774543792917186   -0.0024243434305981073
-0.009739372447408906   -0.0980574412933605   -0.002851014013838686
-0.010846479111712113   -0.09756073122009039   -0.0030708414266809214
-0.0061711543085905055   -0.09769242563551828   -0.002736449722112017
-0.009455057978237829   -0.09806201258209774   -0.0029538714372788475
-0.010287499250011828   -0.09769584912527499   -0.003386128191027943
-0.0061711543085905055   -0.09769242563551828   -0.002736449722112017
-0.007090368122630039   -0.09811370203689308   -0.0027483091995140225
-0.009455057978237829   -0.09806201258209774   -0.0029538714372788475
-0.006895314357907068   -0.09814878727000953   -0.002865087265385014
-0.010287499250011828   -0.09769584912527499   -0.003386128191027943
-0.009190882532604415   -0.0981693244457813   -0.003058187682229262
-0.006895314357907068   -0.09814878727000953   -0.002865087265385014
-0.009455057978237829   -0.09806201258209774   -0.0029538714372788475
-0.010287499250011828   -0.09769584912527499   -0.003386128191027943
-0.006895314357907068   -0.09814878727000953   -0.002865087265385014
-0.005705243428104316   -0.09773621031133813   -0.0030337458627616716
-0.0061711543085905055   -0.09769242563551828   -0.002736449722112017
-0.010287499250011828   -0.09769584912527499   -0.003386128191027943
-0.006895314357907068   -0.09814878727000953   -0.002865087265385014
-0.0061711543085905055   -0.09769242563551828   -0.002736449722112017
-0.009455057978237829   -0.09806201258209774   -0.0029538714372788475
-0.009996166096145702   -0.09815514762451348   -0.002749184146054341
-0.007512160621321309   -0.09829659047059112   -0.0024809798642894225
-0.008629211159268041   -0.09865133089382683   -0.0030115796946436754
-0.009739372447408906   -0.0980574412933605   -0.002851014013838686
-0.007512160621321309   -0.09829659047059112   -0.0024809798642894225
-0.00809787342264818   -0.09853191452942776   -0.0027866009930112914
-0.008629211159268041   -0.09865133089382683   -0.0030115796946436754
-0.007926011170073782   -0.09841282748357516   -0.0027903063637831097
-0.009739372447408906   -0.0980574412933605   -0.002851014013838686
-0.008358188260114113   -0.0985511290645225   -0.0029399721406802143
-0.007926011170073782   -0.09841282748357516   -0.0027903063637831097
-0.008629211159268041   -0.09865133089382683   -0.0030115796946436754
-0.009739372447408906   -0.0980574412933605   -0.002851014013838686
-0.007926011170073782   -0.09841282748357516   -0.0027903063637831097
-0.0073180200830407684   -0.0981632043058191   -0.002620048215794171
-0.007512160621321309   -0.09829659047059112   -0.0024809798642894225
-0.009739372447408906   -0.0980574412933605   -0.002851014013838686
-0.007926011170073782   -0.09841282748357516   -0.0027903063637831097
-0.007512160621321309   -0.09829659047059112   -0.0024809798642894225
-0.008629211159268041   -0.09865133089382683   -0.0030115796946436754
-0.009739372447408906   -0.0980574412933605   -0.002851014013838686
-0.0073180200830407684   -0.0981632043058191   -0.002620048215794171
-0.008358188260114113   -0.0985511290645225   -0.0029399721406802143
-0.009455057978237829   -0.09806201258209774   -0.0029538714372788475
-0.0073180200830407684   -0.0981632043058191   -0.002620048215794171
-0.007926011170073782   -0.09841282748357516   -0.0027903063637831097
-0.008358188260114113   -0.0985511290645225   -0.0029399721406802143
-0.007734700701020599   -0.09836971847455263   -0.0027799996482541223
-0.009455057978237829   -0.09806201258209774   -0.0029538714372788475
-0.00809618968734462   -0.09854914079806451   -0.00286746793195634
-0.007734700701020599   -0.09836971847455263   -0.0027799996482541223
-0.008358188260114113   -0.0985511290645225   -0.0029399721406802143
-0.009455057978237829   -0.09806201258209774   -0.0029538714372788475
-0.007734700701020599   -0.09836971847455263   -0.0027799996482541223
-0.007090368122630039   -0.09811370203689308   -0.0027483091995140225
-0.0073180200830407684   -0.0981632043058191   -0.002620048215794171
-0.009455057978237829   -0.09806201258209774   -0.0029538714372788475
-0.007734700701020599   -0.09836971847455263   -0.0027799996482541223
-0.0073180200830407684   -0.0981632043058191   -0.002620048215794171
-0.008358188260114113   -0.0985511290645225   -0.0029399721406802143
-0.009455057978237829   -0.09806201258209774   -0.0029538714372788475
-0.007090368122630039   -0.09811370203689308   -0.0027483091995140225
-0.00809618968734462   -0.09854914079806451   -0.00286746793195634
-0.009190882532604415   -0.0981693244457813   -0.003058187682229262
-0.007090368122630039   -0.09811370203689308   -0.0027483091995140225
-0.007734700701020599   -0.09836971847455263   -0.0027799996482541223
-0.00809618968734462   -0.09854914079806451   -0.00286746793195634
-0.0075401692529307555   -0.09839909304456189   -0.0027586988252819877
-0.009190882532604415   -0.0981693244457813   -0.003058187682229262
-0.00782301446519447   -0.09864330409499678   -0.002797812008658574
-0.0075401692529307555   -0.09839909304456189   -0.0027586988252819877
-0.00809618968734462   -0.09854914079806451   -0.00286746793195634
-0.009190882532604415   -0.0981693244457813   -0.003058187682229262
-0.0075401692529307555   -0.09839909304456189   -0.0027586988252819877
-0.006895314357907068   -0.09814878727000953   -0.002865087265385014
-0.007090368122630039   -0.09811370203689308   -0.0027483091995140225
-0.009190882532604415   -0.0981693244457813   -0.003058187682229262
-0.0075401692529307555   -0.09839909304456189   -0.0027586988252819877
-0.007090368122630039   -0.09811370203689308   -0.0027483091995140225
-0.00809618968734462   -0.09854914079806451   -0.00286746793195634
-0.008629211159268041   -0.09865133089382683   -0.0030115796946436754
-0.00809787342264818   -0.09853191452942776   -0.0027866009930112914
-0.007381200624275138   -0.09925107163766209   -0.0033004052658053332
-0.008358188260114113   -0.0985511290645225   -0.0029399721406802143
-0.00809787342264818   -0.09853191452942776   -0.0027866009930112914
-0.00872548678953983   -0.09863151148539062   -0.0030873306983704826
-0.007381200624275138   -0.09925107163766209   -0.0033004052658053332
-0.008547458752189981   -0.09851801685253526   -0.0029608820530219867
-0.008358188260114113   -0.0985511290645225   -0.0029399721406802143
-0.0070488982870954685   -0.0991642127850741   -0.0030456121193711914
-0.008547458752189981   -0.09851801685253526   -0.0029608820530219867
-0.007381200624275138   -0.09925107163766209   -0.0033004052658053332
-0.008358188260114113   -0.0985511290645225   -0.0029399721406802143
-0.008547458752189981   -0.09851801685253526   -0.0029608820530219867
-0.007926011170073782   -0.09841282748357516   -0.0027903063637831097
-0.00809787342264818   -0.09853191452942776   -0.0027866009930112914
-0.008358188260114113   -0.0985511290645225   -0.0029399721406802143
-0.008547458752189981   -0.09851801685253526   -0.0029608820530219867
-0.00809787342264818   -0.09853191452942776   -0.0027866009930112914
-0.007381200624275138   -0.09925107163766209   -0.0033004052658053332
-0.008358188260114113   -0.0985511290645225   -0.0029399721406802143
-0.007926011170073782   -0.09841282748357516   -0.0027903063637831097
-0.0070488982870954685   -0.0991642127850741   -0.0030456121193711914
-0.00809618968734462   -0.09854914079806451   -0.00286746793195634
-0.007926011170073782   -0.09841282748357516   -0.0027903063637831097
-0.008547458752189981   -0.09851801685253526   -0.0029608820530219867
-0.0070488982870954685   -0.0991642127850741   -0.0030456121193711914
-0.00833386859179139   -0.09848174808838842   -0.0028173697210235153
-0.00809618968734462   -0.09854914079806451   -0.00286746793195634
-0.006741054922090499   -0.09915945234461439   -0.0027917183684399317
-0.00833386859179139   -0.09848174808838842   -0.0028173697210235153
-0.0070488982870954685   -0.0991642127850741   -0.0030456121193711914
-0.00809618968734462   -0.09854914079806451   -0.00286746793195634
-0.00833386859179139   -0.09848174808838842   -0.0028173697210235153
-0.007734700701020599   -0.09836971847455263   -0.0027799996482541223
-0.007926011170073782   -0.09841282748357516   -0.0027903063637831097
-0.00809618968734462   -0.09854914079806451   -0.00286746793195634
-0.00833386859179139   -0.09848174808838842   -0.0028173697210235153
-0.007926011170073782   -0.09841282748357516   -0.0027903063637831097
-0.0070488982870954685   -0.0991642127850741   -0.0030456121193711914
-0.00809618968734462   -0.09854914079806451   -0.00286746793195634
-0.007734700701020599   -0.09836971847455263   -0.0027799996482541223
-0.006741054922090499   -0.09915945234461439   -0.0027917183684399317
-0.00782301446519447   -0.09864330409499678   -0.002797812008658574
-0.007734700701020599   -0.09836971847455263   -0.0027799996482541223
-0.00833386859179139   -0.09848174808838842   -0.0028173697210235153
-0.006741054922090499   -0.09915945234461439   -0.0027917183684399317
-0.00811418485498855   -0.09851051222098316   -0.002664481205310332
-0.00782301446519447   -0.09864330409499678   -0.002797812008658574
-0.006410468414819646   -0.09923232726953349   -0.002537193682080422
-0.00811418485498855   -0.09851051222098316   -0.002664481205310332
-0.006741054922090499   -0.09915945234461439   -0.0027917183684399317
-0.00782301446519447   -0.09864330409499678   -0.002797812008658574
-0.00811418485498855   -0.09851051222098316   -0.002664481205310332
-0.0075401692529307555   -0.09839909304456189   -0.0027586988252819877
-0.007734700701020599   -0.09836971847455263   -0.0027799996482541223
-0.00782301446519447   -0.09864330409499678   -0.002797812008658574
-0.00811418485498855   -0.09851051222098316   -0.002664481205310332
-0.007734700701020599   -0.09836971847455263   -0.0027799996482541223
-0.006741054922090499   -0.09915945234461439   -0.0027917183684399317
-0.007381200624275138   -0.09925107163766209   -0.0033004052658053332
-0.00872548678953983   -0.09863151148539062   -0.0030873306983704826
-0.006152941450582403   -0.1   -0.00352178508098957
-0.0070488982870954685   -0.0991642127850741   -0.0030456121193711914
-0.00872548678953983   -0.09863151148539062   -0.0030873306983704826
-0.009634257798730424   -0.09852624403985838   -0.0033728637586445133
-0.006152941450582403   -0.1   -0.00352178508098957
-0.0094016917618949   -0.0984192012702088   -0.0031225415088891526
-0.0070488982870954685   -0.0991642127850741   -0.0030456121193711914
-0.00573513530663255   -0.1   -0.003135200125735105
-0.0094016917618949   -0.0984192012702088   -0.0031225415088891526
-0.006152941450582403   -0.1   -0.00352178508098957
-0.0070488982870954685   -0.0991642127850741   -0.0030456121193711914
-0.0094016917618949   -0.0984192012702088   -0.0031225415088891526
-0.008547458752189981   -0.09851801685253526   -0.0029608820530219867
-0.00872548678953983   -0.09863151148539062   -0.0030873306983704826
-0.0070488982870954685   -0.0991642127850741   -0.0030456121193711914
-0.0094016917618949   -0.0984192012702088   -0.0031225415088891526
-0.00872548678953983   -0.09863151148539062   -0.0030873306983704826
-0.006152941450582403   -0.1   -0.00352178508098957
-0.0070488982870954685   -0.0991642127850741   -0.0030456121193711914
-0.008547458752189981   -0.09851801685253526   -0.0029608820530219867
-0.00573513530663255   -0.1   -0.003135200125735105
-0.006741054922090499   -0.09915945234461439   -0.0027917183684399317
-0.008547458752189981   -0.09851801685253526   -0.0029608820530219867
-0.0094016917618949   -0.0984192012702088   -0.0031225415088891526
-0.00573513530663255   -0.1   -0.003135200125735105
-0.009094951435551805   -0.09839470974126598   -0.0028532364973879914
-0.006741054922090499   -0.09915945234461439   -0.0027917183684399317
-0.00531545944477301   -0.1   -0.002744026640937249
-0.009094951435551805   -0.09839470974126598   -0.0028532364973879914
-0.00573513530663255   -0.1   -0.003135200125735105
-0.006741054922090499   -0.09915945234461439   -0.0027917183684399317
-0.009094951435551805   -0.09839470974126598   -0.0028532364973879914
-0.00833386859179139   -0.09848174808838842   -0.0028173697210235153
-0.008547458752189981   -0.09851801685253526   -0.0029608820530219867
-0.006741054922090499   -0.09915945234461439   -0.0027917183684399317
-0.009094951435551805   -0.09839470974126598   -0.0028532364973879914
-0.008547458752189981   -0.09851801685253526   -0.0029608820530219867
-0.00573513530663255   -0.1   -0.003135200125735105
-0.006741054922090499   -0.09915945234461439   -0.0027917183684399317
-0.00833386859179139   -0.09848174808838842   -0.0028173697210235153
-0.00531545944477301   -0.1   -0.002744026640937249
-0.006410468414819646   -0.09923232726953349   -0.002537193682080422
-0.00833386859179139   -0.09848174808838842   -0.0028173697210235153
-0.009094951435551805   -0.09839470974126598   -0.0028532364973879914
-0.00531545944477301   -0.1   -0.002744026640937249
-0.008806211367015272   -0.09843679327209225   -0.0025734917029762564
-0.006410468414819646   -0.09923232726953349   -0.002537193682080422
-0.004905070664007885   -0.1   -0.002358014632975253
-0.008806211367015272   -0.09843679327209225   -0.0025734917029762564
-0.00531545944477301   -0.1   -0.002744026640937249
-0.006410468414819646   -0.09923232726953349   -0.002537193682080422
-0.008806211367015272   -0.09843679327209225   -0.0025734917029762564
-0.00811418485498855   -0.09851051222098316   -0.002664481205310332
-0.00833386859179139   -0.09848174808838842   -0.0028173697210235153
-0.006410468414819646   -0.09923232726953349   -0.002537193682080422
-0.008806211367015272   -0.09843679327209225   -0.0025734917029762564
-0.00833386859179139   -0.09848174808838842   -0.0028173697210235153
-0.00531545944477301   -0.1   -0.002744026640937249
-0.006152941450582403   -0.1   -0.00352178508098957
-0.009634257798730424   -0.09852624403985838   -0.0033728637586445133
-0.005263253417690427   -0.1   -0.003789901695727524
-0.00573513530663255   -0.1   -0.003135200125735105
-0.009634257798730424   -0.09852624403985838   -0.0033728637586445133
-0.011398168059914908   -0.09804384312905509   -0.003675264335125332
-0.005263253417690427   -0.1   -0.003789901695727524
-0.010781288631803238   -0.09795380723450649   -0.0032645498773022186
-0.00573513530663255   -0.1   -0.003135200125735105
-0.004390626558328954   -0.1   -0.0032308427643940847
-0.010781288631803238   -0.09795380723450649   -0.0032645498773022186
-0.005263253417690427   -0.1   -0.003789901695727524
-0.00573513530663255   -0.1   -0.003135200125735105
-0.010781288631803238   -0.09795380723450649   -0.0032645498773022186
-0.0094016917618949   -0.0984192012702088   -0.0031225415088891526
-0.009634257798730424   -0.09852624403985838   -0.0033728637586445133
-0.00573513530663255   -0.1   -0.003135200125735105
-0.010781288631803238   -0.09795380723450649   -0.0032645498773022186
-0.009634257798730424   -0.09852624403985838   -0.0033728637586445133
-0.005263253417690427   -0.1   -0.003789901695727524
-0.00573513530663255   -0.1   -0.003135200125735105
-0.0094016917618949   -0.0984192012702088   -0.0031225415088891526
-0.004390626558328954   -0.1   -0.0032308427643940847
-0.00531545944477301   -0.1   -0.002744026640937249
-0.0094016917618949   -0.0984192012702088   -0.0031225415088891526
-0.010781288631803238   -0.09795380723450649   -0.0032645498773022186
-0.004390626558328954   -0.1   -0.0032308427643940847
-0.010214209248772706   -0.09794132496481228   -0.0028260270162645275
-0.00531545944477301   -0.1   -0.002744026640937249
-0.0036947099341398015   -0.1   -0.002696020989836933
-0.010214209248772706   -0.09794132496481228   -0.0028260270162645275
-0.004390626558328954   -0.1   -0.0032308427643940847
-0.00531545944477301   -0.1   -0.002744026640937249
-0.010214209248772706   -0.09794132496481228   -0.0028260270162645275
-0.009094951435551805   -0.09839470974126598   -0.0028532364973879914
-0.0094016917618949   -0.0984192012702088   -0.0031225415088891526
-0.00531545944477301   -0.1   -0.002744026640937249
-0.010214209248772706   -0.09794132496481228   -0.0028260270162645275
-0.0094016917618949   -0.0984192012702088   -0.0031225415088891526
-0.004390626558328954   -0.1   -0.0032308427643940847
-0.00531545944477301   -0.1   -0.002744026640937249
-0.009094951435551805   -0.09839470974126598   -0.0028532364973879914
-0.0036947099341398015   -0.1   -0.002696020989836933
-0.004905070664007885   -0.1   -0.002358014632975253
-0.009094951435551805   -0.09839470974126598   -0.0028532364973879914
-0.010214209248772706   -0.09794132496481228   -0.0028260270162645275
-0.0036947099341398015   -0.1   -0.002696020989836933
-0.009498102817818547   -0.09805953786087113   -0.0023672855432556052
-0.004905070664007885   -0.1   -0.002358014632975253
-0.0028350025281004315   -0.1   -0.002140826453816743
-0.009498102817818547   -0.09805953786087113   -0.0023672855432556052
-0.0036947099341398015   -0.1   -0.002696020989836933
-0.004905070664007885   -0.1   -0.002358014632975253
-0.009498102817818547   -0.09805953786087113   -0.0023672855432556052
-0.008806211367015272   -0.09843679327209225   -0.0025734917029762564
-0.009094951435551805   -0.09839470974126598   -0.0028532364973879914
-0.004905070664007885   -0.1   -0.002358014632975253
-0.009498102817818547   -0.09805953786087113   -0.0023672855432556052
-0.009094951435551805   -0.09839470974126598   -0.0028532364973879914
-0.0036947099341398015   -0.1   -0.002696020989836933
-0.007077913418853964   -0.09791667929618686   -0.002098823439599878
-0.0028708924129748526   -0.0942038092099291   -0.001814031965483201
-0.007512160621321309   -0.09829659047059112   -0.0024809798642894225
-0.006583078486739812   -0.09774543792917186   -0.0024243434305981073
-0.0028708924129748526   -0.0942038092099291   -0.001814031965483201
-0.005383870419798033   -0.0944900405524128   -0.0022198545487420738
-0.007512160621321309   -0.09829659047059112   -0.0024809798642894225
-0.0052460495264009185   -0.09432866234868902   -0.002343763102882114
-0.006583078486739812   -0.09774543792917186   -0.0024243434305981073
-0.0073180200830407684   -0.0981632043058191   -0.002620048215794171
-0.0052460495264009185   -0.09432866234868902   -0.002343763102882114
-0.007512160621321309   -0.09829659047059112   -0.0024809798642894225
-0.006583078486739812   -0.09774543792917186   -0.0024243434305981073
-0.0052460495264009185   -0.09432866234868902   -0.002343763102882114
-0.0024766759631061294   -0.09400417227262935   -0.0020951415383885816
-0.0028708924129748526   -0.0942038092099291   -0.001814031965483201
-0.006583078486739812   -0.09774543792917186   -0.0024243434305981073
-0.0052460495264009185   -0.09432866234868902   -0.002343763102882114
-0.0028708924129748526   -0.0942038092099291   -0.001814031965483201
-0.007512160621321309   -0.09829659047059112   -0.0024809798642894225
-0.006583078486739812   -0.09774543792917186   -0.0024243434305981073
-0.0024766759631061294   -0.09400417227262935   -0.0020951415383885816
-0.0073180200830407684   -0.0981632043058191   -0.002620048215794171
-0.0061711543085905055   -0.09769242563551828   -0.002736449722112017
-0.0024766759631061294   -0.09400417227262935   -0.0020951415383885816
-0.0052460495264009185   -0.09432866234868902   -0.002343763102882114
-0.0073180200830407684   -0.0981632043058191   -0.002620048215794171
-0.005090971859787598   -0.09423895539756276   -0.0024564565794369534
-0.0061711543085905055   -0.09769242563551828   -0.002736449722112017
-0.007090368122630039   -0.09811370203689308   -0.0027483091995140225
-0.005090971859787598   -0.09423895539756276   -0.0024564565794369534
-0.0073180200830407684   -0.0981632043058191   -0.002620048215794171
-0.0061711543085905055   -0.09769242563551828   -0.002736449722112017
-0.005090971859787598   -0.09423895539756276   -0.0024564565794369534
-0.002166482367940793   -0.09390875894673435   -0.002359624725428514
-0.0024766759631061294   -0.09400417227262935   -0.0020951415383885816
-0.0061711543085905055   -0.09769242563551828   -0.002736449722112017
-0.005090971859787598   -0.09423895539756276   -0.0024564565794369534
-0.0024766759631061294   -0.09400417227262935   -0.0020951415383885816
-0.0073180200830407684   -0.0981632043058191   -0.002620048215794171
-0.0061711543085905055   -0.09769242563551828   -0.002736449722112017
-0.002166482367940793   -0.09390875894673435   -0.002359624725428514
-0.007090368122630039   -0.09811370203689308   -0.0027483091995140225
-0.005705243428104316   -0.09773621031133813   -0.0030337458627616716
-0.002166482367940793   -0.09390875894673435   -0.002359624725428514
-0.005090971859787598   -0.09423895539756276   -0.0024564565794369534
-0.007090368122630039   -0.09811370203689308   -0.0027483091995140225
-0.0049720497060777614   -0.09421841734334907   -0.0025582904737908177
-0.005705243428104316   -0.09773621031133813   -0.0030337458627616716
-0.006895314357907068   -0.09814878727000953   -0.002865087265385014
-0.0049720497060777614   -0.09421841734334907   -0.0025582904737908177
-0.007090368122630039   -0.09811370203689308   -0.0027483091995140225
-0.005705243428104316   -0.09773621031133813   -0.0030337458627616716
-0.0049720497060777614   -0.09421841734334907   -0.0025582904737908177
-0.0018279066895858268   -0.09389022240718707   -0.002606775131536009
-0.002166482367940793   -0.09390875894673435   -0.002359624725428514
-0.005705243428104316   -0.09773621031133813   -0.0030337458627616716
-0.0049720497060777614   -0.09421841734334907   -0.0025582904737908177
-0.002166482367940793   -0.09390875894673435   -0.002359624725428514
-0.007090368122630039   -0.09811370203689308   -0.0027483091995140225
-0.007512160621321309   -0.09829659047059112   -0.0024809798642894225
-0.005383870419798033   -0.0944900405524128   -0.0022198545487420738
-0.00809787342264818   -0.09853191452942776   -0.0027866009930112914
-0.0073180200830407684   -0.0981632043058191   -0.002620048215794171
-0.005383870419798033   -0.0944900405524128   -0.0022198545487420738
-0.007863201693641807   -0.09459113923842562   -0.0025509995089227854
-0.00809787342264818   -0.09853191452942776   -0.0027866009930112914
-0.007747270891140088   -0.09445033884042223   -0.0025578964251260876
-0.0073180200830407684   -0.0981632043058191   -0.002620048215794171
-0.007926011170073782   -0.09841282748357516   -0.0027903063637831097
-0.007747270891140088   -0.09445033884042223   -0.0025578964251260876
-0.00809787342264818   -0.09853191452942776   -0.0027866009930112914
-0.0073180200830407684   -0.0981632043058191   -0.002620048215794171
-0.007747270891140088   -0.09445033884042223   -0.0025578964251260876
-0.0052460495264009185   -0.09432866234868902   -0.002343763102882114
-0.005383870419798033   -0.0944900405524128   -0.0022198545487420738
-0.0073180200830407684   -0.0981632043058191   -0.002620048215794171
-0.007747270891140088   -0.09445033884042223   -0.0025578964251260876
-0.005383870419798033   -0.0944900405524128   -0.0022198545487420738
-0.00809787342264818   -0.09853191452942776   -0.0027866009930112914
-0.0073180200830407684   -0.0981632043058191   -0.002620048215794171
-0.0052460495264009185   -0.09432866234868902   -0.002343763102882114
-0.007926011170073782   -0.09841282748357516   -0.0027903063637831097
-0.007090368122630039   -0.09811370203689308   -0.0027483091995140225
-0.0052460495264009185   -0.09432866234868902   -0.002343763102882114
-0.007747270891140088   -0.09445033884042223   -0.0025578964251260876
-0.007926011170073782   -0.09841282748357516   -0.0027903063637831097
-0.00762737552917172   -0.09437415109546428   -0.0025544080904954577
-0.007090368122630039   -0.09811370203689308   -0.0027483091995140225
-0.007734700701020599   -0.09836971847455263   -0.0027799996482541223
-0.00762737552917172   -0.09437415109546428   -0.0025544080904954577
-0.007926011170073782   -0.09841282748357516   -0.0027903063637831097
-0.007090368122630039   -0.09811370203689308   -0.0027483091995140225
-0.00762737552917172   -0.09437415109546428   -0.0025544080904954577
-0.005090971859787598   -0.09423895539756276   -0.0024564565794369534
-0.0052460495264009185   -0.09432866234868902   -0.002343763102882114
-0.007090368122630039   -0.09811370203689308   -0.0027483091995140225
-0.00762737552917172   -0.09437415109546428   -0.0025544080904954577
-0.0052460495264009185   -0.09432866234868902   -0.002343763102882114
-0.007926011170073782   -0.09841282748357516   -0.0027903063637831097
-0.007090368122630039   -0.09811370203689308   -0.0027483091995140225
-0.005090971859787598   -0.09423895539756276   -0.0024564565794369534
-0.007734700701020599   -0.09836971847455263   -0.0027799996482541223
-0.006895314357907068   -0.09814878727000953   -0.002865087265385014
-0.005090971859787598   -0.09423895539756276   -0.0024564565794369534
-0.00762737552917172   -0.09437415109546428   -0.0025544080904954577
-0.007734700701020599   -0.09836971847455263   -0.0027799996482541223
-0.007511737326984512   -0.09435944195955238   -0.0025404315713745433
-0.006895314357907068   -0.09814878727000953   -0.002865087265385014
-0.0075401692529307555   -0.09839909304456189   -0.0027586988252819877
-0.007511737326984512   -0.09435944195955238   -0.0025404315713745433
-0.007734700701020599   -0.09836971847455263   -0.0027799996482541223
-0.006895314357907068   -0.09814878727000953   -0.002865087265385014
-0.007511737326984512   -0.09435944195955238   -0.0025404315713745433
-0.0049720497060777614   -0.09421841734334907   -0.0025582904737908177
-0.005090971859787598   -0.09423895539756276   -0.0024564565794369534
-0.006895314357907068   -0.09814878727000953   -0.002865087265385014
-0.007511737326984512   -0.09435944195955238   -0.0025404315713745433
-0.005090971859787598   -0.09423895539756276   -0.0024564565794369534
-0.007734700701020599   -0.09836971847455263   -0.0027799996482541223
-0.00809787342264818   -0.09853191452942776   -0.0027866009930112914
-0.007863201693641807   -0.09459113923842562   -0.0025509995089227854
-0.00872548678953983   -0.09863151148539062   -0.0030873306983704826
-0.007926011170073782   -0.09841282748357516   -0.0027903063637831097
-0.007863201693641807   -0.09459113923842562   -0.0025509995089227854
-0.010325188526695383   -0.0945015119030013   -0.0028608855930935136
-0.00872548678953983   -0.09863151148539062   -0.0030873306983704826
-0.010210173083542329   -0.09437649294936389   -0.0027555966334679477
-0.007926011170073782   -0.09841282748357516   -0.0027903063637831097
-0.008547458752189981   -0.09851801685253526   -0.0029608820530219867
-0.010210173083542329   -0.09437649294936389   -0.0027555966334679477
-0.00872548678953983   -0.09863151148539062   -0.0030873306983704826
-0.007926011170073782   -0.09841282748357516   -0.0027903063637831097
-0.010210173083542329   -0.09437649294936389   -0.0027555966334679477
-0.007747270891140088   -0.09445033884042223   -0.0025578964251260876
-0.007863201693641807   -0.09459113923842562   -0.0025509995089227854
-0.007926011170073782   -0.09841282748357516   -0.0027903063637831097
-0.010210173083542329   -0.09437649294936389   -0.0027555966334679477
-0.007863201693641807   -0.09459113923842562   -0.0025509995089227854
-0.00872548678953983   -0.09863151148539062   -0.0030873306983704826
-0.007926011170073782   -0.09841282748357516   -0.0027903063637831097
-0.007747270891140088   -0.09445033884042223   -0.0025578964251260876
-0.008547458752189981   -0.09851801685253526   -0.0029608820530219867
-0.007734700701020599   -0.09836971847455263   -0.0027799996482541223
-0.007747270891140088   -0.09445033884042223   -0.0025578964251260876
-0.010210173083542329   -0.09437649294936389   -0.0027555966334679477
-0.008547458752189981   -0.09851801685253526   -0.0029608820530219867
-0.010081097896424116   -0.09431499617968474   -0.0026400736779379833
-0.007734700701020599   -0.09836971847455263   -0.0027799996482541223
-0.00833386859179139   -0.09848174808838842   -0.0028173697210235153
-0.010081097896424116   -0.09431499617968474   -0.0026400736779379833
-0.008547458752189981   -0.09851801685253526   -0.0029608820530219867
-0.007734700701020599   -0.09836971847455263   -0.0027799996482541223
-0.010081097896424116   -0.09431499617968474   -0.0026400736779379833
-0.00762737552917172   -0.09437415109546428   -0.0025544080904954577
-0.007747270891140088   -0.09445033884042223   -0.0025578964251260876
-0.007734700701020599   -0.09836971847455263   -0.0027799996482541223
-0.010081097896424116   -0.09431499617968474   -0.0026400736779379833
-0.007747270891140088   -0.09445033884042223   -0.0025578964251260876
-0.008547458752189981   -0.09851801685253526   -0.0029608820530219867
-0.007734700701020599   -0.09836971847455263   -0.0027799996482541223
-0.00762737552917172   -0.09437415109546428   -0.0025544080904954577
-0.00833386859179139   -0.09848174808838842   -0.0028173697210235153
-0.0075401692529307555   -0.09839909304456189   -0.0027586988252819877
-0.00762737552917172   -0.09437415109546428   -0.0025544080904954577
-0.010081097896424116   -0.09431499617968474   -0.0026400736779379833
-0.00833386859179139   -0.09848174808838842   -0.0028173697210235153
-0.009951459707625525   -0.0943108766938377   -0.002513069396918299
-0.0075401692529307555   -0.09839909304456189   -0.0027586988252819877
-0.00811418485498855   -0.09851051222098316   -0.002664481205310332
-0.009951459707625525   -0.0943108766938377   -0.002513069396918299
-0.00833386859179139   -0.09848174808838842   -0.0028173697210235153
-0.0075401692529307555   -0.09839909304456189   -0.0027586988252819877
-0.009951459707625525   -0.0943108766938377   -0.002513069396918299
-0.007511737326984512   -0.09435944195955238   -0.0025404315713745433
-0.00762737552917172   -0.09437415109546428   -0.0025544080904954577
-0.0075401692529307555   -0.09839909304456189   -0.0027586988252819877
-0.009951459707625525   -0.0943108766938377   -0.002513069396918299
-0.00762737552917172   -0.09437415109546428   -0.0025544080904954577
-0.00833386859179139   -0.09848174808838842   -0.0028173697210235153
-0.00872548678953983   -0.09863151148539062   -0.0030873306983704826
-0.010325188526695383   -0.0945015119030013   -0.0028608855930935136
-0.009634257798730424   -0.09852624403985838   -0.0033728637586445133
-0.008547458752189981   -0.09851801685253526   -0.0029608820530219867
-0.010325188526695383   -0.0945015119030013   -0.0028608855930935136
-0.01303061627728398   -0.0942092438160722   -0.003145415432866763
-0.009634257798730424   -0.09852624403985838   -0.0033728637586445133
-0.012889901676355847   -0.09410006353920589   -0.0029304698038030833
-0.008547458752189981   -0.09851801685253526   -0.0029608820530219867
-0.0094016917618949   -0.0984192012702088   -0.0031225415088891526
-0.012889901676355847   -0.09410006353920589   -0.0029304698038030833
-0.009634257798730424   -0.09852624403985838   -0.0033728637586445133
-0.008547458752189981   -0.09851801685253526   -0.0029608820530219867
-0.012889901676355847   -0.09410006353920589   -0.0029304698038030833
-0.010210173083542329   -0.09437649294936389   -0.0027555966334679477
-0.010325188526695383   -0.0945015119030013   -0.0028608855930935136
-0.008547458752189981   -0.09851801685253526   -0.0029608820530219867
-0.012889901676355847   -0.09410006353920589   -0.0029304698038030833
-0.010325188526695383   -0.0945015119030013   -0.0028608855930935136
-0.009634257798730424   -0.09852624403985838   -0.0033728637586445133
-0.008547458752189981   -0.09851801685253526   -0.0029608820530219867
-0.010210173083542329   -0.09437649294936389   -0.0027555966334679477
-0.0094016917618949   -0.0984192012702088   -0.0031225415088891526
-0.00833386859179139   -0.09848174808838842   -0.0028173697210235153
-0.010210173083542329   -0.09437649294936389   -0.0027555966334679477
-0.012889901676355847   -0.09410006353920589   -0.0029304698038030833
-0.0094016917618949   -0.0984192012702088   -0.0031225415088891526
-0.012695698987618976   -0.09405319900413137   -0.002706033290598579
-0.00833386859179139   -0.09848174808838842   -0.0028173697210235153
-0.009094951435551805   -0.09839470974126598   -0.0028532364973879914
-0.012695698987618976   -0.09405319900413137   -0.002706033290598579
-0.0094016917618949   -0.0984192012702088   -0.0031225415088891526
-0.00833386859179139   -0.09848174808838842   -0.0028173697210235153
-0.012695698987618976   -0.09405319900413137   -0.002706033290598579
-0.010081097896424116   -0.09431499617968474   -0.0026400736779379833
-0.010210173083542329   -0.09437649294936389   -0.0027555966334679477
-0.00833386859179139   -0.09848174808838842   -0.0028173697210235153
-0.012695698987618976   -0.09405319900413137   -0.002706033290598579
-0.010210173083542329   -0.09437649294936389   -0.0027555966334679477
-0.0094016917618949   -0.0984192012702088   -0.0031225415088891526
-0.00833386859179139   -0.09848174808838842   -0.0028173697210235153
-0.010081097896424116   -0.09431499617968474   -0.0026400736779379833
-0.009094951435551805   -0.09839470974126598   -0.0028532364973879914
-0.00811418485498855   -0.09851051222098316   -0.002664481205310332
-0.010081097896424116   -0.09431499617968474   -0.0026400736779379833
-0.012695698987618976   -0.09405319900413137   -0.002706033290598579
-0.009094951435551805   -0.09839470974126598   -0.0028532364973879914
-0.012526063191702899   -0.09406873133232825   -0.0024658310127684156
-0.00811418485498855   -0.09851051222098316   -0.002664481205310332
-0.008806211367015272   -0.09843679327209225   -0.0025734917029762564
-0.012526063191702899   -0.09406873133232825   -0.0024658310127684156
-0.009094951435551805   -0.09839470974126598   -0.0028532364973879914
-0.00811418485498855   -0.09851051222098316   -0.002664481205310332
-0.012526063191702899   -0.09406873133232825   -0.0024658310127684156
-0.009951459707625525   -0.0943108766938377   -0.002513069396918299
-0.010081097896424116   -0.09431499617968474   -0.0026400736779379833
-0.00811418485498855   -0.09851051222098316   -0.002664481205310332
-0.012526063191702899   -0.09406873133232825   -0.0024658310127684156
-0.010081097896424116   -0.09431499617968474   -0.0026400736779379833
-0.009094951435551805   -0.09839470974126598   -0.0028532364973879914
-0.009634257798730424   -0.09852624403985838   -0.0033728637586445133
-0.01303061627728398   -0.0942092438160722   -0.003145415432866763
-0.011398168059914908   -0.09804384312905509   -0.003675264335125332
-0.0094016917618949   -0.0984192012702088   -0.0031225415088891526
-0.01303061627728398   -0.0942092438160722   -0.003145415432866763
-0.01651467285325023   -0.09373392191522789   -0.003418155047854259
-0.011398168059914908   -0.09804384312905509   -0.003675264335125332
-0.016062632445288456   -0.09361570502484387   -0.003078830569608674
-0.0094016917618949   -0.0984192012702088   -0.0031225415088891526
-0.010781288631803238   -0.09795380723450649   -0.0032645498773022186
-0.016062632445288456   -0.09361570502484387   -0.003078830569608674
-0.011398168059914908   -0.09804384312905509   -0.003675264335125332
-0.0094016917618949   -0.0984192012702088   -0.0031225415088891526
-0.016062632445288456   -0.09361570502484387   -0.003078830569608674
-0.012889901676355847   -0.09410006353920589   -0.0029304698038030833
-0.01303061627728398   -0.0942092438160722   -0.003145415432866763
-0.0094016917618949   -0.0984192012702088   -0.0031225415088891526
-0.016062632445288456   -0.09361570502484387   -0.003078830569608674
-0.01303061627728398   -0.0942092438160722   -0.003145415432866763
-0.011398168059914908   -0.09804384312905509   -0.003675264335125332
-0.0094016917618949   -0.0984192012702088   -0.0031225415088891526
-0.012889901676355847   -0.09410006353920589   -0.0029304698038030833
-0.010781288631803238   -0.09795380723450649   -0.0032645498773022186
-0.009094951435551805   -0.09839470974126598   -0.0028532364973879914
-0.012889901676355847   -0.09410006353920589   -0.0029304698038030833
-0.016062632445288456   -0.09361570502484387   -0.003078830569608674
-0.010781288631803238   -0.09795380723450649   -0.0032645498773022186
-0.01565720561518781   -0.09357235671851451   -0.0027196207980384594
-0.009094951435551805   -0.09839470974126598   -0.0028532364973879914
-0.010214209248772706   -0.09794132496481228   -0.0028260270162645275
-0.01565720561518781   -0.09357235671851451   -0.0027196207980384594
-0.010781288631803238   -0.09795380723450649   -0.0032645498773022186
-0.009094951435551805   -0.09839470974126598   -0.0028532364973879914
-0.01565720561518781   -0.09357235671851451   -0.0027196207980384594
-0.012695698987618976   -0.09405319900413137   -0.002706033290598579
-0.012889901676355847   -0.09410006353920589   -0.0029304698038030833
-0.009094951435551805   -0.09839470974126598   -0.0028532364973879914
-0.01565720561518781   -0.09357235671851451   -0.0027196207980384594
-0.012889901676355847   -0.09410006353920589   -0.0029304698038030833
-0.010781288631803238   -0.09795380723450649   -0.0032645498773022186
-0.009094951435551805   -0.09839470974126598   -0.0028532364973879914
-0.012695698987618976   -0.09405319900413137   -0.002706033290598579
-0.010214209248772706   -0.09794132496481228   -0.0028260270162645275
-0.008806211367015272   -0.09843679327209225   -0.0025734917029762564
-0.012695698987618976   -0.09405319900413137   -0.002706033290598579
-0.01565720561518781   -0.09357235671851451   -0.0027196207980384594
-0.010214209248772706   -0.09794132496481228   -0.0028260270162645275
-0.015131721708812228   -0.09362616475755191   -0.002343948338326956
-0.008806211367015272   -0.09843679327209225   -0.0025734917029762564
-0.009498102817818547   -0.09805953786087113   -0.0023672855432556052
-0.015131721708812228   -0.09362616475755191   -0.002343948338326956
-0.010214209248772706   -0.09794132496481228   -0.0028260270162645275
-0.008806211367015272   -0.09843679327209225   -0.0025734917029762564
-0.015131721708812228   -0.09362616475755191   -0.002343948338326956
-0.012526063191702899   -0.09406873133232825   -0.0024658310127684156
-0.012695698987618976   -0.09405319900413137   -0.002706033290598579
-0.008806211367015272   -0.09843679327209225   -0.0025734917029762564
-0.015131721708812228   -0.09362616475755191   -0.002343948338326956
-0.012695698987618976   -0.09405319900413137   -0.002706033290598579
-0.010214209248772706   -0.09794132496481228   -0.0028260270162645275
-0.0028708924129748526   -0.0942038092099291   -0.001814031965483201
0.0005381750449706629   -0.08738248988302802   -0.0015010152925673508
-0.005383870419798033   -0.0944900405524128   -0.0022198545487420738
-0.0024766759631061294   -0.09400417227262935   -0.0020951415383885816
0.0005381750449706629   -0.08738248988302802   -0.0015010152925673508
-0.003695610287736113   -0.08759211353797862   -0.0018993461780423707
-0.005383870419798033   -0.0944900405524128   -0.0022198545487420738
-0.0036226564847627162   -0.08742300980468129   -0.0019975426578928922
-0.0024766759631061294   -0.09400417227262935   -0.0020951415383885816
-0.0052460495264009185   -0.09432866234868902   -0.002343763102882114
-0.0036226564847627162   -0.08742300980468129   -0.0019975426578928922
-0.005383870419798033   -0.0944900405524128   -0.0022198545487420738
-0.0024766759631061294   -0.09400417227262935   -0.0020951415383885816
-0.0036226564847627162   -0.08742300980468129   -0.0019975426578928922
0.0008130718623965788   -0.0871797151454441   -0.00172459962364395
0.0005381750449706629   -0.08738248988302802   -0.0015010152925673508
-0.0024766759631061294   -0.09400417227262935   -0.0020951415383885816
-0.0036226564847627162   -0.08742300980468129   -0.0019975426578928922
0.0005381750449706629   -0.08738248988302802   -0.0015010152925673508
-0.005383870419798033   -0.0944900405524128   -0.0022198545487420738
-0.0024766759631061294   -0.09400417227262935   -0.0020951415383885816
0.0008130718623965788   -0.0871797151454441   -0.00172459962364395
-0.0052460495264009185   -0.09432866234868902   -0.002343763102882114
-0.002166482367940793   -0.09390875894673435   -0.002359624725428514
0.0008130718623965788   -0.0871797151454441   -0.00172459962364395
-0.0036226564847627162   -0.08742300980468129   -0.0019975426578928922
-0.0052460495264009185   -0.09432866234868902   -0.002343763102882114
-0.003539645007989908   -0.08731228551552805   -0.002084254265631951
-0.002166482367940793   -0.09390875894673435   -0.002359624725428514
-0.005090971859787598   -0.09423895539756276   -0.0024564565794369534
-0.003539645007989908   -0.08731228551552805   -0.002084254265631951
-0.0052460495264009185   -0.09432866234868902   -0.002343763102882114
-0.002166482367940793   -0.09390875894673435   -0.002359624725428514
-0.003539645007989908   -0.08731228551552805   -0.002084254265631951
0.0010152460057141646   -0.08706221277622776   -0.0019321092877210956
0.0008130718623965788   -0.0871797151454441   -0.00172459962364395
-0.002166482367940793   -0.09390875894673435   -0.002359624725428514
-0.003539645007989908   -0.08731228551552805   -0.002084254265631951
0.0008130718623965788   -0.0871797151454441   -0.00172459962364395
-0.0052460495264009185   -0.09432866234868902   -0.002343763102882114
-0.002166482367940793   -0.09390875894673435   -0.002359624725428514
0.0010152460057141646   -0.08706221277622776   -0.0019321092877210956
-0.005090971859787598   -0.09423895539756276   -0.0024564565794369534
-0.0018279066895858268   -0.09389022240718707   -0.002606775131536009
0.0010152460057141646   -0.08706221277622776   -0.0019321092877210956
-0.003539645007989908   -0.08731228551552805   -0.002084254265631951
-0.005090971859787598   -0.09423895539756276   -0.0024564565794369534
-0.0034900234928834564   -0.08725667395616989   -0.002160614507180233
-0.0018279066895858268   -0.09389022240718707   -0.002606775131536009
-0.0049720497060777614   -0.09421841734334907   -0.0025582904737908177
-0.0034900234928834564   -0.08725667395616989   -0.002160614507180233
-0.005090971859787598   -0.09423895539756276   -0.0024564565794369534
-0.0018279066895858268   -0.09389022240718707   -0.002606775131536009
-0.0034900234928834564   -0.08725667395616989   -0.002160614507180233
0.0012315072902169893   -0.08700379147816581   -0.0021234628343627195
0.0010152460057141646   -0.08706221277622776   -0.0019321092877210956
-0.0018279066895858268   -0.09389022240718707   -0.002606775131536009
-0.0034900234928834564   -0.08725667395616989   -0.002160614507180233
0.0010152460057141646   -0.08706221277622776   -0.0019321092877210956
-0.005090971859787598   -0.09423895539756276   -0.0024564565794369534
-0.005383870419798033   -0.0944900405524128   -0.0022198545487420738
-0.003695610287736113   -0.08759211353797862   -0.0018993461780423707
-0.007863201693641807   -0.09459113923842562   -0.0025509995089227854
-0.0052460495264009185   -0.09432866234868902   -0.002343763102882114
-0.003695610287736113   -0.08759211353797862   -0.0018993461780423707
-0.007790156689542527   -0.08763218042649933   -0.0022277525978713266
-0.007863201693641807   -0.09459113923842562   -0.0025509995089227854
-0.007736482121266064   -0.0874869699658305   -0.0022303328592653254
-0.0052460495264009185   -0.09432866234868902   -0.002343763102882114
-0.007747270891140088   -0.09445033884042223   -0.0025578964251260876
-0.007736482121266064   -0.0874869699658305   -0.0022303328592653254
-0.007863201693641807   -0.09459113923842562   -0.0025509995089227854
-0.0052460495264009185   -0.09432866234868902   -0.002343763102882114
-0.007736482121266064   -0.0874869699658305   -0.0022303328592653254
-0.0036226564847627162   -0.08742300980468129   -0.0019975426578928922
-0.003695610287736113   -0.08759211353797862   -0.0018993461780423707
-0.0052460495264009185   -0.09432866234868902   -0.002343763102882114
-0.007736482121266064   -0.0874869699658305   -0.0022303328592653254
-0.003695610287736113   -0.08759211353797862   -0.0018993461780423707
-0.007863201693641807   -0.09459113923842562   -0.0025509995089227854
-0.0052460495264009185   -0.09432866234868902   -0.002343763102882114
-0.0036226564847627162   -0.08742300980468129   -0.0019975426578928922
-0.007747270891140088   -0.09445033884042223   -0.0025578964251260876
-0.005090971859787598   -0.09423895539756276   -0.0024564565794369534
-0.0036226564847627162   -0.08742300980468129   -0.0019975426578928922
-0.007736482121266064   -0.0874869699658305   -0.0022303328592653254
-0.007747270891140088   -0.09445033884042223   -0.0025578964251260876
-0.007681297094440149   -0.08739401679969484   -0.0022219123469535747
-0.005090971859787598   -0.09423895539756276   -0.0024564565794369534
-0.00762737552917172   -0.09437415109546428   -0.0025544080904954577
-0.007681297094440149   -0.08739401679969484   -0.0022219123469535747
-0.007747270891140088   -0.09445033884042223   -0.0025578964251260876
-0.005090971859787598   -0.09423895539756276   -0.0024564565794369534
-0.007681297094440149   -0.08739401679969484   -0.0022219123469535747
-0.003539645007989908   -0.08731228551552805   -0.002084254265631951
-0.0036226564847627162   -0.08742300980468129   -0.0019975426578928922
-0.005090971859787598   -0.09423895539756276   -0.0024564565794369534
-0.007681297094440149   -0.08739401679969484   -0.0022219123469535747
-0.0036226564847627162   -0.08742300980468129   -0.0019975426578928922
-0.007747270891140088   -0.09445033884042223   -0.0025578964251260876
-0.005090971859787598   -0.09423895539756276   -0.0024564565794369534
-0.003539645007989908   -0.08731228551552805   -0.002084254265631951
-0.00762737552917172   -0.09437415109546428   -0.0025544080904954577
-0.0049720497060777614   -0.09421841734334907   -0.0025582904737908177
-0.003539645007989908   -0.08731228551552805   -0.002084254265631951
-0.007681297094440149   -0.08739401679969484   -0.0022219123469535747
-0.00762737552917172   -0.09437415109546428   -0.0025544080904954577
-0.0076330264802372825   -0.08735245054940417   -0.002203219102289282
-0.0049720497060777614   -0.09421841734334907   -0.0025582904737908177
-0.007511737326984512   -0.09435944195955238   -0.0025404315713745433
-0.0076330264802372825   -0.08735245054940417   -0.002203219102289282
-0.00762737552917172   -0.09437415109546428   -0.0025544080904954577
-0.0049720497060777614   -0.09421841734334907   -0.0025582904737908177
-0.0076330264802372825   -0.08735245054940417   -0.002203219102289282
-0.0034900234928834564   -0.08725667395616989   -0.002160614507180233
-0.003539645007989908   -0.08731228551552805   -0.002084254265631951
-0.0049720497060777614   -0.09421841734334907   -0.0025582904737908177
-0.0076330264802372825   -0.08735245054940417   -0.002203219102289282
-0.003539645007989908   -0.08731228551552805   -0.002084254265631951
-0.00762737552917172   -0.09437415109546428   -0.0025544080904954577
-0.007863201693641807   -0.09459113923842562   -0.0025509995089227854
-0.007790156689542527   -0.08763218042649933   -0.0022277525978713266
-0.010325188526695383   -0.0945015119030013   -0.0028608855930935136
-0.007747270891140088   -0.09445033884042223   -0.0025578964251260876
-0.007790156689542527   -0.08763218042649933   -0.0022277525978713266
-0.011820082204431134   -0.08750190700110555   -0.002524214522752706
-0.010325188526695383   -0.0945015119030013   -0.0028608855930935136
-0.011770106520527047   -0.08737660409897725   -0.002433487789792965
-0.007747270891140088   -0.09445033884042223   -0.0025578964251260876
-0.010210173083542329   -0.09437649294936389   -0.0027555966334679477
-0.011770106520527047   -0.08737660409897725   -0.002433487789792965
-0.010325188526695383   -0.0945015119030013   -0.0028608855930935136
-0.007747270891140088   -0.09445033884042223   -0.0025578964251260876
-0.011770106520527047   -0.08737660409897725   -0.002433487789792965
-0.007736482121266064   -0.0874869699658305   -0.0022303328592653254
-0.007790156689542527   -0.08763218042649933   -0.0022277525978713266
-0.007747270891140088   -0.09445033884042223   -0.0025578964251260876
-0.011770106520527047   -0.08737660409897725   -0.002433487789792965
-0.007790156689542527   -0.08763218042649933   -0.0022277525978713266
-0.010325188526695383   -0.0945015119030013   -0.0028608855930935136
-0.007747270891140088   -0.09445033884042223   -0.0025578964251260876
-0.007736482121266064   -0.0874869699658305   -0.0022303328592653254
-0.010210173083542329   -0.09437649294936389   -0.0027555966334679477
-0.00762737552917172   -0.09437415109546428   -0.0025544080904954577
-0.007736482121266064   -0.0874869699658305   -0.0022303328592653254
-0.011770106520527047   -0.08737660409897725   -0.002433487789792965
-0.010210173083542329   -0.09437649294936389   -0.0027555966334679477
-0.011709722695672078   -0.08730298230346867   -0.002331996498080953
-0.00762737552917172   -0.09437415109546428   -0.0025544080904954577
-0.010081097896424116   -0.09431499617968474   -0.0026400736779379833
-0.011709722695672078   -0.08730298230346867   -0.002331996498080953
-0.010210173083542329   -0.09437649294936389   -0.0027555966334679477
-0.00762737552917172   -0.09437415109546428   -0.0025544080904954577
-0.011709722695672078   -0.08730298230346867   -0.002331996498080953
-0.007681297094440149   -0.08739401679969484   -0.0022219123469535747
-0.007736482121266064   -0.0874869699658305   -0.0022303328592653254
-0.00762737552917172   -0.09437415109546428   -0.0025544080904954577
-0.011709722695672078   -0.08730298230346867   -0.002331996498080953
-0.007736482121266064   -0.0874869699658305   -0.0022303328592653254
-0.010210173083542329   -0.09437649294936389   -0.0027555966334679477
-0.00762737552917172   -0.09437415109546428   -0.0025544080904954577
-0.007681297094440149   -0.08739401679969484   -0.0022219123469535747
-0.010081097896424116   -0.09431499617968474   -0.0026400736779379833
-0.007511737326984512   -0.09435944195955238   -0.0025404315713745433
-0.007681297094440149   -0.08739401679969484   -0.0022219123469535747
-0.011709722695672078   -0.08730298230346867   -0.002331996498080953
-0.010081097896424116   -0.09431499617968474   -0.0026400736779379833
-0.011650974530016895   -0.0872786248764786   -0.002220072740725151
-0.007511737326984512   -0.09435944195955238   -0.0025404315713745433
-0.009951459707625525   -0.0943108766938377   -0.002513069396918299
-0.011650974530016895   -0.0872786248764786   -0.002220072740725151
-0.010081097896424116   -0.09431499617968474   -0.0026400736779379833
-0.007511737326984512   -0.09435944195955238   -0.0025404315713745433
-0.011650974530016895   -0.0872786248764786   -0.002220072740725151
-0.0076330264802372825   -0.08735245054940417   -0.002203219102289282
-0.007681297094440149   -0.08739401679969484   -0.0022219123469535747
-0.007511737326984512   -0.09435944195955238   -0.0025404315713745433
-0.011650974530016895   -0.0872786248764786   -0.002220072740725151
-0.007681297094440149   -0.08739401679969484   -0.0022219123469535747
-0.010081097896424116   -0.09431499617968474   -0.0026400736779379833
-0.010325188526695383   -0.0945015119030013   -0.0028608855930935136
-0.011820082204431134   -0.08750190700110555   -0.002524214522752706
-0.01303061627728398   -0.0942092438160722   -0.003145415432866763
-0.010210173083542329   -0.09437649294936389   -0.0027555966334679477
-0.011820082204431134   -0.08750190700110555   -0.002524214522752706
-0.016043633046312854   -0.08720594581670855   -0.002787546919787539
-0.01303061627728398   -0.0942092438160722   -0.003145415432866763
-0.015978430739416318   -0.08709967605995218   -0.00260340876557843
-0.010210173083542329   -0.09437649294936389   -0.0027555966334679477
-0.012889901676355847   -0.09410006353920589   -0.0029304698038030833
-0.015978430739416318   -0.08709967605995218   -0.00260340876557843
-0.01303061627728398   -0.0942092438160722   -0.003145415432866763
-0.010210173083542329   -0.09437649294936389   -0.0027555966334679477
-0.015978430739416318   -0.08709967605995218   -0.00260340876557843
-0.011770106520527047   -0.08737660409897725   -0.002433487789792965
-0.011820082204431134   -0.08750190700110555   -0.002524214522752706
-0.010210173083542329   -0.09437649294936389   -0.0027555966334679477
-0.015978430739416318   -0.08709967605995218   -0.00260340876557843
-0.011820082204431134   -0.08750190700110555   -0.002524214522752706
-0.01303061627728398   -0.0942092438160722   -0.003145415432866763
-0.010210173083542329   -0.09437649294936389   -0.0027555966334679477
-0.011770106520527047   -0.08737660409897725   -0.002433487789792965
-0.012889901676355847   -0.09410006353920589   -0.0029304698038030833
-0.010081097896424116   -0.09431499617968474   -0.0026400736779379833
-0.011770106520527047   -0.08737660409897725   -0.002433487789792965
-0.015978430739416318   -0.08709967605995218   -0.00260340876557843
-0.012889901676355847   -0.09410006353920589   -0.0029304698038030833
-0.015867940300157785   -0.08704358095546892   -0.0024101563779548346
-0.010081097896424116   -0.09431499617968474   -0.0026400736779379833
-0.012695698987618976   -0.09405319900413137   -0.002706033290598579
-0.015867940300157785   -0.08704358095546892   -0.0024101563779548346
-0.012889901676355847   -0.09410006353920589   -0.0029304698038030833
-0.010081097896424116   -0.09431499617968474   -0.0026400736779379833
-0.015867940300157785   -0.08704358095546892   -0.0024101563779548346
-0.011709722695672078   -0.08730298230346867   -0.002331996498080953
-0.011770106520527047   -0.08737660409897725   -0.002433487789792965
-0.010081097896424116   -0.09431499617968474   -0.0026400736779379833
-0.015867940300157785   -0.08704358095546892   -0.0024101563779548346
-0.011770106520527047   -0.08737660409897725   -0.002433487789792965
-0.012889901676355847   -0.09410006353920589   -0.0029304698038030833
-0.010081097896424116   -0.09431499617968474   -0.0026400736779379833
-0.011709722695672078   -0.08730298230346867   -0.002331996498080953
-0.012695698987618976   -0.09405319900413137   -0.002706033290598579
-0.009951459707625525   -0.0943108766938377   -0.002513069396918299
-0.011709722695672078   -0.08730298230346867   -0.002331996498080953
-0.015867940300157785   -0.08704358095546892   -0.0024101563779548346
-0.012695698987618976   -0.09405319900413137   -0.002706033290598579
-0.01577809832769803   -0.08704060978930932   -0.0022049559452623673
-0.009951459707625525   -0.0943108766938377   -0.002513069396918299
-0.012526063191702899   -0.09406873133232825   -0.0024658310127684156
-0.01577809832769803   -0.08704060978930932   -0.0022049559452623673
-0.012695698987618976   -0.09405319900413137   -0.002706033290598579
-0.009951459707625525   -0.0943108766938377   -0.002513069396918299
-0.01577809832769803   -0.08704060978930932   -0.0022049559452623673
-0.011650974530016895   -0.0872786248764786   -0.002220072740725151
-0.011709722695672078   -0.08730298230346867   -0.002331996498080953
-0.009951459707625525   -0.0943108766938377   -0.002513069396918299
-0.01577809832769803   -0.08704060978930932   -0.0022049559452623673
-0.011709722695672078   -0.08730298230346867   -0.002331996498080953
-0.012695698987618976   -0.09405319900413137   -0.002706033290598579
-0.01303061627728398   -0.0942092438160722   -0.003145415432866763
-0.016043633046312854   -0.08720594581670855   -0.002787546919787539
-0.01651467285325023   -0.09373392191522789   -0.003418155047854259
-0.012889901676355847   -0.09410006353920589   -0.0029304698038030833
-0.016043633046312854   -0.08720594581670855   -0.002787546919787539
-0.02096944487607649   -0.08678006244184615   -0.0030328175430636307
-0.01651467285325023   -0.09373392191522789   -0.003418155047854259
-0.020636310110328276   -0.08666935016355072   -0.002744654624708831
-0.012889901676355847   -0.09410006353920589   -0.0029304698038030833
-0.016062632445288456   -0.09361570502484387   -0.003078830569608674
-0.020636310110328276   -0.08666935016355072   -0.002744654624708831
-0.01651467285325023   -0.09373392191522789   -0.003418155047854259
-0.012889901676355847   -0.09410006353920589   -0.0029304698038030833
-0.020636310110328276   -0.08666935016355072   -0.002744654624708831
-0.015978430739416318   -0.08709967605995218   -0.00260340876557843
-0.016043633046312854   -0.08720594581670855   -0.002787546919787539
-0.012889901676355847   -0.09410006353920589   -0.0029304698038030833
-0.020636310110328276   -0.08666935016355072   -0.002744654624708831
-0.016043633046312854   -0.08720594581670855   -0.002787546919787539
-0.01651467285325023   -0.09373392191522789   -0.003418155047854259
-0.012889901676355847   -0.09410006353920589   -0.0029304698038030833
-0.015978430739416318   -0.08709967605995218   -0.00260340876557843
-0.016062632445288456   -0.09361570502484387   -0.003078830569608674
-0.012695698987618976   -0.09405319900413137   -0.002706033290598579
-0.015978430739416318   -0.08709967605995218   -0.00260340876557843
-0.020636310110328276   -0.08666935016355072   -0.002744654624708831
-0.016062632445288456   -0.09361570502484387   -0.003078830569608674
-0.020347019392088744   -0.0866180122445442   -0.0024414755685100977
-0.012695698987618976   -0.09405319900413137   -0.002706033290598579
-0.01565720561518781   -0.09357235671851451   -0.0027196207980384594
-0.020347019392088744   -0.0866180122445442   -0.0024414755685100977
-0.016062632445288456   -0.09361570502484387   -0.003078830569608674
-0.012695698987618976   -0.09405319900413137   -0.002706033290598579
-0.020347019392088744   -0.0866180122445442   -0.0024414755685100977
-0.015867940300157785   -0.08704358095546892   -0.0024101563779548346
-0.015978430739416318   -0.08709967605995218   -0.00260340876557843
-0.012695698987618976   -0.09405319900413137   -0.002706033290598579
-0.020347019392088744   -0.0866180122445442   -0.0024414755685100977
-0.015978430739416318   -0.08709967605995218   -0.00260340876557843
-0.016062632445288456   -0.09361570502484387   -0.003078830569608674
-0.012695698987618976   -0.09405319900413137   -0.002706033290598579
-0.015867940300157785   -0.08704358095546892   -0.0024101563779548346
-0.01565720561518781   -0.09357235671851451   -0.0027196207980384594
-0.012526063191702899   -0.09406873133232825   -0.0024658310127684156
-0.015867940300157785   -0.08704358095546892   -0.0024101563779548346
-0.020347019392088744   -0.0866180122445442   -0.0024414755685100977
-0.01565720561518781   -0.09357235671851451   -0.0027196207980384594
-0.01995719954929513   -0.08664790901324718   -0.0021252144665882128
-0.012526063191702899   -0.09406873133232825   -0.0024658310127684156
-0.015131721708812228   -0.09362616475755191   -0.002343948338326956
-0.01995719954929513   -0.08664790901324718   -0.0021252144665882128
-0.01565720561518781   -0.09357235671851451   -0.0027196207980384594
-0.012526063191702899   -0.09406873133232825   -0.0024658310127684156
-0.01995719954929513   -0.08664790901324718   -0.0021252144665882128
-0.01577809832769803   -0.08704060978930932   -0.0022049559452623673
-0.015867940300157785   -0.08704358095546892   -0.0024101563779548346
-0.012526063191702899   -0.09406873133232825   -0.0024658310127684156
-0.01995719954929513   -0.08664790901324718   -0.0021252144665882128
-0.015867940300157785   -0.08704358095546892   -0.0024101563779548346
-0.01565720561518781   -0.09357235671851451   -0.0027196207980384594
0.0005381750449706629   -0.08738248988302802   -0.0015010152925673508
0.003123195446099071   -0.07812992996393854   -0.0011439961564338103
-0.003695610287736113   -0.08759211353797862   -0.0018993461780423707
0.0008130718623965788   -0.0871797151454441   -0.00172459962364395
0.003123195446099071   -0.07812992996393854   -0.0011439961564338103
-0.0024783806520928793   -0.07826824677655553   -0.001524163050673857
-0.003695610287736113   -0.08759211353797862   -0.0018993461780423707
-0.0024633364154300974   -0.0781000528212274   -0.001592129039039761
0.0008130718623965788   -0.0871797151454441   -0.00172459962364395
-0.0036226564847627162   -0.08742300980468129   -0.0019975426578928922
-0.0024633364154300974   -0.0781000528212274   -0.001592129039039761
-0.003695610287736113   -0.08759211353797862   -0.0018993461780423707
0.0008130718623965788   -0.0871797151454441   -0.00172459962364395
-0.0024633364154300974   -0.0781000528212274   -0.001592129039039761
0.003286070786333845   -0.07793209211190519   -0.0013091258722347774
0.003123195446099071   -0.07812992996393854   -0.0011439961564338103
0.0008130718623965788   -0.0871797151454441   -0.00172459962364395
-0.0024633364154300974   -0.0781000528212274   -0.001592129039039761
0.003123195446099071   -0.07812992996393854   -0.0011439961564338103
-0.003695610287736113   -0.08759211353797862   -0.0018993461780423707
0.0008130718623965788   -0.0871797151454441   -0.00172459962364395
0.003286070786333845   -0.07793209211190519   -0.0013091258722347774
-0.0036226564847627162   -0.08742300980468129   -0.0019975426578928922
0.0010152460057141646   -0.08706221277622776   -0.0019321092877210956
0.003286070786333845   -0.07793209211190519   -0.0013091258722347774
-0.0024633364154300974   -0.0781000528212274   -0.001592129039039761
-0.0036226564847627162   -0.08742300980468129   -0.0019975426578928922
-0.0024442214224447744   -0.07797785714143295   -0.0016496113027837703
0.0010152460057141646   -0.08706221277622776   -0.0019321092877210956
-0.003539645007989908   -0.08731228551552805   -0.002084254265631951
-0.0024442214224447744   -0.07797785714143295   -0.0016496113027837703
-0.0036226564847627162   -0.08742300980468129   -0.0019975426578928922
0.0010152460057141646   -0.08706221277622776   -0.0019321092877210956
-0.0024442214224447744   -0.07797785714143295   -0.0016496113027837703
0.003390097322499676   -0.07780196485791581   -0.0014594432092037422
0.003286070786333845   -0.07793209211190519   -0.0013091258722347774
0.0010152460057141646   -0.08706221277622776   -0.0019321092877210956
-0.0024442214224447744   -0.07797785714143295   -0.0016496113027837703
0.003286070786333845   -0.07793209211190519   -0.0013091258722347774
-0.0036226564847627162   -0.08742300980468129   -0.0019975426578928922
0.0010152460057141646   -0.08706221277622776   -0.0019321092877210956
0.003390097322499676   -0.07780196485791581   -0.0014594432092037422
-0.003539645007989908   -0.08731228551552805   -0.002084254265631951
0.0012315072902169893   -0.08700379147816581   -0.0021234628343627195
0.003390097322499676   -0.07780196485791581   -0.0014594432092037422
-0.0024442214224447744   -0.07797785714143295   -0.0016496113027837703
-0.003539645007989908   -0.08731228551552805   -0.002084254265631951
-0.002453587548987396   -0.0778977643578231   -0.0016973750231270442
0.0012315072902169893   -0.08700379147816581   -0.0021234628343627195
-0.0034900234928834564   -0.08725667395616989   -0.002160614507180233
-0.002453587548987396   -0.0778977643578231   -0.0016973750231270442
-0.003539645007989908   -0.08731228551552805   -0.002084254265631951
0.0012315072902169893   -0.08700379147816581   -0.0021234628343627195
-0.002453587548987396   -0.0778977643578231   -0.0016973750231270442
0.003496738764412922   -0.07771440278514793   -0.0015952562238552243
0.003390097322499676   -0.07780196485791581   -0.0014594432092037422
0.0012315072902169893   -0.08700379147816581   -0.0021234628343627195
-0.002453587548987396   -0.0778977643578231   -0.0016973750231270442
0.003390097322499676   -0.07780196485791581   -0.0014594432092037422
-0.003539645007989908   -0.08731228551552805   -0.002084254265631951
-0.003695610287736113   -0.08759211353797862   -0.0018993461780423707
-0.0024783806520928793   -0.07826824677655553   -0.001524163050673857
-0.007790156689542527   -0.08763218042649933   -0.0022277525978713266
-0.0036226564847627162   -0.08742300980468129   -0.0019975426578928922
-0.0024783806520928793   -0.07826824677655553   -0.001524163050673857
-0.007867717839437054   -0.07826883982354119   -0.0018379522945763005
-0.007790156689542527   -0.08763218042649933   -0.0022277525978713266
-0.007868474273802625   -0.07812645256386737   -0.0018315443349029648
-0.0036226564847627162   -0.08742300980468129   -0.0019975426578928922
-0.007736482121266064   -0.0874869699658305   -0.0022303328592653254
-0.007868474273802625   -0.07812645256386737   -0.0018315443349029648
-0.007790156689542527   -0.08763218042649933   -0.0022277525978713266
-0.0036226564847627162   -0.08742300980468129   -0.0019975426578928922
-0.007868474273802625   -0.07812645256386737   -0.0018315443349029648
-0.0024633364154300974   -0.0781000528212274   -0.001592129039039761
-0.0024783806520928793   -0.07826824677655553   -0.001524163050673857
-0.0036226564847627162   -0.08742300980468129   -0.0019975426578928922
-0.007868474273802625   -0.07812645256386737   -0.0018315443349029648
-0.0024783806520928793   -0.07826824677655553   -0.001524163050673857
-0.007790156689542527   -0.08763218042649933   -0.0022277525978713266
-0.0036226564847627162   -0.08742300980468129   -0.0019975426578928922
-0.0024633364154300974   -0.0781000528212274   -0.001592129039039761
-0.007736482121266064   -0.0874869699658305   -0.0022303328592653254
-0.003539645007989908   -0.08731228551552805   -0.002084254265631951
-0.0024633364154300974   -0.0781000528212274   -0.001592129039039761
-0.007868474273802625   -0.07812645256386737   -0.0018315443349029648
-0.007736482121266064   -0.0874869699658305   -0.0022303328592653254
-0.007868873392231359   -0.07802462026828928   -0.001814696639238605
-0.003539645007989908   -0.08731228551552805   -0.002084254265631951
-0.007681297094440149   -0.08739401679969484   -0.0022219123469535747
-0.007868873392231359   -0.07802462026828928   -0.001814696639238605
-0.007736482121266064   -0.0874869699658305   -0.0022303328592653254
-0.003539645007989908   -0.08731228551552805   -0.002084254265631951
-0.007868873392231359   -0.07802462026828928   -0.001814696639238605
-0.0024442214224447744   -0.07797785714143295   -0.0016496113027837703
-0.0024633364154300974   -0.0781000528212274   -0.001592129039039761
-0.003539645007989908   -0.08731228551552805   -0.002084254265631951
-0.007868873392231359   -0.07802462026828928   -0.001814696639238605
-0.0024633364154300974   -0.0781000528212274   -0.001592129039039761
-0.007736482121266064   -0.0874869699658305   -0.0022303328592653254
-0.003539645007989908   -0.08731228551552805   -0.002084254265631951
-0.0024442214224447744   -0.07797785714143295   -0.0016496113027837703
-0.007681297094440149   -0.08739401679969484   -0.0022219123469535747
-0.0034900234928834564   -0.08725667395616989   -0.002160614507180233
-0.0024442214224447744   -0.07797785714143295   -0.0016496113027837703
-0.007868873392231359   -0.07802462026828928   -0.001814696639238605
-0.007681297094440149   -0.08739401679969484   -0.0022219123469535747
-0.00787648545161655   -0.07796341327656656   -0.0017879466553574021
-0.0034900234928834564   -0.08725667395616989   -0.002160614507180233
-0.0076330264802372825   -0.08735245054940417   -0.002203219102289282
-0.00787648545161655   -0.07796341327656656   -0.0017879466553574021
-0.007681297094440149   -0.08739401679969484   -0.0022219123469535747
-0.0034900234928834564   -0.08725667395616989   -0.002160614507180233
-0.00787648545161655   -0.07796341327656656   -0.0017879466553574021
-0.002453587548987396   -0.0778977643578231   -0.0016973750231270442
-0.0024442214224447744   -0.07797785714143295   -0.0016496113027837703
-0.0034900234928834564   -0.08725667395616989   -0.002160614507180233
-0.00787648545161655   -0.07796341327656656   -0.0017879466553574021
-0.0024442214224447744   -0.07797785714143295   -0.0016496113027837703
-0.007681297094440149   -0.08739401679969484   -0.0022219123469535747
-0.007790156689542527   -0.08763218042649933   -0.0022277525978713266
-0.007867717839437054   -0.07826883982354119   -0.0018379522945763005
-0.011820082204431134   -0.08750190700110555   -0.002524214522752706
-0.007736482121266064   -0.0874869699658305   -0.0022303328592653254
-0.007867717839437054   -0.07826883982354119   -0.0018379522945763005
-0.01316527382856006   -0.07813479709201782   -0.0021129029315760488
-0.011820082204431134   -0.08750190700110555   -0.002524214522752706
-0.01317001009327337   -0.07801510965299809   -0.002033015009584085
-0.007736482121266064   -0.0874869699658305   -0.0022303328592653254
-0.011770106520527047   -0.08737660409897725   -0.002433487789792965
-0.01317001009327337   -0.07801510965299809   -0.002033015009584085
-0.011820082204431134   -0.08750190700110555   -0.002524214522752706
-0.007736482121266064   -0.0874869699658305   -0.0022303328592653254
-0.01317001009327337   -0.07801510965299809   -0.002033015009584085
-0.007868474273802625   -0.07812645256386737   -0.0018315443349029648
-0.007867717839437054   -0.07826883982354119   -0.0018379522945763005
-0.007736482121266064   -0.0874869699658305   -0.0022303328592653254
-0.01317001009327337   -0.07801510965299809   -0.002033015009584085
-0.007867717839437054   -0.07826883982354119   -0.0018379522945763005
-0.011820082204431134   -0.08750190700110555   -0.002524214522752706
-0.007736482121266064   -0.0874869699658305   -0.0022303328592653254
-0.007868474273802625   -0.07812645256386737   -0.0018315443349029648
-0.011770106520527047   -0.08737660409897725   -0.002433487789792965
-0.007681297094440149   -0.08739401679969484   -0.0022219123469535747
-0.007868474273802625   -0.07812645256386737   -0.0018315443349029648
-0.01317001009327337   -0.07801510965299809   -0.002033015009584085
-0.011770106520527047   -0.08737660409897725   -0.002433487789792965
-0.013165711041261133   -0.07793561802123135   -0.00194288778735435
-0.007681297094440149   -0.08739401679969484   -0.0022219123469535747
-0.011709722695672078   -0.08730298230346867   -0.002331996498080953
-0.013165711041261133   -0.07793561802123135   -0.00194288778735435
-0.011770106520527047   -0.08737660409897725   -0.002433487789792965
-0.007681297094440149   -0.08739401679969484   -0.0022219123469535747
-0.013165711041261133   -0.07793561802123135   -0.00194288778735435
-0.007868873392231359   -0.07802462026828928   -0.001814696639238605
-0.007868474273802625   -0.07812645256386737   -0.0018315443349029648
-0.007681297094440149   -0.08739401679969484   -0.0022219123469535747
-0.013165711041261133   -0.07793561802123135   -0.00194288778735435
-0.007868474273802625   -0.07812645256386737   -0.0018315443349029648
-0.011770106520527047   -0.08737660409897725   -0.002433487789792965
-0.007681297094440149   -0.08739401679969484   -0.0022219123469535747
-0.007868873392231359   -0.07802462026828928   -0.001814696639238605
-0.011709722695672078   -0.08730298230346867   -0.002331996498080953
-0.0076330264802372825   -0.08735245054940417   -0.002203219102289282
-0.007868873392231359   -0.07802462026828928   -0.001814696639238605
-0.013165711041261133   -0.07793561802123135   -0.00194288778735435
-0.011709722695672078   -0.08730298230346867   -0.002331996498080953
-0.013163031327376706   -0.07789561230155968   -0.0018428209060440605
-0.0076330264802372825   -0.08735245054940417   -0.002203219102289282
-0.011650974530016895   -0.0872786248764786   -0.002220072740725151
-0.013163031327376706   -0.07789561230155968   -0.0018428209060440605
-0.011709722695672078   -0.08730298230346867   -0.002331996498080953
-0.0076330264802372825   -0.08735245054940417   -0.002203219102289282
-0.013163031327376706   -0.07789561230155968   -0.0018428209060440605
-0.00787648545161655   -0.07796341327656656   -0.0017879466553574021
-0.007868873392231359   -0.07802462026828928   -0.001814696639238605
-0.0076330264802372825   -0.08735245054940417   -0.002203219102289282
-0.013163031327376706   -0.07789561230155968   -0.0018428209060440605
-0.007868873392231359   -0.07802462026828928   -0.001814696639238605
-0.011709722695672078   -0.08730298230346867   -0.002331996498080953
-0.011820082204431134   -0.08750190700110555   -0.002524214522752706
-0.01316527382856006   -0.07813479709201782   -0.0021129029315760488
-0.016043633046312854   -0.08720594581670855   -0.002787546919787539
-0.011770106520527047   -0.08737660409897725   -0.002433487789792965
-0.01316527382856006   -0.07813479709201782   -0.0021129029315760488
-0.01862811416443258   -0.07787122429658788   -0.002349493509786328
-0.016043633046312854   -0.08720594581670855   -0.002787546919787539
-0.018621772804271516   -0.07777329743812936   -0.002195261778373484
-0.011770106520527047   -0.08737660409897725   -0.002433487789792965
-0.015978430739416318   -0.08709967605995218   -0.00260340876557843
-0.018621772804271516   -0.07777329743812936   -0.002195261778373484
-0.016043633046312854   -0.08720594581670855   -0.002787546919787539
-0.011770106520527047   -0.08737660409897725   -0.002433487789792965
-0.018621772804271516   -0.07777329743812936   -0.002195261778373484
-0.01317001009327337   -0.07801510965299809   -0.002033015009584085
-0.01316527382856006   -0.07813479709201782   -0.0021129029315760488
-0.011770106520527047   -0.08737660409897725   -0.002433487789792965
-0.018621772804271516   -0.07777329743812936   -0.002195261778373484
-0.01316527382856006   -0.07813479709201782   -0.0021129029315760488
-0.016043633046312854   -0.08720594581670855   -0.002787546919787539
-0.011770106520527047   -0.08737660409897725   -0.002433487789792965
-0.01317001009327337   -0.07801510965299809   -0.002033015009584085
-0.015978430739416318   -0.08709967605995218   -0.00260340876557843
-0.011709722695672078   -0.08730298230346867   -0.002331996498080953
-0.01317001009327337   -0.07801510965299809   -0.002033015009584085
-0.018621772804271516   -0.07777329743812936   -0.002195261778373484
-0.015978430739416318   -0.08709967605995218   -0.00260340876557843
-0.018576095935692424   -0.07771406144309088   -0.0020323327681232655
-0.011709722695672078   -0.08730298230346867   -0.002331996498080953
-0.015867940300157785   -0.08704358095546892   -0.0024101563779548346
-0.018576095935692424   -0.07771406144309088   -0.0020323327681232655
-0.015978430739416318   -0.08709967605995218   -0.00260340876557843
-0.011709722695672078   -0.08730298230346867   -0.002331996498080953
-0.018576095935692424   -0.07771406144309088   -0.0020323327681232655
-0.013165711041261133   -0.07793561802123135   -0.00194288778735435
-0.01317001009327337   -0.07801510965299809   -0.002033015009584085
-0.011709722695672078   -0.08730298230346867   -0.002331996498080953
-0.018576095935692424   -0.07771406144309088   -0.0020323327681232655
-0.01317001009327337   -0.07801510965299809   -0.002033015009584085
-0.015978430739416318   -0.08709967605995218   -0.00260340876557843
-0.011709722695672078   -0.08730298230346867   -0.002331996498080953
-0.013165711041261133   -0.07793561802123135   -0.00194288778735435
-0.015867940300157785   -0.08704358095546892   -0.0024101563779548346
-0.011650974530016895   -0.0872786248764786   -0.002220072740725151
-0.013165711041261133   -0.07793561802123135   -0.00194288778735435
-0.018576095935692424   -0.07771406144309088   -0.0020323327681232655
-0.015867940300157785   -0.08704358095546892   -0.0024101563779548346
-0.01854553658562525   -0.07769762534317441   -0.0018586677370209697
-0.011650974530016895   -0.0872786248764786   -0.002220072740725151
-0.01577809832769803   -0.08704060978930932   -0.0022049559452623673
-0.01854553658562525   -0.07769762534317441   -0.0018586677370209697
-0.015867940300157785   -0.08704358095546892   -0.0024101563779548346
-0.011650974530016895   -0.0872786248764786   -0.002220072740725151
-0.01854553658562525   -0.07769762534317441   -0.0018586677370209697
-0.013163031327376706   -0.07789561230155968   -0.0018428209060440605
-0.013165711041261133   -0.07793561802123135   -0.00194288778735435
-0.011650974530016895   -0.0872786248764786   -0.002220072740725151
-0.01854553658562525   -0.07769762534317441   -0.0018586677370209697
-0.013165711041261133   -0.07793561802123135   -0.00194288778735435
-0.015867940300157785   -0.08704358095546892   -0.0024101563779548346
-0.016043633046312854   -0.08720594581670855   -0.002787546919787539
-0.01862811416443258   -0.07787122429658788   -0.002349493509786328
-0.02096944487607649   -0.08678006244184615   -0.0030328175430636307
-0.015978430739416318   -0.08709967605995218   -0.00260340876557843
-0.01862811416443258   -0.07787122429658788   -0.002349493509786328
-0.02472996086074332   -0.07750824204023649   -0.0025626879303700455
-0.02096944487607649   -0.08678006244184615   -0.0030328175430636307
-0.024502569839097894   -0.07741220810255668   -0.002326833132400343
-0.015978430739416318   -0.08709967605995218   -0.00260340876557843
-0.020636310110328276   -0.08666935016355072   -0.002744654624708831
-0.024502569839097894   -0.07741220810255668   -0.002326833132400343
-0.02096944487607649   -0.08678006244184615   -0.0030328175430636307
-0.015978430739416318   -0.08709967605995218   -0.00260340876557843
-0.024502569839097894   -0.07741220810255668   -0.002326833132400343
-0.018621772804271516   -0.07777329743812936   -0.002195261778373484
-0.01862811416443258   -0.07787122429658788   -0.002349493509786328
-0.015978430739416318   -0.08709967605995218   -0.00260340876557843
-0.024502569839097894   -0.07741220810255668   -0.002326833132400343
-0.01862811416443258   -0.07787122429658788   -0.002349493509786328
-0.02096944487607649   -0.08678006244184615   -0.0030328175430636307
-0.015978430739416318   -0.08709967605995218   -0.00260340876557843
-0.018621772804271516   -0.07777329743812936   -0.002195261778373484
-0.020636310110328276   -0.08666935016355072   -0.002744654624708831
-0.015867940300157785   -0.08704358095546892   -0.0024101563779548346
-0.018621772804271516   -0.07777329743812936   -0.002195261778373484
-0.024502569839097894   -0.07741220810255668   -0.002326833132400343
-0.020636310110328276   -0.08666935016355072   -0.002744654624708831
-0.024307994388311778   -0.07736035634241621   -0.0020763698045802785
-0.015867940300157785   -0.08704358095546892   -0.0024101563779548346
-0.020347019392088744   -0.0866180122445442   -0.0024414755685100977
-0.024307994388311778   -0.07736035634241621   -0.0020763698045802785
-0.020636310110328276   -0.08666935016355072   -0.002744654624708831
-0.015867940300157785   -0.08704358095546892   -0.0024101563779548346
-0.024307994388311778   -0.07736035634241621   -0.0020763698045802785
-0.018576095935692424   -0.07771406144309088   -0.0020323327681232655
-0.018621772804271516   -0.07777329743812936   -0.002195261778373484
-0.015867940300157785   -0.08704358095546892   -0.0024101563779548346
-0.024307994388311778   -0.07736035634241621   -0.0020763698045802785
-0.018621772804271516   -0.07777329743812936   -0.002195261778373484
-0.020636310110328276   -0.08666935016355072   -0.002744654624708831
-0.015867940300157785   -0.08704358095546892   -0.0024101563779548346
-0.018576095935692424   -0.07771406144309088   -0.0020323327681232655
-0.020347019392088744   -0.0866180122445442   -0.0024414755685100977
-0.01577809832769803   -0.08704060978930932   -0.0022049559452623673
-0.018576095935692424   -0.07771406144309088   -0.0020323327681232655
-0.024307994388311778   -0.07736035634241621   -0.0020763698045802785
-0.020347019392088744   -0.0866180122445442   -0.0024414755685100977
-0.024027042929422517   -0.07737643115967846   -0.0018132956825359168
-0.01577809832769803   -0.08704060978930932   -0.0022049559452623673
-0.01995719954929513   -0.08664790901324718   -0.0021252144665882128
-0.024027042929422517   -0.07737643115967846   -0.0018132956825359168
-0.020347019392088744   -0.0866180122445442   -0.0024414755685100977
-0.01577809832769803   -0.08704060978930932   -0.0022049559452623673
-0.024027042929422517   -0.07737643115967846   -0.0018132956825359168
-0.01854553658562525   -0.07769762534317441   -0.0018586677370209697
-0.018576095935692424   -0.07771406144309088   -0.0020323327681232655
-0.01577809832769803   -0.08704060978930932   -0.0022049559452623673
-0.024027042929422517   -0.07737643115967846   -0.0018132956825359168
-0.018576095935692424   -0.07771406144309088   -0.0020323327681232655
-0.020347019392088744   -0.0866180122445442   -0.0024414755685100977
0.003123195446099071   -0.07812992996393854   -0.0011439961564338103
0.0049013766567770406   -0.06700798661682361   -0.0007619110359297106
-0.0024783806520928793   -0.07826824677655553   -0.001524163050673857
0.003286070786333845   -0.07793209211190519   -0.0013091258722347774
0.0049013766567770406   -0.06700798661682361   -0.0007619110359297106
-0.0017407210869366011   -0.06707573582538205   -0.001119606563690166
-0.0024783806520928793   -0.07826824677655553   -0.001524163050673857
-0.0017722160431082005   -0.06691162172909848   -0.0011561155233955577
0.003286070786333845   -0.07793209211190519   -0.0013091258722347774
-0.0024633364154300974   -0.0781000528212274   -0.001592129039039761
-0.0017722160431082005   -0.06691162172909848   -0.0011561155233955577
-0.0024783806520928793   -0.07826824677655553   -0.001524163050673857
0.003286070786333845   -0.07793209211190519   -0.0013091258722347774
-0.0017722160431082005   -0.06691162172909848   -0.0011561155233955577
0.004965235888515807   -0.06681738608407649   -0.0008698605826309663
0.0049013766567770406   -0.06700798661682361   -0.0007619110359297106
0.003286070786333845   -0.07793209211190519   -0.0013091258722347774
-0.0017722160431082005   -0.06691162172909848   -0.0011561155233955577
0.0049013766567770406   -0.06700798661682361   -0.0007619110359297106
-0.0024783806520928793   -0.07826824677655553   -0.001524163050673857
0.003286070786333845   -0.07793209211190519   -0.0013091258722347774
0.004965235888515807   -0.06681738608407649   -0.0008698605826309663
-0.0024633364154300974   -0.0781000528212274   -0.001592129039039761
0.003390097322499676   -0.07780196485791581   -0.0014594432092037422
0.004965235888515807   -0.06681738608407649   -0.0008698605826309663
-0.0017722160431082005   -0.06691162172909848   -0.0011561155233955577
-0.0024633364154300974   -0.0781000528212274   -0.001592129039039761
-0.001805346692656255   -0.06678154565664583   -0.0011832780410645093
0.003390097322499676   -0.07780196485791581   -0.0014594432092037422
-0.0024442214224447744   -0.07797785714143295   -0.0016496113027837703
-0.001805346692656255   -0.06678154565664583   -0.0011832780410645093
-0.0024633364154300974   -0.0781000528212274   -0.001592129039039761
0.003390097322499676   -0.07780196485791581   -0.0014594432092037422
-0.001805346692656255   -0.06678154565664583   -0.0011832780410645093
0.004984289152616486   -0.06667817604168942   -0.0009640243929944348
0.004965235888515807   -0.06681738608407649   -0.0008698605826309663
0.003390097322499676   -0.07780196485791581   -0.0014594432092037422
-0.001805346692656255   -0.06678154565664583   -0.0011832780410645093
0.004965235888515807   -0.06681738608407649   -0.0008698605826309663
-0.0024633364154300974   -0.0781000528212274   -0.001592129039039761
0.003390097322499676   -0.07780196485791581   -0.0014594432092037422
0.004984289152616486   -0.06667817604168942   -0.0009640243929944348
-0.0024442214224447744   -0.07797785714143295   -0.0016496113027837703
0.003496738764412922   -0.07771440278514793   -0.0015952562238552243
0.004984289152616486   -0.06667817604168942   -0.0009640243929944348
-0.001805346692656255   -0.06678154565664583   -0.0011832780410645093
-0.0024442214224447744   -0.07797785714143295   -0.0016496113027837703
-0.0018615352017450199   -0.06668144080366173   -0.001201410844321342
0.003496738764412922   -0.07771440278514793   -0.0015952562238552243
-0.002453587548987396   -0.0778977643578231   -0.0016973750231270442
-0.0018615352017450199   -0.06668144080366173   -0.001201410844321342
-0.0024442214224447744   -0.07797785714143295   -0.0016496113027837703
0.003496738764412922   -0.07771440278514793   -0.0015952562238552243
-0.0018615352017450199   -0.06668144080366173   -0.001201410844321342
0.004994595951108536   -0.06656594524718647   -0.0010450532839989483
0.004984289152616486   -0.06667817604168942   -0.0009640243929944348
0.003496738764412922   -0.07771440278514793   -0.0015952562238552243
-0.0018615352017450199   -0.06668144080366173   -0.001201410844321342
0.004984289152616486   -0.06667817604168942   -0.0009640243929944348
-0.0024442214224447744   -0.07797785714143295   -0.0016496113027837703
-0.0024783806520928793   -0.07826824677655553   -0.001524163050673857
-0.0017407210869366011   -0.06707573582538205   -0.001119606563690166
-0.007867717839437054   -0.07826883982354119   -0.0018379522945763005
-0.0024633364154300974   -0.0781000528212274   -0.001592129039039761
-0.0017407210869366011   -0.06707573582538205   -0.001119606563690166
-0.008106700047481614   -0.0670405472732273   -0.0014144619921527682
-0.007867717839437054   -0.07826883982354119   -0.0018379522945763005
-0.00815020874017954   -0.06690327541011586   -0.0013972881020484758
-0.0024633364154300974   -0.0781000528212274   -0.001592129039039761
-0.007868474273802625   -0.07812645256386737   -0.0018315443349029648
-0.00815020874017954   -0.06690327541011586   -0.0013972881020484758
-0.007867717839437054   -0.07826883982354119   -0.0018379522945763005
-0.0024633364154300974   -0.0781000528212274   -0.001592129039039761
-0.00815020874017954   -0.06690327541011586   -0.0013972881020484758
-0.0017722160431082005   -0.06691162172909848   -0.0011561155233955577
-0.0017407210869366011   -0.06707573582538205   -0.001119606563690166
-0.0024633364154300974   -0.0781000528212274   -0.001592129039039761
-0.00815020874017954   -0.06690327541011586   -0.0013972881020484758
-0.0017407210869366011   -0.06707573582538205   -0.001119606563690166
-0.007867717839437054   -0.07826883982354119   -0.0018379522945763005
-0.0024633364154300974   -0.0781000528212274   -0.001592129039039761
-0.0017722160431082005   -0.06691162172909848   -0.0011561155233955577
-0.007868474273802625   -0.07812645256386737   -0.0018315443349029648
-0.0024442214224447744   -0.07797785714143295   -0.0016496113027837703
-0.0017722160431082005   -0.06691162172909848   -0.0011561155233955577
-0.00815020874017954   -0.06690327541011586   -0.0013972881020484758
-0.007868474273802625   -0.07812645256386737   -0.0018315443349029648
-0.00819431331724722   -0.06679518435234699   -0.001370495348168287
-0.0024442214224447744   -0.07797785714143295   -0.0016496113027837703
-0.007868873392231359   -0.07802462026828928   -0.001814696639238605
-0.00819431331724722   -0.06679518435234699   -0.001370495348168287
-0.007868474273802625   -0.07812645256386737   -0.0018315443349029648
-0.0024442214224447744   -0.07797785714143295   -0.0016496113027837703
-0.00819431331724722   -0.06679518435234699   -0.001370495348168287
-0.001805346692656255   -0.06678154565664583   -0.0011832780410645093
-0.0017722160431082005   -0.06691162172909848   -0.0011561155233955577
-0.0024442214224447744   -0.07797785714143295   -0.0016496113027837703
-0.00819431331724722   -0.06679518435234699   -0.001370495348168287
-0.0017722160431082005   -0.06691162172909848   -0.0011561155233955577
-0.007868474273802625   -0.07812645256386737   -0.0018315443349029648
-0.0024442214224447744   -0.07797785714143295   -0.0016496113027837703
-0.001805346692656255   -0.06678154565664583   -0.0011832780410645093
-0.007868873392231359   -0.07802462026828928   -0.001814696639238605
-0.002453587548987396   -0.0778977643578231   -0.0016973750231270442
-0.001805346692656255   -0.06678154565664583   -0.0011832780410645093
-0.00819431331724722   -0.06679518435234699   -0.001370495348168287
-0.007868873392231359   -0.07802462026828928   -0.001814696639238605
-0.008245259365965232   -0.06671677123915408   -0.0013345435868196106
-0.002453587548987396   -0.0778977643578231   -0.0016973750231270442
-0.00787648545161655   -0.07796341327656656   -0.0017879466553574021
-0.008245259365965232   -0.06671677123915408   -0.0013345435868196106
-0.007868873392231359   -0.07802462026828928   -0.001814696639238605
-0.002453587548987396   -0.0778977643578231   -0.0016973750231270442
-0.008245259365965232   -0.06671677123915408   -0.0013345435868196106
-0.0018615352017450199   -0.06668144080366173   -0.001201410844321342
-0.001805346692656255   -0.06678154565664583   -0.0011832780410645093
-0.002453587548987396   -0.0778977643578231   -0.0016973750231270442
-0.008245259365965232   -0.06671677123915408   -0.0013345435868196106
-0.001805346692656255   -0.06678154565664583   -0.0011832780410645093
-0.007868873392231359   -0.07802462026828928   -0.001814696639238605
-0.007867717839437054   -0.07826883982354119   -0.0018379522945763005
-0.008106700047481614   -0.0670405472732273   -0.0014144619921527682
-0.01316527382856006   -0.07813479709201782   -0.0021129029315760488
-0.007868474273802625   -0.07812645256386737   -0.0018315443349029648
-0.008106700047481614   -0.0670405472732273   -0.0014144619921527682
-0.01436489685090237   -0.06690870887099888   -0.0016668968851984755
-0.01316527382856006   -0.07813479709201782   -0.0021129029315760488
-0.014411799407255295   -0.06679585170991476   -0.0015962919525118347
-0.007868474273802625   -0.07812645256386737   -0.0018315443349029648
-0.01317001009327337   -0.07801510965299809   -0.002033015009584085
-0.014411799407255295   -0.06679585170991476   -0.0015962919525118347
-0.01316527382856006   -0.07813479709201782   -0.0021129029315760488
-0.007868474273802625   -0.07812645256386737   -0.0018315443349029648
-0.014411799407255295   -0.06679585170991476   -0.0015962919525118347
-0.00815020874017954   -0.06690327541011586   -0.0013972881020484758
-0.008106700047481614   -0.0670405472732273   -0.0014144619921527682
-0.007868474273802625   -0.07812645256386737   -0.0018315443349029648
-0.014411799407255295   -0.06679585170991476   -0.0015962919525118347
-0.008106700047481614   -0.0670405472732273   -0.0014144619921527682
-0.01316527382856006   -0.07813479709201782   -0.0021129029315760488
-0.007868474273802625   -0.07812645256386737   -0.0018315443349029648
-0.00815020874017954   -0.06690327541011586   -0.0013972881020484758
-0.01317001009327337   -0.07801510965299809   -0.002033015009584085
-0.007868873392231359   -0.07802462026828928   -0.001814696639238605
-0.00815020874017954   -0.06690327541011586   -0.0013972881020484758
-0.014411799407255295   -0.06679585170991476   -0.0015962919525118347
-0.01317001009327337   -0.07801510965299809   -0.002033015009584085
-0.014450685885395663   -0.0667118960312859   -0.0015162364097265758
-0.007868873392231359   -0.07802462026828928   -0.001814696639238605
-0.013165711041261133   -0.07793561802123135   -0.00194288778735435
-0.014450685885395663   -0.0667118960312859   -0.0015162364097265758
-0.01317001009327337   -0.07801510965299809   -0.002033015009584085
-0.007868873392231359   -0.07802462026828928   -0.001814696639238605
-0.014450685885395663   -0.0667118960312859   -0.0015162364097265758
-0.00819431331724722   -0.06679518435234699   -0.001370495348168287
-0.00815020874017954   -0.06690327541011586   -0.0013972881020484758
-0.007868873392231359   -0.07802462026828928   -0.001814696639238605
-0.014450685885395663   -0.0667118960312859   -0.0015162364097265758
-0.00815020874017954   -0.06690327541011586   -0.0013972881020484758
-0.01317001009327337   -0.07801510965299809   -0.002033015009584085
-0.007868873392231359   -0.07802462026828928   -0.001814696639238605
-0.00819431331724722   -0.06679518435234699   -0.001370495348168287
-0.013165711041261133   -0.07793561802123135   -0.00194288778735435
-0.00787648545161655   -0.07796341327656656   -0.0017879466553574021
-0.00819431331724722   -0.06679518435234699   -0.001370495348168287
-0.014450685885395663   -0.0667118960312859   -0.0015162364097265758
-0.013165711041261133   -0.07793561802123135   -0.00194288778735435
-0.014490694060382584   -0.06665672217763056   -0.0014270097382270439
-0.00787648545161655   -0.07796341327656656   -0.0017879466553574021
-0.013163031327376706   -0.07789561230155968   -0.0018428209060440605
-0.014490694060382584   -0.06665672217763056   -0.0014270097382270439
-0.013165711041261133   -0.07793561802123135   -0.00194288778735435
-0.00787648545161655   -0.07796341327656656   -0.0017879466553574021
-0.014490694060382584   -0.06665672217763056   -0.0014270097382270439
-0.008245259365965232   -0.06671677123915408   -0.0013345435868196106
-0.00819431331724722   -0.06679518435234699   -0.001370495348168287
-0.00787648545161655   -0.07796341327656656   -0.0017879466553574021
-0.014490694060382584   -0.06665672217763056   -0.0014270097382270439
-0.00819431331724722   -0.06679518435234699   -0.001370495348168287
-0.013165711041261133   -0.07793561802123135   -0.00194288778735435
-0.01316527382856006   -0.07813479709201782   -0.0021129029315760488
-0.01436489685090237   -0.06690870887099888   -0.0016668968851984755
-0.01862811416443258   -0.07787122429658788   -0.002349493509786328
-0.01317001009327337   -0.07801510965299809   -0.002033015009584085
-0.01436489685090237   -0.06690870887099888   -0.0016668968851984755
-0.020771966443054606   -0.06668286393536979   -0.0018778401749537225
-0.01862811416443258   -0.07787122429658788   -0.002349493509786328
-0.020810840846931977   -0.06659387411722525   -0.0017530805877452376
-0.01317001009327337   -0.07801510965299809   -0.002033015009584085
-0.018621772804271516   -0.07777329743812936   -0.002195261778373484
-0.020810840846931977   -0.06659387411722525   -0.0017530805877452376
-0.01862811416443258   -0.07787122429658788   -0.002349493509786328
-0.01317001009327337   -0.07801510965299809   -0.002033015009584085
-0.020810840846931977   -0.06659387411722525   -0.0017530805877452376
-0.014411799407255295   -0.06679585170991476   -0.0015962919525118347
-0.01436489685090237   -0.06690870887099888   -0.0016668968851984755
-0.01317001009327337   -0.07801510965299809   -0.002033015009584085
-0.020810840846931977   -0.06659387411722525   -0.0017530805877452376
-0.01436489685090237   -0.06690870887099888   -0.0016668968851984755
-0.01862811416443258   -0.07787122429658788   -0.002349493509786328
-0.01317001009327337   -0.07801510965299809   -0.002033015009584085
-0.014411799407255295   -0.06679585170991476   -0.0015962919525118347
-0.018621772804271516   -0.07777329743812936   -0.002195261778373484
-0.013165711041261133   -0.07793561802123135   -0.00194288778735435
-0.014411799407255295   -0.06679585170991476   -0.0015962919525118347
-0.020810840846931977   -0.06659387411722525   -0.0017530805877452376
-0.018621772804271516   -0.07777329743812936   -0.002195261778373484
-0.02081606510995549   -0.06653198466367555   -0.001620178763392955
-0.013165711041261133   -0.07793561802123135   -0.00194288778735435
-0.018576095935692424   -0.07771406144309088   -0.0020323327681232655
-0.02081606510995549   -0.06653198466367555   -0.001620178763392955
-0.018621772804271516   -0.07777329743812936   -0.002195261778373484
-0.013165711041261133   -0.07793561802123135   -0.00194288778735435
-0.02081606510995549   -0.06653198466367555   -0.001620178763392955
-0.014450685885395663   -0.0667118960312859   -0.0015162364097265758
-0.014411799407255295   -0.06679585170991476   -0.0015962919525118347
-0.013165711041261133   -0.07793561802123135   -0.00194288778735435
-0.02081606510995549   -0.06653198466367555   -0.001620178763392955
-0.014411799407255295   -0.06679585170991476   -0.0015962919525118347
-0.018621772804271516   -0.07777329743812936   -0.002195261778373484
-0.013165711041261133   -0.07793561802123135   -0.00194288778735435
-0.014450685885395663   -0.0667118960312859   -0.0015162364097265758
-0.018576095935692424   -0.07771406144309088   -0.0020323327681232655
-0.013163031327376706   -0.07789561230155968   -0.0018428209060440605
-0.014450685885395663   -0.0667118960312859   -0.0015162364097265758
-0.02081606510995549   -0.06653198466367555   -0.001620178763392955
-0.018576095935692424   -0.07771406144309088   -0.0020323327681232655
-0.020830783929100764   -0.0665014600805593   -0.0014774122921514161
-0.013163031327376706   -0.07789561230155968   -0.0018428209060440605
-0.01854553658562525   -0.07769762534317441   -0.0018586677370209697
-0.020830783929100764   -0.0665014600805593   -0.0014774122921514161
-0.018576095935692424   -0.07771406144309088   -0.0020323327681232655
-0.013163031327376706   -0.07789561230155968   -0.0018428209060440605
-0.020830783929100764   -0.0665014600805593   -0.0014774122921514161
-0.014490694060382584   -0.06665672217763056   -0.0014270097382270439
-0.014450685885395663   -0.0667118960312859   -0.0015162364097265758
-0.013163031327376706   -0.07789561230155968   -0.0018428209060440605
-0.020830783929100764   -0.0665014600805593   -0.0014774122921514161
-0.014450685885395663   -0.0667118960312859   -0.0015162364097265758
-0.018576095935692424   -0.07771406144309088   -0.0020323327681232655
-0.01862811416443258   -0.07787122429658788   -0.002349493509786328
-0.020771966443054606   -0.06668286393536979   -0.0018778401749537225
-0.02472996086074332   -0.07750824204023649   -0.0025626879303700455
-0.018621772804271516   -0.07777329743812936   -0.002195261778373484
-0.020771966443054606   -0.06668286393536979   -0.0018778401749537225
-0.027758353953834053   -0.06638689055889611   -0.0020580209250703097
-0.02472996086074332   -0.07750824204023649   -0.0025626879303700455
-0.02762544327197978   -0.0663056049406971   -0.0018760849653517559
-0.018621772804271516   -0.07777329743812936   -0.002195261778373484
-0.024502569839097894   -0.07741220810255668   -0.002326833132400343
-0.02762544327197978   -0.0663056049406971   -0.0018760849653517559
-0.02472996086074332   -0.07750824204023649   -0.0025626879303700455
-0.018621772804271516   -0.07777329743812936   -0.002195261778373484
-0.02762544327197978   -0.0663056049406971   -0.0018760849653517559
-0.020810840846931977   -0.06659387411722525   -0.0017530805877452376
-0.020771966443054606   -0.06668286393536979   -0.0018778401749537225
-0.018621772804271516   -0.07777329743812936   -0.002195261778373484
-0.02762544327197978   -0.0663056049406971   -0.0018760849653517559
-0.020771966443054606   -0.06668286393536979   -0.0018778401749537225
-0.02472996086074332   -0.07750824204023649   -0.0025626879303700455
-0.018621772804271516   -0.07777329743812936   -0.002195261778373484
-0.020810840846931977   -0.06659387411722525   -0.0017530805877452376
-0.024502569839097894   -0.07741220810255668   -0.002326833132400343
-0.018576095935692424   -0.07771406144309088   -0.0020323327681232655
-0.020810840846931977   -0.06659387411722525   -0.0017530805877452376
-0.02762544327197978   -0.0663056049406971   -0.0018760849653517559
-0.024502569839097894   -0.07741220810255668   -0.002326833132400343
-0.02751333992968498   -0.06625306601121951   -0.0016799389495810568
-0.018576095935692424   -0.07771406144309088   -0.0020323327681232655
-0.024307994388311778   -0.07736035634241621   -0.0020763698045802785
-0.02751333992968498   -0.06625306601121951   -0.0016799389495810568
-0.024502569839097894   -0.07741220810255668   -0.002326833132400343
-0.018576095935692424   -0.07771406144309088   -0.0020323327681232655
-0.02751333992968498   -0.06625306601121951   -0.0016799389495810568
-0.02081606510995549   -0.06653198466367555   -0.001620178763392955
-0.020810840846931977   -0.06659387411722525   -0.0017530805877452376
-0.018576095935692424   -0.07771406144309088   -0.0020323327681232655
-0.02751333992968498   -0.06625306601121951   -0.0016799389495810568
-0.020810840846931977   -0.06659387411722525   -0.0017530805877452376
-0.024502569839097894   -0.07741220810255668   -0.002326833132400343
-0.018576095935692424   -0.07771406144309088   -0.0020323327681232655
-0.02081606510995549   -0.06653198466367555   -0.001620178763392955
-0.024307994388311778   -0.07736035634241621   -0.0020763698045802785
-0.01854553658562525   -0.07769762534317441   -0.0018586677370209697
-0.02081606510995549   -0.06653198466367555   -0.001620178763392955
-0.02751333992968498   -0.06625306601121951   -0.0016799389495810568
-0.024307994388311778   -0.07736035634241621   -0.0020763698045802785
-0.0273280905494296   -0.06625386761086763   -0.0014713525350516783
-0.01854553658562525   -0.07769762534317441   -0.0018586677370209697
-0.024027042929422517   -0.07737643115967846   -0.0018132956825359168
-0.0273280905494296   -0.06625386761086763   -0.0014713525350516783
-0.024307994388311778   -0.07736035634241621   -0.0020763698045802785
-0.01854553658562525   -0.07769762534317441   -0.0018586677370209697
-0.0273280905494296   -0.06625386761086763   -0.0014713525350516783
-0.020830783929100764   -0.0665014600805593   -0.0014774122921514161
-0.02081606510995549   -0.06653198466367555   -0.001620178763392955
-0.01854553658562525   -0.07769762534317441   -0.0018586677370209697
-0.0273280905494296   -0.06625386761086763   -0.0014713525350516783
-0.02081606510995549   -0.06653198466367555   -0.001620178763392955
-0.024307994388311778   -0.07736035634241621   -0.0020763698045802785
0.0049013766567770406   -0.06700798661682361   -0.0007619110359297106
0.005885689330482826   -0.05453438875649869   -0.00038760491063352355
-0.0017407210869366011   -0.06707573582538205   -0.001119606563690166
0.004965235888515807   -0.06681738608407649   -0.0008698605826309663
0.005885689330482826   -0.05453438875649869   -0.00038760491063352355
-0.0014845817750413592   -0.05453238318465583   -0.0007194020656785873
-0.0017407210869366011   -0.06707573582538205   -0.001119606563690166
-0.001550835859011986   -0.05437359847711645   -0.0007240972556564459
0.004965235888515807   -0.06681738608407649   -0.0008698605826309663
-0.0017722160431082005   -0.06691162172909848   -0.0011561155233955577
-0.001550835859011986   -0.05437359847711645   -0.0007240972556564459
-0.0017407210869366011   -0.06707573582538205   -0.001119606563690166
0.004965235888515807   -0.06681738608407649   -0.0008698605826309663
-0.001550835859011986   -0.05437359847711645   -0.0007240972556564459
0.005863667594427657   -0.05435188885144753   -0.0004390897409133607
0.005885689330482826   -0.05453438875649869   -0.00038760491063352355
0.004965235888515807   -0.06681738608407649   -0.0008698605826309663
-0.001550835859011986   -0.05437359847711645   -0.0007240972556564459
0.005885689330482826   -0.05453438875649869   -0.00038760491063352355
-0.0017407210869366011   -0.06707573582538205   -0.001119606563690166
0.004965235888515807   -0.06681738608407649   -0.0008698605826309663
0.005863667594427657   -0.05435188885144753   -0.0004390897409133607
-0.0017722160431082005   -0.06691162172909848   -0.0011561155233955577
0.004984289152616486   -0.06667817604168942   -0.0009640243929944348
0.005863667594427657   -0.05435188885144753   -0.0004390897409133607
-0.001550835859011986   -0.05437359847711645   -0.0007240972556564459
-0.0017722160431082005   -0.06691162172909848   -0.0011561155233955577
-0.0016244499140090486   -0.054236701613962164   -0.0007205173453419746
0.004984289152616486   -0.06667817604168942   -0.0009640243929944348
-0.001805346692656255   -0.06678154565664583   -0.0011832780410645093
-0.0016244499140090486   -0.054236701613962164   -0.0007205173453419746
-0.0017722160431082005   -0.06691162172909848   -0.0011561155233955577
0.004984289152616486   -0.06667817604168942   -0.0009640243929944348
-0.0016244499140090486   -0.054236701613962164   -0.0007205173453419746
0.0058100360052616516   -0.054204743729777856   -0.0004773111379531353
0.005863667594427657   -0.05435188885144753   -0.0004390897409133607
0.004984289152616486   -0.06667817604168942   -0.0009640243929944348
-0.0016244499140090486   -0.054236701613962164   -0.0007205173453419746
0.005863667594427657   -0.05435188885144753   -0.0004390897409133607
-0.0017722160431082005   -0.06691162172909848   -0.0011561155233955577
0.004984289152616486   -0.06667817604168942   -0.0009640243929944348
0.0058100360052616516   -0.054204743729777856   -0.0004773111379531353
-0.001805346692656255   -0.06678154565664583   -0.0011832780410645093
0.004994595951108536   -0.06656594524718647   -0.0010450532839989483
0.0058100360052616516   -0.054204743729777856   -0.0004773111379531353
-0.0016244499140090486   -0.054236701613962164   -0.0007205173453419746
-0.001805346692656255   -0.06678154565664583   -0.0011832780410645093
-0.001715700501313106   -0.05411816485531809   -0.0007083361051313839
0.004994595951108536   -0.06656594524718647   -0.0010450532839989483
-0.0018615352017450199   -0.06668144080366173   -0.001201410844321342
-0.001715700501313106   -0.05411816485531809   -0.0007083361051313839
-0.001805346692656255   -0.06678154565664583   -0.0011832780410645093
0.004994595951108536   -0.06656594524718647   -0.0010450532839989483
-0.001715700501313106   -0.05411816485531809   -0.0007083361051313839
0.005735271375524763   -0.05406909231365773   -0.0005031952298301504
0.0058100360052616516   -0.054204743729777856   -0.0004773111379531353
0.004994595951108536   -0.06656594524718647   -0.0010450532839989483
-0.001715700501313106   -0.05411816485531809   -0.0007083361051313839
0.0058100360052616516   -0.054204743729777856   -0.0004773111379531353
-0.001805346692656255   -0.06678154565664583   -0.0011832780410645093
-0.0017407210869366011   -0.06707573582538205   -0.001119606563690166
-0.0014845817750413592   -0.05453238318465583   -0.0007194020656785873
-0.008106700047481614   -0.0670405472732273   -0.0014144619921527682
-0.0017722160431082005   -0.06691162172909848   -0.0011561155233955577
-0.0014845817750413592   -0.05453238318465583   -0.0007194020656785873
-0.00851416794167919   -0.054465657265574445   -0.0009935877651740994
-0.008106700047481614   -0.0670405472732273   -0.0014144619921527682
-0.008588197455067273   -0.054333701770935876   -0.0009647667383905766
-0.0017722160431082005   -0.06691162172909848   -0.0011561155233955577
-0.00815020874017954   -0.06690327541011586   -0.0013972881020484758
-0.008588197455067273   -0.054333701770935876   -0.0009647667383905766
-0.008106700047481614   -0.0670405472732273   -0.0014144619921527682
-0.0017722160431082005   -0.06691162172909848   -0.0011561155233955577
-0.008588197455067273   -0.054333701770935876   -0.0009647667383905766
-0.001550835859011986   -0.05437359847711645   -0.0007240972556564459
-0.0014845817750413592   -0.05453238318465583   -0.0007194020656785873
-0.0017722160431082005   -0.06691162172909848   -0.0011561155233955577
-0.008588197455067273   -0.054333701770935876   -0.0009647667383905766
-0.0014845817750413592   -0.05453238318465583   -0.0007194020656785873
-0.008106700047481614   -0.0670405472732273   -0.0014144619921527682
-0.0017722160431082005   -0.06691162172909848   -0.0011561155233955577
-0.001550835859011986   -0.05437359847711645   -0.0007240972556564459
-0.00815020874017954   -0.06690327541011586   -0.0013972881020484758
-0.001805346692656255   -0.06678154565664583   -0.0011832780410645093
-0.001550835859011986   -0.05437359847711645   -0.0007240972556564459
-0.008588197455067273   -0.054333701770935876   -0.0009647667383905766
-0.00815020874017954   -0.06690327541011586   -0.0013972881020484758
-0.008663708119138282   -0.0542195653767461   -0.0009273292191806578
-0.001805346692656255   -0.06678154565664583   -0.0011832780410645093
-0.00819431331724722   -0.06679518435234699   -0.001370495348168287
-0.008663708119138282   -0.0542195653767461   -0.0009273292191806578
-0.00815020874017954   -0.06690327541011586   -0.0013972881020484758
-0.001805346692656255   -0.06678154565664583   -0.0011832780410645093
-0.008663708119138282   -0.0542195653767461   -0.0009273292191806578
-0.0016244499140090486   -0.054236701613962164   -0.0007205173453419746
-0.001550835859011986   -0.05437359847711645   -0.0007240972556564459
-0.001805346692656255   -0.06678154565664583   -0.0011832780410645093
-0.008663708119138282   -0.0542195653767461   -0.0009273292191806578
-0.001550835859011986   -0.05437359847711645   -0.0007240972556564459
-0.00815020874017954   -0.06690327541011586   -0.0013972881020484758
-0.001805346692656255   -0.06678154565664583   -0.0011832780410645093
-0.0016244499140090486   -0.054236701613962164   -0.0007205173453419746
-0.00819431331724722   -0.06679518435234699   -0.001370495348168287
-0.0018615352017450199   -0.06668144080366173   -0.001201410844321342
-0.0016244499140090486   -0.054236701613962164   -0.0007205173453419746
-0.008663708119138282   -0.0542195653767461   -0.0009273292191806578
-0.00819431331724722   -0.06679518435234699   -0.001370495348168287
-0.00874558487355802   -0.0541243158882853   -0.0008816754137493124
-0.0018615352017450199   -0.06668144080366173   -0.001201410844321342
-0.008245259365965232   -0.06671677123915408   -0.0013345435868196106
-0.00874558487355802   -0.0541243158882853   -0.0008816754137493124
-0.00819431331724722   -0.06679518435234699   -0.001370495348168287
-0.0018615352017450199   -0.06668144080366173   -0.001201410844321342
-0.00874558487355802   -0.0541243158882853   -0.0008816754137493124
-0.001715700501313106   -0.05411816485531809   -0.0007083361051313839
-0.0016244499140090486   -0.054236701613962164   -0.0007205173453419746
-0.0018615352017450199   -0.06668144080366173   -0.001201410844321342
-0.00874558487355802   -0.0541243158882853   -0.0008816754137493124
-0.0016244499140090486   -0.054236701613962164   -0.0007205173453419746
-0.00819431331724722   -0.06679518435234699   -0.001370495348168287
-0.008106700047481614   -0.0670405472732273   -0.0014144619921527682
-0.00851416794167919   -0.054465657265574445   -0.0009935877651740994
-0.01436489685090237   -0.06690870887099888   -0.0016668968851984755
-0.00815020874017954   -0.06690327541011586   -0.0013972881020484758
-0.00851416794167919   -0.054465657265574445   -0.0009935877651740994
-0.015424876839433875   -0.05434144929210694   -0.0012250966274957166
-0.01436489685090237   -0.06690870887099888   -0.0016668968851984755
-0.01550105099968677   -0.0542342516972096   -0.001162808519956504
-0.00815020874017954   -0.06690327541011586   -0.0013972881020484758
-0.014411799407255295   -0.06679585170991476   -0.0015962919525118347
-0.01550105099968677   -0.0542342516972096   -0.001162808519956504
-0.01436489685090237   -0.06690870887099888   -0.0016668968851984755
-0.00815020874017954   -0.06690327541011586   -0.0013972881020484758
-0.01550105099968677   -0.0542342516972096   -0.001162808519956504
-0.008588197455067273   -0.054333701770935876   -0.0009647667383905766
-0.00851416794167919   -0.054465657265574445   -0.0009935877651740994
-0.00815020874017954   -0.06690327541011586   -0.0013972881020484758
-0.01550105099968677   -0.0542342516972096   -0.001162808519956504
-0.00851416794167919   -0.054465657265574445   -0.0009935877651740994
-0.01436489685090237   -0.06690870887099888   -0.0016668968851984755
-0.00815020874017954   -0.06690327541011586   -0.0013972881020484758
-0.008588197455067273   -0.054333701770935876   -0.0009647667383905766
-0.014411799407255295   -0.06679585170991476   -0.0015962919525118347
-0.00819431331724722   -0.06679518435234699   -0.001370495348168287
-0.008588197455067273   -0.054333701770935876   -0.0009647667383905766
-0.01550105099968677   -0.0542342516972096   -0.001162808519956504
-0.014411799407255295   -0.06679585170991476   -0.0015962919525118347
-0.015570173776446329   -0.05414474711997088   -0.0010921035155802067
-0.00819431331724722   -0.06679518435234699   -0.001370495348168287
-0.014450685885395663   -0.0667118960312859   -0.0015162364097265758
-0.015570173776446329   -0.05414474711997088   -0.0010921035155802067
-0.014411799407255295   -0.06679585170991476   -0.0015962919525118347
-0.00819431331724722   -0.06679518435234699   -0.001370495348168287
-0.015570173776446329   -0.05414474711997088   -0.0010921035155802067
-0.008663708119138282   -0.0542195653767461   -0.0009273292191806578
-0.008588197455067273   -0.054333701770935876   -0.0009647667383905766
-0.00819431331724722   -0.06679518435234699   -0.001370495348168287
-0.015570173776446329   -0.05414474711997088   -0.0010921035155802067
-0.008588197455067273   -0.054333701770935876   -0.0009647667383905766
-0.014411799407255295   -0.06679585170991476   -0.0015962919525118347
-0.00819431331724722   -0.06679518435234699   -0.001370495348168287
-0.008663708119138282   -0.0542195653767461   -0.0009273292191806578
-0.014450685885395663   -0.0667118960312859   -0.0015162364097265758
-0.008245259365965232   -0.06671677123915408   -0.0013345435868196106
-0.008663708119138282   -0.0542195653767461   -0.0009273292191806578
-0.015570173776446329   -0.05414474711997088   -0.0010921035155802067
-0.014450685885395663   -0.0667118960312859   -0.0015162364097265758
-0.01563994939230677   -0.054073089450317226   -0.0010133040076377396
-0.008245259365965232   -0.06671677123915408   -0.0013345435868196106
-0.014490694060382584   -0.06665672217763056   -0.0014270097382270439
-0.01563994939230677   -0.054073089450317226   -0.0010133040076377396
-0.014450685885395663   -0.0667118960312859   -0.0015162364097265758
-0.008245259365965232   -0.06671677123915408   -0.0013345435868196106
-0.01563994939230677   -0.054073089450317226   -0.0010133040076377396
-0.00874558487355802   -0.0541243158882853   -0.0008816754137493124
-0.008663708119138282   -0.0542195653767461   -0.0009273292191806578
-0.008245259365965232   -0.06671677123915408   -0.0013345435868196106
-0.01563994939230677   -0.054073089450317226   -0.0010133040076377396
-0.008663708119138282   -0.0542195653767461   -0.0009273292191806578
-0.014450685885395663   -0.0667118960312859   -0.0015162364097265758
-0.01436489685090237   -0.06690870887099888   -0.0016668968851984755
-0.015424876839433875   -0.05434144929210694   -0.0012250966274957166
-0.020771966443054606   -0.06668286393536979   -0.0018778401749537225
-0.014411799407255295   -0.06679585170991476   -0.0015962919525118347
-0.015424876839433875   -0.05434144929210694   -0.0012250966274957166
-0.022472373747556167   -0.05415711106206311   -0.0014144256942358751
-0.020771966443054606   -0.06668286393536979   -0.0018778401749537225
-0.022543139170793206   -0.05407489247930775   -0.0013184167022921446
-0.014411799407255295   -0.06679585170991476   -0.0015962919525118347
-0.020810840846931977   -0.06659387411722525   -0.0017530805877452376
-0.022543139170793206   -0.05407489247930775   -0.0013184167022921446
-0.020771966443054606   -0.06668286393536979   -0.0018778401749537225
-0.014411799407255295   -0.06679585170991476   -0.0015962919525118347
-0.022543139170793206   -0.05407489247930775   -0.0013184167022921446
-0.01550105099968677   -0.0542342516972096   -0.001162808519956504
-0.015424876839433875   -0.05434144929210694   -0.0012250966274957166
-0.014411799407255295   -0.06679585170991476   -0.0015962919525118347
-0.022543139170793206   -0.05407489247930775   -0.0013184167022921446
-0.015424876839433875   -0.05434144929210694   -0.0012250966274957166
-0.020771966443054606   -0.06668286393536979   -0.0018778401749537225
-0.014411799407255295   -0.06679585170991476   -0.0015962919525118347
-0.01550105099968677   -0.0542342516972096   -0.001162808519956504
-0.020810840846931977   -0.06659387411722525   -0.0017530805877452376
-0.014450685885395663   -0.0667118960312859   -0.0015162364097265758
-0.01550105099968677   -0.0542342516972096   -0.001162808519956504
-0.022543139170793206   -0.05407489247930775   -0.0013184167022921446
-0.020810840846931977   -0.06659387411722525   -0.0017530805877452376
-0.022586148745846153   -0.05400808148089043   -0.0012151298465536912
-0.014450685885395663   -0.0667118960312859   -0.0015162364097265758
-0.02081606510995549   -0.06653198466367555   -0.001620178763392955
-0.022586148745846153   -0.05400808148089043   -0.0012151298465536912
-0.020810840846931977   -0.06659387411722525   -0.0017530805877452376
-0.014450685885395663   -0.0667118960312859   -0.0015162364097265758
-0.022586148745846153   -0.05400808148089043   -0.0012151298465536912
-0.015570173776446329   -0.05414474711997088   -0.0010921035155802067
-0.01550105099968677   -0.0542342516972096   -0.001162808519956504
-0.014450685885395663   -0.0667118960312859   -0.0015162364097265758
-0.022586148745846153   -0.05400808148089043   -0.0012151298465536912
-0.01550105099968677   -0.0542342516972096   -0.001162808519956504
-0.020810840846931977   -0.06659387411722525   -0.0017530805877452376
-0.014450685885395663   -0.0667118960312859   -0.0015162364097265758
-0.015570173776446329   -0.05414474711997088   -0.0010921035155802067
-0.02081606510995549   -0.06653198466367555   -0.001620178763392955
-0.014490694060382584   -0.06665672217763056   -0.0014270097382270439
-0.015570173776446329   -0.05414474711997088   -0.0010921035155802067
-0.022586148745846153   -0.05400808148089043   -0.0012151298465536912
-0.02081606510995549   -0.06653198466367555   -0.001620178763392955
-0.02263331395558332   -0.05396065808646644   -0.0011030587670568088
-0.014490694060382584   -0.06665672217763056   -0.0014270097382270439
-0.020830783929100764   -0.0665014600805593   -0.0014774122921514161
-0.02263331395558332   -0.05396065808646644   -0.0011030587670568088
-0.02081606510995549   -0.06653198466367555   -0.001620178763392955
-0.014490694060382584   -0.06665672217763056   -0.0014270097382270439
-0.02263331395558332   -0.05396065808646644   -0.0011030587670568088
-0.01563994939230677   -0.054073089450317226   -0.0010133040076377396
-0.015570173776446329   -0.05414474711997088   -0.0010921035155802067
-0.014490694060382584   -0.06665672217763056   -0.0014270097382270439
-0.02263331395558332   -0.05396065808646644   -0.0011030587670568088
-0.015570173776446329   -0.05414474711997088   -0.0010921035155802067
-0.02081606510995549   -0.06653198466367555   -0.001620178763392955
-0.020771966443054606   -0.06668286393536979   -0.0018778401749537225
-0.022472373747556167   -0.05415711106206311   -0.0014144256942358751
-0.027758353953834053   -0.06638689055889611   -0.0020580209250703097
-0.020810840846931977   -0.06659387411722525   -0.0017530805877452376
-0.022472373747556167   -0.05415711106206311   -0.0014144256942358751
-0.030035441921427108   -0.05393059063645412   -0.001565084609790628
-0.027758353953834053   -0.06638689055889611   -0.0020580209250703097
-0.02998424795522585   -0.05386120472925535   -0.0014373364114555129
-0.020810840846931977   -0.06659387411722525   -0.0017530805877452376
-0.02762544327197978   -0.0663056049406971   -0.0018760849653517559
-0.02998424795522585   -0.05386120472925535   -0.0014373364114555129
-0.027758353953834053   -0.06638689055889611   -0.0020580209250703097
-0.020810840846931977   -0.06659387411722525   -0.0017530805877452376
-0.02998424795522585   -0.05386120472925535   -0.0014373364114555129
-0.022543139170793206   -0.05407489247930775   -0.0013184167022921446
-0.022472373747556167   -0.05415711106206311   -0.0014144256942358751
-0.020810840846931977   -0.06659387411722525   -0.0017530805877452376
-0.02998424795522585   -0.05386120472925535   -0.0014373364114555129
-0.022472373747556167   -0.05415711106206311   -0.0014144256942358751
-0.027758353953834053   -0.06638689055889611   -0.0020580209250703097
-0.020810840846931977   -0.06659387411722525   -0.0017530805877452376
-0.022543139170793206   -0.05407489247930775   -0.0013184167022921446
-0.02762544327197978   -0.0663056049406971   -0.0018760849653517559
-0.02081606510995549   -0.06653198466367555   -0.001620178763392955
-0.022543139170793206   -0.05407489247930775   -0.0013184167022921446
-0.02998424795522585   -0.05386120472925535   -0.0014373364114555129
-0.02762544327197978   -0.0663056049406971   -0.0018760849653517559
-0.02994254046121695   -0.053805081440054164   -0.0012962342947153548
-0.02081606510995549   -0.06653198466367555   -0.001620178763392955
-0.02751333992968498   -0.06625306601121951   -0.0016799389495810568
-0.02994254046121695   -0.053805081440054164   -0.0012962342947153548
-0.02762544327197978   -0.0663056049406971   -0.0018760849653517559
-0.02081606510995549   -0.06653198466367555   -0.001620178763392955
-0.02994254046121695   -0.053805081440054164   -0.0012962342947153548
-0.022586148745846153   -0.05400808148089043   -0.0012151298465536912
-0.022543139170793206   -0.05407489247930775   -0.0013184167022921446
-0.02081606510995549   -0.06653198466367555   -0.001620178763392955
-0.02994254046121695   -0.053805081440054164   -0.0012962342947153548
-0.022543139170793206   -0.05407489247930775   -0.0013184167022921446
-0.02762544327197978   -0.0663056049406971   -0.0018760849653517559
-0.02081606510995549   -0.06653198466367555   -0.001620178763392955
-0.022586148745846153   -0.05400808148089043   -0.0012151298465536912
-0.02751333992968498   -0.06625306601121951   -0.0016799389495810568
-0.020830783929100764   -0.0665014600805593   -0.0014774122921514161
-0.022586148745846153   -0.05400808148089043   -0.0012151298465536912
-0.02994254046121695   -0.053805081440054164   -0.0012962342947153548
-0.02751333992968498   -0.06625306601121951   -0.0016799389495810568
-0.029841586843031686   -0.05378667171304614   -0.0011433024191321267
-0.020830783929100764   -0.0665014600805593   -0.0014774122921514161
-0.0273280905494296   -0.06625386761086763   -0.0014713525350516783
-0.029841586843031686   -0.05378667171304614   -0.0011433024191321267
-0.02751333992968498   -0.06625306601121951   -0.0016799389495810568
-0.020830783929100764   -0.0665014600805593   -0.0014774122921514161
-0.029841586843031686   -0.05378667171304614   -0.0011433024191321267
-0.02263331395558332   -0.05396065808646644   -0.0011030587670568088
-0.022586148745846153   -0.05400808148089043   -0.0012151298465536912
-0.020830783929100764   -0.0665014600805593   -0.0014774122921514161
-0.029841586843031686   -0.05378667171304614   -0.0011433024191321267
-0.022586148745846153   -0.05400808148089043   -0.0012151298465536912
-0.02751333992968498   -0.06625306601121951   -0.0016799389495810568
0.005885689330482826   -0.05453438875649869   -0.00038760491063352355
0.006077506864645002   -0.041205153926991   -5.969104872865944e-05
-0.0014845817750413592   -0.05453238318465583   -0.0007194020656785873
0.005863667594427657   -0.05435188885144753   -0.0004390897409133607
0.006077506864645002   -0.041205153926991   -5.969104872865944e-05
-0.0017078138826386823   -0.04113625852856163   -0.00035820102853591717
-0.0014845817750413592   -0.05453238318465583   -0.0007194020656785873
-0.0017986021399760967   -0.04098422542270853   -0.0003311369277544717
0.005863667594427657   -0.05435188885144753   -0.0004390897409133607
-0.001550835859011986   -0.05437359847711645   -0.0007240972556564459
-0.0017986021399760967   -0.04098422542270853   -0.0003311369277544717
-0.0014845817750413592   -0.05453238318465583   -0.0007194020656785873
0.005863667594427657   -0.05435188885144753   -0.0004390897409133607
-0.0017986021399760967   -0.04098422542270853   -0.0003311369277544717
0.005980749610689559   -0.04103100095976735   -5.379657110835876e-05
0.006077506864645002   -0.041205153926991   -5.969104872865944e-05
0.005863667594427657   -0.05435188885144753   -0.0004390897409133607
-0.0017986021399760967   -0.04098422542270853   -0.0003311369277544717
0.006077506864645002   -0.041205153926991   -5.969104872865944e-05
-0.0014845817750413592   -0.05453238318465583   -0.0007194020656785873
0.005863667594427657   -0.05435188885144753   -0.0004390897409133607
0.005980749610689559   -0.04103100095976735   -5.379657110835876e-05
-0.001550835859011986   -0.05437359847711645   -0.0007240972556564459
0.0058100360052616516   -0.054204743729777856   -0.0004773111379531353
0.005980749610689559   -0.04103100095976735   -5.379657110835876e-05
-0.0017986021399760967   -0.04098422542270853   -0.0003311369277544717
-0.001550835859011986   -0.05437359847711645   -0.0007240972556564459
-0.00190250976302934   -0.040840567805468006   -0.00029658081994751864
0.0058100360052616516   -0.054204743729777856   -0.0004773111379531353
-0.0016244499140090486   -0.054236701613962164   -0.0007205173453419746
-0.00190250976302934   -0.040840567805468006   -0.00029658081994751864
-0.001550835859011986   -0.05437359847711645   -0.0007240972556564459
0.0058100360052616516   -0.054204743729777856   -0.0004773111379531353
-0.00190250976302934   -0.040840567805468006   -0.00029658081994751864
0.005862303215608738   -0.0408751338172669   -3.258604667671139e-05
0.005980749610689559   -0.04103100095976735   -5.379657110835876e-05
0.0058100360052616516   -0.054204743729777856   -0.0004773111379531353
-0.00190250976302934   -0.040840567805468006   -0.00029658081994751864
0.005980749610689559   -0.04103100095976735   -5.379657110835876e-05
-0.001550835859011986   -0.05437359847711645   -0.0007240972556564459
0.0058100360052616516   -0.054204743729777856   -0.0004773111379531353
0.005862303215608738   -0.0408751338172669   -3.258604667671139e-05
-0.0016244499140090486   -0.054236701613962164   -0.0007205173453419746
0.005735271375524763   -0.05406909231365773   -0.0005031952298301504
0.005862303215608738   -0.0408751338172669   -3.258604667671139e-05
-0.00190250976302934   -0.040840567805468006   -0.00029658081994751864
-0.0016244499140090486   -0.054236701613962164   -0.0007205173453419746
-0.002019054858575602   -0.040703328056271554   -0.000252653120207114
0.005735271375524763   -0.05406909231365773   -0.0005031952298301504
-0.001715700501313106   -0.05411816485531809   -0.0007083361051313839
-0.002019054858575602   -0.040703328056271554   -0.000252653120207114
-0.0016244499140090486   -0.054236701613962164   -0.0007205173453419746
0.005735271375524763   -0.05406909231365773   -0.0005031952298301504
-0.002019054858575602   -0.040703328056271554   -0.000252653120207114
0.005706252983801108   -0.040711965889245395   3.2450309374385625e-06
0.005862303215608738   -0.0408751338172669   -3.258604667671139e-05
0.005735271375524763   -0.05406909231365773   -0.0005031952298301504
-0.002019054858575602   -0.040703328056271554   -0.000252653120207114
0.005862303215608738   -0.0408751338172669   -3.258604667671139e-05
-0.0016244499140090486   -0.054236701613962164   -0.0007205173453419746
-0.0014845817750413592   -0.05453238318465583   -0.0007194020656785873
-0.0017078138826386823   -0.04113625852856163   -0.00035820102853591717
-0.00851416794167919   -0.054465657265574445   -0.0009935877651740994
-0.001550835859011986   -0.05437359847711645   -0.0007240972556564459
-0.0017078138826386823   -0.04113625852856163   -0.00035820102853591717
-0.00908491189422892   -0.04105639897255923   -0.0006111817548716855
-0.00851416794167919   -0.054465657265574445   -0.0009935877651740994
-0.00917741458615571   -0.0409290860774298   -0.0005699982108449832
-0.001550835859011986   -0.05437359847711645   -0.0007240972556564459
-0.008588197455067273   -0.054333701770935876   -0.0009647667383905766
-0.00917741458615571   -0.0409290860774298   -0.0005699982108449832
-0.00851416794167919   -0.054465657265574445   -0.0009935877651740994
-0.001550835859011986   -0.05437359847711645   -0.0007240972556564459
-0.00917741458615571   -0.0409290860774298   -0.0005699982108449832
-0.0017986021399760967   -0.04098422542270853   -0.0003311369277544717
-0.0017078138826386823   -0.04113625852856163   -0.00035820102853591717
-0.001550835859011986   -0.05437359847711645   -0.0007240972556564459
-0.00917741458615571   -0.0409290860774298   -0.0005699982108449832
-0.0017078138826386823   -0.04113625852856163   -0.00035820102853591717
-0.00851416794167919   -0.054465657265574445   -0.0009935877651740994
-0.001550835859011986   -0.05437359847711645   -0.0007240972556564459
-0.0017986021399760967   -0.04098422542270853   -0.0003311369277544717
-0.008588197455067273   -0.054333701770935876   -0.0009647667383905766
-0.0016244499140090486   -0.054236701613962164   -0.0007205173453419746
-0.0017986021399760967   -0.04098422542270853   -0.0003311369277544717
-0.00917741458615571   -0.0409290860774298   -0.0005699982108449832
-0.008588197455067273   -0.054333701770935876   -0.0009647667383905766
-0.009271975072164481   -0.04080827807508614   -0.0005216814495784073
-0.0016244499140090486   -0.054236701613962164   -0.0007205173453419746
-0.008663708119138282   -0.0542195653767461   -0.0009273292191806578
-0.009271975072164481   -0.04080827807508614   -0.0005216814495784073
-0.008588197455067273   -0.054333701770935876   -0.0009647667383905766
-0.0016244499140090486   -0.054236701613962164   -0.0007205173453419746
-0.009271975072164481   -0.04080827807508614   -0.0005216814495784073
-0.00190250976302934   -0.040840567805468006   -0.00029658081994751864
-0.0017986021399760967   -0.04098422542270853   -0.0003311369277544717
-0.0016244499140090486   -0.054236701613962164   -0.0007205173453419746
-0.009271975072164481   -0.04080827807508614   -0.0005216814495784073
-0.0017986021399760967   -0.04098422542270853   -0.0003311369277544717
-0.008588197455067273   -0.054333701770935876   -0.0009647667383905766
-0.0016244499140090486   -0.054236701613962164   -0.0007205173453419746
-0.00190250976302934   -0.040840567805468006   -0.00029658081994751864
-0.008663708119138282   -0.0542195653767461   -0.0009273292191806578
-0.001715700501313106   -0.05411816485531809   -0.0007083361051313839
-0.00190250976302934   -0.040840567805468006   -0.00029658081994751864
-0.009271975072164481   -0.04080827807508614   -0.0005216814495784073
-0.008663708119138282   -0.0542195653767461   -0.0009273292191806578
-0.009372527531560792   -0.04069582567279557   -0.0004661493337519711
-0.001715700501313106   -0.05411816485531809   -0.0007083361051313839
-0.00874558487355802   -0.0541243158882853   -0.0008816754137493124
-0.009372527531560792   -0.04069582567279557   -0.0004661493337519711
-0.008663708119138282   -0.0542195653767461   -0.0009273292191806578
-0.001715700501313106   -0.05411816485531809   -0.0007083361051313839
-0.009372527531560792   -0.04069582567279557   -0.0004661493337519711
-0.002019054858575602   -0.040703328056271554   -0.000252653120207114
-0.00190250976302934   -0.040840567805468006   -0.00029658081994751864
-0.001715700501313106   -0.05411816485531809   -0.0007083361051313839
-0.009372527531560792   -0.04069582567279557   -0.0004661493337519711
-0.00190250976302934   -0.040840567805468006   -0.00029658081994751864
-0.008663708119138282   -0.0542195653767461   -0.0009273292191806578
-0.00851416794167919   -0.054465657265574445   -0.0009935877651740994
-0.00908491189422892   -0.04105639897255923   -0.0006111817548716855
-0.015424876839433875   -0.05434144929210694   -0.0012250966274957166
-0.008588197455067273   -0.054333701770935876   -0.0009647667383905766
-0.00908491189422892   -0.04105639897255923   -0.0006111817548716855
-0.01634222627161474   -0.04096083359261368   -0.0008262344595340408
-0.015424876839433875   -0.05434144929210694   -0.0012250966274957166
-0.016434015732627864   -0.04085645308510104   -0.0007709241206056039
-0.008588197455067273   -0.054333701770935876   -0.0009647667383905766
-0.01550105099968677   -0.0542342516972096   -0.001162808519956504
-0.016434015732627864   -0.04085645308510104   -0.0007709241206056039
-0.015424876839433875   -0.05434144929210694   -0.0012250966274957166
-0.008588197455067273   -0.054333701770935876   -0.0009647667383905766
-0.016434015732627864   -0.04085645308510104   -0.0007709241206056039
-0.00917741458615571   -0.0409290860774298   -0.0005699982108449832
-0.00908491189422892   -0.04105639897255923   -0.0006111817548716855
-0.008588197455067273   -0.054333701770935876   -0.0009647667383905766
-0.016434015732627864   -0.04085645308510104   -0.0007709241206056039
-0.00908491189422892   -0.04105639897255923   -0.0006111817548716855
-0.015424876839433875   -0.05434144929210694   -0.0012250966274957166
-0.008588197455067273   -0.054333701770935876   -0.0009647667383905766
-0.00917741458615571   -0.0409290860774298   -0.0005699982108449832
-0.01550105099968677   -0.0542342516972096   -0.001162808519956504
-0.008663708119138282   -0.0542195653767461   -0.0009273292191806578
-0.00917741458615571   -0.0409290860774298   -0.0005699982108449832
-0.016434015732627864   -0.04085645308510104   -0.0007709241206056039
-0.01550105099968677   -0.0542342516972096   -0.001162808519956504
-0.016519878871296526   -0.0407589548841853   -0.0007087247669113594
-0.008663708119138282   -0.0542195653767461   -0.0009273292191806578
-0.015570173776446329   -0.05414474711997088   -0.0010921035155802067
-0.016519878871296526   -0.0407589548841853   -0.0007087247669113594
-0.01550105099968677   -0.0542342516972096   -0.001162808519956504
-0.008663708119138282   -0.0542195653767461   -0.0009273292191806578
-0.016519878871296526   -0.0407589548841853   -0.0007087247669113594
-0.009271975072164481   -0.04080827807508614   -0.0005216814495784073
-0.00917741458615571   -0.0409290860774298   -0.0005699982108449832
-0.008663708119138282   -0.0542195653767461   -0.0009273292191806578
-0.016519878871296526   -0.0407589548841853   -0.0007087247669113594
-0.00917741458615571   -0.0409290860774298   -0.0005699982108449832
-0.01550105099968677   -0.0542342516972096   -0.001162808519956504
-0.008663708119138282   -0.0542195653767461   -0.0009273292191806578
-0.009271975072164481   -0.04080827807508614   -0.0005216814495784073
-0.015570173776446329   -0.05414474711997088   -0.0010921035155802067
-0.00874558487355802   -0.0541243158882853   -0.0008816754137493124
-0.009271975072164481   -0.04080827807508614   -0.0005216814495784073
-0.016519878871296526   -0.0407589548841853   -0.0007087247669113594
-0.015570173776446329   -0.05414474711997088   -0.0010921035155802067
-0.016606048730082337   -0.04066861225037836   -0.0006399791226530116
-0.00874558487355802   -0.0541243158882853   -0.0008816754137493124
-0.01563994939230677   -0.054073089450317226   -0.0010133040076377396
-0.016606048730082337   -0.04066861225037836   -0.0006399791226530116
-0.015570173776446329   -0.05414474711997088   -0.0010921035155802067
-0.00874558487355802   -0.0541243158882853   -0.0008816754137493124
-0.016606048730082337   -0.04066861225037836   -0.0006399791226530116
-0.009372527531560792   -0.04069582567279557   -0.0004661493337519711
-0.009271975072164481   -0.04080827807508614   -0.0005216814495784073
-0.00874558487355802   -0.0541243158882853   -0.0008816754137493124
-0.016606048730082337   -0.04066861225037836   -0.0006399791226530116
-0.009271975072164481   -0.04080827807508614   -0.0005216814495784073
-0.015570173776446329   -0.05414474711997088   -0.0010921035155802067
-0.015424876839433875   -0.05434144929210694   -0.0012250966274957166
-0.01634222627161474   -0.04096083359261368   -0.0008262344595340408
-0.022472373747556167   -0.05415711106206311   -0.0014144256942358751
-0.01550105099968677   -0.0542342516972096   -0.001162808519956504
-0.01634222627161474   -0.04096083359261368   -0.0008262344595340408
-0.023730488165974103   -0.040831769475312585   -0.0010015245535214218
-0.022472373747556167   -0.05415711106206311   -0.0014144256942358751
-0.02381840469778027   -0.040751518722673304   -0.0009322544237023577
-0.01550105099968677   -0.0542342516972096   -0.001162808519956504
-0.022543139170793206   -0.05407489247930775   -0.0013184167022921446
-0.02381840469778027   -0.040751518722673304   -0.0009322544237023577
-0.022472373747556167   -0.05415711106206311   -0.0014144256942358751
-0.01550105099968677   -0.0542342516972096   -0.001162808519956504
-0.02381840469778027   -0.040751518722673304   -0.0009322544237023577
-0.016434015732627864   -0.04085645308510104   -0.0007709241206056039
-0.01634222627161474   -0.04096083359261368   -0.0008262344595340408
-0.01550105099968677   -0.0542342516972096   -0.001162808519956504
-0.02381840469778027   -0.040751518722673304   -0.0009322544237023577
-0.01634222627161474   -0.04096083359261368   -0.0008262344595340408
-0.022472373747556167   -0.05415711106206311   -0.0014144256942358751
-0.01550105099968677   -0.0542342516972096   -0.001162808519956504
-0.016434015732627864   -0.04085645308510104   -0.0007709241206056039
-0.022543139170793206   -0.05407489247930775   -0.0013184167022921446
-0.015570173776446329   -0.05414474711997088   -0.0010921035155802067
-0.016434015732627864   -0.04085645308510104   -0.0007709241206056039
-0.02381840469778027   -0.040751518722673304   -0.0009322544237023577
-0.022543139170793206   -0.05407489247930775   -0.0013184167022921446
-0.023885155494169998   -0.040675474400087855   -0.0008572392588807355
-0.015570173776446329   -0.05414474711997088   -0.0010921035155802067
-0.022586148745846153   -0.05400808148089043   -0.0012151298465536912
-0.023885155494169998   -0.040675474400087855   -0.0008572392588807355
-0.022543139170793206   -0.05407489247930775   -0.0013184167022921446
-0.015570173776446329   -0.05414474711997088   -0.0010921035155802067
-0.023885155494169998   -0.040675474400087855   -0.0008572392588807355
-0.016519878871296526   -0.0407589548841853   -0.0007087247669113594
-0.016434015732627864   -0.04085645308510104   -0.0007709241206056039
-0.015570173776446329   -0.05414474711997088   -0.0010921035155802067
-0.023885155494169998   -0.040675474400087855   -0.0008572392588807355
-0.016434015732627864   -0.04085645308510104   -0.0007709241206056039
-0.022543139170793206   -0.05407489247930775   -0.0013184167022921446
-0.015570173776446329   -0.05414474711997088   -0.0010921035155802067
-0.016519878871296526   -0.0407589548841853   -0.0007087247669113594
-0.022586148745846153   -0.05400808148089043   -0.0012151298465536912
-0.01563994939230677   -0.054073089450317226   -0.0010133040076377396
-0.016519878871296526   -0.0407589548841853   -0.0007087247669113594
-0.023885155494169998   -0.040675474400087855   -0.0008572392588807355
-0.022586148745846153   -0.05400808148089043   -0.0012151298465536912
-0.023951362488145958   -0.040606973297008214   -0.00077497397077943
-0.01563994939230677   -0.054073089450317226   -0.0010133040076377396
-0.02263331395558332   -0.05396065808646644   -0.0011030587670568088
-0.023951362488145958   -0.040606973297008214   -0.00077497397077943
-0.022586148745846153   -0.05400808148089043   -0.0012151298465536912
-0.01563994939230677   -0.054073089450317226   -0.0010133040076377396
-0.023951362488145958   -0.040606973297008214   -0.00077497397077943
-0.016606048730082337   -0.04066861225037836   -0.0006399791226530116
-0.016519878871296526   -0.0407589548841853   -0.0007087247669113594
-0.01563994939230677   -0.054073089450317226   -0.0010133040076377396
-0.023951362488145958   -0.040606973297008214   -0.00077497397077943
-0.016519878871296526   -0.0407589548841853   -0.0007087247669113594
-0.022586148745846153   -0.05400808148089043   -0.0012151298465536912
-0.022472373747556167   -0.05415711106206311   -0.0014144256942358751
-0.023730488165974103   -0.040831769475312585   -0.0010015245535214218
-0.030035441921427108   -0.05393059063645412   -0.001565084609790628
-0.022543139170793206   -0.05407489247930775   -0.0013184167022921446
-0.023730488165974103   -0.040831769475312585   -0.0010015245535214218
-0.0315600382905362   -0.04067951137223745   -0.0011318645687889823
-0.030035441921427108   -0.05393059063645412   -0.001565084609790628
-0.03157405816413994   -0.04061532067168249   -0.0010555195458549992
-0.022543139170793206   -0.05407489247930775   -0.0013184167022921446
-0.02998424795522585   -0.05386120472925535   -0.0014373364114555129
-0.03157405816413994   -0.04061532067168249   -0.0010555195458549992
-0.030035441921427108   -0.05393059063645412   -0.001565084609790628
-0.022543139170793206   -0.05407489247930775   -0.0013184167022921446
-0.03157405816413994   -0.04061532067168249   -0.0010555195458549992
-0.02381840469778027   -0.040751518722673304   -0.0009322544237023577
-0.023730488165974103   -0.040831769475312585   -0.0010015245535214218
-0.022543139170793206   -0.05407489247930775   -0.0013184167022921446
-0.03157405816413994   -0.04061532067168249   -0.0010555195458549992
-0.023730488165974103   -0.040831769475312585   -0.0010015245535214218
-0.030035441921427108   -0.05393059063645412   -0.001565084609790628
-0.022543139170793206   -0.05407489247930775   -0.0013184167022921446
-0.02381840469778027   -0.040751518722673304   -0.0009322544237023577
-0.02998424795522585   -0.05386120472925535   -0.0014373364114555129
-0.022586148745846153   -0.05400808148089043   -0.0012151298465536912
-0.02381840469778027   -0.040751518722673304   -0.0009322544237023577
-0.03157405816413994   -0.04061532067168249   -0.0010555195458549992
-0.02998424795522585   -0.05386120472925535   -0.0014373364114555129
-0.031588369171729316   -0.040550292958318454   -0.0009675992118643495
-0.022586148745846153   -0.05400808148089043   -0.0012151298465536912
-0.02994254046121695   -0.053805081440054164   -0.0012962342947153548
-0.031588369171729316   -0.040550292958318454   -0.0009675992118643495
-0.02998424795522585   -0.05386120472925535   -0.0014373364114555129
-0.022586148745846153   -0.05400808148089043   -0.0012151298465536912
-0.031588369171729316   -0.040550292958318454   -0.0009675992118643495
-0.023885155494169998   -0.040675474400087855   -0.0008572392588807355
-0.02381840469778027   -0.040751518722673304   -0.0009322544237023577
-0.022586148745846153   -0.05400808148089043   -0.0012151298465536912
-0.031588369171729316   -0.040550292958318454   -0.0009675992118643495
-0.02381840469778027   -0.040751518722673304   -0.0009322544237023577
-0.02998424795522585   -0.05386120472925535   -0.0014373364114555129
-0.022586148745846153   -0.05400808148089043   -0.0012151298465536912
-0.023885155494169998   -0.040675474400087855   -0.0008572392588807355
-0.02994254046121695   -0.053805081440054164   -0.0012962342947153548
-0.02263331395558332   -0.05396065808646644   -0.0011030587670568088
-0.023885155494169998   -0.040675474400087855   -0.0008572392588807355
-0.031588369171729316   -0.040550292958318454   -0.0009675992118643495
-0.02994254046121695   -0.053805081440054164   -0.0012962342947153548
-0.03155881139011894   -0.04050702514983819   -0.0008694814386255264
-0.02263331395558332   -0.05396065808646644   -0.0011030587670568088
-0.029841586843031686   -0.05378667171304614   -0.0011433024191321267
-0.03155881139011894   -0.04050702514983819   -0.0008694814386255264
-0.02994254046121695   -0.053805081440054164   -0.0012962342947153548
-0.02263331395558332   -0.05396065808646644   -0.0011030587670568088
-0.03155881139011894   -0.04050702514983819   -0.0008694814386255264
-0.023951362488145958   -0.040606973297008214   -0.00077497397077943
-0.023885155494169998   -0.040675474400087855   -0.0008572392588807355
-0.02263331395558332   -0.05396065808646644   -0.0011030587670568088
-0.03155881139011894   -0.04050702514983819   -0.0008694814386255264
-0.023885155494169998   -0.040675474400087855   -0.0008572392588807355
-0.02994254046121695   -0.053805081440054164   -0.0012962342947153548
0.006077506864645002   -0.041205153926991   -5.969104872865944e-05
0.005443432770397227   -0.027485567277256408   0.00016657689135565263
-0.0017078138826386823   -0.04113625852856163   -0.00035820102853591717
0.005980749610689559   -0.04103100095976735   -5.379657110835876e-05
0.005443432770397227   -0.027485567277256408   0.00016657689135565263
-0.0023968935458060546   -0.027355912845774155   -7.10343646594237e-05
-0.0017078138826386823   -0.04113625852856163   -0.00035820102853591717
-0.0025051855650477886   -0.02721817577654813   -1.4793944747227813e-05
0.005980749610689559   -0.04103100095976735   -5.379657110835876e-05
-0.0017986021399760967   -0.04098422542270853   -0.0003311369277544717
-0.0025051855650477886   -0.02721817577654813   -1.4793944747227813e-05
-0.0017078138826386823   -0.04113625852856163   -0.00035820102853591717
0.005980749610689559   -0.04103100095976735   -5.379657110835876e-05
-0.0025051855650477886   -0.02721817577654813   -1.4793944747227813e-05
0.005272583426016345   -0.02731956499941106   0.00023681831909878523
0.005443432770397227   -0.027485567277256408   0.00016657689135565263
0.005980749610689559   -0.04103100095976735   -5.379657110835876e-05
-0.0025051855650477886   -0.02721817577654813   -1.4793944747227813e-05
0.005443432770397227   -0.027485567277256408   0.00016657689135565263
-0.0017078138826386823   -0.04113625852856163   -0.00035820102853591717
0.005980749610689559   -0.04103100095976735   -5.379657110835876e-05
0.005272583426016345   -0.02731956499941106   0.00023681831909878523
-0.0017986021399760967   -0.04098422542270853   -0.0003311369277544717
0.005862303215608738   -0.0408751338172669   -3.258604667671139e-05
0.005272583426016345   -0.02731956499941106   0.00023681831909878523
-0.0025051855650477886   -0.02721817577654813   -1.4793944747227813e-05
-0.0017986021399760967   -0.04098422542270853   -0.0003311369277544717
-0.002631819714790902   -0.027072744559132098   5.141390497221033e-05
0.005862303215608738   -0.0408751338172669   -3.258604667671139e-05
-0.00190250976302934   -0.040840567805468006   -0.00029658081994751864
-0.002631819714790902   -0.027072744559132098   5.141390497221033e-05
-0.0017986021399760967   -0.04098422542270853   -0.0003311369277544717
0.005862303215608738   -0.0408751338172669   -3.258604667671139e-05
-0.002631819714790902   -0.027072744559132098   5.141390497221033e-05
0.005082125966073562   -0.02715455687576477   0.0003374891884941279
0.005272583426016345   -0.02731956499941106   0.00023681831909878523
0.005862303215608738   -0.0408751338172669   -3.258604667671139e-05
-0.002631819714790902   -0.027072744559132098   5.141390497221033e-05
0.005272583426016345   -0.02731956499941106   0.00023681831909878523
-0.0017986021399760967   -0.04098422542270853   -0.0003311369277544717
0.005862303215608738   -0.0408751338172669   -3.258604667671139e-05
0.005082125966073562   -0.02715455687576477   0.0003374891884941279
-0.00190250976302934   -0.040840567805468006   -0.00029658081994751864
0.005706252983801108   -0.040711965889245395   3.2450309374385625e-06
0.005082125966073562   -0.02715455687576477   0.0003374891884941279
-0.002631819714790902   -0.027072744559132098   5.141390497221033e-05
-0.00190250976302934   -0.040840567805468006   -0.00029658081994751864
-0.0027627503184021415   -0.026918271861979554   0.0001274483744023978
0.005706252983801108   -0.040711965889245395   3.2450309374385625e-06
-0.002019054858575602   -0.040703328056271554   -0.000252653120207114
-0.0027627503184021415   -0.026918271861979554   0.0001274483744023978
-0.00190250976302934   -0.040840567805468006   -0.00029658081994751864
0.005706252983801108   -0.040711965889245395   3.2450309374385625e-06
-0.0027627503184021415   -0.026918271861979554   0.0001274483744023978
0.004849435600313004   -0.02695191239756237   0.0004482261105774997
0.005082125966073562   -0.02715455687576477   0.0003374891884941279
0.005706252983801108   -0.040711965889245395   3.2450309374385625e-06
-0.0027627503184021415   -0.026918271861979554   0.0001274483744023978
0.005082125966073562   -0.02715455687576477   0.0003374891884941279
-0.00190250976302934   -0.040840567805468006   -0.00029658081994751864
-0.0017078138826386823   -0.04113625852856163   -0.00035820102853591717
-0.0023968935458060546   -0.027355912845774155   -7.10343646594237e-05
-0.00908491189422892   -0.04105639897255923   -0.0006111817548716855
-0.0017986021399760967   -0.04098422542270853   -0.0003311369277544717
-0.0023968935458060546   -0.027355912845774155   -7.10343646594237e-05
-0.009780735211949504   -0.027322377197010833   -0.0003002333620626672
-0.00908491189422892   -0.04105639897255923   -0.0006111817548716855
-0.009878531377599755   -0.02720203195936072   -0.00024802365272474935
-0.0017986021399760967   -0.04098422542270853   -0.0003311369277544717
-0.00917741458615571   -0.0409290860774298   -0.0005699982108449832
-0.009878531377599755   -0.02720203195936072   -0.00024802365272474935
-0.00908491189422892   -0.04105639897255923   -0.0006111817548716855
-0.0017986021399760967   -0.04098422542270853   -0.0003311369277544717
-0.009878531377599755   -0.02720203195936072   -0.00024802365272474935
-0.0025051855650477886   -0.02721817577654813   -1.4793944747227813e-05
-0.0023968935458060546   -0.027355912845774155   -7.10343646594237e-05
-0.0017986021399760967   -0.04098422542270853   -0.0003311369277544717
-0.009878531377599755   -0.02720203195936072   -0.00024802365272474935
-0.0023968935458060546   -0.027355912845774155   -7.10343646594237e-05
-0.00908491189422892   -0.04105639897255923   -0.0006111817548716855
-0.0017986021399760967   -0.04098422542270853   -0.0003311369277544717
-0.0025051855650477886   -0.02721817577654813   -1.4793944747227813e-05
-0.00917741458615571   -0.0409290860774298   -0.0005699982108449832
-0.00190250976302934   -0.040840567805468006   -0.00029658081994751864
-0.0025051855650477886   -0.02721817577654813   -1.4793944747227813e-05
-0.009878531377599755   -0.02720203195936072   -0.00024802365272474935
-0.00917741458615571   -0.0409290860774298   -0.0005699982108449832
-0.009979673556935674   -0.027076826258591247   -0.00019065693603162508
-0.00190250976302934   -0.040840567805468006   -0.00029658081994751864
-0.009271975072164481   -0.04080827807508614   -0.0005216814495784073
-0.009979673556935674   -0.027076826258591247   -0.00019065693603162508
-0.00917741458615571   -0.0409290860774298   -0.0005699982108449832
-0.00190250976302934   -0.040840567805468006   -0.00029658081994751864
-0.009979673556935674   -0.027076826258591247   -0.00019065693603162508
-0.002631819714790902   -0.027072744559132098   5.141390497221033e-05
-0.0025051855650477886   -0.02721817577654813   -1.4793944747227813e-05
-0.00190250976302934   -0.040840567805468006   -0.00029658081994751864
-0.009979673556935674   -0.027076826258591247   -0.00019065693603162508
-0.0025051855650477886   -0.02721817577654813   -1.4793944747227813e-05
-0.00917741458615571   -0.0409290860774298   -0.0005699982108449832
-0.00190250976302934   -0.040840567805468006   -0.00029658081994751864
-0.002631819714790902   -0.027072744559132098   5.141390497221033e-05
-0.009271975072164481   -0.04080827807508614   -0.0005216814495784073
-0.002019054858575602   -0.040703328056271554   -0.000252653120207114
-0.002631819714790902   -0.027072744559132098   5.141390497221033e-05
-0.009979673556935674   -0.027076826258591247   -0.00019065693603162508
-0.009271975072164481   -0.04080827807508614   -0.0005216814495784073
-0.010084947482241563   -0.026948967552378862   -0.0001270973568555498
-0.002019054858575602   -0.040703328056271554   -0.000252653120207114
-0.009372527531560792   -0.04069582567279557   -0.0004661493337519711
-0.010084947482241563   -0.026948967552378862   -0.0001270973568555498
-0.009271975072164481   -0.04080827807508614   -0.0005216814495784073
-0.002019054858575602   -0.040703328056271554   -0.000252653120207114
-0.010084947482241563   -0.026948967552378862   -0.0001270973568555498
-0.0027627503184021415   -0.026918271861979554   0.0001274483744023978
-0.002631819714790902   -0.027072744559132098   5.141390497221033e-05
-0.002019054858575602   -0.040703328056271554   -0.000252653120207114
-0.010084947482241563   -0.026948967552378862   -0.0001270973568555498
-0.002631819714790902   -0.027072744559132098   5.141390497221033e-05
-0.009271975072164481   -0.04080827807508614   -0.0005216814495784073
-0.00908491189422892   -0.04105639897255923   -0.0006111817548716855
-0.009780735211949504   -0.027322377197010833   -0.0003002333620626672
-0.01634222627161474   -0.04096083359261368   -0.0008262344595340408
-0.00917741458615571   -0.0409290860774298   -0.0005699982108449832
-0.009780735211949504   -0.027322377197010833   -0.0003002333620626672
-0.01708942946187338   -0.027313081111452666   -0.000507510692791884
-0.01634222627161474   -0.04096083359261368   -0.0008262344595340408
-0.01718287740692528   -0.02720746304738083   -0.0004578045082052122
-0.00917741458615571   -0.0409290860774298   -0.0005699982108449832
-0.016434015732627864   -0.04085645308510104   -0.0007709241206056039
-0.01718287740692528   -0.02720746304738083   -0.0004578045082052122
-0.01634222627161474   -0.04096083359261368   -0.0008262344595340408
-0.00917741458615571   -0.0409290860774298   -0.0005699982108449832
-0.01718287740692528   -0.02720746304738083   -0.0004578045082052122
-0.009878531377599755   -0.02720203195936072   -0.00024802365272474935
-0.009780735211949504   -0.027322377197010833   -0.0003002333620626672
-0.00917741458615571   -0.0409290860774298   -0.0005699982108449832
-0.01718287740692528   -0.02720746304738083   -0.0004578045082052122
-0.009780735211949504   -0.027322377197010833   -0.0003002333620626672
-0.01634222627161474   -0.04096083359261368   -0.0008262344595340408
-0.00917741458615571   -0.0409290860774298   -0.0005699982108449832
-0.009878531377599755   -0.02720203195936072   -0.00024802365272474935
-0.016434015732627864   -0.04085645308510104   -0.0007709241206056039
-0.009271975072164481   -0.04080827807508614   -0.0005216814495784073
-0.009878531377599755   -0.02720203195936072   -0.00024802365272474935
-0.01718287740692528   -0.02720746304738083   -0.0004578045082052122
-0.016434015732627864   -0.04085645308510104   -0.0007709241206056039
-0.017271893828312703   -0.02709989541082562   -0.0004035927871851981
-0.009271975072164481   -0.04080827807508614   -0.0005216814495784073
-0.016519878871296526   -0.0407589548841853   -0.0007087247669113594
-0.017271893828312703   -0.02709989541082562   -0.0004035927871851981
-0.016434015732627864   -0.04085645308510104   -0.0007709241206056039
-0.009271975072164481   -0.04080827807508614   -0.0005216814495784073
-0.017271893828312703   -0.02709989541082562   -0.0004035927871851981
-0.009979673556935674   -0.027076826258591247   -0.00019065693603162508
-0.009878531377599755   -0.02720203195936072   -0.00024802365272474935
-0.009271975072164481   -0.04080827807508614   -0.0005216814495784073
-0.017271893828312703   -0.02709989541082562   -0.0004035927871851981
-0.009878531377599755   -0.02720203195936072   -0.00024802365272474935
-0.016434015732627864   -0.04085645308510104   -0.0007709241206056039
-0.009271975072164481   -0.04080827807508614   -0.0005216814495784073
-0.009979673556935674   -0.027076826258591247   -0.00019065693603162508
-0.016519878871296526   -0.0407589548841853   -0.0007087247669113594
-0.009372527531560792   -0.04069582567279557   -0.0004661493337519711
-0.009979673556935674   -0.027076826258591247   -0.00019065693603162508
-0.017271893828312703   -0.02709989541082562   -0.0004035927871851981
-0.016519878871296526   -0.0407589548841853   -0.0007087247669113594
-0.017360012234750612   -0.026989770761945878   -0.00034513459089500836
-0.009372527531560792   -0.04069582567279557   -0.0004661493337519711
-0.016606048730082337   -0.04066861225037836   -0.0006399791226530116
-0.017360012234750612   -0.026989770761945878   -0.00034513459089500836
-0.016519878871296526   -0.0407589548841853   -0.0007087247669113594
-0.009372527531560792   -0.04069582567279557   -0.0004661493337519711
-0.017360012234750612   -0.026989770761945878   -0.00034513459089500836
-0.010084947482241563   -0.026948967552378862   -0.0001270973568555498
-0.009979673556935674   -0.027076826258591247   -0.00019065693603162508
-0.009372527531560792   -0.04069582567279557   -0.0004661493337519711
-0.017360012234750612   -0.026989770761945878   -0.00034513459089500836
-0.009979673556935674   -0.027076826258591247   -0.00019065693603162508
-0.016519878871296526   -0.0407589548841853   -0.0007087247669113594
-0.01634222627161474   -0.04096083359261368   -0.0008262344595340408
-0.01708942946187338   -0.027313081111452666   -0.000507510692791884
-0.023730488165974103   -0.040831769475312585   -0.0010015245535214218
-0.016434015732627864   -0.04085645308510104   -0.0007709241206056039
-0.01708942946187338   -0.027313081111452666   -0.000507510692791884
-0.024552866321896172   -0.027270761256419578   -0.0006818264272234961
-0.023730488165974103   -0.040831769475312585   -0.0010015245535214218
-0.02464195389663128   -0.027184533518679346   -0.0006348618370242987
-0.016434015732627864   -0.04085645308510104   -0.0007709241206056039
-0.02381840469778027   -0.040751518722673304   -0.0009322544237023577
-0.02464195389663128   -0.027184533518679346   -0.0006348618370242987
-0.023730488165974103   -0.040831769475312585   -0.0010015245535214218
-0.016434015732627864   -0.04085645308510104   -0.0007709241206056039
-0.02464195389663128   -0.027184533518679346   -0.0006348618370242987
-0.01718287740692528   -0.02720746304738083   -0.0004578045082052122
-0.01708942946187338   -0.027313081111452666   -0.000507510692791884
-0.016434015732627864   -0.04085645308510104   -0.0007709241206056039
-0.02464195389663128   -0.027184533518679346   -0.0006348618370242987
-0.01708942946187338   -0.027313081111452666   -0.000507510692791884
-0.023730488165974103   -0.040831769475312585   -0.0010015245535214218
-0.016434015732627864   -0.04085645308510104   -0.0007709241206056039
-0.01718287740692528   -0.02720746304738083   -0.0004578045082052122
-0.02381840469778027   -0.040751518722673304   -0.0009322544237023577
-0.016519878871296526   -0.0407589548841853   -0.0007087247669113594
-0.01718287740692528   -0.02720746304738083   -0.0004578045082052122
-0.02464195389663128   -0.027184533518679346   -0.0006348618370242987
-0.02381840469778027   -0.040751518722673304   -0.0009322544237023577
-0.02471748909108054   -0.02709356228016356   -0.0005847092324897104
-0.016519878871296526   -0.0407589548841853   -0.0007087247669113594
-0.023885155494169998   -0.040675474400087855   -0.0008572392588807355
-0.02471748909108054   -0.02709356228016356   -0.0005847092324897104
-0.02381840469778027   -0.040751518722673304   -0.0009322544237023577
-0.016519878871296526   -0.0407589548841853   -0.0007087247669113594
-0.02471748909108054   -0.02709356228016356   -0.0005847092324897104
-0.017271893828312703   -0.02709989541082562   -0.0004035927871851981
-0.01718287740692528   -0.02720746304738083   -0.0004578045082052122
-0.016519878871296526   -0.0407589548841853   -0.0007087247669113594
-0.02471748909108054   -0.02709356228016356   -0.0005847092324897104
-0.01718287740692528   -0.02720746304738083   -0.0004578045082052122
-0.02381840469778027   -0.040751518722673304   -0.0009322544237023577
-0.016519878871296526   -0.0407589548841853   -0.0007087247669113594
-0.017271893828312703   -0.02709989541082562   -0.0004035927871851981
-0.023885155494169998   -0.040675474400087855   -0.0008572392588807355
-0.016606048730082337   -0.04066861225037836   -0.0006399791226530116
-0.017271893828312703   -0.02709989541082562   -0.0004035927871851981
-0.02471748909108054   -0.02709356228016356   -0.0005847092324897104
-0.023885155494169998   -0.040675474400087855   -0.0008572392588807355
-0.024788883874194968   -0.02700016316633809   -0.0005299691317721011
-0.016606048730082337   -0.04066861225037836   -0.0006399791226530116
-0.023951362488145958   -0.040606973297008214   -0.00077497397077943
-0.024788883874194968   -0.02700016316633809   -0.0005299691317721011
-0.023885155494169998   -0.040675474400087855   -0.0008572392588807355
-0.016606048730082337   -0.04066861225037836   -0.0006399791226530116
-0.024788883874194968   -0.02700016316633809   -0.0005299691317721011
-0.017360012234750612   -0.026989770761945878   -0.00034513459089500836
-0.017271893828312703   -0.02709989541082562   -0.0004035927871851981
-0.016606048730082337   -0.04066861225037836   -0.0006399791226530116
-0.024788883874194968   -0.02700016316633809   -0.0005299691317721011
-0.017271893828312703   -0.02709989541082562   -0.0004035927871851981
-0.023885155494169998   -0.040675474400087855   -0.0008572392588807355
-0.023730488165974103   -0.040831769475312585   -0.0010015245535214218
-0.024552866321896172   -0.027270761256419578   -0.0006818264272234961
-0.0315600382905362   -0.04067951137223745   -0.0011318645687889823
-0.02381840469778027   -0.040751518722673304   -0.0009322544237023577
-0.024552866321896172   -0.027270761256419578   -0.0006818264272234961
-0.03236972165089568   -0.02720118838032396   -0.0008111310288564252
-0.0315600382905362   -0.04067951137223745   -0.0011318645687889823
-0.032425364694722264   -0.027128660608864926   -0.0007760693042451974
-0.02381840469778027   -0.040751518722673304   -0.0009322544237023577
-0.03157405816413994   -0.04061532067168249   -0.0010555195458549992
-0.032425364694722264   -0.027128660608864926   -0.0007760693042451974
-0.0315600382905362   -0.04067951137223745   -0.0011318645687889823
-0.02381840469778027   -0.040751518722673304   -0.0009322544237023577
-0.032425364694722264   -0.027128660608864926   -0.0007760693042451974
-0.02464195389663128   -0.027184533518679346   -0.0006348618370242987
-0.024552866321896172   -0.027270761256419578   -0.0006818264272234961
-0.02381840469778027   -0.040751518722673304   -0.0009322544237023577
-0.032425364694722264   -0.027128660608864926   -0.0007760693042451974
-0.024552866321896172   -0.027270761256419578   -0.0006818264272234961
-0.0315600382905362   -0.04067951137223745   -0.0011318645687889823
-0.02381840469778027   -0.040751518722673304   -0.0009322544237023577
-0.02464195389663128   -0.027184533518679346   -0.0006348618370242987
-0.03157405816413994   -0.04061532067168249   -0.0010555195458549992
-0.023885155494169998   -0.040675474400087855   -0.0008572392588807355
-0.02464195389663128   -0.027184533518679346   -0.0006348618370242987
-0.032425364694722264   -0.027128660608864926   -0.0007760693042451974
-0.03157405816413994   -0.04061532067168249   -0.0010555195458549992
-0.032476243664639824   -0.027046653118625853   -0.0007331633926973757
-0.023885155494169998   -0.040675474400087855   -0.0008572392588807355
-0.031588369171729316   -0.040550292958318454   -0.0009675992118643495
-0.032476243664639824   -0.027046653118625853   -0.0007331633926973757
-0.03157405816413994   -0.04061532067168249   -0.0010555195458549992
-0.023885155494169998   -0.040675474400087855   -0.0008572392588807355
-0.032476243664639824   -0.027046653118625853   -0.0007331633926973757
-0.02471748909108054   -0.02709356228016356   -0.0005847092324897104
-0.02464195389663128   -0.027184533518679346   -0.0006348618370242987
-0.023885155494169998   -0.040675474400087855   -0.0008572392588807355
-0.032476243664639824   -0.027046653118625853   -0.0007331633926973757
-0.02464195389663128   -0.027184533518679346   -0.0006348618370242987
-0.03157405816413994   -0.04061532067168249   -0.0010555195458549992
-0.023885155494169998   -0.040675474400087855   -0.0008572392588807355
-0.02471748909108054   -0.02709356228016356   -0.0005847092324897104
-0.031588369171729316   -0.040550292958318454   -0.0009675992118643495
-0.023951362488145958   -0.040606973297008214   -0.00077497397077943
-0.02471748909108054   -0.02709356228016356   -0.0005847092324897104
-0.032476243664639824   -0.027046653118625853   -0.0007331633926973757
-0.031588369171729316   -0.040550292958318454   -0.0009675992118643495
-0.03250120997621085   -0.02697121688845734   -0.0006843872898024682
-0.023951362488145958   -0.040606973297008214   -0.00077497397077943
-0.03155881139011894   -0.04050702514983819   -0.0008694814386255264
-0.03250120997621085   -0.02697121688845734   -0.0006843872898024682
-0.031588369171729316   -0.040550292958318454   -0.0009675992118643495
-0.023951362488145958   -0.040606973297008214   -0.00077497397077943
-0.03250120997621085   -0.02697121688845734   -0.0006843872898024682
-0.024788883874194968   -0.02700016316633809   -0.0005299691317721011
-0.02471748909108054   -0.02709356228016356   -0.0005847092324897104
-0.023951362488145958   -0.040606973297008214   -0.00077497397077943
-0.03250120997621085   -0.02697121688845734   -0.0006843872898024682
-0.02471748909108054   -0.02709356228016356   -0.0005847092324897104
-0.031588369171729316   -0.040550292958318454   -0.0009675992118643495
0.005443432770397227   -0.027485567277256408   0.00016657689135565263
0.0038111202127244404   -0.013797603758862778   0.0001786454301387577
-0.0023968935458060546   -0.027355912845774155   -7.10343646594237e-05
0.005272583426016345   -0.02731956499941106   0.00023681831909878523
0.0038111202127244404   -0.013797603758862778   0.0001786454301387577
-0.0034966730683569616   -0.013617909851352816   8.955530836256971e-05
-0.0023968935458060546   -0.027355912845774155   -7.10343646594237e-05
-0.0036042829764972822   -0.013547970580999179   0.00016752347928008317
0.005272583426016345   -0.02731956499941106   0.00023681831909878523
-0.0025051855650477886   -0.02721817577654813   -1.4793944747227813e-05
-0.0036042829764972822   -0.013547970580999179   0.00016752347928008317
-0.0023968935458060546   -0.027355912845774155   -7.10343646594237e-05
0.005272583426016345   -0.02731956499941106   0.00023681831909878523
-0.0036042829764972822   -0.013547970580999179   0.00016752347928008317
0.0034758395826498868   -0.01362144998628469   0.0003718180137892166
0.0038111202127244404   -0.013797603758862778   0.0001786454301387577
0.005272583426016345   -0.02731956499941106   0.00023681831909878523
-0.0036042829764972822   -0.013547970580999179   0.00016752347928008317
0.0038111202127244404   -0.013797603758862778   0.0001786454301387577
-0.0023968935458060546   -0.027355912845774155   -7.10343646594237e-05
0.005272583426016345   -0.02731956499941106   0.00023681831909878523
0.0034758395826498868   -0.01362144998628469   0.0003718180137892166
-0.0025051855650477886   -0.02721817577654813   -1.4793944747227813e-05
0.005082125966073562   -0.02715455687576477   0.0003374891884941279
0.0034758395826498868   -0.01362144998628469   0.0003718180137892166
-0.0036042829764972822   -0.013547970580999179   0.00016752347928008317
-0.0025051855650477886   -0.02721817577654813   -1.4793944747227813e-05
-0.0037455130440515907   -0.013424078876506042   0.0002621425082369137
0.005082125966073562   -0.02715455687576477   0.0003374891884941279
-0.002631819714790902   -0.027072744559132098   5.141390497221033e-05
-0.0037455130440515907   -0.013424078876506042   0.0002621425082369137
-0.0025051855650477886   -0.02721817577654813   -1.4793944747227813e-05
0.005082125966073562   -0.02715455687576477   0.0003374891884941279
-0.0037455130440515907   -0.013424078876506042   0.0002621425082369137
0.003279418697394497   -0.013477049082490228   0.0005160852303086209
0.0034758395826498868   -0.01362144998628469   0.0003718180137892166
0.005082125966073562   -0.02715455687576477   0.0003374891884941279
-0.0037455130440515907   -0.013424078876506042   0.0002621425082369137
0.0034758395826498868   -0.01362144998628469   0.0003718180137892166
-0.0025051855650477886   -0.02721817577654813   -1.4793944747227813e-05
0.005082125966073562   -0.02715455687576477   0.0003374891884941279
0.003279418697394497   -0.013477049082490228   0.0005160852303086209
-0.002631819714790902   -0.027072744559132098   5.141390497221033e-05
0.004849435600313004   -0.02695191239756237   0.0004482261105774997
0.003279418697394497   -0.013477049082490228   0.0005160852303086209
-0.0037455130440515907   -0.013424078876506042   0.0002621425082369137
-0.002631819714790902   -0.027072744559132098   5.141390497221033e-05
-0.0038641639251315143   -0.013290748254128577   0.00034544640888158046
0.004849435600313004   -0.02695191239756237   0.0004482261105774997
-0.0027627503184021415   -0.026918271861979554   0.0001274483744023978
-0.0038641639251315143   -0.013290748254128577   0.00034544640888158046
-0.002631819714790902   -0.027072744559132098   5.141390497221033e-05
0.004849435600313004   -0.02695191239756237   0.0004482261105774997
-0.0038641639251315143   -0.013290748254128577   0.00034544640888158046
0.0030278394359711594   -0.013256644073103485   0.0006812253735743152
0.003279418697394497   -0.013477049082490228   0.0005160852303086209
0.004849435600313004   -0.02695191239756237   0.0004482261105774997
-0.0038641639251315143   -0.013290748254128577   0.00034544640888158046
0.003279418697394497   -0.013477049082490228   0.0005160852303086209
-0.002631819714790902   -0.027072744559132098   5.141390497221033e-05
-0.0023968935458060546   -0.027355912845774155   -7.10343646594237e-05
-0.0034966730683569616   -0.013617909851352816   8.955530836256971e-05
-0.009780735211949504   -0.027322377197010833   -0.0003002333620626672
-0.0025051855650477886   -0.02721817577654813   -1.4793944747227813e-05
-0.0034966730683569616   -0.013617909851352816   8.955530836256971e-05
-0.010454482497332485   -0.013818623036334847   -9.324354528345061e-05
-0.009780735211949504   -0.027322377197010833   -0.0003002333620626672
-0.010553393491983866   -0.013712139819696692   -3.808639779694439e-05
-0.0025051855650477886   -0.02721817577654813   -1.4793944747227813e-05
-0.009878531377599755   -0.02720203195936072   -0.00024802365272474935
-0.010553393491983866   -0.013712139819696692   -3.808639779694439e-05
-0.009780735211949504   -0.027322377197010833   -0.0003002333620626672
-0.0025051855650477886   -0.02721817577654813   -1.4793944747227813e-05
-0.010553393491983866   -0.013712139819696692   -3.808639779694439e-05
-0.0036042829764972822   -0.013547970580999179   0.00016752347928008317
-0.0034966730683569616   -0.013617909851352816   8.955530836256971e-05
-0.0025051855650477886   -0.02721817577654813   -1.4793944747227813e-05
-0.010553393491983866   -0.013712139819696692   -3.808639779694439e-05
-0.0034966730683569616   -0.013617909851352816   8.955530836256971e-05
-0.009780735211949504   -0.027322377197010833   -0.0003002333620626672
-0.0025051855650477886   -0.02721817577654813   -1.4793944747227813e-05
-0.0036042829764972822   -0.013547970580999179   0.00016752347928008317
-0.009878531377599755   -0.02720203195936072   -0.00024802365272474935
-0.002631819714790902   -0.027072744559132098   5.141390497221033e-05
-0.0036042829764972822   -0.013547970580999179   0.00016752347928008317
-0.010553393491983866   -0.013712139819696692   -3.808639779694439e-05
-0.009878531377599755   -0.02720203195936072   -0.00024802365272474935
-0.010656831610903831   -0.013592031354617624   2.0239650653975797e-05
-0.002631819714790902   -0.027072744559132098   5.141390497221033e-05
-0.009979673556935674   -0.027076826258591247   -0.00019065693603162508
-0.010656831610903831   -0.013592031354617624   2.0239650653975797e-05
-0.009878531377599755   -0.02720203195936072   -0.00024802365272474935
-0.002631819714790902   -0.027072744559132098   5.141390497221033e-05
-0.010656831610903831   -0.013592031354617624   2.0239650653975797e-05
-0.0037455130440515907   -0.013424078876506042   0.0002621425082369137
-0.0036042829764972822   -0.013547970580999179   0.00016752347928008317
-0.002631819714790902   -0.027072744559132098   5.141390497221033e-05
-0.010656831610903831   -0.013592031354617624   2.0239650653975797e-05
-0.0036042829764972822   -0.013547970580999179   0.00016752347928008317
-0.009878531377599755   -0.02720203195936072   -0.00024802365272474935
-0.002631819714790902   -0.027072744559132098   5.141390497221033e-05
-0.0037455130440515907   -0.013424078876506042   0.0002621425082369137
-0.009979673556935674   -0.027076826258591247   -0.00019065693603162508
-0.0027627503184021415   -0.026918271861979554   0.0001274483744023978
-0.0037455130440515907   -0.013424078876506042   0.0002621425082369137
-0.010656831610903831   -0.013592031354617624   2.0239650653975797e-05
-0.009979673556935674   -0.027076826258591247   -0.00019065693603162508
-0.010755069865981936   -0.013460393971432883   8.453583116638053e-05
-0.0027627503184021415   -0.026918271861979554   0.0001274483744023978
-0.010084947482241563   -0.026948967552378862   -0.0001270973568555498
-0.010755069865981936   -0.013460393971432883   8.453583116638053e-05
-0.009979673556935674   -0.027076826258591247   -0.00019065693603162508
-0.0027627503184021415   -0.026918271861979554   0.0001274483744023978
-0.010755069865981936   -0.013460393971432883   8.453583116638053e-05
-0.0038641639251315143   -0.013290748254128577   0.00034544640888158046
-0.0037455130440515907   -0.013424078876506042   0.0002621425082369137
-0.0027627503184021415   -0.026918271861979554   0.0001274483744023978
-0.010755069865981936   -0.013460393971432883   8.453583116638053e-05
-0.0037455130440515907   -0.013424078876506042   0.0002621425082369137
-0.009979673556935674   -0.027076826258591247   -0.00019065693603162508
-0.009780735211949504   -0.027322377197010833   -0.0003002333620626672
-0.010454482497332485   -0.013818623036334847   -9.324354528345061e-05
-0.01708942946187338   -0.027313081111452666   -0.000507510692791884
-0.009878531377599755   -0.02720203195936072   -0.00024802365272474935
-0.010454482497332485   -0.013818623036334847   -9.324354528345061e-05
-0.01758401369609947   -0.013975399508118776   -0.00029553870062439165
-0.01708942946187338   -0.027313081111452666   -0.000507510692791884
-0.017672773307807508   -0.013866111778334671   -0.0002528583295505005
-0.009878531377599755   -0.02720203195936072   -0.00024802365272474935
-0.01718287740692528   -0.02720746304738083   -0.0004578045082052122
-0.017672773307807508   -0.013866111778334671   -0.0002528583295505005
-0.01708942946187338   -0.027313081111452666   -0.000507510692791884
-0.009878531377599755   -0.02720203195936072   -0.00024802365272474935
-0.017672773307807508   -0.013866111778334671   -0.0002528583295505005
-0.010553393491983866   -0.013712139819696692   -3.808639779694439e-05
-0.010454482497332485   -0.013818623036334847   -9.324354528345061e-05
-0.009878531377599755   -0.02720203195936072   -0.00024802365272474935
-0.017672773307807508   -0.013866111778334671   -0.0002528583295505005
-0.010454482497332485   -0.013818623036334847   -9.324354528345061e-05
-0.01708942946187338   -0.027313081111452666   -0.000507510692791884
-0.009878531377599755   -0.02720203195936072   -0.00024802365272474935
-0.010553393491983866   -0.013712139819696692   -3.808639779694439e-05
-0.01718287740692528   -0.02720746304738083   -0.0004578045082052122
-0.009979673556935674   -0.027076826258591247   -0.00019065693603162508
-0.010553393491983866   -0.013712139819696692   -3.808639779694439e-05
-0.017672773307807508   -0.013866111778334671   -0.0002528583295505005
-0.01718287740692528   -0.02720746304738083   -0.0004578045082052122
-0.017757677407271574   -0.013750739393921184   -0.00021035162385637753
-0.009979673556935674   -0.027076826258591247   -0.00019065693603162508
-0.017271893828312703   -0.02709989541082562   -0.0004035927871851981
-0.017757677407271574   -0.013750739393921184   -0.00021035162385637753
-0.01718287740692528   -0.02720746304738083   -0.0004578045082052122
-0.009979673556935674   -0.027076826258591247   -0.00019065693603162508
-0.017757677407271574   -0.013750739393921184   -0.00021035162385637753
-0.010656831610903831   -0.013592031354617624   2.0239650653975797e-05
-0.010553393491983866   -0.013712139819696692   -3.808639779694439e-05
-0.009979673556935674   -0.027076826258591247   -0.00019065693603162508
-0.017757677407271574   -0.013750739393921184   -0.00021035162385637753
-0.010553393491983866   -0.013712139819696692   -3.808639779694439e-05
-0.01718287740692528   -0.02720746304738083   -0.0004578045082052122
-0.009979673556935674   -0.027076826258591247   -0.00019065693603162508
-0.010656831610903831   -0.013592031354617624   2.0239650653975797e-05
-0.017271893828312703   -0.02709989541082562   -0.0004035927871851981
-0.010084947482241563   -0.026948967552378862   -0.0001270973568555498
-0.010656831610903831   -0.013592031354617624   2.0239650653975797e-05
-0.017757677407271574   -0.013750739393921184   -0.00021035162385637753
-0.017271893828312703   -0.02709989541082562   -0.0004035927871851981
-0.017835892646482648   -0.013625868011877354   -0.00016411165667595657
-0.010084947482241563   -0.026948967552378862   -0.0001270973568555498
-0.017360012234750612   -0.026989770761945878   -0.00034513459089500836
-0.017835892646482648   -0.013625868011877354   -0.00016411165667595657
-0.017271893828312703   -0.02709989541082562   -0.0004035927871851981
-0.010084947482241563   -0.026948967552378862   -0.0001270973568555498
-0.017835892646482648   -0.013625868011877354   -0.00016411165667595657
-0.010755069865981936   -0.013460393971432883   8.453583116638053e-05
-0.010656831610903831   -0.013592031354617624   2.0239650653975797e-05
-0.010084947482241563   -0.026948967552378862   -0.0001270973568555498
-0.017835892646482648   -0.013625868011877354   -0.00016411165667595657
-0.010656831610903831   -0.013592031354617624   2.0239650653975797e-05
-0.017271893828312703   -0.02709989541082562   -0.0004035927871851981
-0.01708942946187338   -0.027313081111452666   -0.000507510692791884
-0.01758401369609947   -0.013975399508118776   -0.00029553870062439165
-0.024552866321896172   -0.027270761256419578   -0.0006818264272234961
-0.01718287740692528   -0.02720746304738083   -0.0004578045082052122
-0.01758401369609947   -0.013975399508118776   -0.00029553870062439165
-0.024963943262829465   -0.014039664292193464   -0.0004823682267063138
-0.024552866321896172   -0.027270761256419578   -0.0006818264272234961
-0.02504389130844043   -0.013941401525319166   -0.00045130818755096357
-0.01718287740692528   -0.02720746304738083   -0.0004578045082052122
-0.02464195389663128   -0.027184533518679346   -0.0006348618370242987
-0.02504389130844043   -0.013941401525319166   -0.00045130818755096357
-0.024552866321896172   -0.027270761256419578   -0.0006818264272234961
-0.01718287740692528   -0.02720746304738083   -0.0004578045082052122
-0.02504389130844043   -0.013941401525319166   -0.00045130818755096357
-0.017672773307807508   -0.013866111778334671   -0.0002528583295505005
-0.01758401369609947   -0.013975399508118776   -0.00029553870062439165
-0.01718287740692528   -0.02720746304738083   -0.0004578045082052122
-0.02504389130844043   -0.013941401525319166   -0.00045130818755096357
-0.01758401369609947   -0.013975399508118776   -0.00029553870062439165
-0.024552866321896172   -0.027270761256419578   -0.0006818264272234961
-0.01718287740692528   -0.02720746304738083   -0.0004578045082052122
-0.017672773307807508   -0.013866111778334671   -0.0002528583295505005
-0.02464195389663128   -0.027184533518679346   -0.0006348618370242987
-0.017271893828312703   -0.02709989541082562   -0.0004035927871851981
-0.017672773307807508   -0.013866111778334671   -0.0002528583295505005
-0.02504389130844043   -0.013941401525319166   -0.00045130818755096357
-0.02464195389663128   -0.027184533518679346   -0.0006348618370242987
-0.025115130190929796   -0.013834453698615001   -0.0004211663986089645
-0.017271893828312703   -0.02709989541082562   -0.0004035927871851981
-0.02471748909108054   -0.02709356228016356   -0.0005847092324897104
-0.025115130190929796   -0.013834453698615001   -0.0004211663986089645
-0.02464195389663128   -0.027184533518679346   -0.0006348618370242987
-0.017271893828312703   -0.02709989541082562   -0.0004035927871851981
-0.025115130190929796   -0.013834453698615001   -0.0004211663986089645
-0.017757677407271574   -0.013750739393921184   -0.00021035162385637753
-0.017672773307807508   -0.013866111778334671   -0.0002528583295505005
-0.017271893828312703   -0.02709989541082562   -0.0004035927871851981
-0.025115130190929796   -0.013834453698615001   -0.0004211663986089645
-0.017672773307807508   -0.013866111778334671   -0.0002528583295505005
-0.02464195389663128   -0.027184533518679346   -0.0006348618370242987
-0.017271893828312703   -0.02709989541082562   -0.0004035927871851981
-0.017757677407271574   -0.013750739393921184   -0.00021035162385637753
-0.02471748909108054   -0.02709356228016356   -0.0005847092324897104
-0.017360012234750612   -0.026989770761945878   -0.00034513459089500836
-0.017757677407271574   -0.013750739393921184   -0.00021035162385637753
-0.025115130190929796   -0.013834453698615001   -0.0004211663986089645
-0.02471748909108054   -0.02709356228016356   -0.0005847092324897104
-0.02517962504067431   -0.013720646724752048   -0.00039016793437555335
-0.017360012234750612   -0.026989770761945878   -0.00034513459089500836
-0.024788883874194968   -0.02700016316633809   -0.0005299691317721011
-0.02517962504067431   -0.013720646724752048   -0.00039016793437555335
-0.02471748909108054   -0.02709356228016356   -0.0005847092324897104
-0.017360012234750612   -0.026989770761945878   -0.00034513459089500836
-0.02517962504067431   -0.013720646724752048   -0.00039016793437555335
-0.017835892646482648   -0.013625868011877354   -0.00016411165667595657
-0.017757677407271574   -0.013750739393921184   -0.00021035162385637753
-0.017360012234750612   -0.026989770761945878   -0.00034513459089500836
-0.02517962504067431   -0.013720646724752048   -0.00039016793437555335
-0.017757677407271574   -0.013750739393921184   -0.00021035162385637753
-0.02471748909108054   -0.02709356228016356   -0.0005847092324897104
-0.024552866321896172   -0.027270761256419578   -0.0006818264272234961
-0.024963943262829465   -0.014039664292193464   -0.0004823682267063138
-0.03236972165089568   -0.02720118838032396   -0.0008111310288564252
-0.02464195389663128   -0.027184533518679346   -0.0006348618370242987
-0.024963943262829465   -0.014039664292193464   -0.0004823682267063138
-0.03260548190573762   -0.014046963666792499   -0.0006377271515072212
-0.03236972165089568   -0.02720118838032396   -0.0008111310288564252
-0.03267427250428492   -0.013951533431193108   -0.0006244961209768945
-0.02464195389663128   -0.027184533518679346   -0.0006348618370242987
-0.032425364694722264   -0.027128660608864926   -0.0007760693042451974
-0.03267427250428492   -0.013951533431193108   -0.0006244961209768945
-0.03236972165089568   -0.02720118838032396   -0.0008111310288564252
-0.02464195389663128   -0.027184533518679346   -0.0006348618370242987
-0.03267427250428492   -0.013951533431193108   -0.0006244961209768945
-0.02504389130844043   -0.013941401525319166   -0.00045130818755096357
-0.024963943262829465   -0.014039664292193464   -0.0004823682267063138
-0.02464195389663128   -0.027184533518679346   -0.0006348618370242987
-0.03267427250428492   -0.013951533431193108   -0.0006244961209768945
-0.024963943262829465   -0.014039664292193464   -0.0004823682267063138
-0.03236972165089568   -0.02720118838032396   -0.0008111310288564252
-0.02464195389663128   -0.027184533518679346   -0.0006348618370242987
-0.02504389130844043   -0.013941401525319166   -0.00045130818755096357
-0.032425364694722264   -0.027128660608864926   -0.0007760693042451974
-0.02471748909108054   -0.02709356228016356   -0.0005847092324897104
-0.02504389130844043   -0.013941401525319166   -0.00045130818755096357
-0.03267427250428492   -0.013951533431193108   -0.0006244961209768945
-0.032425364694722264   -0.027128660608864926   -0.0007760693042451974
-0.03273590273128709   -0.013848435133014004   -0.0006090409385222068
-0.02471748909108054   -0.02709356228016356   -0.0005847092324897104
-0.032476243664639824   -0.027046653118625853   -0.0007331633926973757
-0.03273590273128709   -0.013848435133014004   -0.0006090409385222068
-0.032425364694722264   -0.027128660608864926   -0.0007760693042451974
-0.02471748909108054   -0.02709356228016356   -0.0005847092324897104
-0.03273590273128709   -0.013848435133014004   -0.0006090409385222068
-0.025115130190929796   -0.013834453698615001   -0.0004211663986089645
-0.02504389130844043   -0.013941401525319166   -0.00045130818755096357
-0.02471748909108054   -0.02709356228016356   -0.0005847092324897104
-0.03273590273128709   -0.013848435133014004   -0.0006090409385222068
-0.02504389130844043   -0.013941401525319166   -0.00045130818755096357
-0.032425364694722264   -0.027128660608864926   -0.0007760693042451974
-0.02471748909108054   -0.02709356228016356   -0.0005847092324897104
-0.025115130190929796   -0.013834453698615001   -0.0004211663986089645
-0.032476243664639824   -0.027046653118625853   -0.0007331633926973757
-0.024788883874194968   -0.02700016316633809   -0.0005299691317721011
-0.025115130190929796   -0.013834453698615001   -0.0004211663986089645
-0.03273590273128709   -0.013848435133014004   -0.0006090409385222068
-0.032476243664639824   -0.027046653118625853   -0.0007331633926973757
-0.03278785672122231   -0.01373924853436269   -0.0005947329971073727
-0.024788883874194968   -0.02700016316633809   -0.0005299691317721011
-0.03250120997621085   -0.02697121688845734   -0.0006843872898024682
-0.03278785672122231   -0.01373924853436269   -0.0005947329971073727
-0.032476243664639824   -0.027046653118625853   -0.0007331633926973757
-0.024788883874194968   -0.02700016316633809   -0.0005299691317721011
-0.03278785672122231   -0.01373924853436269   -0.0005947329971073727
-0.02517962504067431   -0.013720646724752048   -0.00039016793437555335
-0.025115130190929796   -0.013834453698615001   -0.0004211663986089645
-0.024788883874194968   -0.02700016316633809   -0.0005299691317721011
-0.03278785672122231   -0.01373924853436269   -0.0005947329971073727
-0.025115130190929796   -0.013834453698615001   -0.0004211663986089645
-0.032476243664639824   -0.027046653118625853   -0.0007331633926973757
0.0038111202127244404   -0.013797603758862778   0.0001786454301387577
0.0   0.0   0.0
-0.0034966730683569616   -0.013617909851352816   8.955530836256971e-05
0.0034758395826498868   -0.01362144998628469   0.0003718180137892166
0.0   0.0   0.0
-0.00439438019257538   -0.0011061876909767192   -3.8919849140835376e-05
-0.0034966730683569616   -0.013617909851352816   8.955530836256971e-05
-0.004656762235991428   -0.00085809173931634   0.00011164145516895253
0.0034758395826498868   -0.01362144998628469   0.0003718180137892166
-0.0036042829764972822   -0.013547970580999179   0.00016752347928008317
-0.004656762235991428   -0.00085809173931634   0.00011164145516895253
-0.0034966730683569616   -0.013617909851352816   8.955530836256971e-05
0.0034758395826498868   -0.01362144998628469   0.0003718180137892166
-0.004656762235991428   -0.00085809173931634   0.00011164145516895253
0.0   0.0   0.0
0.0   0.0   0.0
0.0034758395826498868   -0.01362144998628469   0.0003718180137892166
-0.004656762235991428   -0.00085809173931634   0.00011164145516895253
0.0   0.0   0.0
-0.0034966730683569616   -0.013617909851352816   8.955530836256971e-05
0.0034758395826498868   -0.01362144998628469   0.0003718180137892166
0.0   0.0   0.0
-0.0036042829764972822   -0.013547970580999179   0.00016752347928008317
0.003279418697394497   -0.013477049082490228   0.0005160852303086209
0.0   0.0   0.0
-0.004656762235991428   -0.00085809173931634   0.00011164145516895253
-0.0036042829764972822   -0.013547970580999179   0.00016752347928008317
-0.0048211912857224065   -0.0007383196864947757   0.00019828681208799659
0.003279418697394497   -0.013477049082490228   0.0005160852303086209
-0.0037455130440515907   -0.013424078876506042   0.0002621425082369137
-0.0048211912857224065   -0.0007383196864947757   0.00019828681208799659
-0.0036042829764972822   -0.013547970580999179   0.00016752347928008317
0.003279418697394497   -0.013477049082490228   0.0005160852303086209
-0.0048211912857224065   -0.0007383196864947757   0.00019828681208799659
0.0   0.0   0.0
0.0   0.0   0.0
0.003279418697394497   -0.013477049082490228   0.0005160852303086209
-0.0048211912857224065   -0.0007383196864947757   0.00019828681208799659
0.0   0.0   0.0
-0.0036042829764972822   -0.013547970580999179   0.00016752347928008317
0.003279418697394497   -0.013477049082490228   0.0005160852303086209
0.0   0.0   0.0
-0.0037455130440515907   -0.013424078876506042   0.0002621425082369137
0.0030278394359711594   -0.013256644073103485   0.0006812253735743152
0.0   0.0   0.0
-0.0048211912857224065   -0.0007383196864947757   0.00019828681208799659
-0.0037455130440515907   -0.013424078876506042   0.0002621425082369137
-0.005041226132521344   -0.0005794079333185567   0.00029769012849868313
0.0030278394359711594   -0.013256644073103485   0.0006812253735743152
-0.0038641639251315143   -0.013290748254128577   0.00034544640888158046
-0.005041226132521344   -0.0005794079333185567   0.00029769012849868313
-0.0037455130440515907   -0.013424078876506042   0.0002621425082369137
0.0030278394359711594   -0.013256644073103485   0.0006812253735743152
-0.005041226132521344   -0.0005794079333185567   0.00029769012849868313
0.0   0.0   0.0
0.0   0.0   0.0
0.0030278394359711594   -0.013256644073103485   0.0006812253735743152
-0.005041226132521344   -0.0005794079333185567   0.00029769012849868313
0.0   0.0   0.0
-0.0037455130440515907   -0.013424078876506042   0.0002621425082369137
-0.0034966730683569616   -0.013617909851352816   8.955530836256971e-05
-0.00439438019257538   -0.0011061876909767192   -3.8919849140835376e-05
-0.010454482497332485   -0.013818623036334847   -9.324354528345061e-05
-0.0036042829764972822   -0.013547970580999179   0.00016752347928008317
-0.00439438019257538   -0.0011061876909767192   -3.8919849140835376e-05
-0.01076770393994847   -0.0014460093793987508   -3.950021351414145e-05
-0.010454482497332485   -0.013818623036334847   -9.324354528345061e-05
-0.010902588697971278   -0.0013099299705533083   -1.2911144104334805e-06
-0.0036042829764972822   -0.013547970580999179   0.00016752347928008317
-0.010553393491983866   -0.013712139819696692   -3.808639779694439e-05
-0.010902588697971278   -0.0013099299705533083   -1.2911144104334805e-06
-0.010454482497332485   -0.013818623036334847   -9.324354528345061e-05
-0.0036042829764972822   -0.013547970580999179   0.00016752347928008317
-0.010902588697971278   -0.0013099299705533083   -1.2911144104334805e-06
-0.004656762235991428   -0.00085809173931634   0.00011164145516895253
-0.00439438019257538   -0.0011061876909767192   -3.8919849140835376e-05
-0.0036042829764972822   -0.013547970580999179   0.00016752347928008317
-0.010902588697971278   -0.0013099299705533083   -1.2911144104334805e-06
-0.00439438019257538   -0.0011061876909767192   -3.8919849140835376e-05
-0.010454482497332485   -0.013818623036334847   -9.324354528345061e-05
-0.0036042829764972822   -0.013547970580999179   0.00016752347928008317
-0.004656762235991428   -0.00085809173931634   0.00011164145516895253
-0.010553393491983866   -0.013712139819696692   -3.808639779694439e-05
-0.0037455130440515907   -0.013424078876506042   0.0002621425082369137
-0.004656762235991428   -0.00085809173931634   0.00011164145516895253
-0.010902588697971278   -0.0013099299705533083   -1.2911144104334805e-06
-0.010553393491983866   -0.013712139819696692   -3.808639779694439e-05
-0.01103679321490964   -0.0011508417264226548   6.744434038229991e-05
-0.0037455130440515907   -0.013424078876506042   0.0002621425082369137
-0.010656831610903831   -0.013592031354617624   2.0239650653975797e-05
-0.01103679321490964   -0.0011508417264226548   6.744434038229991e-05
-0.010553393491983866   -0.013712139819696692   -3.808639779694439e-05
-0.0037455130440515907   -0.013424078876506042   0.0002621425082369137
-0.01103679321490964   -0.0011508417264226548   6.744434038229991e-05
-0.0048211912857224065   -0.0007383196864947757   0.00019828681208799659
-0.004656762235991428   -0.00085809173931634   0.00011164145516895253
-0.0037455130440515907   -0.013424078876506042   0.0002621425082369137
-0.01103679321490964   -0.0011508417264226548   6.744434038229991e-05
-0.004656762235991428   -0.00085809173931634   0.00011164145516895253
-0.010553393491983866   -0.013712139819696692   -3.808639779694439e-05
-0.0037455130440515907   -0.013424078876506042   0.0002621425082369137
-0.0048211912857224065   -0.0007383196864947757   0.00019828681208799659
-0.010656831610903831   -0.013592031354617624   2.0239650653975797e-05
-0.0038641639251315143   -0.013290748254128577   0.00034544640888158046
-0.0048211912857224065   -0.0007383196864947757   0.00019828681208799659
-0.01103679321490964   -0.0011508417264226548   6.744434038229991e-05
-0.010656831610903831   -0.013592031354617624   2.0239650653975797e-05
-0.011184960300036904   -0.0009672080423786926   0.00013307525213365263
-0.0038641639251315143   -0.013290748254128577   0.00034544640888158046
-0.010755069865981936   -0.013460393971432883   8.453583116638053e-05
-0.011184960300036904   -0.0009672080423786926   0.00013307525213365263
-0.010656831610903831   -0.013592031354617624   2.0239650653975797e-05
-0.0038641639251315143   -0.013290748254128577   0.00034544640888158046
-0.011184960300036904   -0.0009672080423786926   0.00013307525213365263
-0.005041226132521344   -0.0005794079333185567   0.00029769012849868313
-0.0048211912857224065   -0.0007383196864947757   0.00019828681208799659
-0.0038641639251315143   -0.013290748254128577   0.00034544640888158046
-0.011184960300036904   -0.0009672080423786926   0.00013307525213365263
-0.0048211912857224065   -0.0007383196864947757   0.00019828681208799659
-0.010656831610903831   -0.013592031354617624   2.0239650653975797e-05
-0.010454482497332485   -0.013818623036334847   -9.324354528345061e-05
-0.01076770393994847   -0.0014460093793987508   -3.950021351414145e-05
-0.01758401369609947   -0.013975399508118776   -0.00029553870062439165
-0.010553393491983866   -0.013712139819696692   -3.808639779694439e-05
-0.01076770393994847   -0.0014460093793987508   -3.950021351414145e-05
-0.017758450434745724   -0.001539199569666349   -0.0001686117647526022
-0.01758401369609947   -0.013975399508118776   -0.00029553870062439165
-0.017840078187784974   -0.0014324867408454813   -0.0001582462703691629
-0.010553393491983866   -0.013712139819696692   -3.808639779694439e-05
-0.017672773307807508   -0.013866111778334671   -0.0002528583295505005
-0.017840078187784974   -0.0014324867408454813   -0.0001582462703691629
-0.01758401369609947   -0.013975399508118776   -0.00029553870062439165
-0.010553393491983866   -0.013712139819696692   -3.808639779694439e-05
-0.017840078187784974   -0.0014324867408454813   -0.0001582462703691629
-0.010902588697971278   -0.0013099299705533083   -1.2911144104334805e-06
-0.01076770393994847   -0.0014460093793987508   -3.950021351414145e-05
-0.010553393491983866   -0.013712139819696692   -3.808639779694439e-05
-0.017840078187784974   -0.0014324867408454813   -0.0001582462703691629
-0.01076770393994847   -0.0014460093793987508   -3.950021351414145e-05
-0.01758401369609947   -0.013975399508118776   -0.00029553870062439165
-0.010553393491983866   -0.013712139819696692   -3.808639779694439e-05
-0.010902588697971278   -0.0013099299705533083   -1.2911144104334805e-06
-0.017672773307807508   -0.013866111778334671   -0.0002528583295505005
-0.010656831610903831   -0.013592031354617624   2.0239650653975797e-05
-0.010902588697971278   -0.0013099299705533083   -1.2911144104334805e-06
-0.017840078187784974   -0.0014324867408454813   -0.0001582462703691629
-0.017672773307807508   -0.013866111778334671   -0.0002528583295505005
-0.017924917337286492   -0.0013089293301004644   -0.0001399299956952643
-0.010656831610903831   -0.013592031354617624   2.0239650653975797e-05
-0.017757677407271574   -0.013750739393921184   -0.00021035162385637753
-0.017924917337286492   -0.0013089293301004644   -0.0001399299956952643
-0.017672773307807508   -0.013866111778334671   -0.0002528583295505005
-0.010656831610903831   -0.013592031354617624   2.0239650653975797e-05
-0.017924917337286492   -0.0013089293301004644   -0.0001399299956952643
-0.01103679321490964   -0.0011508417264226548   6.744434038229991e-05
-0.010902588697971278   -0.0013099299705533083   -1.2911144104334805e-06
-0.010656831610903831   -0.013592031354617624   2.0239650653975797e-05
-0.017924917337286492   -0.0013089293301004644   -0.0001399299956952643
-0.010902588697971278   -0.0013099299705533083   -1.2911144104334805e-06
-0.017672773307807508   -0.013866111778334671   -0.0002528583295505005
-0.010656831610903831   -0.013592031354617624   2.0239650653975797e-05
-0.01103679321490964   -0.0011508417264226548   6.744434038229991e-05
-0.017757677407271574   -0.013750739393921184   -0.00021035162385637753
-0.010755069865981936   -0.013460393971432883   8.453583116638053e-05
-0.01103679321490964   -0.0011508417264226548   6.744434038229991e-05
-0.017924917337286492   -0.0013089293301004644   -0.0001399299956952643
-0.017757677407271574   -0.013750739393921184   -0.00021035162385637753
-0.018005048691738388   -0.001159094426717209   -0.00011569662627829763
-0.010755069865981936   -0.013460393971432883   8.453583116638053e-05
-0.017835892646482648   -0.013625868011877354   -0.00016411165667595657
-0.018005048691738388   -0.001159094426717209   -0.00011569662627829763
-0.017757677407271574   -0.013750739393921184   -0.00021035162385637753
-0.010755069865981936   -0.013460393971432883   8.453583116638053e-05
-0.018005048691738388   -0.001159094426717209   -0.00011569662627829763
-0.011184960300036904   -0.0009672080423786926   0.00013307525213365263
-0.01103679321490964   -0.0011508417264226548   6.744434038229991e-05
-0.010755069865981936   -0.013460393971432883   8.453583116638053e-05
-0.018005048691738388   -0.001159094426717209   -0.00011569662627829763
-0.01103679321490964   -0.0011508417264226548   6.744434038229991e-05
-0.017757677407271574   -0.013750739393921184   -0.00021035162385637753
-0.01758401369609947   -0.013975399508118776   -0.00029553870062439165
-0.017758450434745724   -0.001539199569666349   -0.0001686117647526022
-0.024963943262829465   -0.014039664292193464   -0.0004823682267063138
-0.017672773307807508   -0.013866111778334671   -0.0002528583295505005
-0.017758450434745724   -0.001539199569666349   -0.0001686117647526022
-0.025092814883719502   -0.0015211658226662956   -0.0003527707276844571
-0.024963943262829465   -0.014039664292193464   -0.0004823682267063138
-0.025147892600891494   -0.0014248247251404276   -0.00034836589190990835
-0.017672773307807508   -0.013866111778334671   -0.0002528583295505005
-0.02504389130844043   -0.013941401525319166   -0.00045130818755096357
-0.025147892600891494   -0.0014248247251404276   -0.00034836589190990835
-0.024963943262829465   -0.014039664292193464   -0.0004823682267063138
-0.017672773307807508   -0.013866111778334671   -0.0002528583295505005
-0.025147892600891494   -0.0014248247251404276   -0.00034836589190990835
-0.017840078187784974   -0.0014324867408454813   -0.0001582462703691629
-0.017758450434745724   -0.001539199569666349   -0.0001686117647526022
-0.017672773307807508   -0.013866111778334671   -0.0002528583295505005
-0.025147892600891494   -0.0014248247251404276   -0.00034836589190990835
-0.017758450434745724   -0.001539199569666349   -0.0001686117647526022
-0.024963943262829465   -0.014039664292193464   -0.0004823682267063138
-0.017672773307807508   -0.013866111778334671   -0.0002528583295505005
-0.017840078187784974   -0.0014324867408454813   -0.0001582462703691629
-0.02504389130844043   -0.013941401525319166   -0.00045130818755096357
-0.017757677407271574   -0.013750739393921184   -0.00021035162385637753
-0.017840078187784974   -0.0014324867408454813   -0.0001582462703691629
-0.025147892600891494   -0.0014248247251404276   -0.00034836589190990835
-0.02504389130844043   -0.013941401525319166   -0.00045130818755096357
-0.025205367690963973   -0.0013178800052977017   -0.00034548597665241305
-0.017757677407271574   -0.013750739393921184   -0.00021035162385637753
-0.025115130190929796   -0.013834453698615001   -0.0004211663986089645
-0.025205367690963973   -0.0013178800052977017   -0.00034548597665241305
-0.02504389130844043   -0.013941401525319166   -0.00045130818755096357
-0.017757677407271574   -0.013750739393921184   -0.00021035162385637753
-0.025205367690963973   -0.0013178800052977017   -0.00034548597665241305
-0.017924917337286492   -0.0013089293301004644   -0.0001399299956952643
-0.017840078187784974   -0.0014324867408454813   -0.0001582462703691629
-0.017757677407271574   -0.013750739393921184   -0.00021035162385637753
-0.025205367690963973   -0.0013178800052977017   -0.00034548597665241305
-0.017840078187784974   -0.0014324867408454813   -0.0001582462703691629
-0.02504389130844043   -0.013941401525319166   -0.00045130818755096357
-0.017757677407271574   -0.013750739393921184   -0.00021035162385637753
-0.017924917337286492   -0.0013089293301004644   -0.0001399299956952643
-0.025115130190929796   -0.013834453698615001   -0.0004211663986089645
-0.017835892646482648   -0.013625868011877354   -0.00016411165667595657
-0.017924917337286492   -0.0013089293301004644   -0.0001399299956952643
-0.025205367690963973   -0.0013178800052977017   -0.00034548597665241305
-0.025115130190929796   -0.013834453698615001   -0.0004211663986089645
-0.02524873367952424   -0.00120237936677276   -0.00034439305672310545
-0.017835892646482648   -0.013625868011877354   -0.00016411165667595657
-0.02517962504067431   -0.013720646724752048   -0.00039016793437555335
-0.02524873367952424   -0.00120237936677276   -0.00034439305672310545
-0.025115130190929796   -0.013834453698615001   -0.0004211663986089645
-0.017835892646482648   -0.013625868011877354   -0.00016411165667595657
-0.02524873367952424   -0.00120237936677276   -0.00034439305672310545
-0.018005048691738388   -0.001159094426717209   -0.00011569662627829763
-0.017924917337286492   -0.0013089293301004644   -0.0001399299956952643
-0.017835892646482648   -0.013625868011877354   -0.00016411165667595657
-0.02524873367952424   -0.00120237936677276   -0.00034439305672310545
-0.017924917337286492   -0.0013089293301004644   -0.0001399299956952643
-0.025115130190929796   -0.013834453698615001   -0.0004211663986089645
-0.024963943262829465   -0.014039664292193464   -0.0004823682267063138
-0.025092814883719502   -0.0015211658226662956   -0.0003527707276844571
-0.03260548190573762   -0.014046963666792499   -0.0006377271515072212
-0.02504389130844043   -0.013941401525319166   -0.00045130818755096357
-0.025092814883719502   -0.0015211658226662956   -0.0003527707276844571
-0.03262875057694365   -0.0015099245475201674   -0.0005339234956261806
-0.03260548190573762   -0.014046963666792499   -0.0006377271515072212
-0.03267309322877853   -0.001405309930235273   -0.0005339354506725263
-0.02504389130844043   -0.013941401525319166   -0.00045130818755096357
-0.03267427250428492   -0.013951533431193108   -0.0006244961209768945
-0.03267309322877853   -0.001405309930235273   -0.0005339354506725263
-0.03260548190573762   -0.014046963666792499   -0.0006377271515072212
-0.02504389130844043   -0.013941401525319166   -0.00045130818755096357
-0.03267309322877853   -0.001405309930235273   -0.0005339354506725263
-0.025147892600891494   -0.0014248247251404276   -0.00034836589190990835
-0.025092814883719502   -0.0015211658226662956   -0.0003527707276844571
-0.02504389130844043   -0.013941401525319166   -0.00045130818755096357
-0.03267309322877853   -0.001405309930235273   -0.0005339354506725263
-0.025092814883719502   -0.0015211658226662956   -0.0003527707276844571
-0.03260548190573762   -0.014046963666792499   -0.0006377271515072212
-0.02504389130844043   -0.013941401525319166   -0.00045130818755096357
-0.025147892600891494   -0.0014248247251404276   -0.00034836589190990835
-0.03267427250428492   -0.013951533431193108   -0.0006244961209768945
-0.025115130190929796   -0.013834453698615001   -0.0004211663986089645
-0.025147892600891494   -0.0014248247251404276   -0.00034836589190990835
-0.03267309322877853   -0.001405309930235273   -0.0005339354506725263
-0.03267427250428492   -0.013951533431193108   -0.0006244961209768945
-0.03272179515380541   -0.0013009931701668343   -0.0005421001489713786
-0.025115130190929796   -0.013834453698615001   -0.0004211663986089645
-0.03273590273128709   -0.013848435133014004   -0.0006090409385222068
-0.03272179515380541   -0.0013009931701668343   -0.0005421001489713786
-0.03267427250428492   -0.013951533431193108   -0.0006244961209768945
-0.025115130190929796   -0.013834453698615001   -0.0004211663986089645
-0.03272179515380541   -0.0013009931701668343   -0.0005421001489713786
-0.025205367690963973   -0.0013178800052977017   -0.00034548597665241305
-0.025147892600891494   -0.0014248247251404276   -0.00034836589190990835
-0.025115130190929796   -0.013834453698615001   -0.0004211663986089645
-0.03272179515380541   -0.0013009931701668343   -0.0005421001489713786
-0.025147892600891494   -0.0014248247251404276   -0.00034836589190990835
-0.03267427250428492   -0.013951533431193108   -0.0006244961209768945
-0.025115130190929796   -0.013834453698615001   -0.0004211663986089645
-0.025205367690963973   -0.0013178800052977017   -0.00034548597665241305
-0.03273590273128709   -0.013848435133014004   -0.0006090409385222068
-0.02517962504067431   -0.013720646724752048   -0.00039016793437555335
-0.025205367690963973   -0.0013178800052977017   -0.00034548597665241305
-0.03272179515380541   -0.0013009931701668343   -0.0005421001489713786
-0.03273590273128709   -0.013848435133014004   -0.0006090409385222068
-0.03275758109464282   -0.0011875577427906995   -0.0005508270127902189
-0.02517962504067431   -0.013720646724752048   -0.00039016793437555335
-0.03278785672122231   -0.01373924853436269   -0.0005947329971073727
-0.03275758109464282   -0.0011875577427906995   -0.0005508270127902189
-0.03273590273128709   -0.013848435133014004   -0.0006090409385222068
-0.02517962504067431   -0.013720646724752048   -0.00039016793437555335
-0.03275758109464282   -0.0011875577427906995   -0.0005508270127902189
-0.02524873367952424   -0.00120237936677276   -0.00034439305672310545
-0.025205367690963973   -0.0013178800052977017   -0.00034548597665241305
-0.02517962504067431   -0.013720646724752048   -0.00039016793437555335
-0.03275758109464282   -0.0011875577427906995   -0.0005508270127902189
-0.025205367690963973   -0.0013178800052977017   -0.00034548597665241305
-0.03273590273128709   -0.013848435133014004   -0.0006090409385222068
              </DataArray>   
          </PointData>  
       </Piece>  
   </UnstructuredGrid> 
</VTKFile> 
