<?xml version="1.0"?> 
<VTKFile type="UnstructuredGrid"> 
   <UnstructuredGrid> 
      <Piece NumberOfPoints="6000"  NumberOfCells="1500">  
          <Points>  
             <DataArray type="Float64" NumberOfComponents="3" format="ascii">   
-500.0   0.0   0.0
-450.0   0.0   0.0
-500.0   30.0   0.0
-500.0   0.0   16.666666666666668
-450.0   0.0   0.0
-450.0   30.0   0.0
-500.0   30.0   0.0
-450.0   30.0   16.666666666666668
-500.0   0.0   16.666666666666668
-500.0   30.0   16.666666666666668
-450.0   30.0   16.666666666666668
-500.0   30.0   0.0
-500.0   0.0   16.666666666666668
-450.0   30.0   16.666666666666668
-450.0   0.0   16.666666666666668
-450.0   0.0   0.0
-500.0   0.0   16.666666666666668
-450.0   30.0   16.666666666666668
-450.0   0.0   0.0
-500.0   30.0   0.0
-500.0   0.0   16.666666666666668
-450.0   0.0   16.666666666666668
-500.0   30.0   16.666666666666668
-500.0   0.0   33.333333333333336
-450.0   0.0   16.666666666666668
-450.0   30.0   16.666666666666668
-500.0   30.0   16.666666666666668
-450.0   30.0   33.333333333333336
-500.0   0.0   33.333333333333336
-500.0   30.0   33.333333333333336
-450.0   30.0   33.333333333333336
-500.0   30.0   16.666666666666668
-500.0   0.0   33.333333333333336
-450.0   30.0   33.333333333333336
-450.0   0.0   33.333333333333336
-450.0   0.0   16.666666666666668
-500.0   0.0   33.333333333333336
-450.0   30.0   33.333333333333336
-450.0   0.0   16.666666666666668
-500.0   30.0   16.666666666666668
-500.0   0.0   33.333333333333336
-450.0   0.0   33.333333333333336
-500.0   30.0   33.333333333333336
-500.0   0.0   50.0
-450.0   0.0   33.333333333333336
-450.0   30.0   33.333333333333336
-500.0   30.0   33.333333333333336
-450.0   30.0   50.0
-500.0   0.0   50.0
-500.0   30.0   50.0
-450.0   30.0   50.0
-500.0   30.0   33.333333333333336
-500.0   0.0   50.0
-450.0   30.0   50.0
-450.0   0.0   50.0
-450.0   0.0   33.333333333333336
-500.0   0.0   50.0
-450.0   30.0   50.0
-450.0   0.0   33.333333333333336
-500.0   30.0   33.333333333333336
-500.0   30.0   0.0
-450.0   30.0   0.0
-500.0   60.0   0.0
-500.0   30.0   16.666666666666668
-450.0   30.0   0.0
-450.0   60.0   0.0
-500.0   60.0   0.0
-450.0   60.0   16.666666666666668
-500.0   30.0   16.666666666666668
-500.0   60.0   16.666666666666668
-450.0   60.0   16.666666666666668
-500.0   60.0   0.0
-500.0   30.0   16.666666666666668
-450.0   60.0   16.666666666666668
-450.0   30.0   16.666666666666668
-450.0   30.0   0.0
-500.0   30.0   16.666666666666668
-450.0   60.0   16.666666666666668
-450.0   30.0   0.0
-500.0   60.0   0.0
-500.0   30.0   16.666666666666668
-450.0   30.0   16.666666666666668
-500.0   60.0   16.666666666666668
-500.0   30.0   33.333333333333336
-450.0   30.0   16.666666666666668
-450.0   60.0   16.666666666666668
-500.0   60.0   16.666666666666668
-450.0   60.0   33.333333333333336
-500.0   30.0   33.333333333333336
-500.0   60.0   33.333333333333336
-450.0   60.0   33.333333333333336
-500.0   60.0   16.666666666666668
-500.0   30.0   33.333333333333336
-450.0   60.0   33.333333333333336
-450.0   30.0   33.333333333333336
-450.0   30.0   16.666666666666668
-500.0   30.0   33.333333333333336
-450.0   60.0   33.333333333333336
-450.0   30.0   16.666666666666668
-500.0   60.0   16.666666666666668
-500.0   30.0   33.333333333333336
-450.0   30.0   33.333333333333336
-500.0   60.0   33.333333333333336
-500.0   30.0   50.0
-450.0   30.0   33.333333333333336
-450.0   60.0   33.333333333333336
-500.0   60.0   33.333333333333336
-450.0   60.0   50.0
-500.0   30.0   50.0
-500.0   60.0   50.0
-450.0   60.0   50.0
-500.0   60.0   33.333333333333336
-500.0   30.0   50.0
-450.0   60.0   50.0
-450.0   30.0   50.0
-450.0   30.0   33.333333333333336
-500.0   30.0   50.0
-450.0   60.0   50.0
-450.0   30.0   33.333333333333336
-500.0   60.0   33.333333333333336
-500.0   60.0   0.0
-450.0   60.0   0.0
-500.0   90.0   0.0
-500.0   60.0   16.666666666666668
-450.0   60.0   0.0
-450.0   90.0   0.0
-500.0   90.0   0.0
-450.0   90.0   16.666666666666668
-500.0   60.0   16.666666666666668
-500.0   90.0   16.666666666666668
-450.0   90.0   16.666666666666668
-500.0   90.0   0.0
-500.0   60.0   16.666666666666668
-450.0   90.0   16.666666666666668
-450.0   60.0   16.666666666666668
-450.0   60.0   0.0
-500.0   60.0   16.666666666666668
-450.0   90.0   16.666666666666668
-450.0   60.0   0.0
-500.0   90.0   0.0
-500.0   60.0   16.666666666666668
-450.0   60.0   16.666666666666668
-500.0   90.0   16.666666666666668
-500.0   60.0   33.333333333333336
-450.0   60.0   16.666666666666668
-450.0   90.0   16.666666666666668
-500.0   90.0   16.666666666666668
-450.0   90.0   33.333333333333336
-500.0   60.0   33.333333333333336
-500.0   90.0   33.333333333333336
-450.0   90.0   33.333333333333336
-500.0   90.0   16.666666666666668
-500.0   60.0   33.333333333333336
-450.0   90.0   33.333333333333336
-450.0   60.0   33.333333333333336
-450.0   60.0   16.666666666666668
-500.0   60.0   33.333333333333336
-450.0   90.0   33.333333333333336
-450.0   60.0   16.666666666666668
-500.0   90.0   16.666666666666668
-500.0   60.0   33.333333333333336
-450.0   60.0   33.333333333333336
-500.0   90.0   33.333333333333336
-500.0   60.0   50.0
-450.0   60.0   33.333333333333336
-450.0   90.0   33.333333333333336
-500.0   90.0   33.333333333333336
-450.0   90.0   50.0
-500.0   60.0   50.0
-500.0   90.0   50.0
-450.0   90.0   50.0
-500.0   90.0   33.333333333333336
-500.0   60.0   50.0
-450.0   90.0   50.0
-450.0   60.0   50.0
-450.0   60.0   33.333333333333336
-500.0   60.0   50.0
-450.0   90.0   50.0
-450.0   60.0   33.333333333333336
-500.0   90.0   33.333333333333336
-500.0   90.0   0.0
-450.0   90.0   0.0
-500.0   120.0   0.0
-500.0   90.0   16.666666666666668
-450.0   90.0   0.0
-450.0   120.0   0.0
-500.0   120.0   0.0
-450.0   120.0   16.666666666666668
-500.0   90.0   16.666666666666668
-500.0   120.0   16.666666666666668
-450.0   120.0   16.666666666666668
-500.0   120.0   0.0
-500.0   90.0   16.666666666666668
-450.0   120.0   16.666666666666668
-450.0   90.0   16.666666666666668
-450.0   90.0   0.0
-500.0   90.0   16.666666666666668
-450.0   120.0   16.666666666666668
-450.0   90.0   0.0
-500.0   120.0   0.0
-500.0   90.0   16.666666666666668
-450.0   90.0   16.666666666666668
-500.0   120.0   16.666666666666668
-500.0   90.0   33.333333333333336
-450.0   90.0   16.666666666666668
-450.0   120.0   16.666666666666668
-500.0   120.0   16.666666666666668
-450.0   120.0   33.333333333333336
-500.0   90.0   33.333333333333336
-500.0   120.0   33.333333333333336
-450.0   120.0   33.333333333333336
-500.0   120.0   16.666666666666668
-500.0   90.0   33.333333333333336
-450.0   120.0   33.333333333333336
-450.0   90.0   33.333333333333336
-450.0   90.0   16.666666666666668
-500.0   90.0   33.333333333333336
-450.0   120.0   33.333333333333336
-450.0   90.0   16.666666666666668
-500.0   120.0   16.666666666666668
-500.0   90.0   33.333333333333336
-450.0   90.0   33.333333333333336
-500.0   120.0   33.333333333333336
-500.0   90.0   50.0
-450.0   90.0   33.333333333333336
-450.0   120.0   33.333333333333336
-500.0   120.0   33.333333333333336
-450.0   120.0   50.0
-500.0   90.0   50.0
-500.0   120.0   50.0
-450.0   120.0   50.0
-500.0   120.0   33.333333333333336
-500.0   90.0   50.0
-450.0   120.0   50.0
-450.0   90.0   50.0
-450.0   90.0   33.333333333333336
-500.0   90.0   50.0
-450.0   120.0   50.0
-450.0   90.0   33.333333333333336
-500.0   120.0   33.333333333333336
-500.0   120.0   0.0
-450.0   120.0   0.0
-500.0   150.0   0.0
-500.0   120.0   16.666666666666668
-450.0   120.0   0.0
-450.0   150.0   0.0
-500.0   150.0   0.0
-450.0   150.0   16.666666666666668
-500.0   120.0   16.666666666666668
-500.0   150.0   16.666666666666668
-450.0   150.0   16.666666666666668
-500.0   150.0   0.0
-500.0   120.0   16.666666666666668
-450.0   150.0   16.666666666666668
-450.0   120.0   16.666666666666668
-450.0   120.0   0.0
-500.0   120.0   16.666666666666668
-450.0   150.0   16.666666666666668
-450.0   120.0   0.0
-500.0   150.0   0.0
-500.0   120.0   16.666666666666668
-450.0   120.0   16.666666666666668
-500.0   150.0   16.666666666666668
-500.0   120.0   33.333333333333336
-450.0   120.0   16.666666666666668
-450.0   150.0   16.666666666666668
-500.0   150.0   16.666666666666668
-450.0   150.0   33.333333333333336
-500.0   120.0   33.333333333333336
-500.0   150.0   33.333333333333336
-450.0   150.0   33.333333333333336
-500.0   150.0   16.666666666666668
-500.0   120.0   33.333333333333336
-450.0   150.0   33.333333333333336
-450.0   120.0   33.333333333333336
-450.0   120.0   16.666666666666668
-500.0   120.0   33.333333333333336
-450.0   150.0   33.333333333333336
-450.0   120.0   16.666666666666668
-500.0   150.0   16.666666666666668
-500.0   120.0   33.333333333333336
-450.0   120.0   33.333333333333336
-500.0   150.0   33.333333333333336
-500.0   120.0   50.0
-450.0   120.0   33.333333333333336
-450.0   150.0   33.333333333333336
-500.0   150.0   33.333333333333336
-450.0   150.0   50.0
-500.0   120.0   50.0
-500.0   150.0   50.0
-450.0   150.0   50.0
-500.0   150.0   33.333333333333336
-500.0   120.0   50.0
-450.0   150.0   50.0
-450.0   120.0   50.0
-450.0   120.0   33.333333333333336
-500.0   120.0   50.0
-450.0   150.0   50.0
-450.0   120.0   33.333333333333336
-500.0   150.0   33.333333333333336
-450.0   0.0   0.0
-400.0   0.0   0.0
-450.0   30.0   0.0
-450.0   0.0   16.666666666666668
-400.0   0.0   0.0
-400.0   30.0   0.0
-450.0   30.0   0.0
-400.0   30.0   16.666666666666668
-450.0   0.0   16.666666666666668
-450.0   30.0   16.666666666666668
-400.0   30.0   16.666666666666668
-450.0   30.0   0.0
-450.0   0.0   16.666666666666668
-400.0   30.0   16.666666666666668
-400.0   0.0   16.666666666666668
-400.0   0.0   0.0
-450.0   0.0   16.666666666666668
-400.0   30.0   16.666666666666668
-400.0   0.0   0.0
-450.0   30.0   0.0
-450.0   0.0   16.666666666666668
-400.0   0.0   16.666666666666668
-450.0   30.0   16.666666666666668
-450.0   0.0   33.333333333333336
-400.0   0.0   16.666666666666668
-400.0   30.0   16.666666666666668
-450.0   30.0   16.666666666666668
-400.0   30.0   33.333333333333336
-450.0   0.0   33.333333333333336
-450.0   30.0   33.333333333333336
-400.0   30.0   33.333333333333336
-450.0   30.0   16.666666666666668
-450.0   0.0   33.333333333333336
-400.0   30.0   33.333333333333336
-400.0   0.0   33.333333333333336
-400.0   0.0   16.666666666666668
-450.0   0.0   33.333333333333336
-400.0   30.0   33.333333333333336
-400.0   0.0   16.666666666666668
-450.0   30.0   16.666666666666668
-450.0   0.0   33.333333333333336
-400.0   0.0   33.333333333333336
-450.0   30.0   33.333333333333336
-450.0   0.0   50.0
-400.0   0.0   33.333333333333336
-400.0   30.0   33.333333333333336
-450.0   30.0   33.333333333333336
-400.0   30.0   50.0
-450.0   0.0   50.0
-450.0   30.0   50.0
-400.0   30.0   50.0
-450.0   30.0   33.333333333333336
-450.0   0.0   50.0
-400.0   30.0   50.0
-400.0   0.0   50.0
-400.0   0.0   33.333333333333336
-450.0   0.0   50.0
-400.0   30.0   50.0
-400.0   0.0   33.333333333333336
-450.0   30.0   33.333333333333336
-450.0   30.0   0.0
-400.0   30.0   0.0
-450.0   60.0   0.0
-450.0   30.0   16.666666666666668
-400.0   30.0   0.0
-400.0   60.0   0.0
-450.0   60.0   0.0
-400.0   60.0   16.666666666666668
-450.0   30.0   16.666666666666668
-450.0   60.0   16.666666666666668
-400.0   60.0   16.666666666666668
-450.0   60.0   0.0
-450.0   30.0   16.666666666666668
-400.0   60.0   16.666666666666668
-400.0   30.0   16.666666666666668
-400.0   30.0   0.0
-450.0   30.0   16.666666666666668
-400.0   60.0   16.666666666666668
-400.0   30.0   0.0
-450.0   60.0   0.0
-450.0   30.0   16.666666666666668
-400.0   30.0   16.666666666666668
-450.0   60.0   16.666666666666668
-450.0   30.0   33.333333333333336
-400.0   30.0   16.666666666666668
-400.0   60.0   16.666666666666668
-450.0   60.0   16.666666666666668
-400.0   60.0   33.333333333333336
-450.0   30.0   33.333333333333336
-450.0   60.0   33.333333333333336
-400.0   60.0   33.333333333333336
-450.0   60.0   16.666666666666668
-450.0   30.0   33.333333333333336
-400.0   60.0   33.333333333333336
-400.0   30.0   33.333333333333336
-400.0   30.0   16.666666666666668
-450.0   30.0   33.333333333333336
-400.0   60.0   33.333333333333336
-400.0   30.0   16.666666666666668
-450.0   60.0   16.666666666666668
-450.0   30.0   33.333333333333336
-400.0   30.0   33.333333333333336
-450.0   60.0   33.333333333333336
-450.0   30.0   50.0
-400.0   30.0   33.333333333333336
-400.0   60.0   33.333333333333336
-450.0   60.0   33.333333333333336
-400.0   60.0   50.0
-450.0   30.0   50.0
-450.0   60.0   50.0
-400.0   60.0   50.0
-450.0   60.0   33.333333333333336
-450.0   30.0   50.0
-400.0   60.0   50.0
-400.0   30.0   50.0
-400.0   30.0   33.333333333333336
-450.0   30.0   50.0
-400.0   60.0   50.0
-400.0   30.0   33.333333333333336
-450.0   60.0   33.333333333333336
-450.0   60.0   0.0
-400.0   60.0   0.0
-450.0   90.0   0.0
-450.0   60.0   16.666666666666668
-400.0   60.0   0.0
-400.0   90.0   0.0
-450.0   90.0   0.0
-400.0   90.0   16.666666666666668
-450.0   60.0   16.666666666666668
-450.0   90.0   16.666666666666668
-400.0   90.0   16.666666666666668
-450.0   90.0   0.0
-450.0   60.0   16.666666666666668
-400.0   90.0   16.666666666666668
-400.0   60.0   16.666666666666668
-400.0   60.0   0.0
-450.0   60.0   16.666666666666668
-400.0   90.0   16.666666666666668
-400.0   60.0   0.0
-450.0   90.0   0.0
-450.0   60.0   16.666666666666668
-400.0   60.0   16.666666666666668
-450.0   90.0   16.666666666666668
-450.0   60.0   33.333333333333336
-400.0   60.0   16.666666666666668
-400.0   90.0   16.666666666666668
-450.0   90.0   16.666666666666668
-400.0   90.0   33.333333333333336
-450.0   60.0   33.333333333333336
-450.0   90.0   33.333333333333336
-400.0   90.0   33.333333333333336
-450.0   90.0   16.666666666666668
-450.0   60.0   33.333333333333336
-400.0   90.0   33.333333333333336
-400.0   60.0   33.333333333333336
-400.0   60.0   16.666666666666668
-450.0   60.0   33.333333333333336
-400.0   90.0   33.333333333333336
-400.0   60.0   16.666666666666668
-450.0   90.0   16.666666666666668
-450.0   60.0   33.333333333333336
-400.0   60.0   33.333333333333336
-450.0   90.0   33.333333333333336
-450.0   60.0   50.0
-400.0   60.0   33.333333333333336
-400.0   90.0   33.333333333333336
-450.0   90.0   33.333333333333336
-400.0   90.0   50.0
-450.0   60.0   50.0
-450.0   90.0   50.0
-400.0   90.0   50.0
-450.0   90.0   33.333333333333336
-450.0   60.0   50.0
-400.0   90.0   50.0
-400.0   60.0   50.0
-400.0   60.0   33.333333333333336
-450.0   60.0   50.0
-400.0   90.0   50.0
-400.0   60.0   33.333333333333336
-450.0   90.0   33.333333333333336
-450.0   90.0   0.0
-400.0   90.0   0.0
-450.0   120.0   0.0
-450.0   90.0   16.666666666666668
-400.0   90.0   0.0
-400.0   120.0   0.0
-450.0   120.0   0.0
-400.0   120.0   16.666666666666668
-450.0   90.0   16.666666666666668
-450.0   120.0   16.666666666666668
-400.0   120.0   16.666666666666668
-450.0   120.0   0.0
-450.0   90.0   16.666666666666668
-400.0   120.0   16.666666666666668
-400.0   90.0   16.666666666666668
-400.0   90.0   0.0
-450.0   90.0   16.666666666666668
-400.0   120.0   16.666666666666668
-400.0   90.0   0.0
-450.0   120.0   0.0
-450.0   90.0   16.666666666666668
-400.0   90.0   16.666666666666668
-450.0   120.0   16.666666666666668
-450.0   90.0   33.333333333333336
-400.0   90.0   16.666666666666668
-400.0   120.0   16.666666666666668
-450.0   120.0   16.666666666666668
-400.0   120.0   33.333333333333336
-450.0   90.0   33.333333333333336
-450.0   120.0   33.333333333333336
-400.0   120.0   33.333333333333336
-450.0   120.0   16.666666666666668
-450.0   90.0   33.333333333333336
-400.0   120.0   33.333333333333336
-400.0   90.0   33.333333333333336
-400.0   90.0   16.666666666666668
-450.0   90.0   33.333333333333336
-400.0   120.0   33.333333333333336
-400.0   90.0   16.666666666666668
-450.0   120.0   16.666666666666668
-450.0   90.0   33.333333333333336
-400.0   90.0   33.333333333333336
-450.0   120.0   33.333333333333336
-450.0   90.0   50.0
-400.0   90.0   33.333333333333336
-400.0   120.0   33.333333333333336
-450.0   120.0   33.333333333333336
-400.0   120.0   50.0
-450.0   90.0   50.0
-450.0   120.0   50.0
-400.0   120.0   50.0
-450.0   120.0   33.333333333333336
-450.0   90.0   50.0
-400.0   120.0   50.0
-400.0   90.0   50.0
-400.0   90.0   33.333333333333336
-450.0   90.0   50.0
-400.0   120.0   50.0
-400.0   90.0   33.333333333333336
-450.0   120.0   33.333333333333336
-450.0   120.0   0.0
-400.0   120.0   0.0
-450.0   150.0   0.0
-450.0   120.0   16.666666666666668
-400.0   120.0   0.0
-400.0   150.0   0.0
-450.0   150.0   0.0
-400.0   150.0   16.666666666666668
-450.0   120.0   16.666666666666668
-450.0   150.0   16.666666666666668
-400.0   150.0   16.666666666666668
-450.0   150.0   0.0
-450.0   120.0   16.666666666666668
-400.0   150.0   16.666666666666668
-400.0   120.0   16.666666666666668
-400.0   120.0   0.0
-450.0   120.0   16.666666666666668
-400.0   150.0   16.666666666666668
-400.0   120.0   0.0
-450.0   150.0   0.0
-450.0   120.0   16.666666666666668
-400.0   120.0   16.666666666666668
-450.0   150.0   16.666666666666668
-450.0   120.0   33.333333333333336
-400.0   120.0   16.666666666666668
-400.0   150.0   16.666666666666668
-450.0   150.0   16.666666666666668
-400.0   150.0   33.333333333333336
-450.0   120.0   33.333333333333336
-450.0   150.0   33.333333333333336
-400.0   150.0   33.333333333333336
-450.0   150.0   16.666666666666668
-450.0   120.0   33.333333333333336
-400.0   150.0   33.333333333333336
-400.0   120.0   33.333333333333336
-400.0   120.0   16.666666666666668
-450.0   120.0   33.333333333333336
-400.0   150.0   33.333333333333336
-400.0   120.0   16.666666666666668
-450.0   150.0   16.666666666666668
-450.0   120.0   33.333333333333336
-400.0   120.0   33.333333333333336
-450.0   150.0   33.333333333333336
-450.0   120.0   50.0
-400.0   120.0   33.333333333333336
-400.0   150.0   33.333333333333336
-450.0   150.0   33.333333333333336
-400.0   150.0   50.0
-450.0   120.0   50.0
-450.0   150.0   50.0
-400.0   150.0   50.0
-450.0   150.0   33.333333333333336
-450.0   120.0   50.0
-400.0   150.0   50.0
-400.0   120.0   50.0
-400.0   120.0   33.333333333333336
-450.0   120.0   50.0
-400.0   150.0   50.0
-400.0   120.0   33.333333333333336
-450.0   150.0   33.333333333333336
-400.0   0.0   0.0
-350.0   0.0   0.0
-400.0   30.0   0.0
-400.0   0.0   16.666666666666668
-350.0   0.0   0.0
-350.0   30.0   0.0
-400.0   30.0   0.0
-350.0   30.0   16.666666666666668
-400.0   0.0   16.666666666666668
-400.0   30.0   16.666666666666668
-350.0   30.0   16.666666666666668
-400.0   30.0   0.0
-400.0   0.0   16.666666666666668
-350.0   30.0   16.666666666666668
-350.0   0.0   16.666666666666668
-350.0   0.0   0.0
-400.0   0.0   16.666666666666668
-350.0   30.0   16.666666666666668
-350.0   0.0   0.0
-400.0   30.0   0.0
-400.0   0.0   16.666666666666668
-350.0   0.0   16.666666666666668
-400.0   30.0   16.666666666666668
-400.0   0.0   33.333333333333336
-350.0   0.0   16.666666666666668
-350.0   30.0   16.666666666666668
-400.0   30.0   16.666666666666668
-350.0   30.0   33.333333333333336
-400.0   0.0   33.333333333333336
-400.0   30.0   33.333333333333336
-350.0   30.0   33.333333333333336
-400.0   30.0   16.666666666666668
-400.0   0.0   33.333333333333336
-350.0   30.0   33.333333333333336
-350.0   0.0   33.333333333333336
-350.0   0.0   16.666666666666668
-400.0   0.0   33.333333333333336
-350.0   30.0   33.333333333333336
-350.0   0.0   16.666666666666668
-400.0   30.0   16.666666666666668
-400.0   0.0   33.333333333333336
-350.0   0.0   33.333333333333336
-400.0   30.0   33.333333333333336
-400.0   0.0   50.0
-350.0   0.0   33.333333333333336
-350.0   30.0   33.333333333333336
-400.0   30.0   33.333333333333336
-350.0   30.0   50.0
-400.0   0.0   50.0
-400.0   30.0   50.0
-350.0   30.0   50.0
-400.0   30.0   33.333333333333336
-400.0   0.0   50.0
-350.0   30.0   50.0
-350.0   0.0   50.0
-350.0   0.0   33.333333333333336
-400.0   0.0   50.0
-350.0   30.0   50.0
-350.0   0.0   33.333333333333336
-400.0   30.0   33.333333333333336
-400.0   30.0   0.0
-350.0   30.0   0.0
-400.0   60.0   0.0
-400.0   30.0   16.666666666666668
-350.0   30.0   0.0
-350.0   60.0   0.0
-400.0   60.0   0.0
-350.0   60.0   16.666666666666668
-400.0   30.0   16.666666666666668
-400.0   60.0   16.666666666666668
-350.0   60.0   16.666666666666668
-400.0   60.0   0.0
-400.0   30.0   16.666666666666668
-350.0   60.0   16.666666666666668
-350.0   30.0   16.666666666666668
-350.0   30.0   0.0
-400.0   30.0   16.666666666666668
-350.0   60.0   16.666666666666668
-350.0   30.0   0.0
-400.0   60.0   0.0
-400.0   30.0   16.666666666666668
-350.0   30.0   16.666666666666668
-400.0   60.0   16.666666666666668
-400.0   30.0   33.333333333333336
-350.0   30.0   16.666666666666668
-350.0   60.0   16.666666666666668
-400.0   60.0   16.666666666666668
-350.0   60.0   33.333333333333336
-400.0   30.0   33.333333333333336
-400.0   60.0   33.333333333333336
-350.0   60.0   33.333333333333336
-400.0   60.0   16.666666666666668
-400.0   30.0   33.333333333333336
-350.0   60.0   33.333333333333336
-350.0   30.0   33.333333333333336
-350.0   30.0   16.666666666666668
-400.0   30.0   33.333333333333336
-350.0   60.0   33.333333333333336
-350.0   30.0   16.666666666666668
-400.0   60.0   16.666666666666668
-400.0   30.0   33.333333333333336
-350.0   30.0   33.333333333333336
-400.0   60.0   33.333333333333336
-400.0   30.0   50.0
-350.0   30.0   33.333333333333336
-350.0   60.0   33.333333333333336
-400.0   60.0   33.333333333333336
-350.0   60.0   50.0
-400.0   30.0   50.0
-400.0   60.0   50.0
-350.0   60.0   50.0
-400.0   60.0   33.333333333333336
-400.0   30.0   50.0
-350.0   60.0   50.0
-350.0   30.0   50.0
-350.0   30.0   33.333333333333336
-400.0   30.0   50.0
-350.0   60.0   50.0
-350.0   30.0   33.333333333333336
-400.0   60.0   33.333333333333336
-400.0   60.0   0.0
-350.0   60.0   0.0
-400.0   90.0   0.0
-400.0   60.0   16.666666666666668
-350.0   60.0   0.0
-350.0   90.0   0.0
-400.0   90.0   0.0
-350.0   90.0   16.666666666666668
-400.0   60.0   16.666666666666668
-400.0   90.0   16.666666666666668
-350.0   90.0   16.666666666666668
-400.0   90.0   0.0
-400.0   60.0   16.666666666666668
-350.0   90.0   16.666666666666668
-350.0   60.0   16.666666666666668
-350.0   60.0   0.0
-400.0   60.0   16.666666666666668
-350.0   90.0   16.666666666666668
-350.0   60.0   0.0
-400.0   90.0   0.0
-400.0   60.0   16.666666666666668
-350.0   60.0   16.666666666666668
-400.0   90.0   16.666666666666668
-400.0   60.0   33.333333333333336
-350.0   60.0   16.666666666666668
-350.0   90.0   16.666666666666668
-400.0   90.0   16.666666666666668
-350.0   90.0   33.333333333333336
-400.0   60.0   33.333333333333336
-400.0   90.0   33.333333333333336
-350.0   90.0   33.333333333333336
-400.0   90.0   16.666666666666668
-400.0   60.0   33.333333333333336
-350.0   90.0   33.333333333333336
-350.0   60.0   33.333333333333336
-350.0   60.0   16.666666666666668
-400.0   60.0   33.333333333333336
-350.0   90.0   33.333333333333336
-350.0   60.0   16.666666666666668
-400.0   90.0   16.666666666666668
-400.0   60.0   33.333333333333336
-350.0   60.0   33.333333333333336
-400.0   90.0   33.333333333333336
-400.0   60.0   50.0
-350.0   60.0   33.333333333333336
-350.0   90.0   33.333333333333336
-400.0   90.0   33.333333333333336
-350.0   90.0   50.0
-400.0   60.0   50.0
-400.0   90.0   50.0
-350.0   90.0   50.0
-400.0   90.0   33.333333333333336
-400.0   60.0   50.0
-350.0   90.0   50.0
-350.0   60.0   50.0
-350.0   60.0   33.333333333333336
-400.0   60.0   50.0
-350.0   90.0   50.0
-350.0   60.0   33.333333333333336
-400.0   90.0   33.333333333333336
-400.0   90.0   0.0
-350.0   90.0   0.0
-400.0   120.0   0.0
-400.0   90.0   16.666666666666668
-350.0   90.0   0.0
-350.0   120.0   0.0
-400.0   120.0   0.0
-350.0   120.0   16.666666666666668
-400.0   90.0   16.666666666666668
-400.0   120.0   16.666666666666668
-350.0   120.0   16.666666666666668
-400.0   120.0   0.0
-400.0   90.0   16.666666666666668
-350.0   120.0   16.666666666666668
-350.0   90.0   16.666666666666668
-350.0   90.0   0.0
-400.0   90.0   16.666666666666668
-350.0   120.0   16.666666666666668
-350.0   90.0   0.0
-400.0   120.0   0.0
-400.0   90.0   16.666666666666668
-350.0   90.0   16.666666666666668
-400.0   120.0   16.666666666666668
-400.0   90.0   33.333333333333336
-350.0   90.0   16.666666666666668
-350.0   120.0   16.666666666666668
-400.0   120.0   16.666666666666668
-350.0   120.0   33.333333333333336
-400.0   90.0   33.333333333333336
-400.0   120.0   33.333333333333336
-350.0   120.0   33.333333333333336
-400.0   120.0   16.666666666666668
-400.0   90.0   33.333333333333336
-350.0   120.0   33.333333333333336
-350.0   90.0   33.333333333333336
-350.0   90.0   16.666666666666668
-400.0   90.0   33.333333333333336
-350.0   120.0   33.333333333333336
-350.0   90.0   16.666666666666668
-400.0   120.0   16.666666666666668
-400.0   90.0   33.333333333333336
-350.0   90.0   33.333333333333336
-400.0   120.0   33.333333333333336
-400.0   90.0   50.0
-350.0   90.0   33.333333333333336
-350.0   120.0   33.333333333333336
-400.0   120.0   33.333333333333336
-350.0   120.0   50.0
-400.0   90.0   50.0
-400.0   120.0   50.0
-350.0   120.0   50.0
-400.0   120.0   33.333333333333336
-400.0   90.0   50.0
-350.0   120.0   50.0
-350.0   90.0   50.0
-350.0   90.0   33.333333333333336
-400.0   90.0   50.0
-350.0   120.0   50.0
-350.0   90.0   33.333333333333336
-400.0   120.0   33.333333333333336
-400.0   120.0   0.0
-350.0   120.0   0.0
-400.0   150.0   0.0
-400.0   120.0   16.666666666666668
-350.0   120.0   0.0
-350.0   150.0   0.0
-400.0   150.0   0.0
-350.0   150.0   16.666666666666668
-400.0   120.0   16.666666666666668
-400.0   150.0   16.666666666666668
-350.0   150.0   16.666666666666668
-400.0   150.0   0.0
-400.0   120.0   16.666666666666668
-350.0   150.0   16.666666666666668
-350.0   120.0   16.666666666666668
-350.0   120.0   0.0
-400.0   120.0   16.666666666666668
-350.0   150.0   16.666666666666668
-350.0   120.0   0.0
-400.0   150.0   0.0
-400.0   120.0   16.666666666666668
-350.0   120.0   16.666666666666668
-400.0   150.0   16.666666666666668
-400.0   120.0   33.333333333333336
-350.0   120.0   16.666666666666668
-350.0   150.0   16.666666666666668
-400.0   150.0   16.666666666666668
-350.0   150.0   33.333333333333336
-400.0   120.0   33.333333333333336
-400.0   150.0   33.333333333333336
-350.0   150.0   33.333333333333336
-400.0   150.0   16.666666666666668
-400.0   120.0   33.333333333333336
-350.0   150.0   33.333333333333336
-350.0   120.0   33.333333333333336
-350.0   120.0   16.666666666666668
-400.0   120.0   33.333333333333336
-350.0   150.0   33.333333333333336
-350.0   120.0   16.666666666666668
-400.0   150.0   16.666666666666668
-400.0   120.0   33.333333333333336
-350.0   120.0   33.333333333333336
-400.0   150.0   33.333333333333336
-400.0   120.0   50.0
-350.0   120.0   33.333333333333336
-350.0   150.0   33.333333333333336
-400.0   150.0   33.333333333333336
-350.0   150.0   50.0
-400.0   120.0   50.0
-400.0   150.0   50.0
-350.0   150.0   50.0
-400.0   150.0   33.333333333333336
-400.0   120.0   50.0
-350.0   150.0   50.0
-350.0   120.0   50.0
-350.0   120.0   33.333333333333336
-400.0   120.0   50.0
-350.0   150.0   50.0
-350.0   120.0   33.333333333333336
-400.0   150.0   33.333333333333336
-350.0   0.0   0.0
-300.0   0.0   0.0
-350.0   30.0   0.0
-350.0   0.0   16.666666666666668
-300.0   0.0   0.0
-300.0   30.0   0.0
-350.0   30.0   0.0
-300.0   30.0   16.666666666666668
-350.0   0.0   16.666666666666668
-350.0   30.0   16.666666666666668
-300.0   30.0   16.666666666666668
-350.0   30.0   0.0
-350.0   0.0   16.666666666666668
-300.0   30.0   16.666666666666668
-300.0   0.0   16.666666666666668
-300.0   0.0   0.0
-350.0   0.0   16.666666666666668
-300.0   30.0   16.666666666666668
-300.0   0.0   0.0
-350.0   30.0   0.0
-350.0   0.0   16.666666666666668
-300.0   0.0   16.666666666666668
-350.0   30.0   16.666666666666668
-350.0   0.0   33.333333333333336
-300.0   0.0   16.666666666666668
-300.0   30.0   16.666666666666668
-350.0   30.0   16.666666666666668
-300.0   30.0   33.333333333333336
-350.0   0.0   33.333333333333336
-350.0   30.0   33.333333333333336
-300.0   30.0   33.333333333333336
-350.0   30.0   16.666666666666668
-350.0   0.0   33.333333333333336
-300.0   30.0   33.333333333333336
-300.0   0.0   33.333333333333336
-300.0   0.0   16.666666666666668
-350.0   0.0   33.333333333333336
-300.0   30.0   33.333333333333336
-300.0   0.0   16.666666666666668
-350.0   30.0   16.666666666666668
-350.0   0.0   33.333333333333336
-300.0   0.0   33.333333333333336
-350.0   30.0   33.333333333333336
-350.0   0.0   50.0
-300.0   0.0   33.333333333333336
-300.0   30.0   33.333333333333336
-350.0   30.0   33.333333333333336
-300.0   30.0   50.0
-350.0   0.0   50.0
-350.0   30.0   50.0
-300.0   30.0   50.0
-350.0   30.0   33.333333333333336
-350.0   0.0   50.0
-300.0   30.0   50.0
-300.0   0.0   50.0
-300.0   0.0   33.333333333333336
-350.0   0.0   50.0
-300.0   30.0   50.0
-300.0   0.0   33.333333333333336
-350.0   30.0   33.333333333333336
-350.0   30.0   0.0
-300.0   30.0   0.0
-350.0   60.0   0.0
-350.0   30.0   16.666666666666668
-300.0   30.0   0.0
-300.0   60.0   0.0
-350.0   60.0   0.0
-300.0   60.0   16.666666666666668
-350.0   30.0   16.666666666666668
-350.0   60.0   16.666666666666668
-300.0   60.0   16.666666666666668
-350.0   60.0   0.0
-350.0   30.0   16.666666666666668
-300.0   60.0   16.666666666666668
-300.0   30.0   16.666666666666668
-300.0   30.0   0.0
-350.0   30.0   16.666666666666668
-300.0   60.0   16.666666666666668
-300.0   30.0   0.0
-350.0   60.0   0.0
-350.0   30.0   16.666666666666668
-300.0   30.0   16.666666666666668
-350.0   60.0   16.666666666666668
-350.0   30.0   33.333333333333336
-300.0   30.0   16.666666666666668
-300.0   60.0   16.666666666666668
-350.0   60.0   16.666666666666668
-300.0   60.0   33.333333333333336
-350.0   30.0   33.333333333333336
-350.0   60.0   33.333333333333336
-300.0   60.0   33.333333333333336
-350.0   60.0   16.666666666666668
-350.0   30.0   33.333333333333336
-300.0   60.0   33.333333333333336
-300.0   30.0   33.333333333333336
-300.0   30.0   16.666666666666668
-350.0   30.0   33.333333333333336
-300.0   60.0   33.333333333333336
-300.0   30.0   16.666666666666668
-350.0   60.0   16.666666666666668
-350.0   30.0   33.333333333333336
-300.0   30.0   33.333333333333336
-350.0   60.0   33.333333333333336
-350.0   30.0   50.0
-300.0   30.0   33.333333333333336
-300.0   60.0   33.333333333333336
-350.0   60.0   33.333333333333336
-300.0   60.0   50.0
-350.0   30.0   50.0
-350.0   60.0   50.0
-300.0   60.0   50.0
-350.0   60.0   33.333333333333336
-350.0   30.0   50.0
-300.0   60.0   50.0
-300.0   30.0   50.0
-300.0   30.0   33.333333333333336
-350.0   30.0   50.0
-300.0   60.0   50.0
-300.0   30.0   33.333333333333336
-350.0   60.0   33.333333333333336
-350.0   60.0   0.0
-300.0   60.0   0.0
-350.0   90.0   0.0
-350.0   60.0   16.666666666666668
-300.0   60.0   0.0
-300.0   90.0   0.0
-350.0   90.0   0.0
-300.0   90.0   16.666666666666668
-350.0   60.0   16.666666666666668
-350.0   90.0   16.666666666666668
-300.0   90.0   16.666666666666668
-350.0   90.0   0.0
-350.0   60.0   16.666666666666668
-300.0   90.0   16.666666666666668
-300.0   60.0   16.666666666666668
-300.0   60.0   0.0
-350.0   60.0   16.666666666666668
-300.0   90.0   16.666666666666668
-300.0   60.0   0.0
-350.0   90.0   0.0
-350.0   60.0   16.666666666666668
-300.0   60.0   16.666666666666668
-350.0   90.0   16.666666666666668
-350.0   60.0   33.333333333333336
-300.0   60.0   16.666666666666668
-300.0   90.0   16.666666666666668
-350.0   90.0   16.666666666666668
-300.0   90.0   33.333333333333336
-350.0   60.0   33.333333333333336
-350.0   90.0   33.333333333333336
-300.0   90.0   33.333333333333336
-350.0   90.0   16.666666666666668
-350.0   60.0   33.333333333333336
-300.0   90.0   33.333333333333336
-300.0   60.0   33.333333333333336
-300.0   60.0   16.666666666666668
-350.0   60.0   33.333333333333336
-300.0   90.0   33.333333333333336
-300.0   60.0   16.666666666666668
-350.0   90.0   16.666666666666668
-350.0   60.0   33.333333333333336
-300.0   60.0   33.333333333333336
-350.0   90.0   33.333333333333336
-350.0   60.0   50.0
-300.0   60.0   33.333333333333336
-300.0   90.0   33.333333333333336
-350.0   90.0   33.333333333333336
-300.0   90.0   50.0
-350.0   60.0   50.0
-350.0   90.0   50.0
-300.0   90.0   50.0
-350.0   90.0   33.333333333333336
-350.0   60.0   50.0
-300.0   90.0   50.0
-300.0   60.0   50.0
-300.0   60.0   33.333333333333336
-350.0   60.0   50.0
-300.0   90.0   50.0
-300.0   60.0   33.333333333333336
-350.0   90.0   33.333333333333336
-350.0   90.0   0.0
-300.0   90.0   0.0
-350.0   120.0   0.0
-350.0   90.0   16.666666666666668
-300.0   90.0   0.0
-300.0   120.0   0.0
-350.0   120.0   0.0
-300.0   120.0   16.666666666666668
-350.0   90.0   16.666666666666668
-350.0   120.0   16.666666666666668
-300.0   120.0   16.666666666666668
-350.0   120.0   0.0
-350.0   90.0   16.666666666666668
-300.0   120.0   16.666666666666668
-300.0   90.0   16.666666666666668
-300.0   90.0   0.0
-350.0   90.0   16.666666666666668
-300.0   120.0   16.666666666666668
-300.0   90.0   0.0
-350.0   120.0   0.0
-350.0   90.0   16.666666666666668
-300.0   90.0   16.666666666666668
-350.0   120.0   16.666666666666668
-350.0   90.0   33.333333333333336
-300.0   90.0   16.666666666666668
-300.0   120.0   16.666666666666668
-350.0   120.0   16.666666666666668
-300.0   120.0   33.333333333333336
-350.0   90.0   33.333333333333336
-350.0   120.0   33.333333333333336
-300.0   120.0   33.333333333333336
-350.0   120.0   16.666666666666668
-350.0   90.0   33.333333333333336
-300.0   120.0   33.333333333333336
-300.0   90.0   33.333333333333336
-300.0   90.0   16.666666666666668
-350.0   90.0   33.333333333333336
-300.0   120.0   33.333333333333336
-300.0   90.0   16.666666666666668
-350.0   120.0   16.666666666666668
-350.0   90.0   33.333333333333336
-300.0   90.0   33.333333333333336
-350.0   120.0   33.333333333333336
-350.0   90.0   50.0
-300.0   90.0   33.333333333333336
-300.0   120.0   33.333333333333336
-350.0   120.0   33.333333333333336
-300.0   120.0   50.0
-350.0   90.0   50.0
-350.0   120.0   50.0
-300.0   120.0   50.0
-350.0   120.0   33.333333333333336
-350.0   90.0   50.0
-300.0   120.0   50.0
-300.0   90.0   50.0
-300.0   90.0   33.333333333333336
-350.0   90.0   50.0
-300.0   120.0   50.0
-300.0   90.0   33.333333333333336
-350.0   120.0   33.333333333333336
-350.0   120.0   0.0
-300.0   120.0   0.0
-350.0   150.0   0.0
-350.0   120.0   16.666666666666668
-300.0   120.0   0.0
-300.0   150.0   0.0
-350.0   150.0   0.0
-300.0   150.0   16.666666666666668
-350.0   120.0   16.666666666666668
-350.0   150.0   16.666666666666668
-300.0   150.0   16.666666666666668
-350.0   150.0   0.0
-350.0   120.0   16.666666666666668
-300.0   150.0   16.666666666666668
-300.0   120.0   16.666666666666668
-300.0   120.0   0.0
-350.0   120.0   16.666666666666668
-300.0   150.0   16.666666666666668
-300.0   120.0   0.0
-350.0   150.0   0.0
-350.0   120.0   16.666666666666668
-300.0   120.0   16.666666666666668
-350.0   150.0   16.666666666666668
-350.0   120.0   33.333333333333336
-300.0   120.0   16.666666666666668
-300.0   150.0   16.666666666666668
-350.0   150.0   16.666666666666668
-300.0   150.0   33.333333333333336
-350.0   120.0   33.333333333333336
-350.0   150.0   33.333333333333336
-300.0   150.0   33.333333333333336
-350.0   150.0   16.666666666666668
-350.0   120.0   33.333333333333336
-300.0   150.0   33.333333333333336
-300.0   120.0   33.333333333333336
-300.0   120.0   16.666666666666668
-350.0   120.0   33.333333333333336
-300.0   150.0   33.333333333333336
-300.0   120.0   16.666666666666668
-350.0   150.0   16.666666666666668
-350.0   120.0   33.333333333333336
-300.0   120.0   33.333333333333336
-350.0   150.0   33.333333333333336
-350.0   120.0   50.0
-300.0   120.0   33.333333333333336
-300.0   150.0   33.333333333333336
-350.0   150.0   33.333333333333336
-300.0   150.0   50.0
-350.0   120.0   50.0
-350.0   150.0   50.0
-300.0   150.0   50.0
-350.0   150.0   33.333333333333336
-350.0   120.0   50.0
-300.0   150.0   50.0
-300.0   120.0   50.0
-300.0   120.0   33.333333333333336
-350.0   120.0   50.0
-300.0   150.0   50.0
-300.0   120.0   33.333333333333336
-350.0   150.0   33.333333333333336
-300.0   0.0   0.0
-250.0   0.0   0.0
-300.0   30.0   0.0
-300.0   0.0   16.666666666666668
-250.0   0.0   0.0
-250.0   30.0   0.0
-300.0   30.0   0.0
-250.0   30.0   16.666666666666668
-300.0   0.0   16.666666666666668
-300.0   30.0   16.666666666666668
-250.0   30.0   16.666666666666668
-300.0   30.0   0.0
-300.0   0.0   16.666666666666668
-250.0   30.0   16.666666666666668
-250.0   0.0   16.666666666666668
-250.0   0.0   0.0
-300.0   0.0   16.666666666666668
-250.0   30.0   16.666666666666668
-250.0   0.0   0.0
-300.0   30.0   0.0
-300.0   0.0   16.666666666666668
-250.0   0.0   16.666666666666668
-300.0   30.0   16.666666666666668
-300.0   0.0   33.333333333333336
-250.0   0.0   16.666666666666668
-250.0   30.0   16.666666666666668
-300.0   30.0   16.666666666666668
-250.0   30.0   33.333333333333336
-300.0   0.0   33.333333333333336
-300.0   30.0   33.333333333333336
-250.0   30.0   33.333333333333336
-300.0   30.0   16.666666666666668
-300.0   0.0   33.333333333333336
-250.0   30.0   33.333333333333336
-250.0   0.0   33.333333333333336
-250.0   0.0   16.666666666666668
-300.0   0.0   33.333333333333336
-250.0   30.0   33.333333333333336
-250.0   0.0   16.666666666666668
-300.0   30.0   16.666666666666668
-300.0   0.0   33.333333333333336
-250.0   0.0   33.333333333333336
-300.0   30.0   33.333333333333336
-300.0   0.0   50.0
-250.0   0.0   33.333333333333336
-250.0   30.0   33.333333333333336
-300.0   30.0   33.333333333333336
-250.0   30.0   50.0
-300.0   0.0   50.0
-300.0   30.0   50.0
-250.0   30.0   50.0
-300.0   30.0   33.333333333333336
-300.0   0.0   50.0
-250.0   30.0   50.0
-250.0   0.0   50.0
-250.0   0.0   33.333333333333336
-300.0   0.0   50.0
-250.0   30.0   50.0
-250.0   0.0   33.333333333333336
-300.0   30.0   33.333333333333336
-300.0   30.0   0.0
-250.0   30.0   0.0
-300.0   60.0   0.0
-300.0   30.0   16.666666666666668
-250.0   30.0   0.0
-250.0   60.0   0.0
-300.0   60.0   0.0
-250.0   60.0   16.666666666666668
-300.0   30.0   16.666666666666668
-300.0   60.0   16.666666666666668
-250.0   60.0   16.666666666666668
-300.0   60.0   0.0
-300.0   30.0   16.666666666666668
-250.0   60.0   16.666666666666668
-250.0   30.0   16.666666666666668
-250.0   30.0   0.0
-300.0   30.0   16.666666666666668
-250.0   60.0   16.666666666666668
-250.0   30.0   0.0
-300.0   60.0   0.0
-300.0   30.0   16.666666666666668
-250.0   30.0   16.666666666666668
-300.0   60.0   16.666666666666668
-300.0   30.0   33.333333333333336
-250.0   30.0   16.666666666666668
-250.0   60.0   16.666666666666668
-300.0   60.0   16.666666666666668
-250.0   60.0   33.333333333333336
-300.0   30.0   33.333333333333336
-300.0   60.0   33.333333333333336
-250.0   60.0   33.333333333333336
-300.0   60.0   16.666666666666668
-300.0   30.0   33.333333333333336
-250.0   60.0   33.333333333333336
-250.0   30.0   33.333333333333336
-250.0   30.0   16.666666666666668
-300.0   30.0   33.333333333333336
-250.0   60.0   33.333333333333336
-250.0   30.0   16.666666666666668
-300.0   60.0   16.666666666666668
-300.0   30.0   33.333333333333336
-250.0   30.0   33.333333333333336
-300.0   60.0   33.333333333333336
-300.0   30.0   50.0
-250.0   30.0   33.333333333333336
-250.0   60.0   33.333333333333336
-300.0   60.0   33.333333333333336
-250.0   60.0   50.0
-300.0   30.0   50.0
-300.0   60.0   50.0
-250.0   60.0   50.0
-300.0   60.0   33.333333333333336
-300.0   30.0   50.0
-250.0   60.0   50.0
-250.0   30.0   50.0
-250.0   30.0   33.333333333333336
-300.0   30.0   50.0
-250.0   60.0   50.0
-250.0   30.0   33.333333333333336
-300.0   60.0   33.333333333333336
-300.0   60.0   0.0
-250.0   60.0   0.0
-300.0   90.0   0.0
-300.0   60.0   16.666666666666668
-250.0   60.0   0.0
-250.0   90.0   0.0
-300.0   90.0   0.0
-250.0   90.0   16.666666666666668
-300.0   60.0   16.666666666666668
-300.0   90.0   16.666666666666668
-250.0   90.0   16.666666666666668
-300.0   90.0   0.0
-300.0   60.0   16.666666666666668
-250.0   90.0   16.666666666666668
-250.0   60.0   16.666666666666668
-250.0   60.0   0.0
-300.0   60.0   16.666666666666668
-250.0   90.0   16.666666666666668
-250.0   60.0   0.0
-300.0   90.0   0.0
-300.0   60.0   16.666666666666668
-250.0   60.0   16.666666666666668
-300.0   90.0   16.666666666666668
-300.0   60.0   33.333333333333336
-250.0   60.0   16.666666666666668
-250.0   90.0   16.666666666666668
-300.0   90.0   16.666666666666668
-250.0   90.0   33.333333333333336
-300.0   60.0   33.333333333333336
-300.0   90.0   33.333333333333336
-250.0   90.0   33.333333333333336
-300.0   90.0   16.666666666666668
-300.0   60.0   33.333333333333336
-250.0   90.0   33.333333333333336
-250.0   60.0   33.333333333333336
-250.0   60.0   16.666666666666668
-300.0   60.0   33.333333333333336
-250.0   90.0   33.333333333333336
-250.0   60.0   16.666666666666668
-300.0   90.0   16.666666666666668
-300.0   60.0   33.333333333333336
-250.0   60.0   33.333333333333336
-300.0   90.0   33.333333333333336
-300.0   60.0   50.0
-250.0   60.0   33.333333333333336
-250.0   90.0   33.333333333333336
-300.0   90.0   33.333333333333336
-250.0   90.0   50.0
-300.0   60.0   50.0
-300.0   90.0   50.0
-250.0   90.0   50.0
-300.0   90.0   33.333333333333336
-300.0   60.0   50.0
-250.0   90.0   50.0
-250.0   60.0   50.0
-250.0   60.0   33.333333333333336
-300.0   60.0   50.0
-250.0   90.0   50.0
-250.0   60.0   33.333333333333336
-300.0   90.0   33.333333333333336
-300.0   90.0   0.0
-250.0   90.0   0.0
-300.0   120.0   0.0
-300.0   90.0   16.666666666666668
-250.0   90.0   0.0
-250.0   120.0   0.0
-300.0   120.0   0.0
-250.0   120.0   16.666666666666668
-300.0   90.0   16.666666666666668
-300.0   120.0   16.666666666666668
-250.0   120.0   16.666666666666668
-300.0   120.0   0.0
-300.0   90.0   16.666666666666668
-250.0   120.0   16.666666666666668
-250.0   90.0   16.666666666666668
-250.0   90.0   0.0
-300.0   90.0   16.666666666666668
-250.0   120.0   16.666666666666668
-250.0   90.0   0.0
-300.0   120.0   0.0
-300.0   90.0   16.666666666666668
-250.0   90.0   16.666666666666668
-300.0   120.0   16.666666666666668
-300.0   90.0   33.333333333333336
-250.0   90.0   16.666666666666668
-250.0   120.0   16.666666666666668
-300.0   120.0   16.666666666666668
-250.0   120.0   33.333333333333336
-300.0   90.0   33.333333333333336
-300.0   120.0   33.333333333333336
-250.0   120.0   33.333333333333336
-300.0   120.0   16.666666666666668
-300.0   90.0   33.333333333333336
-250.0   120.0   33.333333333333336
-250.0   90.0   33.333333333333336
-250.0   90.0   16.666666666666668
-300.0   90.0   33.333333333333336
-250.0   120.0   33.333333333333336
-250.0   90.0   16.666666666666668
-300.0   120.0   16.666666666666668
-300.0   90.0   33.333333333333336
-250.0   90.0   33.333333333333336
-300.0   120.0   33.333333333333336
-300.0   90.0   50.0
-250.0   90.0   33.333333333333336
-250.0   120.0   33.333333333333336
-300.0   120.0   33.333333333333336
-250.0   120.0   50.0
-300.0   90.0   50.0
-300.0   120.0   50.0
-250.0   120.0   50.0
-300.0   120.0   33.333333333333336
-300.0   90.0   50.0
-250.0   120.0   50.0
-250.0   90.0   50.0
-250.0   90.0   33.333333333333336
-300.0   90.0   50.0
-250.0   120.0   50.0
-250.0   90.0   33.333333333333336
-300.0   120.0   33.333333333333336
-300.0   120.0   0.0
-250.0   120.0   0.0
-300.0   150.0   0.0
-300.0   120.0   16.666666666666668
-250.0   120.0   0.0
-250.0   150.0   0.0
-300.0   150.0   0.0
-250.0   150.0   16.666666666666668
-300.0   120.0   16.666666666666668
-300.0   150.0   16.666666666666668
-250.0   150.0   16.666666666666668
-300.0   150.0   0.0
-300.0   120.0   16.666666666666668
-250.0   150.0   16.666666666666668
-250.0   120.0   16.666666666666668
-250.0   120.0   0.0
-300.0   120.0   16.666666666666668
-250.0   150.0   16.666666666666668
-250.0   120.0   0.0
-300.0   150.0   0.0
-300.0   120.0   16.666666666666668
-250.0   120.0   16.666666666666668
-300.0   150.0   16.666666666666668
-300.0   120.0   33.333333333333336
-250.0   120.0   16.666666666666668
-250.0   150.0   16.666666666666668
-300.0   150.0   16.666666666666668
-250.0   150.0   33.333333333333336
-300.0   120.0   33.333333333333336
-300.0   150.0   33.333333333333336
-250.0   150.0   33.333333333333336
-300.0   150.0   16.666666666666668
-300.0   120.0   33.333333333333336
-250.0   150.0   33.333333333333336
-250.0   120.0   33.333333333333336
-250.0   120.0   16.666666666666668
-300.0   120.0   33.333333333333336
-250.0   150.0   33.333333333333336
-250.0   120.0   16.666666666666668
-300.0   150.0   16.666666666666668
-300.0   120.0   33.333333333333336
-250.0   120.0   33.333333333333336
-300.0   150.0   33.333333333333336
-300.0   120.0   50.0
-250.0   120.0   33.333333333333336
-250.0   150.0   33.333333333333336
-300.0   150.0   33.333333333333336
-250.0   150.0   50.0
-300.0   120.0   50.0
-300.0   150.0   50.0
-250.0   150.0   50.0
-300.0   150.0   33.333333333333336
-300.0   120.0   50.0
-250.0   150.0   50.0
-250.0   120.0   50.0
-250.0   120.0   33.333333333333336
-300.0   120.0   50.0
-250.0   150.0   50.0
-250.0   120.0   33.333333333333336
-300.0   150.0   33.333333333333336
-250.0   0.0   0.0
-200.0   0.0   0.0
-250.0   30.0   0.0
-250.0   0.0   16.666666666666668
-200.0   0.0   0.0
-200.0   30.0   0.0
-250.0   30.0   0.0
-200.0   30.0   16.666666666666668
-250.0   0.0   16.666666666666668
-250.0   30.0   16.666666666666668
-200.0   30.0   16.666666666666668
-250.0   30.0   0.0
-250.0   0.0   16.666666666666668
-200.0   30.0   16.666666666666668
-200.0   0.0   16.666666666666668
-200.0   0.0   0.0
-250.0   0.0   16.666666666666668
-200.0   30.0   16.666666666666668
-200.0   0.0   0.0
-250.0   30.0   0.0
-250.0   0.0   16.666666666666668
-200.0   0.0   16.666666666666668
-250.0   30.0   16.666666666666668
-250.0   0.0   33.333333333333336
-200.0   0.0   16.666666666666668
-200.0   30.0   16.666666666666668
-250.0   30.0   16.666666666666668
-200.0   30.0   33.333333333333336
-250.0   0.0   33.333333333333336
-250.0   30.0   33.333333333333336
-200.0   30.0   33.333333333333336
-250.0   30.0   16.666666666666668
-250.0   0.0   33.333333333333336
-200.0   30.0   33.333333333333336
-200.0   0.0   33.333333333333336
-200.0   0.0   16.666666666666668
-250.0   0.0   33.333333333333336
-200.0   30.0   33.333333333333336
-200.0   0.0   16.666666666666668
-250.0   30.0   16.666666666666668
-250.0   0.0   33.333333333333336
-200.0   0.0   33.333333333333336
-250.0   30.0   33.333333333333336
-250.0   0.0   50.0
-200.0   0.0   33.333333333333336
-200.0   30.0   33.333333333333336
-250.0   30.0   33.333333333333336
-200.0   30.0   50.0
-250.0   0.0   50.0
-250.0   30.0   50.0
-200.0   30.0   50.0
-250.0   30.0   33.333333333333336
-250.0   0.0   50.0
-200.0   30.0   50.0
-200.0   0.0   50.0
-200.0   0.0   33.333333333333336
-250.0   0.0   50.0
-200.0   30.0   50.0
-200.0   0.0   33.333333333333336
-250.0   30.0   33.333333333333336
-250.0   30.0   0.0
-200.0   30.0   0.0
-250.0   60.0   0.0
-250.0   30.0   16.666666666666668
-200.0   30.0   0.0
-200.0   60.0   0.0
-250.0   60.0   0.0
-200.0   60.0   16.666666666666668
-250.0   30.0   16.666666666666668
-250.0   60.0   16.666666666666668
-200.0   60.0   16.666666666666668
-250.0   60.0   0.0
-250.0   30.0   16.666666666666668
-200.0   60.0   16.666666666666668
-200.0   30.0   16.666666666666668
-200.0   30.0   0.0
-250.0   30.0   16.666666666666668
-200.0   60.0   16.666666666666668
-200.0   30.0   0.0
-250.0   60.0   0.0
-250.0   30.0   16.666666666666668
-200.0   30.0   16.666666666666668
-250.0   60.0   16.666666666666668
-250.0   30.0   33.333333333333336
-200.0   30.0   16.666666666666668
-200.0   60.0   16.666666666666668
-250.0   60.0   16.666666666666668
-200.0   60.0   33.333333333333336
-250.0   30.0   33.333333333333336
-250.0   60.0   33.333333333333336
-200.0   60.0   33.333333333333336
-250.0   60.0   16.666666666666668
-250.0   30.0   33.333333333333336
-200.0   60.0   33.333333333333336
-200.0   30.0   33.333333333333336
-200.0   30.0   16.666666666666668
-250.0   30.0   33.333333333333336
-200.0   60.0   33.333333333333336
-200.0   30.0   16.666666666666668
-250.0   60.0   16.666666666666668
-250.0   30.0   33.333333333333336
-200.0   30.0   33.333333333333336
-250.0   60.0   33.333333333333336
-250.0   30.0   50.0
-200.0   30.0   33.333333333333336
-200.0   60.0   33.333333333333336
-250.0   60.0   33.333333333333336
-200.0   60.0   50.0
-250.0   30.0   50.0
-250.0   60.0   50.0
-200.0   60.0   50.0
-250.0   60.0   33.333333333333336
-250.0   30.0   50.0
-200.0   60.0   50.0
-200.0   30.0   50.0
-200.0   30.0   33.333333333333336
-250.0   30.0   50.0
-200.0   60.0   50.0
-200.0   30.0   33.333333333333336
-250.0   60.0   33.333333333333336
-250.0   60.0   0.0
-200.0   60.0   0.0
-250.0   90.0   0.0
-250.0   60.0   16.666666666666668
-200.0   60.0   0.0
-200.0   90.0   0.0
-250.0   90.0   0.0
-200.0   90.0   16.666666666666668
-250.0   60.0   16.666666666666668
-250.0   90.0   16.666666666666668
-200.0   90.0   16.666666666666668
-250.0   90.0   0.0
-250.0   60.0   16.666666666666668
-200.0   90.0   16.666666666666668
-200.0   60.0   16.666666666666668
-200.0   60.0   0.0
-250.0   60.0   16.666666666666668
-200.0   90.0   16.666666666666668
-200.0   60.0   0.0
-250.0   90.0   0.0
-250.0   60.0   16.666666666666668
-200.0   60.0   16.666666666666668
-250.0   90.0   16.666666666666668
-250.0   60.0   33.333333333333336
-200.0   60.0   16.666666666666668
-200.0   90.0   16.666666666666668
-250.0   90.0   16.666666666666668
-200.0   90.0   33.333333333333336
-250.0   60.0   33.333333333333336
-250.0   90.0   33.333333333333336
-200.0   90.0   33.333333333333336
-250.0   90.0   16.666666666666668
-250.0   60.0   33.333333333333336
-200.0   90.0   33.333333333333336
-200.0   60.0   33.333333333333336
-200.0   60.0   16.666666666666668
-250.0   60.0   33.333333333333336
-200.0   90.0   33.333333333333336
-200.0   60.0   16.666666666666668
-250.0   90.0   16.666666666666668
-250.0   60.0   33.333333333333336
-200.0   60.0   33.333333333333336
-250.0   90.0   33.333333333333336
-250.0   60.0   50.0
-200.0   60.0   33.333333333333336
-200.0   90.0   33.333333333333336
-250.0   90.0   33.333333333333336
-200.0   90.0   50.0
-250.0   60.0   50.0
-250.0   90.0   50.0
-200.0   90.0   50.0
-250.0   90.0   33.333333333333336
-250.0   60.0   50.0
-200.0   90.0   50.0
-200.0   60.0   50.0
-200.0   60.0   33.333333333333336
-250.0   60.0   50.0
-200.0   90.0   50.0
-200.0   60.0   33.333333333333336
-250.0   90.0   33.333333333333336
-250.0   90.0   0.0
-200.0   90.0   0.0
-250.0   120.0   0.0
-250.0   90.0   16.666666666666668
-200.0   90.0   0.0
-200.0   120.0   0.0
-250.0   120.0   0.0
-200.0   120.0   16.666666666666668
-250.0   90.0   16.666666666666668
-250.0   120.0   16.666666666666668
-200.0   120.0   16.666666666666668
-250.0   120.0   0.0
-250.0   90.0   16.666666666666668
-200.0   120.0   16.666666666666668
-200.0   90.0   16.666666666666668
-200.0   90.0   0.0
-250.0   90.0   16.666666666666668
-200.0   120.0   16.666666666666668
-200.0   90.0   0.0
-250.0   120.0   0.0
-250.0   90.0   16.666666666666668
-200.0   90.0   16.666666666666668
-250.0   120.0   16.666666666666668
-250.0   90.0   33.333333333333336
-200.0   90.0   16.666666666666668
-200.0   120.0   16.666666666666668
-250.0   120.0   16.666666666666668
-200.0   120.0   33.333333333333336
-250.0   90.0   33.333333333333336
-250.0   120.0   33.333333333333336
-200.0   120.0   33.333333333333336
-250.0   120.0   16.666666666666668
-250.0   90.0   33.333333333333336
-200.0   120.0   33.333333333333336
-200.0   90.0   33.333333333333336
-200.0   90.0   16.666666666666668
-250.0   90.0   33.333333333333336
-200.0   120.0   33.333333333333336
-200.0   90.0   16.666666666666668
-250.0   120.0   16.666666666666668
-250.0   90.0   33.333333333333336
-200.0   90.0   33.333333333333336
-250.0   120.0   33.333333333333336
-250.0   90.0   50.0
-200.0   90.0   33.333333333333336
-200.0   120.0   33.333333333333336
-250.0   120.0   33.333333333333336
-200.0   120.0   50.0
-250.0   90.0   50.0
-250.0   120.0   50.0
-200.0   120.0   50.0
-250.0   120.0   33.333333333333336
-250.0   90.0   50.0
-200.0   120.0   50.0
-200.0   90.0   50.0
-200.0   90.0   33.333333333333336
-250.0   90.0   50.0
-200.0   120.0   50.0
-200.0   90.0   33.333333333333336
-250.0   120.0   33.333333333333336
-250.0   120.0   0.0
-200.0   120.0   0.0
-250.0   150.0   0.0
-250.0   120.0   16.666666666666668
-200.0   120.0   0.0
-200.0   150.0   0.0
-250.0   150.0   0.0
-200.0   150.0   16.666666666666668
-250.0   120.0   16.666666666666668
-250.0   150.0   16.666666666666668
-200.0   150.0   16.666666666666668
-250.0   150.0   0.0
-250.0   120.0   16.666666666666668
-200.0   150.0   16.666666666666668
-200.0   120.0   16.666666666666668
-200.0   120.0   0.0
-250.0   120.0   16.666666666666668
-200.0   150.0   16.666666666666668
-200.0   120.0   0.0
-250.0   150.0   0.0
-250.0   120.0   16.666666666666668
-200.0   120.0   16.666666666666668
-250.0   150.0   16.666666666666668
-250.0   120.0   33.333333333333336
-200.0   120.0   16.666666666666668
-200.0   150.0   16.666666666666668
-250.0   150.0   16.666666666666668
-200.0   150.0   33.333333333333336
-250.0   120.0   33.333333333333336
-250.0   150.0   33.333333333333336
-200.0   150.0   33.333333333333336
-250.0   150.0   16.666666666666668
-250.0   120.0   33.333333333333336
-200.0   150.0   33.333333333333336
-200.0   120.0   33.333333333333336
-200.0   120.0   16.666666666666668
-250.0   120.0   33.333333333333336
-200.0   150.0   33.333333333333336
-200.0   120.0   16.666666666666668
-250.0   150.0   16.666666666666668
-250.0   120.0   33.333333333333336
-200.0   120.0   33.333333333333336
-250.0   150.0   33.333333333333336
-250.0   120.0   50.0
-200.0   120.0   33.333333333333336
-200.0   150.0   33.333333333333336
-250.0   150.0   33.333333333333336
-200.0   150.0   50.0
-250.0   120.0   50.0
-250.0   150.0   50.0
-200.0   150.0   50.0
-250.0   150.0   33.333333333333336
-250.0   120.0   50.0
-200.0   150.0   50.0
-200.0   120.0   50.0
-200.0   120.0   33.333333333333336
-250.0   120.0   50.0
-200.0   150.0   50.0
-200.0   120.0   33.333333333333336
-250.0   150.0   33.333333333333336
-200.0   0.0   0.0
-150.0   0.0   0.0
-200.0   30.0   0.0
-200.0   0.0   16.666666666666668
-150.0   0.0   0.0
-150.0   30.0   0.0
-200.0   30.0   0.0
-150.0   30.0   16.666666666666668
-200.0   0.0   16.666666666666668
-200.0   30.0   16.666666666666668
-150.0   30.0   16.666666666666668
-200.0   30.0   0.0
-200.0   0.0   16.666666666666668
-150.0   30.0   16.666666666666668
-150.0   0.0   16.666666666666668
-150.0   0.0   0.0
-200.0   0.0   16.666666666666668
-150.0   30.0   16.666666666666668
-150.0   0.0   0.0
-200.0   30.0   0.0
-200.0   0.0   16.666666666666668
-150.0   0.0   16.666666666666668
-200.0   30.0   16.666666666666668
-200.0   0.0   33.333333333333336
-150.0   0.0   16.666666666666668
-150.0   30.0   16.666666666666668
-200.0   30.0   16.666666666666668
-150.0   30.0   33.333333333333336
-200.0   0.0   33.333333333333336
-200.0   30.0   33.333333333333336
-150.0   30.0   33.333333333333336
-200.0   30.0   16.666666666666668
-200.0   0.0   33.333333333333336
-150.0   30.0   33.333333333333336
-150.0   0.0   33.333333333333336
-150.0   0.0   16.666666666666668
-200.0   0.0   33.333333333333336
-150.0   30.0   33.333333333333336
-150.0   0.0   16.666666666666668
-200.0   30.0   16.666666666666668
-200.0   0.0   33.333333333333336
-150.0   0.0   33.333333333333336
-200.0   30.0   33.333333333333336
-200.0   0.0   50.0
-150.0   0.0   33.333333333333336
-150.0   30.0   33.333333333333336
-200.0   30.0   33.333333333333336
-150.0   30.0   50.0
-200.0   0.0   50.0
-200.0   30.0   50.0
-150.0   30.0   50.0
-200.0   30.0   33.333333333333336
-200.0   0.0   50.0
-150.0   30.0   50.0
-150.0   0.0   50.0
-150.0   0.0   33.333333333333336
-200.0   0.0   50.0
-150.0   30.0   50.0
-150.0   0.0   33.333333333333336
-200.0   30.0   33.333333333333336
-200.0   30.0   0.0
-150.0   30.0   0.0
-200.0   60.0   0.0
-200.0   30.0   16.666666666666668
-150.0   30.0   0.0
-150.0   60.0   0.0
-200.0   60.0   0.0
-150.0   60.0   16.666666666666668
-200.0   30.0   16.666666666666668
-200.0   60.0   16.666666666666668
-150.0   60.0   16.666666666666668
-200.0   60.0   0.0
-200.0   30.0   16.666666666666668
-150.0   60.0   16.666666666666668
-150.0   30.0   16.666666666666668
-150.0   30.0   0.0
-200.0   30.0   16.666666666666668
-150.0   60.0   16.666666666666668
-150.0   30.0   0.0
-200.0   60.0   0.0
-200.0   30.0   16.666666666666668
-150.0   30.0   16.666666666666668
-200.0   60.0   16.666666666666668
-200.0   30.0   33.333333333333336
-150.0   30.0   16.666666666666668
-150.0   60.0   16.666666666666668
-200.0   60.0   16.666666666666668
-150.0   60.0   33.333333333333336
-200.0   30.0   33.333333333333336
-200.0   60.0   33.333333333333336
-150.0   60.0   33.333333333333336
-200.0   60.0   16.666666666666668
-200.0   30.0   33.333333333333336
-150.0   60.0   33.333333333333336
-150.0   30.0   33.333333333333336
-150.0   30.0   16.666666666666668
-200.0   30.0   33.333333333333336
-150.0   60.0   33.333333333333336
-150.0   30.0   16.666666666666668
-200.0   60.0   16.666666666666668
-200.0   30.0   33.333333333333336
-150.0   30.0   33.333333333333336
-200.0   60.0   33.333333333333336
-200.0   30.0   50.0
-150.0   30.0   33.333333333333336
-150.0   60.0   33.333333333333336
-200.0   60.0   33.333333333333336
-150.0   60.0   50.0
-200.0   30.0   50.0
-200.0   60.0   50.0
-150.0   60.0   50.0
-200.0   60.0   33.333333333333336
-200.0   30.0   50.0
-150.0   60.0   50.0
-150.0   30.0   50.0
-150.0   30.0   33.333333333333336
-200.0   30.0   50.0
-150.0   60.0   50.0
-150.0   30.0   33.333333333333336
-200.0   60.0   33.333333333333336
-200.0   60.0   0.0
-150.0   60.0   0.0
-200.0   90.0   0.0
-200.0   60.0   16.666666666666668
-150.0   60.0   0.0
-150.0   90.0   0.0
-200.0   90.0   0.0
-150.0   90.0   16.666666666666668
-200.0   60.0   16.666666666666668
-200.0   90.0   16.666666666666668
-150.0   90.0   16.666666666666668
-200.0   90.0   0.0
-200.0   60.0   16.666666666666668
-150.0   90.0   16.666666666666668
-150.0   60.0   16.666666666666668
-150.0   60.0   0.0
-200.0   60.0   16.666666666666668
-150.0   90.0   16.666666666666668
-150.0   60.0   0.0
-200.0   90.0   0.0
-200.0   60.0   16.666666666666668
-150.0   60.0   16.666666666666668
-200.0   90.0   16.666666666666668
-200.0   60.0   33.333333333333336
-150.0   60.0   16.666666666666668
-150.0   90.0   16.666666666666668
-200.0   90.0   16.666666666666668
-150.0   90.0   33.333333333333336
-200.0   60.0   33.333333333333336
-200.0   90.0   33.333333333333336
-150.0   90.0   33.333333333333336
-200.0   90.0   16.666666666666668
-200.0   60.0   33.333333333333336
-150.0   90.0   33.333333333333336
-150.0   60.0   33.333333333333336
-150.0   60.0   16.666666666666668
-200.0   60.0   33.333333333333336
-150.0   90.0   33.333333333333336
-150.0   60.0   16.666666666666668
-200.0   90.0   16.666666666666668
-200.0   60.0   33.333333333333336
-150.0   60.0   33.333333333333336
-200.0   90.0   33.333333333333336
-200.0   60.0   50.0
-150.0   60.0   33.333333333333336
-150.0   90.0   33.333333333333336
-200.0   90.0   33.333333333333336
-150.0   90.0   50.0
-200.0   60.0   50.0
-200.0   90.0   50.0
-150.0   90.0   50.0
-200.0   90.0   33.333333333333336
-200.0   60.0   50.0
-150.0   90.0   50.0
-150.0   60.0   50.0
-150.0   60.0   33.333333333333336
-200.0   60.0   50.0
-150.0   90.0   50.0
-150.0   60.0   33.333333333333336
-200.0   90.0   33.333333333333336
-200.0   90.0   0.0
-150.0   90.0   0.0
-200.0   120.0   0.0
-200.0   90.0   16.666666666666668
-150.0   90.0   0.0
-150.0   120.0   0.0
-200.0   120.0   0.0
-150.0   120.0   16.666666666666668
-200.0   90.0   16.666666666666668
-200.0   120.0   16.666666666666668
-150.0   120.0   16.666666666666668
-200.0   120.0   0.0
-200.0   90.0   16.666666666666668
-150.0   120.0   16.666666666666668
-150.0   90.0   16.666666666666668
-150.0   90.0   0.0
-200.0   90.0   16.666666666666668
-150.0   120.0   16.666666666666668
-150.0   90.0   0.0
-200.0   120.0   0.0
-200.0   90.0   16.666666666666668
-150.0   90.0   16.666666666666668
-200.0   120.0   16.666666666666668
-200.0   90.0   33.333333333333336
-150.0   90.0   16.666666666666668
-150.0   120.0   16.666666666666668
-200.0   120.0   16.666666666666668
-150.0   120.0   33.333333333333336
-200.0   90.0   33.333333333333336
-200.0   120.0   33.333333333333336
-150.0   120.0   33.333333333333336
-200.0   120.0   16.666666666666668
-200.0   90.0   33.333333333333336
-150.0   120.0   33.333333333333336
-150.0   90.0   33.333333333333336
-150.0   90.0   16.666666666666668
-200.0   90.0   33.333333333333336
-150.0   120.0   33.333333333333336
-150.0   90.0   16.666666666666668
-200.0   120.0   16.666666666666668
-200.0   90.0   33.333333333333336
-150.0   90.0   33.333333333333336
-200.0   120.0   33.333333333333336
-200.0   90.0   50.0
-150.0   90.0   33.333333333333336
-150.0   120.0   33.333333333333336
-200.0   120.0   33.333333333333336
-150.0   120.0   50.0
-200.0   90.0   50.0
-200.0   120.0   50.0
-150.0   120.0   50.0
-200.0   120.0   33.333333333333336
-200.0   90.0   50.0
-150.0   120.0   50.0
-150.0   90.0   50.0
-150.0   90.0   33.333333333333336
-200.0   90.0   50.0
-150.0   120.0   50.0
-150.0   90.0   33.333333333333336
-200.0   120.0   33.333333333333336
-200.0   120.0   0.0
-150.0   120.0   0.0
-200.0   150.0   0.0
-200.0   120.0   16.666666666666668
-150.0   120.0   0.0
-150.0   150.0   0.0
-200.0   150.0   0.0
-150.0   150.0   16.666666666666668
-200.0   120.0   16.666666666666668
-200.0   150.0   16.666666666666668
-150.0   150.0   16.666666666666668
-200.0   150.0   0.0
-200.0   120.0   16.666666666666668
-150.0   150.0   16.666666666666668
-150.0   120.0   16.666666666666668
-150.0   120.0   0.0
-200.0   120.0   16.666666666666668
-150.0   150.0   16.666666666666668
-150.0   120.0   0.0
-200.0   150.0   0.0
-200.0   120.0   16.666666666666668
-150.0   120.0   16.666666666666668
-200.0   150.0   16.666666666666668
-200.0   120.0   33.333333333333336
-150.0   120.0   16.666666666666668
-150.0   150.0   16.666666666666668
-200.0   150.0   16.666666666666668
-150.0   150.0   33.333333333333336
-200.0   120.0   33.333333333333336
-200.0   150.0   33.333333333333336
-150.0   150.0   33.333333333333336
-200.0   150.0   16.666666666666668
-200.0   120.0   33.333333333333336
-150.0   150.0   33.333333333333336
-150.0   120.0   33.333333333333336
-150.0   120.0   16.666666666666668
-200.0   120.0   33.333333333333336
-150.0   150.0   33.333333333333336
-150.0   120.0   16.666666666666668
-200.0   150.0   16.666666666666668
-200.0   120.0   33.333333333333336
-150.0   120.0   33.333333333333336
-200.0   150.0   33.333333333333336
-200.0   120.0   50.0
-150.0   120.0   33.333333333333336
-150.0   150.0   33.333333333333336
-200.0   150.0   33.333333333333336
-150.0   150.0   50.0
-200.0   120.0   50.0
-200.0   150.0   50.0
-150.0   150.0   50.0
-200.0   150.0   33.333333333333336
-200.0   120.0   50.0
-150.0   150.0   50.0
-150.0   120.0   50.0
-150.0   120.0   33.333333333333336
-200.0   120.0   50.0
-150.0   150.0   50.0
-150.0   120.0   33.333333333333336
-200.0   150.0   33.333333333333336
-150.0   0.0   0.0
-100.0   0.0   0.0
-150.0   30.0   0.0
-150.0   0.0   16.666666666666668
-100.0   0.0   0.0
-100.0   30.0   0.0
-150.0   30.0   0.0
-100.0   30.0   16.666666666666668
-150.0   0.0   16.666666666666668
-150.0   30.0   16.666666666666668
-100.0   30.0   16.666666666666668
-150.0   30.0   0.0
-150.0   0.0   16.666666666666668
-100.0   30.0   16.666666666666668
-100.0   0.0   16.666666666666668
-100.0   0.0   0.0
-150.0   0.0   16.666666666666668
-100.0   30.0   16.666666666666668
-100.0   0.0   0.0
-150.0   30.0   0.0
-150.0   0.0   16.666666666666668
-100.0   0.0   16.666666666666668
-150.0   30.0   16.666666666666668
-150.0   0.0   33.333333333333336
-100.0   0.0   16.666666666666668
-100.0   30.0   16.666666666666668
-150.0   30.0   16.666666666666668
-100.0   30.0   33.333333333333336
-150.0   0.0   33.333333333333336
-150.0   30.0   33.333333333333336
-100.0   30.0   33.333333333333336
-150.0   30.0   16.666666666666668
-150.0   0.0   33.333333333333336
-100.0   30.0   33.333333333333336
-100.0   0.0   33.333333333333336
-100.0   0.0   16.666666666666668
-150.0   0.0   33.333333333333336
-100.0   30.0   33.333333333333336
-100.0   0.0   16.666666666666668
-150.0   30.0   16.666666666666668
-150.0   0.0   33.333333333333336
-100.0   0.0   33.333333333333336
-150.0   30.0   33.333333333333336
-150.0   0.0   50.0
-100.0   0.0   33.333333333333336
-100.0   30.0   33.333333333333336
-150.0   30.0   33.333333333333336
-100.0   30.0   50.0
-150.0   0.0   50.0
-150.0   30.0   50.0
-100.0   30.0   50.0
-150.0   30.0   33.333333333333336
-150.0   0.0   50.0
-100.0   30.0   50.0
-100.0   0.0   50.0
-100.0   0.0   33.333333333333336
-150.0   0.0   50.0
-100.0   30.0   50.0
-100.0   0.0   33.333333333333336
-150.0   30.0   33.333333333333336
-150.0   30.0   0.0
-100.0   30.0   0.0
-150.0   60.0   0.0
-150.0   30.0   16.666666666666668
-100.0   30.0   0.0
-100.0   60.0   0.0
-150.0   60.0   0.0
-100.0   60.0   16.666666666666668
-150.0   30.0   16.666666666666668
-150.0   60.0   16.666666666666668
-100.0   60.0   16.666666666666668
-150.0   60.0   0.0
-150.0   30.0   16.666666666666668
-100.0   60.0   16.666666666666668
-100.0   30.0   16.666666666666668
-100.0   30.0   0.0
-150.0   30.0   16.666666666666668
-100.0   60.0   16.666666666666668
-100.0   30.0   0.0
-150.0   60.0   0.0
-150.0   30.0   16.666666666666668
-100.0   30.0   16.666666666666668
-150.0   60.0   16.666666666666668
-150.0   30.0   33.333333333333336
-100.0   30.0   16.666666666666668
-100.0   60.0   16.666666666666668
-150.0   60.0   16.666666666666668
-100.0   60.0   33.333333333333336
-150.0   30.0   33.333333333333336
-150.0   60.0   33.333333333333336
-100.0   60.0   33.333333333333336
-150.0   60.0   16.666666666666668
-150.0   30.0   33.333333333333336
-100.0   60.0   33.333333333333336
-100.0   30.0   33.333333333333336
-100.0   30.0   16.666666666666668
-150.0   30.0   33.333333333333336
-100.0   60.0   33.333333333333336
-100.0   30.0   16.666666666666668
-150.0   60.0   16.666666666666668
-150.0   30.0   33.333333333333336
-100.0   30.0   33.333333333333336
-150.0   60.0   33.333333333333336
-150.0   30.0   50.0
-100.0   30.0   33.333333333333336
-100.0   60.0   33.333333333333336
-150.0   60.0   33.333333333333336
-100.0   60.0   50.0
-150.0   30.0   50.0
-150.0   60.0   50.0
-100.0   60.0   50.0
-150.0   60.0   33.333333333333336
-150.0   30.0   50.0
-100.0   60.0   50.0
-100.0   30.0   50.0
-100.0   30.0   33.333333333333336
-150.0   30.0   50.0
-100.0   60.0   50.0
-100.0   30.0   33.333333333333336
-150.0   60.0   33.333333333333336
-150.0   60.0   0.0
-100.0   60.0   0.0
-150.0   90.0   0.0
-150.0   60.0   16.666666666666668
-100.0   60.0   0.0
-100.0   90.0   0.0
-150.0   90.0   0.0
-100.0   90.0   16.666666666666668
-150.0   60.0   16.666666666666668
-150.0   90.0   16.666666666666668
-100.0   90.0   16.666666666666668
-150.0   90.0   0.0
-150.0   60.0   16.666666666666668
-100.0   90.0   16.666666666666668
-100.0   60.0   16.666666666666668
-100.0   60.0   0.0
-150.0   60.0   16.666666666666668
-100.0   90.0   16.666666666666668
-100.0   60.0   0.0
-150.0   90.0   0.0
-150.0   60.0   16.666666666666668
-100.0   60.0   16.666666666666668
-150.0   90.0   16.666666666666668
-150.0   60.0   33.333333333333336
-100.0   60.0   16.666666666666668
-100.0   90.0   16.666666666666668
-150.0   90.0   16.666666666666668
-100.0   90.0   33.333333333333336
-150.0   60.0   33.333333333333336
-150.0   90.0   33.333333333333336
-100.0   90.0   33.333333333333336
-150.0   90.0   16.666666666666668
-150.0   60.0   33.333333333333336
-100.0   90.0   33.333333333333336
-100.0   60.0   33.333333333333336
-100.0   60.0   16.666666666666668
-150.0   60.0   33.333333333333336
-100.0   90.0   33.333333333333336
-100.0   60.0   16.666666666666668
-150.0   90.0   16.666666666666668
-150.0   60.0   33.333333333333336
-100.0   60.0   33.333333333333336
-150.0   90.0   33.333333333333336
-150.0   60.0   50.0
-100.0   60.0   33.333333333333336
-100.0   90.0   33.333333333333336
-150.0   90.0   33.333333333333336
-100.0   90.0   50.0
-150.0   60.0   50.0
-150.0   90.0   50.0
-100.0   90.0   50.0
-150.0   90.0   33.333333333333336
-150.0   60.0   50.0
-100.0   90.0   50.0
-100.0   60.0   50.0
-100.0   60.0   33.333333333333336
-150.0   60.0   50.0
-100.0   90.0   50.0
-100.0   60.0   33.333333333333336
-150.0   90.0   33.333333333333336
-150.0   90.0   0.0
-100.0   90.0   0.0
-150.0   120.0   0.0
-150.0   90.0   16.666666666666668
-100.0   90.0   0.0
-100.0   120.0   0.0
-150.0   120.0   0.0
-100.0   120.0   16.666666666666668
-150.0   90.0   16.666666666666668
-150.0   120.0   16.666666666666668
-100.0   120.0   16.666666666666668
-150.0   120.0   0.0
-150.0   90.0   16.666666666666668
-100.0   120.0   16.666666666666668
-100.0   90.0   16.666666666666668
-100.0   90.0   0.0
-150.0   90.0   16.666666666666668
-100.0   120.0   16.666666666666668
-100.0   90.0   0.0
-150.0   120.0   0.0
-150.0   90.0   16.666666666666668
-100.0   90.0   16.666666666666668
-150.0   120.0   16.666666666666668
-150.0   90.0   33.333333333333336
-100.0   90.0   16.666666666666668
-100.0   120.0   16.666666666666668
-150.0   120.0   16.666666666666668
-100.0   120.0   33.333333333333336
-150.0   90.0   33.333333333333336
-150.0   120.0   33.333333333333336
-100.0   120.0   33.333333333333336
-150.0   120.0   16.666666666666668
-150.0   90.0   33.333333333333336
-100.0   120.0   33.333333333333336
-100.0   90.0   33.333333333333336
-100.0   90.0   16.666666666666668
-150.0   90.0   33.333333333333336
-100.0   120.0   33.333333333333336
-100.0   90.0   16.666666666666668
-150.0   120.0   16.666666666666668
-150.0   90.0   33.333333333333336
-100.0   90.0   33.333333333333336
-150.0   120.0   33.333333333333336
-150.0   90.0   50.0
-100.0   90.0   33.333333333333336
-100.0   120.0   33.333333333333336
-150.0   120.0   33.333333333333336
-100.0   120.0   50.0
-150.0   90.0   50.0
-150.0   120.0   50.0
-100.0   120.0   50.0
-150.0   120.0   33.333333333333336
-150.0   90.0   50.0
-100.0   120.0   50.0
-100.0   90.0   50.0
-100.0   90.0   33.333333333333336
-150.0   90.0   50.0
-100.0   120.0   50.0
-100.0   90.0   33.333333333333336
-150.0   120.0   33.333333333333336
-150.0   120.0   0.0
-100.0   120.0   0.0
-150.0   150.0   0.0
-150.0   120.0   16.666666666666668
-100.0   120.0   0.0
-100.0   150.0   0.0
-150.0   150.0   0.0
-100.0   150.0   16.666666666666668
-150.0   120.0   16.666666666666668
-150.0   150.0   16.666666666666668
-100.0   150.0   16.666666666666668
-150.0   150.0   0.0
-150.0   120.0   16.666666666666668
-100.0   150.0   16.666666666666668
-100.0   120.0   16.666666666666668
-100.0   120.0   0.0
-150.0   120.0   16.666666666666668
-100.0   150.0   16.666666666666668
-100.0   120.0   0.0
-150.0   150.0   0.0
-150.0   120.0   16.666666666666668
-100.0   120.0   16.666666666666668
-150.0   150.0   16.666666666666668
-150.0   120.0   33.333333333333336
-100.0   120.0   16.666666666666668
-100.0   150.0   16.666666666666668
-150.0   150.0   16.666666666666668
-100.0   150.0   33.333333333333336
-150.0   120.0   33.333333333333336
-150.0   150.0   33.333333333333336
-100.0   150.0   33.333333333333336
-150.0   150.0   16.666666666666668
-150.0   120.0   33.333333333333336
-100.0   150.0   33.333333333333336
-100.0   120.0   33.333333333333336
-100.0   120.0   16.666666666666668
-150.0   120.0   33.333333333333336
-100.0   150.0   33.333333333333336
-100.0   120.0   16.666666666666668
-150.0   150.0   16.666666666666668
-150.0   120.0   33.333333333333336
-100.0   120.0   33.333333333333336
-150.0   150.0   33.333333333333336
-150.0   120.0   50.0
-100.0   120.0   33.333333333333336
-100.0   150.0   33.333333333333336
-150.0   150.0   33.333333333333336
-100.0   150.0   50.0
-150.0   120.0   50.0
-150.0   150.0   50.0
-100.0   150.0   50.0
-150.0   150.0   33.333333333333336
-150.0   120.0   50.0
-100.0   150.0   50.0
-100.0   120.0   50.0
-100.0   120.0   33.333333333333336
-150.0   120.0   50.0
-100.0   150.0   50.0
-100.0   120.0   33.333333333333336
-150.0   150.0   33.333333333333336
-100.0   0.0   0.0
-50.0   0.0   0.0
-100.0   30.0   0.0
-100.0   0.0   16.666666666666668
-50.0   0.0   0.0
-50.0   30.0   0.0
-100.0   30.0   0.0
-50.0   30.0   16.666666666666668
-100.0   0.0   16.666666666666668
-100.0   30.0   16.666666666666668
-50.0   30.0   16.666666666666668
-100.0   30.0   0.0
-100.0   0.0   16.666666666666668
-50.0   30.0   16.666666666666668
-50.0   0.0   16.666666666666668
-50.0   0.0   0.0
-100.0   0.0   16.666666666666668
-50.0   30.0   16.666666666666668
-50.0   0.0   0.0
-100.0   30.0   0.0
-100.0   0.0   16.666666666666668
-50.0   0.0   16.666666666666668
-100.0   30.0   16.666666666666668
-100.0   0.0   33.333333333333336
-50.0   0.0   16.666666666666668
-50.0   30.0   16.666666666666668
-100.0   30.0   16.666666666666668
-50.0   30.0   33.333333333333336
-100.0   0.0   33.333333333333336
-100.0   30.0   33.333333333333336
-50.0   30.0   33.333333333333336
-100.0   30.0   16.666666666666668
-100.0   0.0   33.333333333333336
-50.0   30.0   33.333333333333336
-50.0   0.0   33.333333333333336
-50.0   0.0   16.666666666666668
-100.0   0.0   33.333333333333336
-50.0   30.0   33.333333333333336
-50.0   0.0   16.666666666666668
-100.0   30.0   16.666666666666668
-100.0   0.0   33.333333333333336
-50.0   0.0   33.333333333333336
-100.0   30.0   33.333333333333336
-100.0   0.0   50.0
-50.0   0.0   33.333333333333336
-50.0   30.0   33.333333333333336
-100.0   30.0   33.333333333333336
-50.0   30.0   50.0
-100.0   0.0   50.0
-100.0   30.0   50.0
-50.0   30.0   50.0
-100.0   30.0   33.333333333333336
-100.0   0.0   50.0
-50.0   30.0   50.0
-50.0   0.0   50.0
-50.0   0.0   33.333333333333336
-100.0   0.0   50.0
-50.0   30.0   50.0
-50.0   0.0   33.333333333333336
-100.0   30.0   33.333333333333336
-100.0   30.0   0.0
-50.0   30.0   0.0
-100.0   60.0   0.0
-100.0   30.0   16.666666666666668
-50.0   30.0   0.0
-50.0   60.0   0.0
-100.0   60.0   0.0
-50.0   60.0   16.666666666666668
-100.0   30.0   16.666666666666668
-100.0   60.0   16.666666666666668
-50.0   60.0   16.666666666666668
-100.0   60.0   0.0
-100.0   30.0   16.666666666666668
-50.0   60.0   16.666666666666668
-50.0   30.0   16.666666666666668
-50.0   30.0   0.0
-100.0   30.0   16.666666666666668
-50.0   60.0   16.666666666666668
-50.0   30.0   0.0
-100.0   60.0   0.0
-100.0   30.0   16.666666666666668
-50.0   30.0   16.666666666666668
-100.0   60.0   16.666666666666668
-100.0   30.0   33.333333333333336
-50.0   30.0   16.666666666666668
-50.0   60.0   16.666666666666668
-100.0   60.0   16.666666666666668
-50.0   60.0   33.333333333333336
-100.0   30.0   33.333333333333336
-100.0   60.0   33.333333333333336
-50.0   60.0   33.333333333333336
-100.0   60.0   16.666666666666668
-100.0   30.0   33.333333333333336
-50.0   60.0   33.333333333333336
-50.0   30.0   33.333333333333336
-50.0   30.0   16.666666666666668
-100.0   30.0   33.333333333333336
-50.0   60.0   33.333333333333336
-50.0   30.0   16.666666666666668
-100.0   60.0   16.666666666666668
-100.0   30.0   33.333333333333336
-50.0   30.0   33.333333333333336
-100.0   60.0   33.333333333333336
-100.0   30.0   50.0
-50.0   30.0   33.333333333333336
-50.0   60.0   33.333333333333336
-100.0   60.0   33.333333333333336
-50.0   60.0   50.0
-100.0   30.0   50.0
-100.0   60.0   50.0
-50.0   60.0   50.0
-100.0   60.0   33.333333333333336
-100.0   30.0   50.0
-50.0   60.0   50.0
-50.0   30.0   50.0
-50.0   30.0   33.333333333333336
-100.0   30.0   50.0
-50.0   60.0   50.0
-50.0   30.0   33.333333333333336
-100.0   60.0   33.333333333333336
-100.0   60.0   0.0
-50.0   60.0   0.0
-100.0   90.0   0.0
-100.0   60.0   16.666666666666668
-50.0   60.0   0.0
-50.0   90.0   0.0
-100.0   90.0   0.0
-50.0   90.0   16.666666666666668
-100.0   60.0   16.666666666666668
-100.0   90.0   16.666666666666668
-50.0   90.0   16.666666666666668
-100.0   90.0   0.0
-100.0   60.0   16.666666666666668
-50.0   90.0   16.666666666666668
-50.0   60.0   16.666666666666668
-50.0   60.0   0.0
-100.0   60.0   16.666666666666668
-50.0   90.0   16.666666666666668
-50.0   60.0   0.0
-100.0   90.0   0.0
-100.0   60.0   16.666666666666668
-50.0   60.0   16.666666666666668
-100.0   90.0   16.666666666666668
-100.0   60.0   33.333333333333336
-50.0   60.0   16.666666666666668
-50.0   90.0   16.666666666666668
-100.0   90.0   16.666666666666668
-50.0   90.0   33.333333333333336
-100.0   60.0   33.333333333333336
-100.0   90.0   33.333333333333336
-50.0   90.0   33.333333333333336
-100.0   90.0   16.666666666666668
-100.0   60.0   33.333333333333336
-50.0   90.0   33.333333333333336
-50.0   60.0   33.333333333333336
-50.0   60.0   16.666666666666668
-100.0   60.0   33.333333333333336
-50.0   90.0   33.333333333333336
-50.0   60.0   16.666666666666668
-100.0   90.0   16.666666666666668
-100.0   60.0   33.333333333333336
-50.0   60.0   33.333333333333336
-100.0   90.0   33.333333333333336
-100.0   60.0   50.0
-50.0   60.0   33.333333333333336
-50.0   90.0   33.333333333333336
-100.0   90.0   33.333333333333336
-50.0   90.0   50.0
-100.0   60.0   50.0
-100.0   90.0   50.0
-50.0   90.0   50.0
-100.0   90.0   33.333333333333336
-100.0   60.0   50.0
-50.0   90.0   50.0
-50.0   60.0   50.0
-50.0   60.0   33.333333333333336
-100.0   60.0   50.0
-50.0   90.0   50.0
-50.0   60.0   33.333333333333336
-100.0   90.0   33.333333333333336
-100.0   90.0   0.0
-50.0   90.0   0.0
-100.0   120.0   0.0
-100.0   90.0   16.666666666666668
-50.0   90.0   0.0
-50.0   120.0   0.0
-100.0   120.0   0.0
-50.0   120.0   16.666666666666668
-100.0   90.0   16.666666666666668
-100.0   120.0   16.666666666666668
-50.0   120.0   16.666666666666668
-100.0   120.0   0.0
-100.0   90.0   16.666666666666668
-50.0   120.0   16.666666666666668
-50.0   90.0   16.666666666666668
-50.0   90.0   0.0
-100.0   90.0   16.666666666666668
-50.0   120.0   16.666666666666668
-50.0   90.0   0.0
-100.0   120.0   0.0
-100.0   90.0   16.666666666666668
-50.0   90.0   16.666666666666668
-100.0   120.0   16.666666666666668
-100.0   90.0   33.333333333333336
-50.0   90.0   16.666666666666668
-50.0   120.0   16.666666666666668
-100.0   120.0   16.666666666666668
-50.0   120.0   33.333333333333336
-100.0   90.0   33.333333333333336
-100.0   120.0   33.333333333333336
-50.0   120.0   33.333333333333336
-100.0   120.0   16.666666666666668
-100.0   90.0   33.333333333333336
-50.0   120.0   33.333333333333336
-50.0   90.0   33.333333333333336
-50.0   90.0   16.666666666666668
-100.0   90.0   33.333333333333336
-50.0   120.0   33.333333333333336
-50.0   90.0   16.666666666666668
-100.0   120.0   16.666666666666668
-100.0   90.0   33.333333333333336
-50.0   90.0   33.333333333333336
-100.0   120.0   33.333333333333336
-100.0   90.0   50.0
-50.0   90.0   33.333333333333336
-50.0   120.0   33.333333333333336
-100.0   120.0   33.333333333333336
-50.0   120.0   50.0
-100.0   90.0   50.0
-100.0   120.0   50.0
-50.0   120.0   50.0
-100.0   120.0   33.333333333333336
-100.0   90.0   50.0
-50.0   120.0   50.0
-50.0   90.0   50.0
-50.0   90.0   33.333333333333336
-100.0   90.0   50.0
-50.0   120.0   50.0
-50.0   90.0   33.333333333333336
-100.0   120.0   33.333333333333336
-100.0   120.0   0.0
-50.0   120.0   0.0
-100.0   150.0   0.0
-100.0   120.0   16.666666666666668
-50.0   120.0   0.0
-50.0   150.0   0.0
-100.0   150.0   0.0
-50.0   150.0   16.666666666666668
-100.0   120.0   16.666666666666668
-100.0   150.0   16.666666666666668
-50.0   150.0   16.666666666666668
-100.0   150.0   0.0
-100.0   120.0   16.666666666666668
-50.0   150.0   16.666666666666668
-50.0   120.0   16.666666666666668
-50.0   120.0   0.0
-100.0   120.0   16.666666666666668
-50.0   150.0   16.666666666666668
-50.0   120.0   0.0
-100.0   150.0   0.0
-100.0   120.0   16.666666666666668
-50.0   120.0   16.666666666666668
-100.0   150.0   16.666666666666668
-100.0   120.0   33.333333333333336
-50.0   120.0   16.666666666666668
-50.0   150.0   16.666666666666668
-100.0   150.0   16.666666666666668
-50.0   150.0   33.333333333333336
-100.0   120.0   33.333333333333336
-100.0   150.0   33.333333333333336
-50.0   150.0   33.333333333333336
-100.0   150.0   16.666666666666668
-100.0   120.0   33.333333333333336
-50.0   150.0   33.333333333333336
-50.0   120.0   33.333333333333336
-50.0   120.0   16.666666666666668
-100.0   120.0   33.333333333333336
-50.0   150.0   33.333333333333336
-50.0   120.0   16.666666666666668
-100.0   150.0   16.666666666666668
-100.0   120.0   33.333333333333336
-50.0   120.0   33.333333333333336
-100.0   150.0   33.333333333333336
-100.0   120.0   50.0
-50.0   120.0   33.333333333333336
-50.0   150.0   33.333333333333336
-100.0   150.0   33.333333333333336
-50.0   150.0   50.0
-100.0   120.0   50.0
-100.0   150.0   50.0
-50.0   150.0   50.0
-100.0   150.0   33.333333333333336
-100.0   120.0   50.0
-50.0   150.0   50.0
-50.0   120.0   50.0
-50.0   120.0   33.333333333333336
-100.0   120.0   50.0
-50.0   150.0   50.0
-50.0   120.0   33.333333333333336
-100.0   150.0   33.333333333333336
-50.0   0.0   0.0
0.0   0.0   0.0
-50.0   30.0   0.0
-50.0   0.0   16.666666666666668
0.0   0.0   0.0
0.0   30.0   0.0
-50.0   30.0   0.0
0.0   30.0   16.666666666666668
-50.0   0.0   16.666666666666668
-50.0   30.0   16.666666666666668
0.0   30.0   16.666666666666668
-50.0   30.0   0.0
-50.0   0.0   16.666666666666668
0.0   30.0   16.666666666666668
0.0   0.0   16.666666666666668
0.0   0.0   0.0
-50.0   0.0   16.666666666666668
0.0   30.0   16.666666666666668
0.0   0.0   0.0
-50.0   30.0   0.0
-50.0   0.0   16.666666666666668
0.0   0.0   16.666666666666668
-50.0   30.0   16.666666666666668
-50.0   0.0   33.333333333333336
0.0   0.0   16.666666666666668
0.0   30.0   16.666666666666668
-50.0   30.0   16.666666666666668
0.0   30.0   33.333333333333336
-50.0   0.0   33.333333333333336
-50.0   30.0   33.333333333333336
0.0   30.0   33.333333333333336
-50.0   30.0   16.666666666666668
-50.0   0.0   33.333333333333336
0.0   30.0   33.333333333333336
0.0   0.0   33.333333333333336
0.0   0.0   16.666666666666668
-50.0   0.0   33.333333333333336
0.0   30.0   33.333333333333336
0.0   0.0   16.666666666666668
-50.0   30.0   16.666666666666668
-50.0   0.0   33.333333333333336
0.0   0.0   33.333333333333336
-50.0   30.0   33.333333333333336
-50.0   0.0   50.0
0.0   0.0   33.333333333333336
0.0   30.0   33.333333333333336
-50.0   30.0   33.333333333333336
0.0   30.0   50.0
-50.0   0.0   50.0
-50.0   30.0   50.0
0.0   30.0   50.0
-50.0   30.0   33.333333333333336
-50.0   0.0   50.0
0.0   30.0   50.0
0.0   0.0   50.0
0.0   0.0   33.333333333333336
-50.0   0.0   50.0
0.0   30.0   50.0
0.0   0.0   33.333333333333336
-50.0   30.0   33.333333333333336
-50.0   30.0   0.0
0.0   30.0   0.0
-50.0   60.0   0.0
-50.0   30.0   16.666666666666668
0.0   30.0   0.0
0.0   60.0   0.0
-50.0   60.0   0.0
0.0   60.0   16.666666666666668
-50.0   30.0   16.666666666666668
-50.0   60.0   16.666666666666668
0.0   60.0   16.666666666666668
-50.0   60.0   0.0
-50.0   30.0   16.666666666666668
0.0   60.0   16.666666666666668
0.0   30.0   16.666666666666668
0.0   30.0   0.0
-50.0   30.0   16.666666666666668
0.0   60.0   16.666666666666668
0.0   30.0   0.0
-50.0   60.0   0.0
-50.0   30.0   16.666666666666668
0.0   30.0   16.666666666666668
-50.0   60.0   16.666666666666668
-50.0   30.0   33.333333333333336
0.0   30.0   16.666666666666668
0.0   60.0   16.666666666666668
-50.0   60.0   16.666666666666668
0.0   60.0   33.333333333333336
-50.0   30.0   33.333333333333336
-50.0   60.0   33.333333333333336
0.0   60.0   33.333333333333336
-50.0   60.0   16.666666666666668
-50.0   30.0   33.333333333333336
0.0   60.0   33.333333333333336
0.0   30.0   33.333333333333336
0.0   30.0   16.666666666666668
-50.0   30.0   33.333333333333336
0.0   60.0   33.333333333333336
0.0   30.0   16.666666666666668
-50.0   60.0   16.666666666666668
-50.0   30.0   33.333333333333336
0.0   30.0   33.333333333333336
-50.0   60.0   33.333333333333336
-50.0   30.0   50.0
0.0   30.0   33.333333333333336
0.0   60.0   33.333333333333336
-50.0   60.0   33.333333333333336
0.0   60.0   50.0
-50.0   30.0   50.0
-50.0   60.0   50.0
0.0   60.0   50.0
-50.0   60.0   33.333333333333336
-50.0   30.0   50.0
0.0   60.0   50.0
0.0   30.0   50.0
0.0   30.0   33.333333333333336
-50.0   30.0   50.0
0.0   60.0   50.0
0.0   30.0   33.333333333333336
-50.0   60.0   33.333333333333336
-50.0   60.0   0.0
0.0   60.0   0.0
-50.0   90.0   0.0
-50.0   60.0   16.666666666666668
0.0   60.0   0.0
0.0   90.0   0.0
-50.0   90.0   0.0
0.0   90.0   16.666666666666668
-50.0   60.0   16.666666666666668
-50.0   90.0   16.666666666666668
0.0   90.0   16.666666666666668
-50.0   90.0   0.0
-50.0   60.0   16.666666666666668
0.0   90.0   16.666666666666668
0.0   60.0   16.666666666666668
0.0   60.0   0.0
-50.0   60.0   16.666666666666668
0.0   90.0   16.666666666666668
0.0   60.0   0.0
-50.0   90.0   0.0
-50.0   60.0   16.666666666666668
0.0   60.0   16.666666666666668
-50.0   90.0   16.666666666666668
-50.0   60.0   33.333333333333336
0.0   60.0   16.666666666666668
0.0   90.0   16.666666666666668
-50.0   90.0   16.666666666666668
0.0   90.0   33.333333333333336
-50.0   60.0   33.333333333333336
-50.0   90.0   33.333333333333336
0.0   90.0   33.333333333333336
-50.0   90.0   16.666666666666668
-50.0   60.0   33.333333333333336
0.0   90.0   33.333333333333336
0.0   60.0   33.333333333333336
0.0   60.0   16.666666666666668
-50.0   60.0   33.333333333333336
0.0   90.0   33.333333333333336
0.0   60.0   16.666666666666668
-50.0   90.0   16.666666666666668
-50.0   60.0   33.333333333333336
0.0   60.0   33.333333333333336
-50.0   90.0   33.333333333333336
-50.0   60.0   50.0
0.0   60.0   33.333333333333336
0.0   90.0   33.333333333333336
-50.0   90.0   33.333333333333336
0.0   90.0   50.0
-50.0   60.0   50.0
-50.0   90.0   50.0
0.0   90.0   50.0
-50.0   90.0   33.333333333333336
-50.0   60.0   50.0
0.0   90.0   50.0
0.0   60.0   50.0
0.0   60.0   33.333333333333336
-50.0   60.0   50.0
0.0   90.0   50.0
0.0   60.0   33.333333333333336
-50.0   90.0   33.333333333333336
-50.0   90.0   0.0
0.0   90.0   0.0
-50.0   120.0   0.0
-50.0   90.0   16.666666666666668
0.0   90.0   0.0
0.0   120.0   0.0
-50.0   120.0   0.0
0.0   120.0   16.666666666666668
-50.0   90.0   16.666666666666668
-50.0   120.0   16.666666666666668
0.0   120.0   16.666666666666668
-50.0   120.0   0.0
-50.0   90.0   16.666666666666668
0.0   120.0   16.666666666666668
0.0   90.0   16.666666666666668
0.0   90.0   0.0
-50.0   90.0   16.666666666666668
0.0   120.0   16.666666666666668
0.0   90.0   0.0
-50.0   120.0   0.0
-50.0   90.0   16.666666666666668
0.0   90.0   16.666666666666668
-50.0   120.0   16.666666666666668
-50.0   90.0   33.333333333333336
0.0   90.0   16.666666666666668
0.0   120.0   16.666666666666668
-50.0   120.0   16.666666666666668
0.0   120.0   33.333333333333336
-50.0   90.0   33.333333333333336
-50.0   120.0   33.333333333333336
0.0   120.0   33.333333333333336
-50.0   120.0   16.666666666666668
-50.0   90.0   33.333333333333336
0.0   120.0   33.333333333333336
0.0   90.0   33.333333333333336
0.0   90.0   16.666666666666668
-50.0   90.0   33.333333333333336
0.0   120.0   33.333333333333336
0.0   90.0   16.666666666666668
-50.0   120.0   16.666666666666668
-50.0   90.0   33.333333333333336
0.0   90.0   33.333333333333336
-50.0   120.0   33.333333333333336
-50.0   90.0   50.0
0.0   90.0   33.333333333333336
0.0   120.0   33.333333333333336
-50.0   120.0   33.333333333333336
0.0   120.0   50.0
-50.0   90.0   50.0
-50.0   120.0   50.0
0.0   120.0   50.0
-50.0   120.0   33.333333333333336
-50.0   90.0   50.0
0.0   120.0   50.0
0.0   90.0   50.0
0.0   90.0   33.333333333333336
-50.0   90.0   50.0
0.0   120.0   50.0
0.0   90.0   33.333333333333336
-50.0   120.0   33.333333333333336
-50.0   120.0   0.0
0.0   120.0   0.0
-50.0   150.0   0.0
-50.0   120.0   16.666666666666668
0.0   120.0   0.0
0.0   150.0   0.0
-50.0   150.0   0.0
0.0   150.0   16.666666666666668
-50.0   120.0   16.666666666666668
-50.0   150.0   16.666666666666668
0.0   150.0   16.666666666666668
-50.0   150.0   0.0
-50.0   120.0   16.666666666666668
0.0   150.0   16.666666666666668
0.0   120.0   16.666666666666668
0.0   120.0   0.0
-50.0   120.0   16.666666666666668
0.0   150.0   16.666666666666668
0.0   120.0   0.0
-50.0   150.0   0.0
-50.0   120.0   16.666666666666668
0.0   120.0   16.666666666666668
-50.0   150.0   16.666666666666668
-50.0   120.0   33.333333333333336
0.0   120.0   16.666666666666668
0.0   150.0   16.666666666666668
-50.0   150.0   16.666666666666668
0.0   150.0   33.333333333333336
-50.0   120.0   33.333333333333336
-50.0   150.0   33.333333333333336
0.0   150.0   33.333333333333336
-50.0   150.0   16.666666666666668
-50.0   120.0   33.333333333333336
0.0   150.0   33.333333333333336
0.0   120.0   33.333333333333336
0.0   120.0   16.666666666666668
-50.0   120.0   33.333333333333336
0.0   150.0   33.333333333333336
0.0   120.0   16.666666666666668
-50.0   150.0   16.666666666666668
-50.0   120.0   33.333333333333336
0.0   120.0   33.333333333333336
-50.0   150.0   33.333333333333336
-50.0   120.0   50.0
0.0   120.0   33.333333333333336
0.0   150.0   33.333333333333336
-50.0   150.0   33.333333333333336
0.0   150.0   50.0
-50.0   120.0   50.0
-50.0   150.0   50.0
0.0   150.0   50.0
-50.0   150.0   33.333333333333336
-50.0   120.0   50.0
0.0   150.0   50.0
0.0   120.0   50.0
0.0   120.0   33.333333333333336
-50.0   120.0   50.0
0.0   150.0   50.0
0.0   120.0   33.333333333333336
-50.0   150.0   33.333333333333336
0.0   0.0   0.0
50.0   0.0   0.0
0.0   30.0   0.0
0.0   0.0   16.666666666666668
50.0   0.0   0.0
50.0   30.0   0.0
0.0   30.0   0.0
50.0   30.0   16.666666666666668
0.0   0.0   16.666666666666668
0.0   30.0   16.666666666666668
50.0   30.0   16.666666666666668
0.0   30.0   0.0
0.0   0.0   16.666666666666668
50.0   30.0   16.666666666666668
50.0   0.0   16.666666666666668
50.0   0.0   0.0
0.0   0.0   16.666666666666668
50.0   30.0   16.666666666666668
50.0   0.0   0.0
0.0   30.0   0.0
0.0   0.0   16.666666666666668
50.0   0.0   16.666666666666668
0.0   30.0   16.666666666666668
0.0   0.0   33.333333333333336
50.0   0.0   16.666666666666668
50.0   30.0   16.666666666666668
0.0   30.0   16.666666666666668
50.0   30.0   33.333333333333336
0.0   0.0   33.333333333333336
0.0   30.0   33.333333333333336
50.0   30.0   33.333333333333336
0.0   30.0   16.666666666666668
0.0   0.0   33.333333333333336
50.0   30.0   33.333333333333336
50.0   0.0   33.333333333333336
50.0   0.0   16.666666666666668
0.0   0.0   33.333333333333336
50.0   30.0   33.333333333333336
50.0   0.0   16.666666666666668
0.0   30.0   16.666666666666668
0.0   0.0   33.333333333333336
50.0   0.0   33.333333333333336
0.0   30.0   33.333333333333336
0.0   0.0   50.0
50.0   0.0   33.333333333333336
50.0   30.0   33.333333333333336
0.0   30.0   33.333333333333336
50.0   30.0   50.0
0.0   0.0   50.0
0.0   30.0   50.0
50.0   30.0   50.0
0.0   30.0   33.333333333333336
0.0   0.0   50.0
50.0   30.0   50.0
50.0   0.0   50.0
50.0   0.0   33.333333333333336
0.0   0.0   50.0
50.0   30.0   50.0
50.0   0.0   33.333333333333336
0.0   30.0   33.333333333333336
0.0   30.0   0.0
50.0   30.0   0.0
0.0   60.0   0.0
0.0   30.0   16.666666666666668
50.0   30.0   0.0
50.0   60.0   0.0
0.0   60.0   0.0
50.0   60.0   16.666666666666668
0.0   30.0   16.666666666666668
0.0   60.0   16.666666666666668
50.0   60.0   16.666666666666668
0.0   60.0   0.0
0.0   30.0   16.666666666666668
50.0   60.0   16.666666666666668
50.0   30.0   16.666666666666668
50.0   30.0   0.0
0.0   30.0   16.666666666666668
50.0   60.0   16.666666666666668
50.0   30.0   0.0
0.0   60.0   0.0
0.0   30.0   16.666666666666668
50.0   30.0   16.666666666666668
0.0   60.0   16.666666666666668
0.0   30.0   33.333333333333336
50.0   30.0   16.666666666666668
50.0   60.0   16.666666666666668
0.0   60.0   16.666666666666668
50.0   60.0   33.333333333333336
0.0   30.0   33.333333333333336
0.0   60.0   33.333333333333336
50.0   60.0   33.333333333333336
0.0   60.0   16.666666666666668
0.0   30.0   33.333333333333336
50.0   60.0   33.333333333333336
50.0   30.0   33.333333333333336
50.0   30.0   16.666666666666668
0.0   30.0   33.333333333333336
50.0   60.0   33.333333333333336
50.0   30.0   16.666666666666668
0.0   60.0   16.666666666666668
0.0   30.0   33.333333333333336
50.0   30.0   33.333333333333336
0.0   60.0   33.333333333333336
0.0   30.0   50.0
50.0   30.0   33.333333333333336
50.0   60.0   33.333333333333336
0.0   60.0   33.333333333333336
50.0   60.0   50.0
0.0   30.0   50.0
0.0   60.0   50.0
50.0   60.0   50.0
0.0   60.0   33.333333333333336
0.0   30.0   50.0
50.0   60.0   50.0
50.0   30.0   50.0
50.0   30.0   33.333333333333336
0.0   30.0   50.0
50.0   60.0   50.0
50.0   30.0   33.333333333333336
0.0   60.0   33.333333333333336
0.0   60.0   0.0
50.0   60.0   0.0
0.0   90.0   0.0
0.0   60.0   16.666666666666668
50.0   60.0   0.0
50.0   90.0   0.0
0.0   90.0   0.0
50.0   90.0   16.666666666666668
0.0   60.0   16.666666666666668
0.0   90.0   16.666666666666668
50.0   90.0   16.666666666666668
0.0   90.0   0.0
0.0   60.0   16.666666666666668
50.0   90.0   16.666666666666668
50.0   60.0   16.666666666666668
50.0   60.0   0.0
0.0   60.0   16.666666666666668
50.0   90.0   16.666666666666668
50.0   60.0   0.0
0.0   90.0   0.0
0.0   60.0   16.666666666666668
50.0   60.0   16.666666666666668
0.0   90.0   16.666666666666668
0.0   60.0   33.333333333333336
50.0   60.0   16.666666666666668
50.0   90.0   16.666666666666668
0.0   90.0   16.666666666666668
50.0   90.0   33.333333333333336
0.0   60.0   33.333333333333336
0.0   90.0   33.333333333333336
50.0   90.0   33.333333333333336
0.0   90.0   16.666666666666668
0.0   60.0   33.333333333333336
50.0   90.0   33.333333333333336
50.0   60.0   33.333333333333336
50.0   60.0   16.666666666666668
0.0   60.0   33.333333333333336
50.0   90.0   33.333333333333336
50.0   60.0   16.666666666666668
0.0   90.0   16.666666666666668
0.0   60.0   33.333333333333336
50.0   60.0   33.333333333333336
0.0   90.0   33.333333333333336
0.0   60.0   50.0
50.0   60.0   33.333333333333336
50.0   90.0   33.333333333333336
0.0   90.0   33.333333333333336
50.0   90.0   50.0
0.0   60.0   50.0
0.0   90.0   50.0
50.0   90.0   50.0
0.0   90.0   33.333333333333336
0.0   60.0   50.0
50.0   90.0   50.0
50.0   60.0   50.0
50.0   60.0   33.333333333333336
0.0   60.0   50.0
50.0   90.0   50.0
50.0   60.0   33.333333333333336
0.0   90.0   33.333333333333336
0.0   90.0   0.0
50.0   90.0   0.0
0.0   120.0   0.0
0.0   90.0   16.666666666666668
50.0   90.0   0.0
50.0   120.0   0.0
0.0   120.0   0.0
50.0   120.0   16.666666666666668
0.0   90.0   16.666666666666668
0.0   120.0   16.666666666666668
50.0   120.0   16.666666666666668
0.0   120.0   0.0
0.0   90.0   16.666666666666668
50.0   120.0   16.666666666666668
50.0   90.0   16.666666666666668
50.0   90.0   0.0
0.0   90.0   16.666666666666668
50.0   120.0   16.666666666666668
50.0   90.0   0.0
0.0   120.0   0.0
0.0   90.0   16.666666666666668
50.0   90.0   16.666666666666668
0.0   120.0   16.666666666666668
0.0   90.0   33.333333333333336
50.0   90.0   16.666666666666668
50.0   120.0   16.666666666666668
0.0   120.0   16.666666666666668
50.0   120.0   33.333333333333336
0.0   90.0   33.333333333333336
0.0   120.0   33.333333333333336
50.0   120.0   33.333333333333336
0.0   120.0   16.666666666666668
0.0   90.0   33.333333333333336
50.0   120.0   33.333333333333336
50.0   90.0   33.333333333333336
50.0   90.0   16.666666666666668
0.0   90.0   33.333333333333336
50.0   120.0   33.333333333333336
50.0   90.0   16.666666666666668
0.0   120.0   16.666666666666668
0.0   90.0   33.333333333333336
50.0   90.0   33.333333333333336
0.0   120.0   33.333333333333336
0.0   90.0   50.0
50.0   90.0   33.333333333333336
50.0   120.0   33.333333333333336
0.0   120.0   33.333333333333336
50.0   120.0   50.0
0.0   90.0   50.0
0.0   120.0   50.0
50.0   120.0   50.0
0.0   120.0   33.333333333333336
0.0   90.0   50.0
50.0   120.0   50.0
50.0   90.0   50.0
50.0   90.0   33.333333333333336
0.0   90.0   50.0
50.0   120.0   50.0
50.0   90.0   33.333333333333336
0.0   120.0   33.333333333333336
0.0   120.0   0.0
50.0   120.0   0.0
0.0   150.0   0.0
0.0   120.0   16.666666666666668
50.0   120.0   0.0
50.0   150.0   0.0
0.0   150.0   0.0
50.0   150.0   16.666666666666668
0.0   120.0   16.666666666666668
0.0   150.0   16.666666666666668
50.0   150.0   16.666666666666668
0.0   150.0   0.0
0.0   120.0   16.666666666666668
50.0   150.0   16.666666666666668
50.0   120.0   16.666666666666668
50.0   120.0   0.0
0.0   120.0   16.666666666666668
50.0   150.0   16.666666666666668
50.0   120.0   0.0
0.0   150.0   0.0
0.0   120.0   16.666666666666668
50.0   120.0   16.666666666666668
0.0   150.0   16.666666666666668
0.0   120.0   33.333333333333336
50.0   120.0   16.666666666666668
50.0   150.0   16.666666666666668
0.0   150.0   16.666666666666668
50.0   150.0   33.333333333333336
0.0   120.0   33.333333333333336
0.0   150.0   33.333333333333336
50.0   150.0   33.333333333333336
0.0   150.0   16.666666666666668
0.0   120.0   33.333333333333336
50.0   150.0   33.333333333333336
50.0   120.0   33.333333333333336
50.0   120.0   16.666666666666668
0.0   120.0   33.333333333333336
50.0   150.0   33.333333333333336
50.0   120.0   16.666666666666668
0.0   150.0   16.666666666666668
0.0   120.0   33.333333333333336
50.0   120.0   33.333333333333336
0.0   150.0   33.333333333333336
0.0   120.0   50.0
50.0   120.0   33.333333333333336
50.0   150.0   33.333333333333336
0.0   150.0   33.333333333333336
50.0   150.0   50.0
0.0   120.0   50.0
0.0   150.0   50.0
50.0   150.0   50.0
0.0   150.0   33.333333333333336
0.0   120.0   50.0
50.0   150.0   50.0
50.0   120.0   50.0
50.0   120.0   33.333333333333336
0.0   120.0   50.0
50.0   150.0   50.0
50.0   120.0   33.333333333333336
0.0   150.0   33.333333333333336
50.0   0.0   0.0
100.0   0.0   0.0
50.0   30.0   0.0
50.0   0.0   16.666666666666668
100.0   0.0   0.0
100.0   30.0   0.0
50.0   30.0   0.0
100.0   30.0   16.666666666666668
50.0   0.0   16.666666666666668
50.0   30.0   16.666666666666668
100.0   30.0   16.666666666666668
50.0   30.0   0.0
50.0   0.0   16.666666666666668
100.0   30.0   16.666666666666668
100.0   0.0   16.666666666666668
100.0   0.0   0.0
50.0   0.0   16.666666666666668
100.0   30.0   16.666666666666668
100.0   0.0   0.0
50.0   30.0   0.0
50.0   0.0   16.666666666666668
100.0   0.0   16.666666666666668
50.0   30.0   16.666666666666668
50.0   0.0   33.333333333333336
100.0   0.0   16.666666666666668
100.0   30.0   16.666666666666668
50.0   30.0   16.666666666666668
100.0   30.0   33.333333333333336
50.0   0.0   33.333333333333336
50.0   30.0   33.333333333333336
100.0   30.0   33.333333333333336
50.0   30.0   16.666666666666668
50.0   0.0   33.333333333333336
100.0   30.0   33.333333333333336
100.0   0.0   33.333333333333336
100.0   0.0   16.666666666666668
50.0   0.0   33.333333333333336
100.0   30.0   33.333333333333336
100.0   0.0   16.666666666666668
50.0   30.0   16.666666666666668
50.0   0.0   33.333333333333336
100.0   0.0   33.333333333333336
50.0   30.0   33.333333333333336
50.0   0.0   50.0
100.0   0.0   33.333333333333336
100.0   30.0   33.333333333333336
50.0   30.0   33.333333333333336
100.0   30.0   50.0
50.0   0.0   50.0
50.0   30.0   50.0
100.0   30.0   50.0
50.0   30.0   33.333333333333336
50.0   0.0   50.0
100.0   30.0   50.0
100.0   0.0   50.0
100.0   0.0   33.333333333333336
50.0   0.0   50.0
100.0   30.0   50.0
100.0   0.0   33.333333333333336
50.0   30.0   33.333333333333336
50.0   30.0   0.0
100.0   30.0   0.0
50.0   60.0   0.0
50.0   30.0   16.666666666666668
100.0   30.0   0.0
100.0   60.0   0.0
50.0   60.0   0.0
100.0   60.0   16.666666666666668
50.0   30.0   16.666666666666668
50.0   60.0   16.666666666666668
100.0   60.0   16.666666666666668
50.0   60.0   0.0
50.0   30.0   16.666666666666668
100.0   60.0   16.666666666666668
100.0   30.0   16.666666666666668
100.0   30.0   0.0
50.0   30.0   16.666666666666668
100.0   60.0   16.666666666666668
100.0   30.0   0.0
50.0   60.0   0.0
50.0   30.0   16.666666666666668
100.0   30.0   16.666666666666668
50.0   60.0   16.666666666666668
50.0   30.0   33.333333333333336
100.0   30.0   16.666666666666668
100.0   60.0   16.666666666666668
50.0   60.0   16.666666666666668
100.0   60.0   33.333333333333336
50.0   30.0   33.333333333333336
50.0   60.0   33.333333333333336
100.0   60.0   33.333333333333336
50.0   60.0   16.666666666666668
50.0   30.0   33.333333333333336
100.0   60.0   33.333333333333336
100.0   30.0   33.333333333333336
100.0   30.0   16.666666666666668
50.0   30.0   33.333333333333336
100.0   60.0   33.333333333333336
100.0   30.0   16.666666666666668
50.0   60.0   16.666666666666668
50.0   30.0   33.333333333333336
100.0   30.0   33.333333333333336
50.0   60.0   33.333333333333336
50.0   30.0   50.0
100.0   30.0   33.333333333333336
100.0   60.0   33.333333333333336
50.0   60.0   33.333333333333336
100.0   60.0   50.0
50.0   30.0   50.0
50.0   60.0   50.0
100.0   60.0   50.0
50.0   60.0   33.333333333333336
50.0   30.0   50.0
100.0   60.0   50.0
100.0   30.0   50.0
100.0   30.0   33.333333333333336
50.0   30.0   50.0
100.0   60.0   50.0
100.0   30.0   33.333333333333336
50.0   60.0   33.333333333333336
50.0   60.0   0.0
100.0   60.0   0.0
50.0   90.0   0.0
50.0   60.0   16.666666666666668
100.0   60.0   0.0
100.0   90.0   0.0
50.0   90.0   0.0
100.0   90.0   16.666666666666668
50.0   60.0   16.666666666666668
50.0   90.0   16.666666666666668
100.0   90.0   16.666666666666668
50.0   90.0   0.0
50.0   60.0   16.666666666666668
100.0   90.0   16.666666666666668
100.0   60.0   16.666666666666668
100.0   60.0   0.0
50.0   60.0   16.666666666666668
100.0   90.0   16.666666666666668
100.0   60.0   0.0
50.0   90.0   0.0
50.0   60.0   16.666666666666668
100.0   60.0   16.666666666666668
50.0   90.0   16.666666666666668
50.0   60.0   33.333333333333336
100.0   60.0   16.666666666666668
100.0   90.0   16.666666666666668
50.0   90.0   16.666666666666668
100.0   90.0   33.333333333333336
50.0   60.0   33.333333333333336
50.0   90.0   33.333333333333336
100.0   90.0   33.333333333333336
50.0   90.0   16.666666666666668
50.0   60.0   33.333333333333336
100.0   90.0   33.333333333333336
100.0   60.0   33.333333333333336
100.0   60.0   16.666666666666668
50.0   60.0   33.333333333333336
100.0   90.0   33.333333333333336
100.0   60.0   16.666666666666668
50.0   90.0   16.666666666666668
50.0   60.0   33.333333333333336
100.0   60.0   33.333333333333336
50.0   90.0   33.333333333333336
50.0   60.0   50.0
100.0   60.0   33.333333333333336
100.0   90.0   33.333333333333336
50.0   90.0   33.333333333333336
100.0   90.0   50.0
50.0   60.0   50.0
50.0   90.0   50.0
100.0   90.0   50.0
50.0   90.0   33.333333333333336
50.0   60.0   50.0
100.0   90.0   50.0
100.0   60.0   50.0
100.0   60.0   33.333333333333336
50.0   60.0   50.0
100.0   90.0   50.0
100.0   60.0   33.333333333333336
50.0   90.0   33.333333333333336
50.0   90.0   0.0
100.0   90.0   0.0
50.0   120.0   0.0
50.0   90.0   16.666666666666668
100.0   90.0   0.0
100.0   120.0   0.0
50.0   120.0   0.0
100.0   120.0   16.666666666666668
50.0   90.0   16.666666666666668
50.0   120.0   16.666666666666668
100.0   120.0   16.666666666666668
50.0   120.0   0.0
50.0   90.0   16.666666666666668
100.0   120.0   16.666666666666668
100.0   90.0   16.666666666666668
100.0   90.0   0.0
50.0   90.0   16.666666666666668
100.0   120.0   16.666666666666668
100.0   90.0   0.0
50.0   120.0   0.0
50.0   90.0   16.666666666666668
100.0   90.0   16.666666666666668
50.0   120.0   16.666666666666668
50.0   90.0   33.333333333333336
100.0   90.0   16.666666666666668
100.0   120.0   16.666666666666668
50.0   120.0   16.666666666666668
100.0   120.0   33.333333333333336
50.0   90.0   33.333333333333336
50.0   120.0   33.333333333333336
100.0   120.0   33.333333333333336
50.0   120.0   16.666666666666668
50.0   90.0   33.333333333333336
100.0   120.0   33.333333333333336
100.0   90.0   33.333333333333336
100.0   90.0   16.666666666666668
50.0   90.0   33.333333333333336
100.0   120.0   33.333333333333336
100.0   90.0   16.666666666666668
50.0   120.0   16.666666666666668
50.0   90.0   33.333333333333336
100.0   90.0   33.333333333333336
50.0   120.0   33.333333333333336
50.0   90.0   50.0
100.0   90.0   33.333333333333336
100.0   120.0   33.333333333333336
50.0   120.0   33.333333333333336
100.0   120.0   50.0
50.0   90.0   50.0
50.0   120.0   50.0
100.0   120.0   50.0
50.0   120.0   33.333333333333336
50.0   90.0   50.0
100.0   120.0   50.0
100.0   90.0   50.0
100.0   90.0   33.333333333333336
50.0   90.0   50.0
100.0   120.0   50.0
100.0   90.0   33.333333333333336
50.0   120.0   33.333333333333336
50.0   120.0   0.0
100.0   120.0   0.0
50.0   150.0   0.0
50.0   120.0   16.666666666666668
100.0   120.0   0.0
100.0   150.0   0.0
50.0   150.0   0.0
100.0   150.0   16.666666666666668
50.0   120.0   16.666666666666668
50.0   150.0   16.666666666666668
100.0   150.0   16.666666666666668
50.0   150.0   0.0
50.0   120.0   16.666666666666668
100.0   150.0   16.666666666666668
100.0   120.0   16.666666666666668
100.0   120.0   0.0
50.0   120.0   16.666666666666668
100.0   150.0   16.666666666666668
100.0   120.0   0.0
50.0   150.0   0.0
50.0   120.0   16.666666666666668
100.0   120.0   16.666666666666668
50.0   150.0   16.666666666666668
50.0   120.0   33.333333333333336
100.0   120.0   16.666666666666668
100.0   150.0   16.666666666666668
50.0   150.0   16.666666666666668
100.0   150.0   33.333333333333336
50.0   120.0   33.333333333333336
50.0   150.0   33.333333333333336
100.0   150.0   33.333333333333336
50.0   150.0   16.666666666666668
50.0   120.0   33.333333333333336
100.0   150.0   33.333333333333336
100.0   120.0   33.333333333333336
100.0   120.0   16.666666666666668
50.0   120.0   33.333333333333336
100.0   150.0   33.333333333333336
100.0   120.0   16.666666666666668
50.0   150.0   16.666666666666668
50.0   120.0   33.333333333333336
100.0   120.0   33.333333333333336
50.0   150.0   33.333333333333336
50.0   120.0   50.0
100.0   120.0   33.333333333333336
100.0   150.0   33.333333333333336
50.0   150.0   33.333333333333336
100.0   150.0   50.0
50.0   120.0   50.0
50.0   150.0   50.0
100.0   150.0   50.0
50.0   150.0   33.333333333333336
50.0   120.0   50.0
100.0   150.0   50.0
100.0   120.0   50.0
100.0   120.0   33.333333333333336
50.0   120.0   50.0
100.0   150.0   50.0
100.0   120.0   33.333333333333336
50.0   150.0   33.333333333333336
100.0   0.0   0.0
150.0   0.0   0.0
100.0   30.0   0.0
100.0   0.0   16.666666666666668
150.0   0.0   0.0
150.0   30.0   0.0
100.0   30.0   0.0
150.0   30.0   16.666666666666668
100.0   0.0   16.666666666666668
100.0   30.0   16.666666666666668
150.0   30.0   16.666666666666668
100.0   30.0   0.0
100.0   0.0   16.666666666666668
150.0   30.0   16.666666666666668
150.0   0.0   16.666666666666668
150.0   0.0   0.0
100.0   0.0   16.666666666666668
150.0   30.0   16.666666666666668
150.0   0.0   0.0
100.0   30.0   0.0
100.0   0.0   16.666666666666668
150.0   0.0   16.666666666666668
100.0   30.0   16.666666666666668
100.0   0.0   33.333333333333336
150.0   0.0   16.666666666666668
150.0   30.0   16.666666666666668
100.0   30.0   16.666666666666668
150.0   30.0   33.333333333333336
100.0   0.0   33.333333333333336
100.0   30.0   33.333333333333336
150.0   30.0   33.333333333333336
100.0   30.0   16.666666666666668
100.0   0.0   33.333333333333336
150.0   30.0   33.333333333333336
150.0   0.0   33.333333333333336
150.0   0.0   16.666666666666668
100.0   0.0   33.333333333333336
150.0   30.0   33.333333333333336
150.0   0.0   16.666666666666668
100.0   30.0   16.666666666666668
100.0   0.0   33.333333333333336
150.0   0.0   33.333333333333336
100.0   30.0   33.333333333333336
100.0   0.0   50.0
150.0   0.0   33.333333333333336
150.0   30.0   33.333333333333336
100.0   30.0   33.333333333333336
150.0   30.0   50.0
100.0   0.0   50.0
100.0   30.0   50.0
150.0   30.0   50.0
100.0   30.0   33.333333333333336
100.0   0.0   50.0
150.0   30.0   50.0
150.0   0.0   50.0
150.0   0.0   33.333333333333336
100.0   0.0   50.0
150.0   30.0   50.0
150.0   0.0   33.333333333333336
100.0   30.0   33.333333333333336
100.0   30.0   0.0
150.0   30.0   0.0
100.0   60.0   0.0
100.0   30.0   16.666666666666668
150.0   30.0   0.0
150.0   60.0   0.0
100.0   60.0   0.0
150.0   60.0   16.666666666666668
100.0   30.0   16.666666666666668
100.0   60.0   16.666666666666668
150.0   60.0   16.666666666666668
100.0   60.0   0.0
100.0   30.0   16.666666666666668
150.0   60.0   16.666666666666668
150.0   30.0   16.666666666666668
150.0   30.0   0.0
100.0   30.0   16.666666666666668
150.0   60.0   16.666666666666668
150.0   30.0   0.0
100.0   60.0   0.0
100.0   30.0   16.666666666666668
150.0   30.0   16.666666666666668
100.0   60.0   16.666666666666668
100.0   30.0   33.333333333333336
150.0   30.0   16.666666666666668
150.0   60.0   16.666666666666668
100.0   60.0   16.666666666666668
150.0   60.0   33.333333333333336
100.0   30.0   33.333333333333336
100.0   60.0   33.333333333333336
150.0   60.0   33.333333333333336
100.0   60.0   16.666666666666668
100.0   30.0   33.333333333333336
150.0   60.0   33.333333333333336
150.0   30.0   33.333333333333336
150.0   30.0   16.666666666666668
100.0   30.0   33.333333333333336
150.0   60.0   33.333333333333336
150.0   30.0   16.666666666666668
100.0   60.0   16.666666666666668
100.0   30.0   33.333333333333336
150.0   30.0   33.333333333333336
100.0   60.0   33.333333333333336
100.0   30.0   50.0
150.0   30.0   33.333333333333336
150.0   60.0   33.333333333333336
100.0   60.0   33.333333333333336
150.0   60.0   50.0
100.0   30.0   50.0
100.0   60.0   50.0
150.0   60.0   50.0
100.0   60.0   33.333333333333336
100.0   30.0   50.0
150.0   60.0   50.0
150.0   30.0   50.0
150.0   30.0   33.333333333333336
100.0   30.0   50.0
150.0   60.0   50.0
150.0   30.0   33.333333333333336
100.0   60.0   33.333333333333336
100.0   60.0   0.0
150.0   60.0   0.0
100.0   90.0   0.0
100.0   60.0   16.666666666666668
150.0   60.0   0.0
150.0   90.0   0.0
100.0   90.0   0.0
150.0   90.0   16.666666666666668
100.0   60.0   16.666666666666668
100.0   90.0   16.666666666666668
150.0   90.0   16.666666666666668
100.0   90.0   0.0
100.0   60.0   16.666666666666668
150.0   90.0   16.666666666666668
150.0   60.0   16.666666666666668
150.0   60.0   0.0
100.0   60.0   16.666666666666668
150.0   90.0   16.666666666666668
150.0   60.0   0.0
100.0   90.0   0.0
100.0   60.0   16.666666666666668
150.0   60.0   16.666666666666668
100.0   90.0   16.666666666666668
100.0   60.0   33.333333333333336
150.0   60.0   16.666666666666668
150.0   90.0   16.666666666666668
100.0   90.0   16.666666666666668
150.0   90.0   33.333333333333336
100.0   60.0   33.333333333333336
100.0   90.0   33.333333333333336
150.0   90.0   33.333333333333336
100.0   90.0   16.666666666666668
100.0   60.0   33.333333333333336
150.0   90.0   33.333333333333336
150.0   60.0   33.333333333333336
150.0   60.0   16.666666666666668
100.0   60.0   33.333333333333336
150.0   90.0   33.333333333333336
150.0   60.0   16.666666666666668
100.0   90.0   16.666666666666668
100.0   60.0   33.333333333333336
150.0   60.0   33.333333333333336
100.0   90.0   33.333333333333336
100.0   60.0   50.0
150.0   60.0   33.333333333333336
150.0   90.0   33.333333333333336
100.0   90.0   33.333333333333336
150.0   90.0   50.0
100.0   60.0   50.0
100.0   90.0   50.0
150.0   90.0   50.0
100.0   90.0   33.333333333333336
100.0   60.0   50.0
150.0   90.0   50.0
150.0   60.0   50.0
150.0   60.0   33.333333333333336
100.0   60.0   50.0
150.0   90.0   50.0
150.0   60.0   33.333333333333336
100.0   90.0   33.333333333333336
100.0   90.0   0.0
150.0   90.0   0.0
100.0   120.0   0.0
100.0   90.0   16.666666666666668
150.0   90.0   0.0
150.0   120.0   0.0
100.0   120.0   0.0
150.0   120.0   16.666666666666668
100.0   90.0   16.666666666666668
100.0   120.0   16.666666666666668
150.0   120.0   16.666666666666668
100.0   120.0   0.0
100.0   90.0   16.666666666666668
150.0   120.0   16.666666666666668
150.0   90.0   16.666666666666668
150.0   90.0   0.0
100.0   90.0   16.666666666666668
150.0   120.0   16.666666666666668
150.0   90.0   0.0
100.0   120.0   0.0
100.0   90.0   16.666666666666668
150.0   90.0   16.666666666666668
100.0   120.0   16.666666666666668
100.0   90.0   33.333333333333336
150.0   90.0   16.666666666666668
150.0   120.0   16.666666666666668
100.0   120.0   16.666666666666668
150.0   120.0   33.333333333333336
100.0   90.0   33.333333333333336
100.0   120.0   33.333333333333336
150.0   120.0   33.333333333333336
100.0   120.0   16.666666666666668
100.0   90.0   33.333333333333336
150.0   120.0   33.333333333333336
150.0   90.0   33.333333333333336
150.0   90.0   16.666666666666668
100.0   90.0   33.333333333333336
150.0   120.0   33.333333333333336
150.0   90.0   16.666666666666668
100.0   120.0   16.666666666666668
100.0   90.0   33.333333333333336
150.0   90.0   33.333333333333336
100.0   120.0   33.333333333333336
100.0   90.0   50.0
150.0   90.0   33.333333333333336
150.0   120.0   33.333333333333336
100.0   120.0   33.333333333333336
150.0   120.0   50.0
100.0   90.0   50.0
100.0   120.0   50.0
150.0   120.0   50.0
100.0   120.0   33.333333333333336
100.0   90.0   50.0
150.0   120.0   50.0
150.0   90.0   50.0
150.0   90.0   33.333333333333336
100.0   90.0   50.0
150.0   120.0   50.0
150.0   90.0   33.333333333333336
100.0   120.0   33.333333333333336
100.0   120.0   0.0
150.0   120.0   0.0
100.0   150.0   0.0
100.0   120.0   16.666666666666668
150.0   120.0   0.0
150.0   150.0   0.0
100.0   150.0   0.0
150.0   150.0   16.666666666666668
100.0   120.0   16.666666666666668
100.0   150.0   16.666666666666668
150.0   150.0   16.666666666666668
100.0   150.0   0.0
100.0   120.0   16.666666666666668
150.0   150.0   16.666666666666668
150.0   120.0   16.666666666666668
150.0   120.0   0.0
100.0   120.0   16.666666666666668
150.0   150.0   16.666666666666668
150.0   120.0   0.0
100.0   150.0   0.0
100.0   120.0   16.666666666666668
150.0   120.0   16.666666666666668
100.0   150.0   16.666666666666668
100.0   120.0   33.333333333333336
150.0   120.0   16.666666666666668
150.0   150.0   16.666666666666668
100.0   150.0   16.666666666666668
150.0   150.0   33.333333333333336
100.0   120.0   33.333333333333336
100.0   150.0   33.333333333333336
150.0   150.0   33.333333333333336
100.0   150.0   16.666666666666668
100.0   120.0   33.333333333333336
150.0   150.0   33.333333333333336
150.0   120.0   33.333333333333336
150.0   120.0   16.666666666666668
100.0   120.0   33.333333333333336
150.0   150.0   33.333333333333336
150.0   120.0   16.666666666666668
100.0   150.0   16.666666666666668
100.0   120.0   33.333333333333336
150.0   120.0   33.333333333333336
100.0   150.0   33.333333333333336
100.0   120.0   50.0
150.0   120.0   33.333333333333336
150.0   150.0   33.333333333333336
100.0   150.0   33.333333333333336
150.0   150.0   50.0
100.0   120.0   50.0
100.0   150.0   50.0
150.0   150.0   50.0
100.0   150.0   33.333333333333336
100.0   120.0   50.0
150.0   150.0   50.0
150.0   120.0   50.0
150.0   120.0   33.333333333333336
100.0   120.0   50.0
150.0   150.0   50.0
150.0   120.0   33.333333333333336
100.0   150.0   33.333333333333336
150.0   0.0   0.0
200.0   0.0   0.0
150.0   30.0   0.0
150.0   0.0   16.666666666666668
200.0   0.0   0.0
200.0   30.0   0.0
150.0   30.0   0.0
200.0   30.0   16.666666666666668
150.0   0.0   16.666666666666668
150.0   30.0   16.666666666666668
200.0   30.0   16.666666666666668
150.0   30.0   0.0
150.0   0.0   16.666666666666668
200.0   30.0   16.666666666666668
200.0   0.0   16.666666666666668
200.0   0.0   0.0
150.0   0.0   16.666666666666668
200.0   30.0   16.666666666666668
200.0   0.0   0.0
150.0   30.0   0.0
150.0   0.0   16.666666666666668
200.0   0.0   16.666666666666668
150.0   30.0   16.666666666666668
150.0   0.0   33.333333333333336
200.0   0.0   16.666666666666668
200.0   30.0   16.666666666666668
150.0   30.0   16.666666666666668
200.0   30.0   33.333333333333336
150.0   0.0   33.333333333333336
150.0   30.0   33.333333333333336
200.0   30.0   33.333333333333336
150.0   30.0   16.666666666666668
150.0   0.0   33.333333333333336
200.0   30.0   33.333333333333336
200.0   0.0   33.333333333333336
200.0   0.0   16.666666666666668
150.0   0.0   33.333333333333336
200.0   30.0   33.333333333333336
200.0   0.0   16.666666666666668
150.0   30.0   16.666666666666668
150.0   0.0   33.333333333333336
200.0   0.0   33.333333333333336
150.0   30.0   33.333333333333336
150.0   0.0   50.0
200.0   0.0   33.333333333333336
200.0   30.0   33.333333333333336
150.0   30.0   33.333333333333336
200.0   30.0   50.0
150.0   0.0   50.0
150.0   30.0   50.0
200.0   30.0   50.0
150.0   30.0   33.333333333333336
150.0   0.0   50.0
200.0   30.0   50.0
200.0   0.0   50.0
200.0   0.0   33.333333333333336
150.0   0.0   50.0
200.0   30.0   50.0
200.0   0.0   33.333333333333336
150.0   30.0   33.333333333333336
150.0   30.0   0.0
200.0   30.0   0.0
150.0   60.0   0.0
150.0   30.0   16.666666666666668
200.0   30.0   0.0
200.0   60.0   0.0
150.0   60.0   0.0
200.0   60.0   16.666666666666668
150.0   30.0   16.666666666666668
150.0   60.0   16.666666666666668
200.0   60.0   16.666666666666668
150.0   60.0   0.0
150.0   30.0   16.666666666666668
200.0   60.0   16.666666666666668
200.0   30.0   16.666666666666668
200.0   30.0   0.0
150.0   30.0   16.666666666666668
200.0   60.0   16.666666666666668
200.0   30.0   0.0
150.0   60.0   0.0
150.0   30.0   16.666666666666668
200.0   30.0   16.666666666666668
150.0   60.0   16.666666666666668
150.0   30.0   33.333333333333336
200.0   30.0   16.666666666666668
200.0   60.0   16.666666666666668
150.0   60.0   16.666666666666668
200.0   60.0   33.333333333333336
150.0   30.0   33.333333333333336
150.0   60.0   33.333333333333336
200.0   60.0   33.333333333333336
150.0   60.0   16.666666666666668
150.0   30.0   33.333333333333336
200.0   60.0   33.333333333333336
200.0   30.0   33.333333333333336
200.0   30.0   16.666666666666668
150.0   30.0   33.333333333333336
200.0   60.0   33.333333333333336
200.0   30.0   16.666666666666668
150.0   60.0   16.666666666666668
150.0   30.0   33.333333333333336
200.0   30.0   33.333333333333336
150.0   60.0   33.333333333333336
150.0   30.0   50.0
200.0   30.0   33.333333333333336
200.0   60.0   33.333333333333336
150.0   60.0   33.333333333333336
200.0   60.0   50.0
150.0   30.0   50.0
150.0   60.0   50.0
200.0   60.0   50.0
150.0   60.0   33.333333333333336
150.0   30.0   50.0
200.0   60.0   50.0
200.0   30.0   50.0
200.0   30.0   33.333333333333336
150.0   30.0   50.0
200.0   60.0   50.0
200.0   30.0   33.333333333333336
150.0   60.0   33.333333333333336
150.0   60.0   0.0
200.0   60.0   0.0
150.0   90.0   0.0
150.0   60.0   16.666666666666668
200.0   60.0   0.0
200.0   90.0   0.0
150.0   90.0   0.0
200.0   90.0   16.666666666666668
150.0   60.0   16.666666666666668
150.0   90.0   16.666666666666668
200.0   90.0   16.666666666666668
150.0   90.0   0.0
150.0   60.0   16.666666666666668
200.0   90.0   16.666666666666668
200.0   60.0   16.666666666666668
200.0   60.0   0.0
150.0   60.0   16.666666666666668
200.0   90.0   16.666666666666668
200.0   60.0   0.0
150.0   90.0   0.0
150.0   60.0   16.666666666666668
200.0   60.0   16.666666666666668
150.0   90.0   16.666666666666668
150.0   60.0   33.333333333333336
200.0   60.0   16.666666666666668
200.0   90.0   16.666666666666668
150.0   90.0   16.666666666666668
200.0   90.0   33.333333333333336
150.0   60.0   33.333333333333336
150.0   90.0   33.333333333333336
200.0   90.0   33.333333333333336
150.0   90.0   16.666666666666668
150.0   60.0   33.333333333333336
200.0   90.0   33.333333333333336
200.0   60.0   33.333333333333336
200.0   60.0   16.666666666666668
150.0   60.0   33.333333333333336
200.0   90.0   33.333333333333336
200.0   60.0   16.666666666666668
150.0   90.0   16.666666666666668
150.0   60.0   33.333333333333336
200.0   60.0   33.333333333333336
150.0   90.0   33.333333333333336
150.0   60.0   50.0
200.0   60.0   33.333333333333336
200.0   90.0   33.333333333333336
150.0   90.0   33.333333333333336
200.0   90.0   50.0
150.0   60.0   50.0
150.0   90.0   50.0
200.0   90.0   50.0
150.0   90.0   33.333333333333336
150.0   60.0   50.0
200.0   90.0   50.0
200.0   60.0   50.0
200.0   60.0   33.333333333333336
150.0   60.0   50.0
200.0   90.0   50.0
200.0   60.0   33.333333333333336
150.0   90.0   33.333333333333336
150.0   90.0   0.0
200.0   90.0   0.0
150.0   120.0   0.0
150.0   90.0   16.666666666666668
200.0   90.0   0.0
200.0   120.0   0.0
150.0   120.0   0.0
200.0   120.0   16.666666666666668
150.0   90.0   16.666666666666668
150.0   120.0   16.666666666666668
200.0   120.0   16.666666666666668
150.0   120.0   0.0
150.0   90.0   16.666666666666668
200.0   120.0   16.666666666666668
200.0   90.0   16.666666666666668
200.0   90.0   0.0
150.0   90.0   16.666666666666668
200.0   120.0   16.666666666666668
200.0   90.0   0.0
150.0   120.0   0.0
150.0   90.0   16.666666666666668
200.0   90.0   16.666666666666668
150.0   120.0   16.666666666666668
150.0   90.0   33.333333333333336
200.0   90.0   16.666666666666668
200.0   120.0   16.666666666666668
150.0   120.0   16.666666666666668
200.0   120.0   33.333333333333336
150.0   90.0   33.333333333333336
150.0   120.0   33.333333333333336
200.0   120.0   33.333333333333336
150.0   120.0   16.666666666666668
150.0   90.0   33.333333333333336
200.0   120.0   33.333333333333336
200.0   90.0   33.333333333333336
200.0   90.0   16.666666666666668
150.0   90.0   33.333333333333336
200.0   120.0   33.333333333333336
200.0   90.0   16.666666666666668
150.0   120.0   16.666666666666668
150.0   90.0   33.333333333333336
200.0   90.0   33.333333333333336
150.0   120.0   33.333333333333336
150.0   90.0   50.0
200.0   90.0   33.333333333333336
200.0   120.0   33.333333333333336
150.0   120.0   33.333333333333336
200.0   120.0   50.0
150.0   90.0   50.0
150.0   120.0   50.0
200.0   120.0   50.0
150.0   120.0   33.333333333333336
150.0   90.0   50.0
200.0   120.0   50.0
200.0   90.0   50.0
200.0   90.0   33.333333333333336
150.0   90.0   50.0
200.0   120.0   50.0
200.0   90.0   33.333333333333336
150.0   120.0   33.333333333333336
150.0   120.0   0.0
200.0   120.0   0.0
150.0   150.0   0.0
150.0   120.0   16.666666666666668
200.0   120.0   0.0
200.0   150.0   0.0
150.0   150.0   0.0
200.0   150.0   16.666666666666668
150.0   120.0   16.666666666666668
150.0   150.0   16.666666666666668
200.0   150.0   16.666666666666668
150.0   150.0   0.0
150.0   120.0   16.666666666666668
200.0   150.0   16.666666666666668
200.0   120.0   16.666666666666668
200.0   120.0   0.0
150.0   120.0   16.666666666666668
200.0   150.0   16.666666666666668
200.0   120.0   0.0
150.0   150.0   0.0
150.0   120.0   16.666666666666668
200.0   120.0   16.666666666666668
150.0   150.0   16.666666666666668
150.0   120.0   33.333333333333336
200.0   120.0   16.666666666666668
200.0   150.0   16.666666666666668
150.0   150.0   16.666666666666668
200.0   150.0   33.333333333333336
150.0   120.0   33.333333333333336
150.0   150.0   33.333333333333336
200.0   150.0   33.333333333333336
150.0   150.0   16.666666666666668
150.0   120.0   33.333333333333336
200.0   150.0   33.333333333333336
200.0   120.0   33.333333333333336
200.0   120.0   16.666666666666668
150.0   120.0   33.333333333333336
200.0   150.0   33.333333333333336
200.0   120.0   16.666666666666668
150.0   150.0   16.666666666666668
150.0   120.0   33.333333333333336
200.0   120.0   33.333333333333336
150.0   150.0   33.333333333333336
150.0   120.0   50.0
200.0   120.0   33.333333333333336
200.0   150.0   33.333333333333336
150.0   150.0   33.333333333333336
200.0   150.0   50.0
150.0   120.0   50.0
150.0   150.0   50.0
200.0   150.0   50.0
150.0   150.0   33.333333333333336
150.0   120.0   50.0
200.0   150.0   50.0
200.0   120.0   50.0
200.0   120.0   33.333333333333336
150.0   120.0   50.0
200.0   150.0   50.0
200.0   120.0   33.333333333333336
150.0   150.0   33.333333333333336
200.0   0.0   0.0
250.0   0.0   0.0
200.0   30.0   0.0
200.0   0.0   16.666666666666668
250.0   0.0   0.0
250.0   30.0   0.0
200.0   30.0   0.0
250.0   30.0   16.666666666666668
200.0   0.0   16.666666666666668
200.0   30.0   16.666666666666668
250.0   30.0   16.666666666666668
200.0   30.0   0.0
200.0   0.0   16.666666666666668
250.0   30.0   16.666666666666668
250.0   0.0   16.666666666666668
250.0   0.0   0.0
200.0   0.0   16.666666666666668
250.0   30.0   16.666666666666668
250.0   0.0   0.0
200.0   30.0   0.0
200.0   0.0   16.666666666666668
250.0   0.0   16.666666666666668
200.0   30.0   16.666666666666668
200.0   0.0   33.333333333333336
250.0   0.0   16.666666666666668
250.0   30.0   16.666666666666668
200.0   30.0   16.666666666666668
250.0   30.0   33.333333333333336
200.0   0.0   33.333333333333336
200.0   30.0   33.333333333333336
250.0   30.0   33.333333333333336
200.0   30.0   16.666666666666668
200.0   0.0   33.333333333333336
250.0   30.0   33.333333333333336
250.0   0.0   33.333333333333336
250.0   0.0   16.666666666666668
200.0   0.0   33.333333333333336
250.0   30.0   33.333333333333336
250.0   0.0   16.666666666666668
200.0   30.0   16.666666666666668
200.0   0.0   33.333333333333336
250.0   0.0   33.333333333333336
200.0   30.0   33.333333333333336
200.0   0.0   50.0
250.0   0.0   33.333333333333336
250.0   30.0   33.333333333333336
200.0   30.0   33.333333333333336
250.0   30.0   50.0
200.0   0.0   50.0
200.0   30.0   50.0
250.0   30.0   50.0
200.0   30.0   33.333333333333336
200.0   0.0   50.0
250.0   30.0   50.0
250.0   0.0   50.0
250.0   0.0   33.333333333333336
200.0   0.0   50.0
250.0   30.0   50.0
250.0   0.0   33.333333333333336
200.0   30.0   33.333333333333336
200.0   30.0   0.0
250.0   30.0   0.0
200.0   60.0   0.0
200.0   30.0   16.666666666666668
250.0   30.0   0.0
250.0   60.0   0.0
200.0   60.0   0.0
250.0   60.0   16.666666666666668
200.0   30.0   16.666666666666668
200.0   60.0   16.666666666666668
250.0   60.0   16.666666666666668
200.0   60.0   0.0
200.0   30.0   16.666666666666668
250.0   60.0   16.666666666666668
250.0   30.0   16.666666666666668
250.0   30.0   0.0
200.0   30.0   16.666666666666668
250.0   60.0   16.666666666666668
250.0   30.0   0.0
200.0   60.0   0.0
200.0   30.0   16.666666666666668
250.0   30.0   16.666666666666668
200.0   60.0   16.666666666666668
200.0   30.0   33.333333333333336
250.0   30.0   16.666666666666668
250.0   60.0   16.666666666666668
200.0   60.0   16.666666666666668
250.0   60.0   33.333333333333336
200.0   30.0   33.333333333333336
200.0   60.0   33.333333333333336
250.0   60.0   33.333333333333336
200.0   60.0   16.666666666666668
200.0   30.0   33.333333333333336
250.0   60.0   33.333333333333336
250.0   30.0   33.333333333333336
250.0   30.0   16.666666666666668
200.0   30.0   33.333333333333336
250.0   60.0   33.333333333333336
250.0   30.0   16.666666666666668
200.0   60.0   16.666666666666668
200.0   30.0   33.333333333333336
250.0   30.0   33.333333333333336
200.0   60.0   33.333333333333336
200.0   30.0   50.0
250.0   30.0   33.333333333333336
250.0   60.0   33.333333333333336
200.0   60.0   33.333333333333336
250.0   60.0   50.0
200.0   30.0   50.0
200.0   60.0   50.0
250.0   60.0   50.0
200.0   60.0   33.333333333333336
200.0   30.0   50.0
250.0   60.0   50.0
250.0   30.0   50.0
250.0   30.0   33.333333333333336
200.0   30.0   50.0
250.0   60.0   50.0
250.0   30.0   33.333333333333336
200.0   60.0   33.333333333333336
200.0   60.0   0.0
250.0   60.0   0.0
200.0   90.0   0.0
200.0   60.0   16.666666666666668
250.0   60.0   0.0
250.0   90.0   0.0
200.0   90.0   0.0
250.0   90.0   16.666666666666668
200.0   60.0   16.666666666666668
200.0   90.0   16.666666666666668
250.0   90.0   16.666666666666668
200.0   90.0   0.0
200.0   60.0   16.666666666666668
250.0   90.0   16.666666666666668
250.0   60.0   16.666666666666668
250.0   60.0   0.0
200.0   60.0   16.666666666666668
250.0   90.0   16.666666666666668
250.0   60.0   0.0
200.0   90.0   0.0
200.0   60.0   16.666666666666668
250.0   60.0   16.666666666666668
200.0   90.0   16.666666666666668
200.0   60.0   33.333333333333336
250.0   60.0   16.666666666666668
250.0   90.0   16.666666666666668
200.0   90.0   16.666666666666668
250.0   90.0   33.333333333333336
200.0   60.0   33.333333333333336
200.0   90.0   33.333333333333336
250.0   90.0   33.333333333333336
200.0   90.0   16.666666666666668
200.0   60.0   33.333333333333336
250.0   90.0   33.333333333333336
250.0   60.0   33.333333333333336
250.0   60.0   16.666666666666668
200.0   60.0   33.333333333333336
250.0   90.0   33.333333333333336
250.0   60.0   16.666666666666668
200.0   90.0   16.666666666666668
200.0   60.0   33.333333333333336
250.0   60.0   33.333333333333336
200.0   90.0   33.333333333333336
200.0   60.0   50.0
250.0   60.0   33.333333333333336
250.0   90.0   33.333333333333336
200.0   90.0   33.333333333333336
250.0   90.0   50.0
200.0   60.0   50.0
200.0   90.0   50.0
250.0   90.0   50.0
200.0   90.0   33.333333333333336
200.0   60.0   50.0
250.0   90.0   50.0
250.0   60.0   50.0
250.0   60.0   33.333333333333336
200.0   60.0   50.0
250.0   90.0   50.0
250.0   60.0   33.333333333333336
200.0   90.0   33.333333333333336
200.0   90.0   0.0
250.0   90.0   0.0
200.0   120.0   0.0
200.0   90.0   16.666666666666668
250.0   90.0   0.0
250.0   120.0   0.0
200.0   120.0   0.0
250.0   120.0   16.666666666666668
200.0   90.0   16.666666666666668
200.0   120.0   16.666666666666668
250.0   120.0   16.666666666666668
200.0   120.0   0.0
200.0   90.0   16.666666666666668
250.0   120.0   16.666666666666668
250.0   90.0   16.666666666666668
250.0   90.0   0.0
200.0   90.0   16.666666666666668
250.0   120.0   16.666666666666668
250.0   90.0   0.0
200.0   120.0   0.0
200.0   90.0   16.666666666666668
250.0   90.0   16.666666666666668
200.0   120.0   16.666666666666668
200.0   90.0   33.333333333333336
250.0   90.0   16.666666666666668
250.0   120.0   16.666666666666668
200.0   120.0   16.666666666666668
250.0   120.0   33.333333333333336
200.0   90.0   33.333333333333336
200.0   120.0   33.333333333333336
250.0   120.0   33.333333333333336
200.0   120.0   16.666666666666668
200.0   90.0   33.333333333333336
250.0   120.0   33.333333333333336
250.0   90.0   33.333333333333336
250.0   90.0   16.666666666666668
200.0   90.0   33.333333333333336
250.0   120.0   33.333333333333336
250.0   90.0   16.666666666666668
200.0   120.0   16.666666666666668
200.0   90.0   33.333333333333336
250.0   90.0   33.333333333333336
200.0   120.0   33.333333333333336
200.0   90.0   50.0
250.0   90.0   33.333333333333336
250.0   120.0   33.333333333333336
200.0   120.0   33.333333333333336
250.0   120.0   50.0
200.0   90.0   50.0
200.0   120.0   50.0
250.0   120.0   50.0
200.0   120.0   33.333333333333336
200.0   90.0   50.0
250.0   120.0   50.0
250.0   90.0   50.0
250.0   90.0   33.333333333333336
200.0   90.0   50.0
250.0   120.0   50.0
250.0   90.0   33.333333333333336
200.0   120.0   33.333333333333336
200.0   120.0   0.0
250.0   120.0   0.0
200.0   150.0   0.0
200.0   120.0   16.666666666666668
250.0   120.0   0.0
250.0   150.0   0.0
200.0   150.0   0.0
250.0   150.0   16.666666666666668
200.0   120.0   16.666666666666668
200.0   150.0   16.666666666666668
250.0   150.0   16.666666666666668
200.0   150.0   0.0
200.0   120.0   16.666666666666668
250.0   150.0   16.666666666666668
250.0   120.0   16.666666666666668
250.0   120.0   0.0
200.0   120.0   16.666666666666668
250.0   150.0   16.666666666666668
250.0   120.0   0.0
200.0   150.0   0.0
200.0   120.0   16.666666666666668
250.0   120.0   16.666666666666668
200.0   150.0   16.666666666666668
200.0   120.0   33.333333333333336
250.0   120.0   16.666666666666668
250.0   150.0   16.666666666666668
200.0   150.0   16.666666666666668
250.0   150.0   33.333333333333336
200.0   120.0   33.333333333333336
200.0   150.0   33.333333333333336
250.0   150.0   33.333333333333336
200.0   150.0   16.666666666666668
200.0   120.0   33.333333333333336
250.0   150.0   33.333333333333336
250.0   120.0   33.333333333333336
250.0   120.0   16.666666666666668
200.0   120.0   33.333333333333336
250.0   150.0   33.333333333333336
250.0   120.0   16.666666666666668
200.0   150.0   16.666666666666668
200.0   120.0   33.333333333333336
250.0   120.0   33.333333333333336
200.0   150.0   33.333333333333336
200.0   120.0   50.0
250.0   120.0   33.333333333333336
250.0   150.0   33.333333333333336
200.0   150.0   33.333333333333336
250.0   150.0   50.0
200.0   120.0   50.0
200.0   150.0   50.0
250.0   150.0   50.0
200.0   150.0   33.333333333333336
200.0   120.0   50.0
250.0   150.0   50.0
250.0   120.0   50.0
250.0   120.0   33.333333333333336
200.0   120.0   50.0
250.0   150.0   50.0
250.0   120.0   33.333333333333336
200.0   150.0   33.333333333333336
250.0   0.0   0.0
300.0   0.0   0.0
250.0   30.0   0.0
250.0   0.0   16.666666666666668
300.0   0.0   0.0
300.0   30.0   0.0
250.0   30.0   0.0
300.0   30.0   16.666666666666668
250.0   0.0   16.666666666666668
250.0   30.0   16.666666666666668
300.0   30.0   16.666666666666668
250.0   30.0   0.0
250.0   0.0   16.666666666666668
300.0   30.0   16.666666666666668
300.0   0.0   16.666666666666668
300.0   0.0   0.0
250.0   0.0   16.666666666666668
300.0   30.0   16.666666666666668
300.0   0.0   0.0
250.0   30.0   0.0
250.0   0.0   16.666666666666668
300.0   0.0   16.666666666666668
250.0   30.0   16.666666666666668
250.0   0.0   33.333333333333336
300.0   0.0   16.666666666666668
300.0   30.0   16.666666666666668
250.0   30.0   16.666666666666668
300.0   30.0   33.333333333333336
250.0   0.0   33.333333333333336
250.0   30.0   33.333333333333336
300.0   30.0   33.333333333333336
250.0   30.0   16.666666666666668
250.0   0.0   33.333333333333336
300.0   30.0   33.333333333333336
300.0   0.0   33.333333333333336
300.0   0.0   16.666666666666668
250.0   0.0   33.333333333333336
300.0   30.0   33.333333333333336
300.0   0.0   16.666666666666668
250.0   30.0   16.666666666666668
250.0   0.0   33.333333333333336
300.0   0.0   33.333333333333336
250.0   30.0   33.333333333333336
250.0   0.0   50.0
300.0   0.0   33.333333333333336
300.0   30.0   33.333333333333336
250.0   30.0   33.333333333333336
300.0   30.0   50.0
250.0   0.0   50.0
250.0   30.0   50.0
300.0   30.0   50.0
250.0   30.0   33.333333333333336
250.0   0.0   50.0
300.0   30.0   50.0
300.0   0.0   50.0
300.0   0.0   33.333333333333336
250.0   0.0   50.0
300.0   30.0   50.0
300.0   0.0   33.333333333333336
250.0   30.0   33.333333333333336
250.0   30.0   0.0
300.0   30.0   0.0
250.0   60.0   0.0
250.0   30.0   16.666666666666668
300.0   30.0   0.0
300.0   60.0   0.0
250.0   60.0   0.0
300.0   60.0   16.666666666666668
250.0   30.0   16.666666666666668
250.0   60.0   16.666666666666668
300.0   60.0   16.666666666666668
250.0   60.0   0.0
250.0   30.0   16.666666666666668
300.0   60.0   16.666666666666668
300.0   30.0   16.666666666666668
300.0   30.0   0.0
250.0   30.0   16.666666666666668
300.0   60.0   16.666666666666668
300.0   30.0   0.0
250.0   60.0   0.0
250.0   30.0   16.666666666666668
300.0   30.0   16.666666666666668
250.0   60.0   16.666666666666668
250.0   30.0   33.333333333333336
300.0   30.0   16.666666666666668
300.0   60.0   16.666666666666668
250.0   60.0   16.666666666666668
300.0   60.0   33.333333333333336
250.0   30.0   33.333333333333336
250.0   60.0   33.333333333333336
300.0   60.0   33.333333333333336
250.0   60.0   16.666666666666668
250.0   30.0   33.333333333333336
300.0   60.0   33.333333333333336
300.0   30.0   33.333333333333336
300.0   30.0   16.666666666666668
250.0   30.0   33.333333333333336
300.0   60.0   33.333333333333336
300.0   30.0   16.666666666666668
250.0   60.0   16.666666666666668
250.0   30.0   33.333333333333336
300.0   30.0   33.333333333333336
250.0   60.0   33.333333333333336
250.0   30.0   50.0
300.0   30.0   33.333333333333336
300.0   60.0   33.333333333333336
250.0   60.0   33.333333333333336
300.0   60.0   50.0
250.0   30.0   50.0
250.0   60.0   50.0
300.0   60.0   50.0
250.0   60.0   33.333333333333336
250.0   30.0   50.0
300.0   60.0   50.0
300.0   30.0   50.0
300.0   30.0   33.333333333333336
250.0   30.0   50.0
300.0   60.0   50.0
300.0   30.0   33.333333333333336
250.0   60.0   33.333333333333336
250.0   60.0   0.0
300.0   60.0   0.0
250.0   90.0   0.0
250.0   60.0   16.666666666666668
300.0   60.0   0.0
300.0   90.0   0.0
250.0   90.0   0.0
300.0   90.0   16.666666666666668
250.0   60.0   16.666666666666668
250.0   90.0   16.666666666666668
300.0   90.0   16.666666666666668
250.0   90.0   0.0
250.0   60.0   16.666666666666668
300.0   90.0   16.666666666666668
300.0   60.0   16.666666666666668
300.0   60.0   0.0
250.0   60.0   16.666666666666668
300.0   90.0   16.666666666666668
300.0   60.0   0.0
250.0   90.0   0.0
250.0   60.0   16.666666666666668
300.0   60.0   16.666666666666668
250.0   90.0   16.666666666666668
250.0   60.0   33.333333333333336
300.0   60.0   16.666666666666668
300.0   90.0   16.666666666666668
250.0   90.0   16.666666666666668
300.0   90.0   33.333333333333336
250.0   60.0   33.333333333333336
250.0   90.0   33.333333333333336
300.0   90.0   33.333333333333336
250.0   90.0   16.666666666666668
250.0   60.0   33.333333333333336
300.0   90.0   33.333333333333336
300.0   60.0   33.333333333333336
300.0   60.0   16.666666666666668
250.0   60.0   33.333333333333336
300.0   90.0   33.333333333333336
300.0   60.0   16.666666666666668
250.0   90.0   16.666666666666668
250.0   60.0   33.333333333333336
300.0   60.0   33.333333333333336
250.0   90.0   33.333333333333336
250.0   60.0   50.0
300.0   60.0   33.333333333333336
300.0   90.0   33.333333333333336
250.0   90.0   33.333333333333336
300.0   90.0   50.0
250.0   60.0   50.0
250.0   90.0   50.0
300.0   90.0   50.0
250.0   90.0   33.333333333333336
250.0   60.0   50.0
300.0   90.0   50.0
300.0   60.0   50.0
300.0   60.0   33.333333333333336
250.0   60.0   50.0
300.0   90.0   50.0
300.0   60.0   33.333333333333336
250.0   90.0   33.333333333333336
250.0   90.0   0.0
300.0   90.0   0.0
250.0   120.0   0.0
250.0   90.0   16.666666666666668
300.0   90.0   0.0
300.0   120.0   0.0
250.0   120.0   0.0
300.0   120.0   16.666666666666668
250.0   90.0   16.666666666666668
250.0   120.0   16.666666666666668
300.0   120.0   16.666666666666668
250.0   120.0   0.0
250.0   90.0   16.666666666666668
300.0   120.0   16.666666666666668
300.0   90.0   16.666666666666668
300.0   90.0   0.0
250.0   90.0   16.666666666666668
300.0   120.0   16.666666666666668
300.0   90.0   0.0
250.0   120.0   0.0
250.0   90.0   16.666666666666668
300.0   90.0   16.666666666666668
250.0   120.0   16.666666666666668
250.0   90.0   33.333333333333336
300.0   90.0   16.666666666666668
300.0   120.0   16.666666666666668
250.0   120.0   16.666666666666668
300.0   120.0   33.333333333333336
250.0   90.0   33.333333333333336
250.0   120.0   33.333333333333336
300.0   120.0   33.333333333333336
250.0   120.0   16.666666666666668
250.0   90.0   33.333333333333336
300.0   120.0   33.333333333333336
300.0   90.0   33.333333333333336
300.0   90.0   16.666666666666668
250.0   90.0   33.333333333333336
300.0   120.0   33.333333333333336
300.0   90.0   16.666666666666668
250.0   120.0   16.666666666666668
250.0   90.0   33.333333333333336
300.0   90.0   33.333333333333336
250.0   120.0   33.333333333333336
250.0   90.0   50.0
300.0   90.0   33.333333333333336
300.0   120.0   33.333333333333336
250.0   120.0   33.333333333333336
300.0   120.0   50.0
250.0   90.0   50.0
250.0   120.0   50.0
300.0   120.0   50.0
250.0   120.0   33.333333333333336
250.0   90.0   50.0
300.0   120.0   50.0
300.0   90.0   50.0
300.0   90.0   33.333333333333336
250.0   90.0   50.0
300.0   120.0   50.0
300.0   90.0   33.333333333333336
250.0   120.0   33.333333333333336
250.0   120.0   0.0
300.0   120.0   0.0
250.0   150.0   0.0
250.0   120.0   16.666666666666668
300.0   120.0   0.0
300.0   150.0   0.0
250.0   150.0   0.0
300.0   150.0   16.666666666666668
250.0   120.0   16.666666666666668
250.0   150.0   16.666666666666668
300.0   150.0   16.666666666666668
250.0   150.0   0.0
250.0   120.0   16.666666666666668
300.0   150.0   16.666666666666668
300.0   120.0   16.666666666666668
300.0   120.0   0.0
250.0   120.0   16.666666666666668
300.0   150.0   16.666666666666668
300.0   120.0   0.0
250.0   150.0   0.0
250.0   120.0   16.666666666666668
300.0   120.0   16.666666666666668
250.0   150.0   16.666666666666668
250.0   120.0   33.333333333333336
300.0   120.0   16.666666666666668
300.0   150.0   16.666666666666668
250.0   150.0   16.666666666666668
300.0   150.0   33.333333333333336
250.0   120.0   33.333333333333336
250.0   150.0   33.333333333333336
300.0   150.0   33.333333333333336
250.0   150.0   16.666666666666668
250.0   120.0   33.333333333333336
300.0   150.0   33.333333333333336
300.0   120.0   33.333333333333336
300.0   120.0   16.666666666666668
250.0   120.0   33.333333333333336
300.0   150.0   33.333333333333336
300.0   120.0   16.666666666666668
250.0   150.0   16.666666666666668
250.0   120.0   33.333333333333336
300.0   120.0   33.333333333333336
250.0   150.0   33.333333333333336
250.0   120.0   50.0
300.0   120.0   33.333333333333336
300.0   150.0   33.333333333333336
250.0   150.0   33.333333333333336
300.0   150.0   50.0
250.0   120.0   50.0
250.0   150.0   50.0
300.0   150.0   50.0
250.0   150.0   33.333333333333336
250.0   120.0   50.0
300.0   150.0   50.0
300.0   120.0   50.0
300.0   120.0   33.333333333333336
250.0   120.0   50.0
300.0   150.0   50.0
300.0   120.0   33.333333333333336
250.0   150.0   33.333333333333336
300.0   0.0   0.0
350.0   0.0   0.0
300.0   30.0   0.0
300.0   0.0   16.666666666666668
350.0   0.0   0.0
350.0   30.0   0.0
300.0   30.0   0.0
350.0   30.0   16.666666666666668
300.0   0.0   16.666666666666668
300.0   30.0   16.666666666666668
350.0   30.0   16.666666666666668
300.0   30.0   0.0
300.0   0.0   16.666666666666668
350.0   30.0   16.666666666666668
350.0   0.0   16.666666666666668
350.0   0.0   0.0
300.0   0.0   16.666666666666668
350.0   30.0   16.666666666666668
350.0   0.0   0.0
300.0   30.0   0.0
300.0   0.0   16.666666666666668
350.0   0.0   16.666666666666668
300.0   30.0   16.666666666666668
300.0   0.0   33.333333333333336
350.0   0.0   16.666666666666668
350.0   30.0   16.666666666666668
300.0   30.0   16.666666666666668
350.0   30.0   33.333333333333336
300.0   0.0   33.333333333333336
300.0   30.0   33.333333333333336
350.0   30.0   33.333333333333336
300.0   30.0   16.666666666666668
300.0   0.0   33.333333333333336
350.0   30.0   33.333333333333336
350.0   0.0   33.333333333333336
350.0   0.0   16.666666666666668
300.0   0.0   33.333333333333336
350.0   30.0   33.333333333333336
350.0   0.0   16.666666666666668
300.0   30.0   16.666666666666668
300.0   0.0   33.333333333333336
350.0   0.0   33.333333333333336
300.0   30.0   33.333333333333336
300.0   0.0   50.0
350.0   0.0   33.333333333333336
350.0   30.0   33.333333333333336
300.0   30.0   33.333333333333336
350.0   30.0   50.0
300.0   0.0   50.0
300.0   30.0   50.0
350.0   30.0   50.0
300.0   30.0   33.333333333333336
300.0   0.0   50.0
350.0   30.0   50.0
350.0   0.0   50.0
350.0   0.0   33.333333333333336
300.0   0.0   50.0
350.0   30.0   50.0
350.0   0.0   33.333333333333336
300.0   30.0   33.333333333333336
300.0   30.0   0.0
350.0   30.0   0.0
300.0   60.0   0.0
300.0   30.0   16.666666666666668
350.0   30.0   0.0
350.0   60.0   0.0
300.0   60.0   0.0
350.0   60.0   16.666666666666668
300.0   30.0   16.666666666666668
300.0   60.0   16.666666666666668
350.0   60.0   16.666666666666668
300.0   60.0   0.0
300.0   30.0   16.666666666666668
350.0   60.0   16.666666666666668
350.0   30.0   16.666666666666668
350.0   30.0   0.0
300.0   30.0   16.666666666666668
350.0   60.0   16.666666666666668
350.0   30.0   0.0
300.0   60.0   0.0
300.0   30.0   16.666666666666668
350.0   30.0   16.666666666666668
300.0   60.0   16.666666666666668
300.0   30.0   33.333333333333336
350.0   30.0   16.666666666666668
350.0   60.0   16.666666666666668
300.0   60.0   16.666666666666668
350.0   60.0   33.333333333333336
300.0   30.0   33.333333333333336
300.0   60.0   33.333333333333336
350.0   60.0   33.333333333333336
300.0   60.0   16.666666666666668
300.0   30.0   33.333333333333336
350.0   60.0   33.333333333333336
350.0   30.0   33.333333333333336
350.0   30.0   16.666666666666668
300.0   30.0   33.333333333333336
350.0   60.0   33.333333333333336
350.0   30.0   16.666666666666668
300.0   60.0   16.666666666666668
300.0   30.0   33.333333333333336
350.0   30.0   33.333333333333336
300.0   60.0   33.333333333333336
300.0   30.0   50.0
350.0   30.0   33.333333333333336
350.0   60.0   33.333333333333336
300.0   60.0   33.333333333333336
350.0   60.0   50.0
300.0   30.0   50.0
300.0   60.0   50.0
350.0   60.0   50.0
300.0   60.0   33.333333333333336
300.0   30.0   50.0
350.0   60.0   50.0
350.0   30.0   50.0
350.0   30.0   33.333333333333336
300.0   30.0   50.0
350.0   60.0   50.0
350.0   30.0   33.333333333333336
300.0   60.0   33.333333333333336
300.0   60.0   0.0
350.0   60.0   0.0
300.0   90.0   0.0
300.0   60.0   16.666666666666668
350.0   60.0   0.0
350.0   90.0   0.0
300.0   90.0   0.0
350.0   90.0   16.666666666666668
300.0   60.0   16.666666666666668
300.0   90.0   16.666666666666668
350.0   90.0   16.666666666666668
300.0   90.0   0.0
300.0   60.0   16.666666666666668
350.0   90.0   16.666666666666668
350.0   60.0   16.666666666666668
350.0   60.0   0.0
300.0   60.0   16.666666666666668
350.0   90.0   16.666666666666668
350.0   60.0   0.0
300.0   90.0   0.0
300.0   60.0   16.666666666666668
350.0   60.0   16.666666666666668
300.0   90.0   16.666666666666668
300.0   60.0   33.333333333333336
350.0   60.0   16.666666666666668
350.0   90.0   16.666666666666668
300.0   90.0   16.666666666666668
350.0   90.0   33.333333333333336
300.0   60.0   33.333333333333336
300.0   90.0   33.333333333333336
350.0   90.0   33.333333333333336
300.0   90.0   16.666666666666668
300.0   60.0   33.333333333333336
350.0   90.0   33.333333333333336
350.0   60.0   33.333333333333336
350.0   60.0   16.666666666666668
300.0   60.0   33.333333333333336
350.0   90.0   33.333333333333336
350.0   60.0   16.666666666666668
300.0   90.0   16.666666666666668
300.0   60.0   33.333333333333336
350.0   60.0   33.333333333333336
300.0   90.0   33.333333333333336
300.0   60.0   50.0
350.0   60.0   33.333333333333336
350.0   90.0   33.333333333333336
300.0   90.0   33.333333333333336
350.0   90.0   50.0
300.0   60.0   50.0
300.0   90.0   50.0
350.0   90.0   50.0
300.0   90.0   33.333333333333336
300.0   60.0   50.0
350.0   90.0   50.0
350.0   60.0   50.0
350.0   60.0   33.333333333333336
300.0   60.0   50.0
350.0   90.0   50.0
350.0   60.0   33.333333333333336
300.0   90.0   33.333333333333336
300.0   90.0   0.0
350.0   90.0   0.0
300.0   120.0   0.0
300.0   90.0   16.666666666666668
350.0   90.0   0.0
350.0   120.0   0.0
300.0   120.0   0.0
350.0   120.0   16.666666666666668
300.0   90.0   16.666666666666668
300.0   120.0   16.666666666666668
350.0   120.0   16.666666666666668
300.0   120.0   0.0
300.0   90.0   16.666666666666668
350.0   120.0   16.666666666666668
350.0   90.0   16.666666666666668
350.0   90.0   0.0
300.0   90.0   16.666666666666668
350.0   120.0   16.666666666666668
350.0   90.0   0.0
300.0   120.0   0.0
300.0   90.0   16.666666666666668
350.0   90.0   16.666666666666668
300.0   120.0   16.666666666666668
300.0   90.0   33.333333333333336
350.0   90.0   16.666666666666668
350.0   120.0   16.666666666666668
300.0   120.0   16.666666666666668
350.0   120.0   33.333333333333336
300.0   90.0   33.333333333333336
300.0   120.0   33.333333333333336
350.0   120.0   33.333333333333336
300.0   120.0   16.666666666666668
300.0   90.0   33.333333333333336
350.0   120.0   33.333333333333336
350.0   90.0   33.333333333333336
350.0   90.0   16.666666666666668
300.0   90.0   33.333333333333336
350.0   120.0   33.333333333333336
350.0   90.0   16.666666666666668
300.0   120.0   16.666666666666668
300.0   90.0   33.333333333333336
350.0   90.0   33.333333333333336
300.0   120.0   33.333333333333336
300.0   90.0   50.0
350.0   90.0   33.333333333333336
350.0   120.0   33.333333333333336
300.0   120.0   33.333333333333336
350.0   120.0   50.0
300.0   90.0   50.0
300.0   120.0   50.0
350.0   120.0   50.0
300.0   120.0   33.333333333333336
300.0   90.0   50.0
350.0   120.0   50.0
350.0   90.0   50.0
350.0   90.0   33.333333333333336
300.0   90.0   50.0
350.0   120.0   50.0
350.0   90.0   33.333333333333336
300.0   120.0   33.333333333333336
300.0   120.0   0.0
350.0   120.0   0.0
300.0   150.0   0.0
300.0   120.0   16.666666666666668
350.0   120.0   0.0
350.0   150.0   0.0
300.0   150.0   0.0
350.0   150.0   16.666666666666668
300.0   120.0   16.666666666666668
300.0   150.0   16.666666666666668
350.0   150.0   16.666666666666668
300.0   150.0   0.0
300.0   120.0   16.666666666666668
350.0   150.0   16.666666666666668
350.0   120.0   16.666666666666668
350.0   120.0   0.0
300.0   120.0   16.666666666666668
350.0   150.0   16.666666666666668
350.0   120.0   0.0
300.0   150.0   0.0
300.0   120.0   16.666666666666668
350.0   120.0   16.666666666666668
300.0   150.0   16.666666666666668
300.0   120.0   33.333333333333336
350.0   120.0   16.666666666666668
350.0   150.0   16.666666666666668
300.0   150.0   16.666666666666668
350.0   150.0   33.333333333333336
300.0   120.0   33.333333333333336
300.0   150.0   33.333333333333336
350.0   150.0   33.333333333333336
300.0   150.0   16.666666666666668
300.0   120.0   33.333333333333336
350.0   150.0   33.333333333333336
350.0   120.0   33.333333333333336
350.0   120.0   16.666666666666668
300.0   120.0   33.333333333333336
350.0   150.0   33.333333333333336
350.0   120.0   16.666666666666668
300.0   150.0   16.666666666666668
300.0   120.0   33.333333333333336
350.0   120.0   33.333333333333336
300.0   150.0   33.333333333333336
300.0   120.0   50.0
350.0   120.0   33.333333333333336
350.0   150.0   33.333333333333336
300.0   150.0   33.333333333333336
350.0   150.0   50.0
300.0   120.0   50.0
300.0   150.0   50.0
350.0   150.0   50.0
300.0   150.0   33.333333333333336
300.0   120.0   50.0
350.0   150.0   50.0
350.0   120.0   50.0
350.0   120.0   33.333333333333336
300.0   120.0   50.0
350.0   150.0   50.0
350.0   120.0   33.333333333333336
300.0   150.0   33.333333333333336
350.0   0.0   0.0
400.0   0.0   0.0
350.0   30.0   0.0
350.0   0.0   16.666666666666668
400.0   0.0   0.0
400.0   30.0   0.0
350.0   30.0   0.0
400.0   30.0   16.666666666666668
350.0   0.0   16.666666666666668
350.0   30.0   16.666666666666668
400.0   30.0   16.666666666666668
350.0   30.0   0.0
350.0   0.0   16.666666666666668
400.0   30.0   16.666666666666668
400.0   0.0   16.666666666666668
400.0   0.0   0.0
350.0   0.0   16.666666666666668
400.0   30.0   16.666666666666668
400.0   0.0   0.0
350.0   30.0   0.0
350.0   0.0   16.666666666666668
400.0   0.0   16.666666666666668
350.0   30.0   16.666666666666668
350.0   0.0   33.333333333333336
400.0   0.0   16.666666666666668
400.0   30.0   16.666666666666668
350.0   30.0   16.666666666666668
400.0   30.0   33.333333333333336
350.0   0.0   33.333333333333336
350.0   30.0   33.333333333333336
400.0   30.0   33.333333333333336
350.0   30.0   16.666666666666668
350.0   0.0   33.333333333333336
400.0   30.0   33.333333333333336
400.0   0.0   33.333333333333336
400.0   0.0   16.666666666666668
350.0   0.0   33.333333333333336
400.0   30.0   33.333333333333336
400.0   0.0   16.666666666666668
350.0   30.0   16.666666666666668
350.0   0.0   33.333333333333336
400.0   0.0   33.333333333333336
350.0   30.0   33.333333333333336
350.0   0.0   50.0
400.0   0.0   33.333333333333336
400.0   30.0   33.333333333333336
350.0   30.0   33.333333333333336
400.0   30.0   50.0
350.0   0.0   50.0
350.0   30.0   50.0
400.0   30.0   50.0
350.0   30.0   33.333333333333336
350.0   0.0   50.0
400.0   30.0   50.0
400.0   0.0   50.0
400.0   0.0   33.333333333333336
350.0   0.0   50.0
400.0   30.0   50.0
400.0   0.0   33.333333333333336
350.0   30.0   33.333333333333336
350.0   30.0   0.0
400.0   30.0   0.0
350.0   60.0   0.0
350.0   30.0   16.666666666666668
400.0   30.0   0.0
400.0   60.0   0.0
350.0   60.0   0.0
400.0   60.0   16.666666666666668
350.0   30.0   16.666666666666668
350.0   60.0   16.666666666666668
400.0   60.0   16.666666666666668
350.0   60.0   0.0
350.0   30.0   16.666666666666668
400.0   60.0   16.666666666666668
400.0   30.0   16.666666666666668
400.0   30.0   0.0
350.0   30.0   16.666666666666668
400.0   60.0   16.666666666666668
400.0   30.0   0.0
350.0   60.0   0.0
350.0   30.0   16.666666666666668
400.0   30.0   16.666666666666668
350.0   60.0   16.666666666666668
350.0   30.0   33.333333333333336
400.0   30.0   16.666666666666668
400.0   60.0   16.666666666666668
350.0   60.0   16.666666666666668
400.0   60.0   33.333333333333336
350.0   30.0   33.333333333333336
350.0   60.0   33.333333333333336
400.0   60.0   33.333333333333336
350.0   60.0   16.666666666666668
350.0   30.0   33.333333333333336
400.0   60.0   33.333333333333336
400.0   30.0   33.333333333333336
400.0   30.0   16.666666666666668
350.0   30.0   33.333333333333336
400.0   60.0   33.333333333333336
400.0   30.0   16.666666666666668
350.0   60.0   16.666666666666668
350.0   30.0   33.333333333333336
400.0   30.0   33.333333333333336
350.0   60.0   33.333333333333336
350.0   30.0   50.0
400.0   30.0   33.333333333333336
400.0   60.0   33.333333333333336
350.0   60.0   33.333333333333336
400.0   60.0   50.0
350.0   30.0   50.0
350.0   60.0   50.0
400.0   60.0   50.0
350.0   60.0   33.333333333333336
350.0   30.0   50.0
400.0   60.0   50.0
400.0   30.0   50.0
400.0   30.0   33.333333333333336
350.0   30.0   50.0
400.0   60.0   50.0
400.0   30.0   33.333333333333336
350.0   60.0   33.333333333333336
350.0   60.0   0.0
400.0   60.0   0.0
350.0   90.0   0.0
350.0   60.0   16.666666666666668
400.0   60.0   0.0
400.0   90.0   0.0
350.0   90.0   0.0
400.0   90.0   16.666666666666668
350.0   60.0   16.666666666666668
350.0   90.0   16.666666666666668
400.0   90.0   16.666666666666668
350.0   90.0   0.0
350.0   60.0   16.666666666666668
400.0   90.0   16.666666666666668
400.0   60.0   16.666666666666668
400.0   60.0   0.0
350.0   60.0   16.666666666666668
400.0   90.0   16.666666666666668
400.0   60.0   0.0
350.0   90.0   0.0
350.0   60.0   16.666666666666668
400.0   60.0   16.666666666666668
350.0   90.0   16.666666666666668
350.0   60.0   33.333333333333336
400.0   60.0   16.666666666666668
400.0   90.0   16.666666666666668
350.0   90.0   16.666666666666668
400.0   90.0   33.333333333333336
350.0   60.0   33.333333333333336
350.0   90.0   33.333333333333336
400.0   90.0   33.333333333333336
350.0   90.0   16.666666666666668
350.0   60.0   33.333333333333336
400.0   90.0   33.333333333333336
400.0   60.0   33.333333333333336
400.0   60.0   16.666666666666668
350.0   60.0   33.333333333333336
400.0   90.0   33.333333333333336
400.0   60.0   16.666666666666668
350.0   90.0   16.666666666666668
350.0   60.0   33.333333333333336
400.0   60.0   33.333333333333336
350.0   90.0   33.333333333333336
350.0   60.0   50.0
400.0   60.0   33.333333333333336
400.0   90.0   33.333333333333336
350.0   90.0   33.333333333333336
400.0   90.0   50.0
350.0   60.0   50.0
350.0   90.0   50.0
400.0   90.0   50.0
350.0   90.0   33.333333333333336
350.0   60.0   50.0
400.0   90.0   50.0
400.0   60.0   50.0
400.0   60.0   33.333333333333336
350.0   60.0   50.0
400.0   90.0   50.0
400.0   60.0   33.333333333333336
350.0   90.0   33.333333333333336
350.0   90.0   0.0
400.0   90.0   0.0
350.0   120.0   0.0
350.0   90.0   16.666666666666668
400.0   90.0   0.0
400.0   120.0   0.0
350.0   120.0   0.0
400.0   120.0   16.666666666666668
350.0   90.0   16.666666666666668
350.0   120.0   16.666666666666668
400.0   120.0   16.666666666666668
350.0   120.0   0.0
350.0   90.0   16.666666666666668
400.0   120.0   16.666666666666668
400.0   90.0   16.666666666666668
400.0   90.0   0.0
350.0   90.0   16.666666666666668
400.0   120.0   16.666666666666668
400.0   90.0   0.0
350.0   120.0   0.0
350.0   90.0   16.666666666666668
400.0   90.0   16.666666666666668
350.0   120.0   16.666666666666668
350.0   90.0   33.333333333333336
400.0   90.0   16.666666666666668
400.0   120.0   16.666666666666668
350.0   120.0   16.666666666666668
400.0   120.0   33.333333333333336
350.0   90.0   33.333333333333336
350.0   120.0   33.333333333333336
400.0   120.0   33.333333333333336
350.0   120.0   16.666666666666668
350.0   90.0   33.333333333333336
400.0   120.0   33.333333333333336
400.0   90.0   33.333333333333336
400.0   90.0   16.666666666666668
350.0   90.0   33.333333333333336
400.0   120.0   33.333333333333336
400.0   90.0   16.666666666666668
350.0   120.0   16.666666666666668
350.0   90.0   33.333333333333336
400.0   90.0   33.333333333333336
350.0   120.0   33.333333333333336
350.0   90.0   50.0
400.0   90.0   33.333333333333336
400.0   120.0   33.333333333333336
350.0   120.0   33.333333333333336
400.0   120.0   50.0
350.0   90.0   50.0
350.0   120.0   50.0
400.0   120.0   50.0
350.0   120.0   33.333333333333336
350.0   90.0   50.0
400.0   120.0   50.0
400.0   90.0   50.0
400.0   90.0   33.333333333333336
350.0   90.0   50.0
400.0   120.0   50.0
400.0   90.0   33.333333333333336
350.0   120.0   33.333333333333336
350.0   120.0   0.0
400.0   120.0   0.0
350.0   150.0   0.0
350.0   120.0   16.666666666666668
400.0   120.0   0.0
400.0   150.0   0.0
350.0   150.0   0.0
400.0   150.0   16.666666666666668
350.0   120.0   16.666666666666668
350.0   150.0   16.666666666666668
400.0   150.0   16.666666666666668
350.0   150.0   0.0
350.0   120.0   16.666666666666668
400.0   150.0   16.666666666666668
400.0   120.0   16.666666666666668
400.0   120.0   0.0
350.0   120.0   16.666666666666668
400.0   150.0   16.666666666666668
400.0   120.0   0.0
350.0   150.0   0.0
350.0   120.0   16.666666666666668
400.0   120.0   16.666666666666668
350.0   150.0   16.666666666666668
350.0   120.0   33.333333333333336
400.0   120.0   16.666666666666668
400.0   150.0   16.666666666666668
350.0   150.0   16.666666666666668
400.0   150.0   33.333333333333336
350.0   120.0   33.333333333333336
350.0   150.0   33.333333333333336
400.0   150.0   33.333333333333336
350.0   150.0   16.666666666666668
350.0   120.0   33.333333333333336
400.0   150.0   33.333333333333336
400.0   120.0   33.333333333333336
400.0   120.0   16.666666666666668
350.0   120.0   33.333333333333336
400.0   150.0   33.333333333333336
400.0   120.0   16.666666666666668
350.0   150.0   16.666666666666668
350.0   120.0   33.333333333333336
400.0   120.0   33.333333333333336
350.0   150.0   33.333333333333336
350.0   120.0   50.0
400.0   120.0   33.333333333333336
400.0   150.0   33.333333333333336
350.0   150.0   33.333333333333336
400.0   150.0   50.0
350.0   120.0   50.0
350.0   150.0   50.0
400.0   150.0   50.0
350.0   150.0   33.333333333333336
350.0   120.0   50.0
400.0   150.0   50.0
400.0   120.0   50.0
400.0   120.0   33.333333333333336
350.0   120.0   50.0
400.0   150.0   50.0
400.0   120.0   33.333333333333336
350.0   150.0   33.333333333333336
400.0   0.0   0.0
450.0   0.0   0.0
400.0   30.0   0.0
400.0   0.0   16.666666666666668
450.0   0.0   0.0
450.0   30.0   0.0
400.0   30.0   0.0
450.0   30.0   16.666666666666668
400.0   0.0   16.666666666666668
400.0   30.0   16.666666666666668
450.0   30.0   16.666666666666668
400.0   30.0   0.0
400.0   0.0   16.666666666666668
450.0   30.0   16.666666666666668
450.0   0.0   16.666666666666668
450.0   0.0   0.0
400.0   0.0   16.666666666666668
450.0   30.0   16.666666666666668
450.0   0.0   0.0
400.0   30.0   0.0
400.0   0.0   16.666666666666668
450.0   0.0   16.666666666666668
400.0   30.0   16.666666666666668
400.0   0.0   33.333333333333336
450.0   0.0   16.666666666666668
450.0   30.0   16.666666666666668
400.0   30.0   16.666666666666668
450.0   30.0   33.333333333333336
400.0   0.0   33.333333333333336
400.0   30.0   33.333333333333336
450.0   30.0   33.333333333333336
400.0   30.0   16.666666666666668
400.0   0.0   33.333333333333336
450.0   30.0   33.333333333333336
450.0   0.0   33.333333333333336
450.0   0.0   16.666666666666668
400.0   0.0   33.333333333333336
450.0   30.0   33.333333333333336
450.0   0.0   16.666666666666668
400.0   30.0   16.666666666666668
400.0   0.0   33.333333333333336
450.0   0.0   33.333333333333336
400.0   30.0   33.333333333333336
400.0   0.0   50.0
450.0   0.0   33.333333333333336
450.0   30.0   33.333333333333336
400.0   30.0   33.333333333333336
450.0   30.0   50.0
400.0   0.0   50.0
400.0   30.0   50.0
450.0   30.0   50.0
400.0   30.0   33.333333333333336
400.0   0.0   50.0
450.0   30.0   50.0
450.0   0.0   50.0
450.0   0.0   33.333333333333336
400.0   0.0   50.0
450.0   30.0   50.0
450.0   0.0   33.333333333333336
400.0   30.0   33.333333333333336
400.0   30.0   0.0
450.0   30.0   0.0
400.0   60.0   0.0
400.0   30.0   16.666666666666668
450.0   30.0   0.0
450.0   60.0   0.0
400.0   60.0   0.0
450.0   60.0   16.666666666666668
400.0   30.0   16.666666666666668
400.0   60.0   16.666666666666668
450.0   60.0   16.666666666666668
400.0   60.0   0.0
400.0   30.0   16.666666666666668
450.0   60.0   16.666666666666668
450.0   30.0   16.666666666666668
450.0   30.0   0.0
400.0   30.0   16.666666666666668
450.0   60.0   16.666666666666668
450.0   30.0   0.0
400.0   60.0   0.0
400.0   30.0   16.666666666666668
450.0   30.0   16.666666666666668
400.0   60.0   16.666666666666668
400.0   30.0   33.333333333333336
450.0   30.0   16.666666666666668
450.0   60.0   16.666666666666668
400.0   60.0   16.666666666666668
450.0   60.0   33.333333333333336
400.0   30.0   33.333333333333336
400.0   60.0   33.333333333333336
450.0   60.0   33.333333333333336
400.0   60.0   16.666666666666668
400.0   30.0   33.333333333333336
450.0   60.0   33.333333333333336
450.0   30.0   33.333333333333336
450.0   30.0   16.666666666666668
400.0   30.0   33.333333333333336
450.0   60.0   33.333333333333336
450.0   30.0   16.666666666666668
400.0   60.0   16.666666666666668
400.0   30.0   33.333333333333336
450.0   30.0   33.333333333333336
400.0   60.0   33.333333333333336
400.0   30.0   50.0
450.0   30.0   33.333333333333336
450.0   60.0   33.333333333333336
400.0   60.0   33.333333333333336
450.0   60.0   50.0
400.0   30.0   50.0
400.0   60.0   50.0
450.0   60.0   50.0
400.0   60.0   33.333333333333336
400.0   30.0   50.0
450.0   60.0   50.0
450.0   30.0   50.0
450.0   30.0   33.333333333333336
400.0   30.0   50.0
450.0   60.0   50.0
450.0   30.0   33.333333333333336
400.0   60.0   33.333333333333336
400.0   60.0   0.0
450.0   60.0   0.0
400.0   90.0   0.0
400.0   60.0   16.666666666666668
450.0   60.0   0.0
450.0   90.0   0.0
400.0   90.0   0.0
450.0   90.0   16.666666666666668
400.0   60.0   16.666666666666668
400.0   90.0   16.666666666666668
450.0   90.0   16.666666666666668
400.0   90.0   0.0
400.0   60.0   16.666666666666668
450.0   90.0   16.666666666666668
450.0   60.0   16.666666666666668
450.0   60.0   0.0
400.0   60.0   16.666666666666668
450.0   90.0   16.666666666666668
450.0   60.0   0.0
400.0   90.0   0.0
400.0   60.0   16.666666666666668
450.0   60.0   16.666666666666668
400.0   90.0   16.666666666666668
400.0   60.0   33.333333333333336
450.0   60.0   16.666666666666668
450.0   90.0   16.666666666666668
400.0   90.0   16.666666666666668
450.0   90.0   33.333333333333336
400.0   60.0   33.333333333333336
400.0   90.0   33.333333333333336
450.0   90.0   33.333333333333336
400.0   90.0   16.666666666666668
400.0   60.0   33.333333333333336
450.0   90.0   33.333333333333336
450.0   60.0   33.333333333333336
450.0   60.0   16.666666666666668
400.0   60.0   33.333333333333336
450.0   90.0   33.333333333333336
450.0   60.0   16.666666666666668
400.0   90.0   16.666666666666668
400.0   60.0   33.333333333333336
450.0   60.0   33.333333333333336
400.0   90.0   33.333333333333336
400.0   60.0   50.0
450.0   60.0   33.333333333333336
450.0   90.0   33.333333333333336
400.0   90.0   33.333333333333336
450.0   90.0   50.0
400.0   60.0   50.0
400.0   90.0   50.0
450.0   90.0   50.0
400.0   90.0   33.333333333333336
400.0   60.0   50.0
450.0   90.0   50.0
450.0   60.0   50.0
450.0   60.0   33.333333333333336
400.0   60.0   50.0
450.0   90.0   50.0
450.0   60.0   33.333333333333336
400.0   90.0   33.333333333333336
400.0   90.0   0.0
450.0   90.0   0.0
400.0   120.0   0.0
400.0   90.0   16.666666666666668
450.0   90.0   0.0
450.0   120.0   0.0
400.0   120.0   0.0
450.0   120.0   16.666666666666668
400.0   90.0   16.666666666666668
400.0   120.0   16.666666666666668
450.0   120.0   16.666666666666668
400.0   120.0   0.0
400.0   90.0   16.666666666666668
450.0   120.0   16.666666666666668
450.0   90.0   16.666666666666668
450.0   90.0   0.0
400.0   90.0   16.666666666666668
450.0   120.0   16.666666666666668
450.0   90.0   0.0
400.0   120.0   0.0
400.0   90.0   16.666666666666668
450.0   90.0   16.666666666666668
400.0   120.0   16.666666666666668
400.0   90.0   33.333333333333336
450.0   90.0   16.666666666666668
450.0   120.0   16.666666666666668
400.0   120.0   16.666666666666668
450.0   120.0   33.333333333333336
400.0   90.0   33.333333333333336
400.0   120.0   33.333333333333336
450.0   120.0   33.333333333333336
400.0   120.0   16.666666666666668
400.0   90.0   33.333333333333336
450.0   120.0   33.333333333333336
450.0   90.0   33.333333333333336
450.0   90.0   16.666666666666668
400.0   90.0   33.333333333333336
450.0   120.0   33.333333333333336
450.0   90.0   16.666666666666668
400.0   120.0   16.666666666666668
400.0   90.0   33.333333333333336
450.0   90.0   33.333333333333336
400.0   120.0   33.333333333333336
400.0   90.0   50.0
450.0   90.0   33.333333333333336
450.0   120.0   33.333333333333336
400.0   120.0   33.333333333333336
450.0   120.0   50.0
400.0   90.0   50.0
400.0   120.0   50.0
450.0   120.0   50.0
400.0   120.0   33.333333333333336
400.0   90.0   50.0
450.0   120.0   50.0
450.0   90.0   50.0
450.0   90.0   33.333333333333336
400.0   90.0   50.0
450.0   120.0   50.0
450.0   90.0   33.333333333333336
400.0   120.0   33.333333333333336
400.0   120.0   0.0
450.0   120.0   0.0
400.0   150.0   0.0
400.0   120.0   16.666666666666668
450.0   120.0   0.0
450.0   150.0   0.0
400.0   150.0   0.0
450.0   150.0   16.666666666666668
400.0   120.0   16.666666666666668
400.0   150.0   16.666666666666668
450.0   150.0   16.666666666666668
400.0   150.0   0.0
400.0   120.0   16.666666666666668
450.0   150.0   16.666666666666668
450.0   120.0   16.666666666666668
450.0   120.0   0.0
400.0   120.0   16.666666666666668
450.0   150.0   16.666666666666668
450.0   120.0   0.0
400.0   150.0   0.0
400.0   120.0   16.666666666666668
450.0   120.0   16.666666666666668
400.0   150.0   16.666666666666668
400.0   120.0   33.333333333333336
450.0   120.0   16.666666666666668
450.0   150.0   16.666666666666668
400.0   150.0   16.666666666666668
450.0   150.0   33.333333333333336
400.0   120.0   33.333333333333336
400.0   150.0   33.333333333333336
450.0   150.0   33.333333333333336
400.0   150.0   16.666666666666668
400.0   120.0   33.333333333333336
450.0   150.0   33.333333333333336
450.0   120.0   33.333333333333336
450.0   120.0   16.666666666666668
400.0   120.0   33.333333333333336
450.0   150.0   33.333333333333336
450.0   120.0   16.666666666666668
400.0   150.0   16.666666666666668
400.0   120.0   33.333333333333336
450.0   120.0   33.333333333333336
400.0   150.0   33.333333333333336
400.0   120.0   50.0
450.0   120.0   33.333333333333336
450.0   150.0   33.333333333333336
400.0   150.0   33.333333333333336
450.0   150.0   50.0
400.0   120.0   50.0
400.0   150.0   50.0
450.0   150.0   50.0
400.0   150.0   33.333333333333336
400.0   120.0   50.0
450.0   150.0   50.0
450.0   120.0   50.0
450.0   120.0   33.333333333333336
400.0   120.0   50.0
450.0   150.0   50.0
450.0   120.0   33.333333333333336
400.0   150.0   33.333333333333336
450.0   0.0   0.0
500.0   0.0   0.0
450.0   30.0   0.0
450.0   0.0   16.666666666666668
500.0   0.0   0.0
500.0   30.0   0.0
450.0   30.0   0.0
500.0   30.0   16.666666666666668
450.0   0.0   16.666666666666668
450.0   30.0   16.666666666666668
500.0   30.0   16.666666666666668
450.0   30.0   0.0
450.0   0.0   16.666666666666668
500.0   30.0   16.666666666666668
500.0   0.0   16.666666666666668
500.0   0.0   0.0
450.0   0.0   16.666666666666668
500.0   30.0   16.666666666666668
500.0   0.0   0.0
450.0   30.0   0.0
450.0   0.0   16.666666666666668
500.0   0.0   16.666666666666668
450.0   30.0   16.666666666666668
450.0   0.0   33.333333333333336
500.0   0.0   16.666666666666668
500.0   30.0   16.666666666666668
450.0   30.0   16.666666666666668
500.0   30.0   33.333333333333336
450.0   0.0   33.333333333333336
450.0   30.0   33.333333333333336
500.0   30.0   33.333333333333336
450.0   30.0   16.666666666666668
450.0   0.0   33.333333333333336
500.0   30.0   33.333333333333336
500.0   0.0   33.333333333333336
500.0   0.0   16.666666666666668
450.0   0.0   33.333333333333336
500.0   30.0   33.333333333333336
500.0   0.0   16.666666666666668
450.0   30.0   16.666666666666668
450.0   0.0   33.333333333333336
500.0   0.0   33.333333333333336
450.0   30.0   33.333333333333336
450.0   0.0   50.0
500.0   0.0   33.333333333333336
500.0   30.0   33.333333333333336
450.0   30.0   33.333333333333336
500.0   30.0   50.0
450.0   0.0   50.0
450.0   30.0   50.0
500.0   30.0   50.0
450.0   30.0   33.333333333333336
450.0   0.0   50.0
500.0   30.0   50.0
500.0   0.0   50.0
500.0   0.0   33.333333333333336
450.0   0.0   50.0
500.0   30.0   50.0
500.0   0.0   33.333333333333336
450.0   30.0   33.333333333333336
450.0   30.0   0.0
500.0   30.0   0.0
450.0   60.0   0.0
450.0   30.0   16.666666666666668
500.0   30.0   0.0
500.0   60.0   0.0
450.0   60.0   0.0
500.0   60.0   16.666666666666668
450.0   30.0   16.666666666666668
450.0   60.0   16.666666666666668
500.0   60.0   16.666666666666668
450.0   60.0   0.0
450.0   30.0   16.666666666666668
500.0   60.0   16.666666666666668
500.0   30.0   16.666666666666668
500.0   30.0   0.0
450.0   30.0   16.666666666666668
500.0   60.0   16.666666666666668
500.0   30.0   0.0
450.0   60.0   0.0
450.0   30.0   16.666666666666668
500.0   30.0   16.666666666666668
450.0   60.0   16.666666666666668
450.0   30.0   33.333333333333336
500.0   30.0   16.666666666666668
500.0   60.0   16.666666666666668
450.0   60.0   16.666666666666668
500.0   60.0   33.333333333333336
450.0   30.0   33.333333333333336
450.0   60.0   33.333333333333336
500.0   60.0   33.333333333333336
450.0   60.0   16.666666666666668
450.0   30.0   33.333333333333336
500.0   60.0   33.333333333333336
500.0   30.0   33.333333333333336
500.0   30.0   16.666666666666668
450.0   30.0   33.333333333333336
500.0   60.0   33.333333333333336
500.0   30.0   16.666666666666668
450.0   60.0   16.666666666666668
450.0   30.0   33.333333333333336
500.0   30.0   33.333333333333336
450.0   60.0   33.333333333333336
450.0   30.0   50.0
500.0   30.0   33.333333333333336
500.0   60.0   33.333333333333336
450.0   60.0   33.333333333333336
500.0   60.0   50.0
450.0   30.0   50.0
450.0   60.0   50.0
500.0   60.0   50.0
450.0   60.0   33.333333333333336
450.0   30.0   50.0
500.0   60.0   50.0
500.0   30.0   50.0
500.0   30.0   33.333333333333336
450.0   30.0   50.0
500.0   60.0   50.0
500.0   30.0   33.333333333333336
450.0   60.0   33.333333333333336
450.0   60.0   0.0
500.0   60.0   0.0
450.0   90.0   0.0
450.0   60.0   16.666666666666668
500.0   60.0   0.0
500.0   90.0   0.0
450.0   90.0   0.0
500.0   90.0   16.666666666666668
450.0   60.0   16.666666666666668
450.0   90.0   16.666666666666668
500.0   90.0   16.666666666666668
450.0   90.0   0.0
450.0   60.0   16.666666666666668
500.0   90.0   16.666666666666668
500.0   60.0   16.666666666666668
500.0   60.0   0.0
450.0   60.0   16.666666666666668
500.0   90.0   16.666666666666668
500.0   60.0   0.0
450.0   90.0   0.0
450.0   60.0   16.666666666666668
500.0   60.0   16.666666666666668
450.0   90.0   16.666666666666668
450.0   60.0   33.333333333333336
500.0   60.0   16.666666666666668
500.0   90.0   16.666666666666668
450.0   90.0   16.666666666666668
500.0   90.0   33.333333333333336
450.0   60.0   33.333333333333336
450.0   90.0   33.333333333333336
500.0   90.0   33.333333333333336
450.0   90.0   16.666666666666668
450.0   60.0   33.333333333333336
500.0   90.0   33.333333333333336
500.0   60.0   33.333333333333336
500.0   60.0   16.666666666666668
450.0   60.0   33.333333333333336
500.0   90.0   33.333333333333336
500.0   60.0   16.666666666666668
450.0   90.0   16.666666666666668
450.0   60.0   33.333333333333336
500.0   60.0   33.333333333333336
450.0   90.0   33.333333333333336
450.0   60.0   50.0
500.0   60.0   33.333333333333336
500.0   90.0   33.333333333333336
450.0   90.0   33.333333333333336
500.0   90.0   50.0
450.0   60.0   50.0
450.0   90.0   50.0
500.0   90.0   50.0
450.0   90.0   33.333333333333336
450.0   60.0   50.0
500.0   90.0   50.0
500.0   60.0   50.0
500.0   60.0   33.333333333333336
450.0   60.0   50.0
500.0   90.0   50.0
500.0   60.0   33.333333333333336
450.0   90.0   33.333333333333336
450.0   90.0   0.0
500.0   90.0   0.0
450.0   120.0   0.0
450.0   90.0   16.666666666666668
500.0   90.0   0.0
500.0   120.0   0.0
450.0   120.0   0.0
500.0   120.0   16.666666666666668
450.0   90.0   16.666666666666668
450.0   120.0   16.666666666666668
500.0   120.0   16.666666666666668
450.0   120.0   0.0
450.0   90.0   16.666666666666668
500.0   120.0   16.666666666666668
500.0   90.0   16.666666666666668
500.0   90.0   0.0
450.0   90.0   16.666666666666668
500.0   120.0   16.666666666666668
500.0   90.0   0.0
450.0   120.0   0.0
450.0   90.0   16.666666666666668
500.0   90.0   16.666666666666668
450.0   120.0   16.666666666666668
450.0   90.0   33.333333333333336
500.0   90.0   16.666666666666668
500.0   120.0   16.666666666666668
450.0   120.0   16.666666666666668
500.0   120.0   33.333333333333336
450.0   90.0   33.333333333333336
450.0   120.0   33.333333333333336
500.0   120.0   33.333333333333336
450.0   120.0   16.666666666666668
450.0   90.0   33.333333333333336
500.0   120.0   33.333333333333336
500.0   90.0   33.333333333333336
500.0   90.0   16.666666666666668
450.0   90.0   33.333333333333336
500.0   120.0   33.333333333333336
500.0   90.0   16.666666666666668
450.0   120.0   16.666666666666668
450.0   90.0   33.333333333333336
500.0   90.0   33.333333333333336
450.0   120.0   33.333333333333336
450.0   90.0   50.0
500.0   90.0   33.333333333333336
500.0   120.0   33.333333333333336
450.0   120.0   33.333333333333336
500.0   120.0   50.0
450.0   90.0   50.0
450.0   120.0   50.0
500.0   120.0   50.0
450.0   120.0   33.333333333333336
450.0   90.0   50.0
500.0   120.0   50.0
500.0   90.0   50.0
500.0   90.0   33.333333333333336
450.0   90.0   50.0
500.0   120.0   50.0
500.0   90.0   33.333333333333336
450.0   120.0   33.333333333333336
450.0   120.0   0.0
500.0   120.0   0.0
450.0   150.0   0.0
450.0   120.0   16.666666666666668
500.0   120.0   0.0
500.0   150.0   0.0
450.0   150.0   0.0
500.0   150.0   16.666666666666668
450.0   120.0   16.666666666666668
450.0   150.0   16.666666666666668
500.0   150.0   16.666666666666668
450.0   150.0   0.0
450.0   120.0   16.666666666666668
500.0   150.0   16.666666666666668
500.0   120.0   16.666666666666668
500.0   120.0   0.0
450.0   120.0   16.666666666666668
500.0   150.0   16.666666666666668
500.0   120.0   0.0
450.0   150.0   0.0
450.0   120.0   16.666666666666668
500.0   120.0   16.666666666666668
450.0   150.0   16.666666666666668
450.0   120.0   33.333333333333336
500.0   120.0   16.666666666666668
500.0   150.0   16.666666666666668
450.0   150.0   16.666666666666668
500.0   150.0   33.333333333333336
450.0   120.0   33.333333333333336
450.0   150.0   33.333333333333336
500.0   150.0   33.333333333333336
450.0   150.0   16.666666666666668
450.0   120.0   33.333333333333336
500.0   150.0   33.333333333333336
500.0   120.0   33.333333333333336
500.0   120.0   16.666666666666668
450.0   120.0   33.333333333333336
500.0   150.0   33.333333333333336
500.0   120.0   16.666666666666668
450.0   150.0   16.666666666666668
450.0   120.0   33.333333333333336
500.0   120.0   33.333333333333336
450.0   150.0   33.333333333333336
450.0   120.0   50.0
500.0   120.0   33.333333333333336
500.0   150.0   33.333333333333336
450.0   150.0   33.333333333333336
500.0   150.0   50.0
450.0   120.0   50.0
450.0   150.0   50.0
500.0   150.0   50.0
450.0   150.0   33.333333333333336
450.0   120.0   50.0
500.0   150.0   50.0
500.0   120.0   50.0
500.0   120.0   33.333333333333336
450.0   120.0   50.0
500.0   150.0   50.0
500.0   120.0   33.333333333333336
450.0   150.0   33.333333333333336
             </DataArray>   
          </Points>  
          <Cells>  
             <DataArray type="Int32" Name="connectivity" format="ascii">   
0   1   2   3
4   5   6   7
8   9   10   11
12   13   14   15
16   17   18   19
20   21   22   23
24   25   26   27
28   29   30   31
32   33   34   35
36   37   38   39
40   41   42   43
44   45   46   47
48   49   50   51
52   53   54   55
56   57   58   59
60   61   62   63
64   65   66   67
68   69   70   71
72   73   74   75
76   77   78   79
80   81   82   83
84   85   86   87
88   89   90   91
92   93   94   95
96   97   98   99
100   101   102   103
104   105   106   107
108   109   110   111
112   113   114   115
116   117   118   119
120   121   122   123
124   125   126   127
128   129   130   131
132   133   134   135
136   137   138   139
140   141   142   143
144   145   146   147
148   149   150   151
152   153   154   155
156   157   158   159
160   161   162   163
164   165   166   167
168   169   170   171
172   173   174   175
176   177   178   179
180   181   182   183
184   185   186   187
188   189   190   191
192   193   194   195
196   197   198   199
200   201   202   203
204   205   206   207
208   209   210   211
212   213   214   215
216   217   218   219
220   221   222   223
224   225   226   227
228   229   230   231
232   233   234   235
236   237   238   239
240   241   242   243
244   245   246   247
248   249   250   251
252   253   254   255
256   257   258   259
260   261   262   263
264   265   266   267
268   269   270   271
272   273   274   275
276   277   278   279
280   281   282   283
284   285   286   287
288   289   290   291
292   293   294   295
296   297   298   299
300   301   302   303
304   305   306   307
308   309   310   311
312   313   314   315
316   317   318   319
320   321   322   323
324   325   326   327
328   329   330   331
332   333   334   335
336   337   338   339
340   341   342   343
344   345   346   347
348   349   350   351
352   353   354   355
356   357   358   359
360   361   362   363
364   365   366   367
368   369   370   371
372   373   374   375
376   377   378   379
380   381   382   383
384   385   386   387
388   389   390   391
392   393   394   395
396   397   398   399
400   401   402   403
404   405   406   407
408   409   410   411
412   413   414   415
416   417   418   419
420   421   422   423
424   425   426   427
428   429   430   431
432   433   434   435
436   437   438   439
440   441   442   443
444   445   446   447
448   449   450   451
452   453   454   455
456   457   458   459
460   461   462   463
464   465   466   467
468   469   470   471
472   473   474   475
476   477   478   479
480   481   482   483
484   485   486   487
488   489   490   491
492   493   494   495
496   497   498   499
500   501   502   503
504   505   506   507
508   509   510   511
512   513   514   515
516   517   518   519
520   521   522   523
524   525   526   527
528   529   530   531
532   533   534   535
536   537   538   539
540   541   542   543
544   545   546   547
548   549   550   551
552   553   554   555
556   557   558   559
560   561   562   563
564   565   566   567
568   569   570   571
572   573   574   575
576   577   578   579
580   581   582   583
584   585   586   587
588   589   590   591
592   593   594   595
596   597   598   599
600   601   602   603
604   605   606   607
608   609   610   611
612   613   614   615
616   617   618   619
620   621   622   623
624   625   626   627
628   629   630   631
632   633   634   635
636   637   638   639
640   641   642   643
644   645   646   647
648   649   650   651
652   653   654   655
656   657   658   659
660   661   662   663
664   665   666   667
668   669   670   671
672   673   674   675
676   677   678   679
680   681   682   683
684   685   686   687
688   689   690   691
692   693   694   695
696   697   698   699
700   701   702   703
704   705   706   707
708   709   710   711
712   713   714   715
716   717   718   719
720   721   722   723
724   725   726   727
728   729   730   731
732   733   734   735
736   737   738   739
740   741   742   743
744   745   746   747
748   749   750   751
752   753   754   755
756   757   758   759
760   761   762   763
764   765   766   767
768   769   770   771
772   773   774   775
776   777   778   779
780   781   782   783
784   785   786   787
788   789   790   791
792   793   794   795
796   797   798   799
800   801   802   803
804   805   806   807
808   809   810   811
812   813   814   815
816   817   818   819
820   821   822   823
824   825   826   827
828   829   830   831
832   833   834   835
836   837   838   839
840   841   842   843
844   845   846   847
848   849   850   851
852   853   854   855
856   857   858   859
860   861   862   863
864   865   866   867
868   869   870   871
872   873   874   875
876   877   878   879
880   881   882   883
884   885   886   887
888   889   890   891
892   893   894   895
896   897   898   899
900   901   902   903
904   905   906   907
908   909   910   911
912   913   914   915
916   917   918   919
920   921   922   923
924   925   926   927
928   929   930   931
932   933   934   935
936   937   938   939
940   941   942   943
944   945   946   947
948   949   950   951
952   953   954   955
956   957   958   959
960   961   962   963
964   965   966   967
968   969   970   971
972   973   974   975
976   977   978   979
980   981   982   983
984   985   986   987
988   989   990   991
992   993   994   995
996   997   998   999
1000   1001   1002   1003
1004   1005   1006   1007
1008   1009   1010   1011
1012   1013   1014   1015
1016   1017   1018   1019
1020   1021   1022   1023
1024   1025   1026   1027
1028   1029   1030   1031
1032   1033   1034   1035
1036   1037   1038   1039
1040   1041   1042   1043
1044   1045   1046   1047
1048   1049   1050   1051
1052   1053   1054   1055
1056   1057   1058   1059
1060   1061   1062   1063
1064   1065   1066   1067
1068   1069   1070   1071
1072   1073   1074   1075
1076   1077   1078   1079
1080   1081   1082   1083
1084   1085   1086   1087
1088   1089   1090   1091
1092   1093   1094   1095
1096   1097   1098   1099
1100   1101   1102   1103
1104   1105   1106   1107
1108   1109   1110   1111
1112   1113   1114   1115
1116   1117   1118   1119
1120   1121   1122   1123
1124   1125   1126   1127
1128   1129   1130   1131
1132   1133   1134   1135
1136   1137   1138   1139
1140   1141   1142   1143
1144   1145   1146   1147
1148   1149   1150   1151
1152   1153   1154   1155
1156   1157   1158   1159
1160   1161   1162   1163
1164   1165   1166   1167
1168   1169   1170   1171
1172   1173   1174   1175
1176   1177   1178   1179
1180   1181   1182   1183
1184   1185   1186   1187
1188   1189   1190   1191
1192   1193   1194   1195
1196   1197   1198   1199
1200   1201   1202   1203
1204   1205   1206   1207
1208   1209   1210   1211
1212   1213   1214   1215
1216   1217   1218   1219
1220   1221   1222   1223
1224   1225   1226   1227
1228   1229   1230   1231
1232   1233   1234   1235
1236   1237   1238   1239
1240   1241   1242   1243
1244   1245   1246   1247
1248   1249   1250   1251
1252   1253   1254   1255
1256   1257   1258   1259
1260   1261   1262   1263
1264   1265   1266   1267
1268   1269   1270   1271
1272   1273   1274   1275
1276   1277   1278   1279
1280   1281   1282   1283
1284   1285   1286   1287
1288   1289   1290   1291
1292   1293   1294   1295
1296   1297   1298   1299
1300   1301   1302   1303
1304   1305   1306   1307
1308   1309   1310   1311
1312   1313   1314   1315
1316   1317   1318   1319
1320   1321   1322   1323
1324   1325   1326   1327
1328   1329   1330   1331
1332   1333   1334   1335
1336   1337   1338   1339
1340   1341   1342   1343
1344   1345   1346   1347
1348   1349   1350   1351
1352   1353   1354   1355
1356   1357   1358   1359
1360   1361   1362   1363
1364   1365   1366   1367
1368   1369   1370   1371
1372   1373   1374   1375
1376   1377   1378   1379
1380   1381   1382   1383
1384   1385   1386   1387
1388   1389   1390   1391
1392   1393   1394   1395
1396   1397   1398   1399
1400   1401   1402   1403
1404   1405   1406   1407
1408   1409   1410   1411
1412   1413   1414   1415
1416   1417   1418   1419
1420   1421   1422   1423
1424   1425   1426   1427
1428   1429   1430   1431
1432   1433   1434   1435
1436   1437   1438   1439
1440   1441   1442   1443
1444   1445   1446   1447
1448   1449   1450   1451
1452   1453   1454   1455
1456   1457   1458   1459
1460   1461   1462   1463
1464   1465   1466   1467
1468   1469   1470   1471
1472   1473   1474   1475
1476   1477   1478   1479
1480   1481   1482   1483
1484   1485   1486   1487
1488   1489   1490   1491
1492   1493   1494   1495
1496   1497   1498   1499
1500   1501   1502   1503
1504   1505   1506   1507
1508   1509   1510   1511
1512   1513   1514   1515
1516   1517   1518   1519
1520   1521   1522   1523
1524   1525   1526   1527
1528   1529   1530   1531
1532   1533   1534   1535
1536   1537   1538   1539
1540   1541   1542   1543
1544   1545   1546   1547
1548   1549   1550   1551
1552   1553   1554   1555
1556   1557   1558   1559
1560   1561   1562   1563
1564   1565   1566   1567
1568   1569   1570   1571
1572   1573   1574   1575
1576   1577   1578   1579
1580   1581   1582   1583
1584   1585   1586   1587
1588   1589   1590   1591
1592   1593   1594   1595
1596   1597   1598   1599
1600   1601   1602   1603
1604   1605   1606   1607
1608   1609   1610   1611
1612   1613   1614   1615
1616   1617   1618   1619
1620   1621   1622   1623
1624   1625   1626   1627
1628   1629   1630   1631
1632   1633   1634   1635
1636   1637   1638   1639
1640   1641   1642   1643
1644   1645   1646   1647
1648   1649   1650   1651
1652   1653   1654   1655
1656   1657   1658   1659
1660   1661   1662   1663
1664   1665   1666   1667
1668   1669   1670   1671
1672   1673   1674   1675
1676   1677   1678   1679
1680   1681   1682   1683
1684   1685   1686   1687
1688   1689   1690   1691
1692   1693   1694   1695
1696   1697   1698   1699
1700   1701   1702   1703
1704   1705   1706   1707
1708   1709   1710   1711
1712   1713   1714   1715
1716   1717   1718   1719
1720   1721   1722   1723
1724   1725   1726   1727
1728   1729   1730   1731
1732   1733   1734   1735
1736   1737   1738   1739
1740   1741   1742   1743
1744   1745   1746   1747
1748   1749   1750   1751
1752   1753   1754   1755
1756   1757   1758   1759
1760   1761   1762   1763
1764   1765   1766   1767
1768   1769   1770   1771
1772   1773   1774   1775
1776   1777   1778   1779
1780   1781   1782   1783
1784   1785   1786   1787
1788   1789   1790   1791
1792   1793   1794   1795
1796   1797   1798   1799
1800   1801   1802   1803
1804   1805   1806   1807
1808   1809   1810   1811
1812   1813   1814   1815
1816   1817   1818   1819
1820   1821   1822   1823
1824   1825   1826   1827
1828   1829   1830   1831
1832   1833   1834   1835
1836   1837   1838   1839
1840   1841   1842   1843
1844   1845   1846   1847
1848   1849   1850   1851
1852   1853   1854   1855
1856   1857   1858   1859
1860   1861   1862   1863
1864   1865   1866   1867
1868   1869   1870   1871
1872   1873   1874   1875
1876   1877   1878   1879
1880   1881   1882   1883
1884   1885   1886   1887
1888   1889   1890   1891
1892   1893   1894   1895
1896   1897   1898   1899
1900   1901   1902   1903
1904   1905   1906   1907
1908   1909   1910   1911
1912   1913   1914   1915
1916   1917   1918   1919
1920   1921   1922   1923
1924   1925   1926   1927
1928   1929   1930   1931
1932   1933   1934   1935
1936   1937   1938   1939
1940   1941   1942   1943
1944   1945   1946   1947
1948   1949   1950   1951
1952   1953   1954   1955
1956   1957   1958   1959
1960   1961   1962   1963
1964   1965   1966   1967
1968   1969   1970   1971
1972   1973   1974   1975
1976   1977   1978   1979
1980   1981   1982   1983
1984   1985   1986   1987
1988   1989   1990   1991
1992   1993   1994   1995
1996   1997   1998   1999
2000   2001   2002   2003
2004   2005   2006   2007
2008   2009   2010   2011
2012   2013   2014   2015
2016   2017   2018   2019
2020   2021   2022   2023
2024   2025   2026   2027
2028   2029   2030   2031
2032   2033   2034   2035
2036   2037   2038   2039
2040   2041   2042   2043
2044   2045   2046   2047
2048   2049   2050   2051
2052   2053   2054   2055
2056   2057   2058   2059
2060   2061   2062   2063
2064   2065   2066   2067
2068   2069   2070   2071
2072   2073   2074   2075
2076   2077   2078   2079
2080   2081   2082   2083
2084   2085   2086   2087
2088   2089   2090   2091
2092   2093   2094   2095
2096   2097   2098   2099
2100   2101   2102   2103
2104   2105   2106   2107
2108   2109   2110   2111
2112   2113   2114   2115
2116   2117   2118   2119
2120   2121   2122   2123
2124   2125   2126   2127
2128   2129   2130   2131
2132   2133   2134   2135
2136   2137   2138   2139
2140   2141   2142   2143
2144   2145   2146   2147
2148   2149   2150   2151
2152   2153   2154   2155
2156   2157   2158   2159
2160   2161   2162   2163
2164   2165   2166   2167
2168   2169   2170   2171
2172   2173   2174   2175
2176   2177   2178   2179
2180   2181   2182   2183
2184   2185   2186   2187
2188   2189   2190   2191
2192   2193   2194   2195
2196   2197   2198   2199
2200   2201   2202   2203
2204   2205   2206   2207
2208   2209   2210   2211
2212   2213   2214   2215
2216   2217   2218   2219
2220   2221   2222   2223
2224   2225   2226   2227
2228   2229   2230   2231
2232   2233   2234   2235
2236   2237   2238   2239
2240   2241   2242   2243
2244   2245   2246   2247
2248   2249   2250   2251
2252   2253   2254   2255
2256   2257   2258   2259
2260   2261   2262   2263
2264   2265   2266   2267
2268   2269   2270   2271
2272   2273   2274   2275
2276   2277   2278   2279
2280   2281   2282   2283
2284   2285   2286   2287
2288   2289   2290   2291
2292   2293   2294   2295
2296   2297   2298   2299
2300   2301   2302   2303
2304   2305   2306   2307
2308   2309   2310   2311
2312   2313   2314   2315
2316   2317   2318   2319
2320   2321   2322   2323
2324   2325   2326   2327
2328   2329   2330   2331
2332   2333   2334   2335
2336   2337   2338   2339
2340   2341   2342   2343
2344   2345   2346   2347
2348   2349   2350   2351
2352   2353   2354   2355
2356   2357   2358   2359
2360   2361   2362   2363
2364   2365   2366   2367
2368   2369   2370   2371
2372   2373   2374   2375
2376   2377   2378   2379
2380   2381   2382   2383
2384   2385   2386   2387
2388   2389   2390   2391
2392   2393   2394   2395
2396   2397   2398   2399
2400   2401   2402   2403
2404   2405   2406   2407
2408   2409   2410   2411
2412   2413   2414   2415
2416   2417   2418   2419
2420   2421   2422   2423
2424   2425   2426   2427
2428   2429   2430   2431
2432   2433   2434   2435
2436   2437   2438   2439
2440   2441   2442   2443
2444   2445   2446   2447
2448   2449   2450   2451
2452   2453   2454   2455
2456   2457   2458   2459
2460   2461   2462   2463
2464   2465   2466   2467
2468   2469   2470   2471
2472   2473   2474   2475
2476   2477   2478   2479
2480   2481   2482   2483
2484   2485   2486   2487
2488   2489   2490   2491
2492   2493   2494   2495
2496   2497   2498   2499
2500   2501   2502   2503
2504   2505   2506   2507
2508   2509   2510   2511
2512   2513   2514   2515
2516   2517   2518   2519
2520   2521   2522   2523
2524   2525   2526   2527
2528   2529   2530   2531
2532   2533   2534   2535
2536   2537   2538   2539
2540   2541   2542   2543
2544   2545   2546   2547
2548   2549   2550   2551
2552   2553   2554   2555
2556   2557   2558   2559
2560   2561   2562   2563
2564   2565   2566   2567
2568   2569   2570   2571
2572   2573   2574   2575
2576   2577   2578   2579
2580   2581   2582   2583
2584   2585   2586   2587
2588   2589   2590   2591
2592   2593   2594   2595
2596   2597   2598   2599
2600   2601   2602   2603
2604   2605   2606   2607
2608   2609   2610   2611
2612   2613   2614   2615
2616   2617   2618   2619
2620   2621   2622   2623
2624   2625   2626   2627
2628   2629   2630   2631
2632   2633   2634   2635
2636   2637   2638   2639
2640   2641   2642   2643
2644   2645   2646   2647
2648   2649   2650   2651
2652   2653   2654   2655
2656   2657   2658   2659
2660   2661   2662   2663
2664   2665   2666   2667
2668   2669   2670   2671
2672   2673   2674   2675
2676   2677   2678   2679
2680   2681   2682   2683
2684   2685   2686   2687
2688   2689   2690   2691
2692   2693   2694   2695
2696   2697   2698   2699
2700   2701   2702   2703
2704   2705   2706   2707
2708   2709   2710   2711
2712   2713   2714   2715
2716   2717   2718   2719
2720   2721   2722   2723
2724   2725   2726   2727
2728   2729   2730   2731
2732   2733   2734   2735
2736   2737   2738   2739
2740   2741   2742   2743
2744   2745   2746   2747
2748   2749   2750   2751
2752   2753   2754   2755
2756   2757   2758   2759
2760   2761   2762   2763
2764   2765   2766   2767
2768   2769   2770   2771
2772   2773   2774   2775
2776   2777   2778   2779
2780   2781   2782   2783
2784   2785   2786   2787
2788   2789   2790   2791
2792   2793   2794   2795
2796   2797   2798   2799
2800   2801   2802   2803
2804   2805   2806   2807
2808   2809   2810   2811
2812   2813   2814   2815
2816   2817   2818   2819
2820   2821   2822   2823
2824   2825   2826   2827
2828   2829   2830   2831
2832   2833   2834   2835
2836   2837   2838   2839
2840   2841   2842   2843
2844   2845   2846   2847
2848   2849   2850   2851
2852   2853   2854   2855
2856   2857   2858   2859
2860   2861   2862   2863
2864   2865   2866   2867
2868   2869   2870   2871
2872   2873   2874   2875
2876   2877   2878   2879
2880   2881   2882   2883
2884   2885   2886   2887
2888   2889   2890   2891
2892   2893   2894   2895
2896   2897   2898   2899
2900   2901   2902   2903
2904   2905   2906   2907
2908   2909   2910   2911
2912   2913   2914   2915
2916   2917   2918   2919
2920   2921   2922   2923
2924   2925   2926   2927
2928   2929   2930   2931
2932   2933   2934   2935
2936   2937   2938   2939
2940   2941   2942   2943
2944   2945   2946   2947
2948   2949   2950   2951
2952   2953   2954   2955
2956   2957   2958   2959
2960   2961   2962   2963
2964   2965   2966   2967
2968   2969   2970   2971
2972   2973   2974   2975
2976   2977   2978   2979
2980   2981   2982   2983
2984   2985   2986   2987
2988   2989   2990   2991
2992   2993   2994   2995
2996   2997   2998   2999
3000   3001   3002   3003
3004   3005   3006   3007
3008   3009   3010   3011
3012   3013   3014   3015
3016   3017   3018   3019
3020   3021   3022   3023
3024   3025   3026   3027
3028   3029   3030   3031
3032   3033   3034   3035
3036   3037   3038   3039
3040   3041   3042   3043
3044   3045   3046   3047
3048   3049   3050   3051
3052   3053   3054   3055
3056   3057   3058   3059
3060   3061   3062   3063
3064   3065   3066   3067
3068   3069   3070   3071
3072   3073   3074   3075
3076   3077   3078   3079
3080   3081   3082   3083
3084   3085   3086   3087
3088   3089   3090   3091
3092   3093   3094   3095
3096   3097   3098   3099
3100   3101   3102   3103
3104   3105   3106   3107
3108   3109   3110   3111
3112   3113   3114   3115
3116   3117   3118   3119
3120   3121   3122   3123
3124   3125   3126   3127
3128   3129   3130   3131
3132   3133   3134   3135
3136   3137   3138   3139
3140   3141   3142   3143
3144   3145   3146   3147
3148   3149   3150   3151
3152   3153   3154   3155
3156   3157   3158   3159
3160   3161   3162   3163
3164   3165   3166   3167
3168   3169   3170   3171
3172   3173   3174   3175
3176   3177   3178   3179
3180   3181   3182   3183
3184   3185   3186   3187
3188   3189   3190   3191
3192   3193   3194   3195
3196   3197   3198   3199
3200   3201   3202   3203
3204   3205   3206   3207
3208   3209   3210   3211
3212   3213   3214   3215
3216   3217   3218   3219
3220   3221   3222   3223
3224   3225   3226   3227
3228   3229   3230   3231
3232   3233   3234   3235
3236   3237   3238   3239
3240   3241   3242   3243
3244   3245   3246   3247
3248   3249   3250   3251
3252   3253   3254   3255
3256   3257   3258   3259
3260   3261   3262   3263
3264   3265   3266   3267
3268   3269   3270   3271
3272   3273   3274   3275
3276   3277   3278   3279
3280   3281   3282   3283
3284   3285   3286   3287
3288   3289   3290   3291
3292   3293   3294   3295
3296   3297   3298   3299
3300   3301   3302   3303
3304   3305   3306   3307
3308   3309   3310   3311
3312   3313   3314   3315
3316   3317   3318   3319
3320   3321   3322   3323
3324   3325   3326   3327
3328   3329   3330   3331
3332   3333   3334   3335
3336   3337   3338   3339
3340   3341   3342   3343
3344   3345   3346   3347
3348   3349   3350   3351
3352   3353   3354   3355
3356   3357   3358   3359
3360   3361   3362   3363
3364   3365   3366   3367
3368   3369   3370   3371
3372   3373   3374   3375
3376   3377   3378   3379
3380   3381   3382   3383
3384   3385   3386   3387
3388   3389   3390   3391
3392   3393   3394   3395
3396   3397   3398   3399
3400   3401   3402   3403
3404   3405   3406   3407
3408   3409   3410   3411
3412   3413   3414   3415
3416   3417   3418   3419
3420   3421   3422   3423
3424   3425   3426   3427
3428   3429   3430   3431
3432   3433   3434   3435
3436   3437   3438   3439
3440   3441   3442   3443
3444   3445   3446   3447
3448   3449   3450   3451
3452   3453   3454   3455
3456   3457   3458   3459
3460   3461   3462   3463
3464   3465   3466   3467
3468   3469   3470   3471
3472   3473   3474   3475
3476   3477   3478   3479
3480   3481   3482   3483
3484   3485   3486   3487
3488   3489   3490   3491
3492   3493   3494   3495
3496   3497   3498   3499
3500   3501   3502   3503
3504   3505   3506   3507
3508   3509   3510   3511
3512   3513   3514   3515
3516   3517   3518   3519
3520   3521   3522   3523
3524   3525   3526   3527
3528   3529   3530   3531
3532   3533   3534   3535
3536   3537   3538   3539
3540   3541   3542   3543
3544   3545   3546   3547
3548   3549   3550   3551
3552   3553   3554   3555
3556   3557   3558   3559
3560   3561   3562   3563
3564   3565   3566   3567
3568   3569   3570   3571
3572   3573   3574   3575
3576   3577   3578   3579
3580   3581   3582   3583
3584   3585   3586   3587
3588   3589   3590   3591
3592   3593   3594   3595
3596   3597   3598   3599
3600   3601   3602   3603
3604   3605   3606   3607
3608   3609   3610   3611
3612   3613   3614   3615
3616   3617   3618   3619
3620   3621   3622   3623
3624   3625   3626   3627
3628   3629   3630   3631
3632   3633   3634   3635
3636   3637   3638   3639
3640   3641   3642   3643
3644   3645   3646   3647
3648   3649   3650   3651
3652   3653   3654   3655
3656   3657   3658   3659
3660   3661   3662   3663
3664   3665   3666   3667
3668   3669   3670   3671
3672   3673   3674   3675
3676   3677   3678   3679
3680   3681   3682   3683
3684   3685   3686   3687
3688   3689   3690   3691
3692   3693   3694   3695
3696   3697   3698   3699
3700   3701   3702   3703
3704   3705   3706   3707
3708   3709   3710   3711
3712   3713   3714   3715
3716   3717   3718   3719
3720   3721   3722   3723
3724   3725   3726   3727
3728   3729   3730   3731
3732   3733   3734   3735
3736   3737   3738   3739
3740   3741   3742   3743
3744   3745   3746   3747
3748   3749   3750   3751
3752   3753   3754   3755
3756   3757   3758   3759
3760   3761   3762   3763
3764   3765   3766   3767
3768   3769   3770   3771
3772   3773   3774   3775
3776   3777   3778   3779
3780   3781   3782   3783
3784   3785   3786   3787
3788   3789   3790   3791
3792   3793   3794   3795
3796   3797   3798   3799
3800   3801   3802   3803
3804   3805   3806   3807
3808   3809   3810   3811
3812   3813   3814   3815
3816   3817   3818   3819
3820   3821   3822   3823
3824   3825   3826   3827
3828   3829   3830   3831
3832   3833   3834   3835
3836   3837   3838   3839
3840   3841   3842   3843
3844   3845   3846   3847
3848   3849   3850   3851
3852   3853   3854   3855
3856   3857   3858   3859
3860   3861   3862   3863
3864   3865   3866   3867
3868   3869   3870   3871
3872   3873   3874   3875
3876   3877   3878   3879
3880   3881   3882   3883
3884   3885   3886   3887
3888   3889   3890   3891
3892   3893   3894   3895
3896   3897   3898   3899
3900   3901   3902   3903
3904   3905   3906   3907
3908   3909   3910   3911
3912   3913   3914   3915
3916   3917   3918   3919
3920   3921   3922   3923
3924   3925   3926   3927
3928   3929   3930   3931
3932   3933   3934   3935
3936   3937   3938   3939
3940   3941   3942   3943
3944   3945   3946   3947
3948   3949   3950   3951
3952   3953   3954   3955
3956   3957   3958   3959
3960   3961   3962   3963
3964   3965   3966   3967
3968   3969   3970   3971
3972   3973   3974   3975
3976   3977   3978   3979
3980   3981   3982   3983
3984   3985   3986   3987
3988   3989   3990   3991
3992   3993   3994   3995
3996   3997   3998   3999
4000   4001   4002   4003
4004   4005   4006   4007
4008   4009   4010   4011
4012   4013   4014   4015
4016   4017   4018   4019
4020   4021   4022   4023
4024   4025   4026   4027
4028   4029   4030   4031
4032   4033   4034   4035
4036   4037   4038   4039
4040   4041   4042   4043
4044   4045   4046   4047
4048   4049   4050   4051
4052   4053   4054   4055
4056   4057   4058   4059
4060   4061   4062   4063
4064   4065   4066   4067
4068   4069   4070   4071
4072   4073   4074   4075
4076   4077   4078   4079
4080   4081   4082   4083
4084   4085   4086   4087
4088   4089   4090   4091
4092   4093   4094   4095
4096   4097   4098   4099
4100   4101   4102   4103
4104   4105   4106   4107
4108   4109   4110   4111
4112   4113   4114   4115
4116   4117   4118   4119
4120   4121   4122   4123
4124   4125   4126   4127
4128   4129   4130   4131
4132   4133   4134   4135
4136   4137   4138   4139
4140   4141   4142   4143
4144   4145   4146   4147
4148   4149   4150   4151
4152   4153   4154   4155
4156   4157   4158   4159
4160   4161   4162   4163
4164   4165   4166   4167
4168   4169   4170   4171
4172   4173   4174   4175
4176   4177   4178   4179
4180   4181   4182   4183
4184   4185   4186   4187
4188   4189   4190   4191
4192   4193   4194   4195
4196   4197   4198   4199
4200   4201   4202   4203
4204   4205   4206   4207
4208   4209   4210   4211
4212   4213   4214   4215
4216   4217   4218   4219
4220   4221   4222   4223
4224   4225   4226   4227
4228   4229   4230   4231
4232   4233   4234   4235
4236   4237   4238   4239
4240   4241   4242   4243
4244   4245   4246   4247
4248   4249   4250   4251
4252   4253   4254   4255
4256   4257   4258   4259
4260   4261   4262   4263
4264   4265   4266   4267
4268   4269   4270   4271
4272   4273   4274   4275
4276   4277   4278   4279
4280   4281   4282   4283
4284   4285   4286   4287
4288   4289   4290   4291
4292   4293   4294   4295
4296   4297   4298   4299
4300   4301   4302   4303
4304   4305   4306   4307
4308   4309   4310   4311
4312   4313   4314   4315
4316   4317   4318   4319
4320   4321   4322   4323
4324   4325   4326   4327
4328   4329   4330   4331
4332   4333   4334   4335
4336   4337   4338   4339
4340   4341   4342   4343
4344   4345   4346   4347
4348   4349   4350   4351
4352   4353   4354   4355
4356   4357   4358   4359
4360   4361   4362   4363
4364   4365   4366   4367
4368   4369   4370   4371
4372   4373   4374   4375
4376   4377   4378   4379
4380   4381   4382   4383
4384   4385   4386   4387
4388   4389   4390   4391
4392   4393   4394   4395
4396   4397   4398   4399
4400   4401   4402   4403
4404   4405   4406   4407
4408   4409   4410   4411
4412   4413   4414   4415
4416   4417   4418   4419
4420   4421   4422   4423
4424   4425   4426   4427
4428   4429   4430   4431
4432   4433   4434   4435
4436   4437   4438   4439
4440   4441   4442   4443
4444   4445   4446   4447
4448   4449   4450   4451
4452   4453   4454   4455
4456   4457   4458   4459
4460   4461   4462   4463
4464   4465   4466   4467
4468   4469   4470   4471
4472   4473   4474   4475
4476   4477   4478   4479
4480   4481   4482   4483
4484   4485   4486   4487
4488   4489   4490   4491
4492   4493   4494   4495
4496   4497   4498   4499
4500   4501   4502   4503
4504   4505   4506   4507
4508   4509   4510   4511
4512   4513   4514   4515
4516   4517   4518   4519
4520   4521   4522   4523
4524   4525   4526   4527
4528   4529   4530   4531
4532   4533   4534   4535
4536   4537   4538   4539
4540   4541   4542   4543
4544   4545   4546   4547
4548   4549   4550   4551
4552   4553   4554   4555
4556   4557   4558   4559
4560   4561   4562   4563
4564   4565   4566   4567
4568   4569   4570   4571
4572   4573   4574   4575
4576   4577   4578   4579
4580   4581   4582   4583
4584   4585   4586   4587
4588   4589   4590   4591
4592   4593   4594   4595
4596   4597   4598   4599
4600   4601   4602   4603
4604   4605   4606   4607
4608   4609   4610   4611
4612   4613   4614   4615
4616   4617   4618   4619
4620   4621   4622   4623
4624   4625   4626   4627
4628   4629   4630   4631
4632   4633   4634   4635
4636   4637   4638   4639
4640   4641   4642   4643
4644   4645   4646   4647
4648   4649   4650   4651
4652   4653   4654   4655
4656   4657   4658   4659
4660   4661   4662   4663
4664   4665   4666   4667
4668   4669   4670   4671
4672   4673   4674   4675
4676   4677   4678   4679
4680   4681   4682   4683
4684   4685   4686   4687
4688   4689   4690   4691
4692   4693   4694   4695
4696   4697   4698   4699
4700   4701   4702   4703
4704   4705   4706   4707
4708   4709   4710   4711
4712   4713   4714   4715
4716   4717   4718   4719
4720   4721   4722   4723
4724   4725   4726   4727
4728   4729   4730   4731
4732   4733   4734   4735
4736   4737   4738   4739
4740   4741   4742   4743
4744   4745   4746   4747
4748   4749   4750   4751
4752   4753   4754   4755
4756   4757   4758   4759
4760   4761   4762   4763
4764   4765   4766   4767
4768   4769   4770   4771
4772   4773   4774   4775
4776   4777   4778   4779
4780   4781   4782   4783
4784   4785   4786   4787
4788   4789   4790   4791
4792   4793   4794   4795
4796   4797   4798   4799
4800   4801   4802   4803
4804   4805   4806   4807
4808   4809   4810   4811
4812   4813   4814   4815
4816   4817   4818   4819
4820   4821   4822   4823
4824   4825   4826   4827
4828   4829   4830   4831
4832   4833   4834   4835
4836   4837   4838   4839
4840   4841   4842   4843
4844   4845   4846   4847
4848   4849   4850   4851
4852   4853   4854   4855
4856   4857   4858   4859
4860   4861   4862   4863
4864   4865   4866   4867
4868   4869   4870   4871
4872   4873   4874   4875
4876   4877   4878   4879
4880   4881   4882   4883
4884   4885   4886   4887
4888   4889   4890   4891
4892   4893   4894   4895
4896   4897   4898   4899
4900   4901   4902   4903
4904   4905   4906   4907
4908   4909   4910   4911
4912   4913   4914   4915
4916   4917   4918   4919
4920   4921   4922   4923
4924   4925   4926   4927
4928   4929   4930   4931
4932   4933   4934   4935
4936   4937   4938   4939
4940   4941   4942   4943
4944   4945   4946   4947
4948   4949   4950   4951
4952   4953   4954   4955
4956   4957   4958   4959
4960   4961   4962   4963
4964   4965   4966   4967
4968   4969   4970   4971
4972   4973   4974   4975
4976   4977   4978   4979
4980   4981   4982   4983
4984   4985   4986   4987
4988   4989   4990   4991
4992   4993   4994   4995
4996   4997   4998   4999
5000   5001   5002   5003
5004   5005   5006   5007
5008   5009   5010   5011
5012   5013   5014   5015
5016   5017   5018   5019
5020   5021   5022   5023
5024   5025   5026   5027
5028   5029   5030   5031
5032   5033   5034   5035
5036   5037   5038   5039
5040   5041   5042   5043
5044   5045   5046   5047
5048   5049   5050   5051
5052   5053   5054   5055
5056   5057   5058   5059
5060   5061   5062   5063
5064   5065   5066   5067
5068   5069   5070   5071
5072   5073   5074   5075
5076   5077   5078   5079
5080   5081   5082   5083
5084   5085   5086   5087
5088   5089   5090   5091
5092   5093   5094   5095
5096   5097   5098   5099
5100   5101   5102   5103
5104   5105   5106   5107
5108   5109   5110   5111
5112   5113   5114   5115
5116   5117   5118   5119
5120   5121   5122   5123
5124   5125   5126   5127
5128   5129   5130   5131
5132   5133   5134   5135
5136   5137   5138   5139
5140   5141   5142   5143
5144   5145   5146   5147
5148   5149   5150   5151
5152   5153   5154   5155
5156   5157   5158   5159
5160   5161   5162   5163
5164   5165   5166   5167
5168   5169   5170   5171
5172   5173   5174   5175
5176   5177   5178   5179
5180   5181   5182   5183
5184   5185   5186   5187
5188   5189   5190   5191
5192   5193   5194   5195
5196   5197   5198   5199
5200   5201   5202   5203
5204   5205   5206   5207
5208   5209   5210   5211
5212   5213   5214   5215
5216   5217   5218   5219
5220   5221   5222   5223
5224   5225   5226   5227
5228   5229   5230   5231
5232   5233   5234   5235
5236   5237   5238   5239
5240   5241   5242   5243
5244   5245   5246   5247
5248   5249   5250   5251
5252   5253   5254   5255
5256   5257   5258   5259
5260   5261   5262   5263
5264   5265   5266   5267
5268   5269   5270   5271
5272   5273   5274   5275
5276   5277   5278   5279
5280   5281   5282   5283
5284   5285   5286   5287
5288   5289   5290   5291
5292   5293   5294   5295
5296   5297   5298   5299
5300   5301   5302   5303
5304   5305   5306   5307
5308   5309   5310   5311
5312   5313   5314   5315
5316   5317   5318   5319
5320   5321   5322   5323
5324   5325   5326   5327
5328   5329   5330   5331
5332   5333   5334   5335
5336   5337   5338   5339
5340   5341   5342   5343
5344   5345   5346   5347
5348   5349   5350   5351
5352   5353   5354   5355
5356   5357   5358   5359
5360   5361   5362   5363
5364   5365   5366   5367
5368   5369   5370   5371
5372   5373   5374   5375
5376   5377   5378   5379
5380   5381   5382   5383
5384   5385   5386   5387
5388   5389   5390   5391
5392   5393   5394   5395
5396   5397   5398   5399
5400   5401   5402   5403
5404   5405   5406   5407
5408   5409   5410   5411
5412   5413   5414   5415
5416   5417   5418   5419
5420   5421   5422   5423
5424   5425   5426   5427
5428   5429   5430   5431
5432   5433   5434   5435
5436   5437   5438   5439
5440   5441   5442   5443
5444   5445   5446   5447
5448   5449   5450   5451
5452   5453   5454   5455
5456   5457   5458   5459
5460   5461   5462   5463
5464   5465   5466   5467
5468   5469   5470   5471
5472   5473   5474   5475
5476   5477   5478   5479
5480   5481   5482   5483
5484   5485   5486   5487
5488   5489   5490   5491
5492   5493   5494   5495
5496   5497   5498   5499
5500   5501   5502   5503
5504   5505   5506   5507
5508   5509   5510   5511
5512   5513   5514   5515
5516   5517   5518   5519
5520   5521   5522   5523
5524   5525   5526   5527
5528   5529   5530   5531
5532   5533   5534   5535
5536   5537   5538   5539
5540   5541   5542   5543
5544   5545   5546   5547
5548   5549   5550   5551
5552   5553   5554   5555
5556   5557   5558   5559
5560   5561   5562   5563
5564   5565   5566   5567
5568   5569   5570   5571
5572   5573   5574   5575
5576   5577   5578   5579
5580   5581   5582   5583
5584   5585   5586   5587
5588   5589   5590   5591
5592   5593   5594   5595
5596   5597   5598   5599
5600   5601   5602   5603
5604   5605   5606   5607
5608   5609   5610   5611
5612   5613   5614   5615
5616   5617   5618   5619
5620   5621   5622   5623
5624   5625   5626   5627
5628   5629   5630   5631
5632   5633   5634   5635
5636   5637   5638   5639
5640   5641   5642   5643
5644   5645   5646   5647
5648   5649   5650   5651
5652   5653   5654   5655
5656   5657   5658   5659
5660   5661   5662   5663
5664   5665   5666   5667
5668   5669   5670   5671
5672   5673   5674   5675
5676   5677   5678   5679
5680   5681   5682   5683
5684   5685   5686   5687
5688   5689   5690   5691
5692   5693   5694   5695
5696   5697   5698   5699
5700   5701   5702   5703
5704   5705   5706   5707
5708   5709   5710   5711
5712   5713   5714   5715
5716   5717   5718   5719
5720   5721   5722   5723
5724   5725   5726   5727
5728   5729   5730   5731
5732   5733   5734   5735
5736   5737   5738   5739
5740   5741   5742   5743
5744   5745   5746   5747
5748   5749   5750   5751
5752   5753   5754   5755
5756   5757   5758   5759
5760   5761   5762   5763
5764   5765   5766   5767
5768   5769   5770   5771
5772   5773   5774   5775
5776   5777   5778   5779
5780   5781   5782   5783
5784   5785   5786   5787
5788   5789   5790   5791
5792   5793   5794   5795
5796   5797   5798   5799
5800   5801   5802   5803
5804   5805   5806   5807
5808   5809   5810   5811
5812   5813   5814   5815
5816   5817   5818   5819
5820   5821   5822   5823
5824   5825   5826   5827
5828   5829   5830   5831
5832   5833   5834   5835
5836   5837   5838   5839
5840   5841   5842   5843
5844   5845   5846   5847
5848   5849   5850   5851
5852   5853   5854   5855
5856   5857   5858   5859
5860   5861   5862   5863
5864   5865   5866   5867
5868   5869   5870   5871
5872   5873   5874   5875
5876   5877   5878   5879
5880   5881   5882   5883
5884   5885   5886   5887
5888   5889   5890   5891
5892   5893   5894   5895
5896   5897   5898   5899
5900   5901   5902   5903
5904   5905   5906   5907
5908   5909   5910   5911
5912   5913   5914   5915
5916   5917   5918   5919
5920   5921   5922   5923
5924   5925   5926   5927
5928   5929   5930   5931
5932   5933   5934   5935
5936   5937   5938   5939
5940   5941   5942   5943
5944   5945   5946   5947
5948   5949   5950   5951
5952   5953   5954   5955
5956   5957   5958   5959
5960   5961   5962   5963
5964   5965   5966   5967
5968   5969   5970   5971
5972   5973   5974   5975
5976   5977   5978   5979
5980   5981   5982   5983
5984   5985   5986   5987
5988   5989   5990   5991
5992   5993   5994   5995
5996   5997   5998   5999
              </DataArray>   
              <DataArray type="Int32" Name="offsets" format="ascii">   
4
8
12
16
20
24
28
32
36
40
44
48
52
56
60
64
68
72
76
80
84
88
92
96
100
104
108
112
116
120
124
128
132
136
140
144
148
152
156
160
164
168
172
176
180
184
188
192
196
200
204
208
212
216
220
224
228
232
236
240
244
248
252
256
260
264
268
272
276
280
284
288
292
296
300
304
308
312
316
320
324
328
332
336
340
344
348
352
356
360
364
368
372
376
380
384
388
392
396
400
404
408
412
416
420
424
428
432
436
440
444
448
452
456
460
464
468
472
476
480
484
488
492
496
500
504
508
512
516
520
524
528
532
536
540
544
548
552
556
560
564
568
572
576
580
584
588
592
596
600
604
608
612
616
620
624
628
632
636
640
644
648
652
656
660
664
668
672
676
680
684
688
692
696
700
704
708
712
716
720
724
728
732
736
740
744
748
752
756
760
764
768
772
776
780
784
788
792
796
800
804
808
812
816
820
824
828
832
836
840
844
848
852
856
860
864
868
872
876
880
884
888
892
896
900
904
908
912
916
920
924
928
932
936
940
944
948
952
956
960
964
968
972
976
980
984
988
992
996
1000
1004
1008
1012
1016
1020
1024
1028
1032
1036
1040
1044
1048
1052
1056
1060
1064
1068
1072
1076
1080
1084
1088
1092
1096
1100
1104
1108
1112
1116
1120
1124
1128
1132
1136
1140
1144
1148
1152
1156
1160
1164
1168
1172
1176
1180
1184
1188
1192
1196
1200
1204
1208
1212
1216
1220
1224
1228
1232
1236
1240
1244
1248
1252
1256
1260
1264
1268
1272
1276
1280
1284
1288
1292
1296
1300
1304
1308
1312
1316
1320
1324
1328
1332
1336
1340
1344
1348
1352
1356
1360
1364
1368
1372
1376
1380
1384
1388
1392
1396
1400
1404
1408
1412
1416
1420
1424
1428
1432
1436
1440
1444
1448
1452
1456
1460
1464
1468
1472
1476
1480
1484
1488
1492
1496
1500
1504
1508
1512
1516
1520
1524
1528
1532
1536
1540
1544
1548
1552
1556
1560
1564
1568
1572
1576
1580
1584
1588
1592
1596
1600
1604
1608
1612
1616
1620
1624
1628
1632
1636
1640
1644
1648
1652
1656
1660
1664
1668
1672
1676
1680
1684
1688
1692
1696
1700
1704
1708
1712
1716
1720
1724
1728
1732
1736
1740
1744
1748
1752
1756
1760
1764
1768
1772
1776
1780
1784
1788
1792
1796
1800
1804
1808
1812
1816
1820
1824
1828
1832
1836
1840
1844
1848
1852
1856
1860
1864
1868
1872
1876
1880
1884
1888
1892
1896
1900
1904
1908
1912
1916
1920
1924
1928
1932
1936
1940
1944
1948
1952
1956
1960
1964
1968
1972
1976
1980
1984
1988
1992
1996
2000
2004
2008
2012
2016
2020
2024
2028
2032
2036
2040
2044
2048
2052
2056
2060
2064
2068
2072
2076
2080
2084
2088
2092
2096
2100
2104
2108
2112
2116
2120
2124
2128
2132
2136
2140
2144
2148
2152
2156
2160
2164
2168
2172
2176
2180
2184
2188
2192
2196
2200
2204
2208
2212
2216
2220
2224
2228
2232
2236
2240
2244
2248
2252
2256
2260
2264
2268
2272
2276
2280
2284
2288
2292
2296
2300
2304
2308
2312
2316
2320
2324
2328
2332
2336
2340
2344
2348
2352
2356
2360
2364
2368
2372
2376
2380
2384
2388
2392
2396
2400
2404
2408
2412
2416
2420
2424
2428
2432
2436
2440
2444
2448
2452
2456
2460
2464
2468
2472
2476
2480
2484
2488
2492
2496
2500
2504
2508
2512
2516
2520
2524
2528
2532
2536
2540
2544
2548
2552
2556
2560
2564
2568
2572
2576
2580
2584
2588
2592
2596
2600
2604
2608
2612
2616
2620
2624
2628
2632
2636
2640
2644
2648
2652
2656
2660
2664
2668
2672
2676
2680
2684
2688
2692
2696
2700
2704
2708
2712
2716
2720
2724
2728
2732
2736
2740
2744
2748
2752
2756
2760
2764
2768
2772
2776
2780
2784
2788
2792
2796
2800
2804
2808
2812
2816
2820
2824
2828
2832
2836
2840
2844
2848
2852
2856
2860
2864
2868
2872
2876
2880
2884
2888
2892
2896
2900
2904
2908
2912
2916
2920
2924
2928
2932
2936
2940
2944
2948
2952
2956
2960
2964
2968
2972
2976
2980
2984
2988
2992
2996
3000
3004
3008
3012
3016
3020
3024
3028
3032
3036
3040
3044
3048
3052
3056
3060
3064
3068
3072
3076
3080
3084
3088
3092
3096
3100
3104
3108
3112
3116
3120
3124
3128
3132
3136
3140
3144
3148
3152
3156
3160
3164
3168
3172
3176
3180
3184
3188
3192
3196
3200
3204
3208
3212
3216
3220
3224
3228
3232
3236
3240
3244
3248
3252
3256
3260
3264
3268
3272
3276
3280
3284
3288
3292
3296
3300
3304
3308
3312
3316
3320
3324
3328
3332
3336
3340
3344
3348
3352
3356
3360
3364
3368
3372
3376
3380
3384
3388
3392
3396
3400
3404
3408
3412
3416
3420
3424
3428
3432
3436
3440
3444
3448
3452
3456
3460
3464
3468
3472
3476
3480
3484
3488
3492
3496
3500
3504
3508
3512
3516
3520
3524
3528
3532
3536
3540
3544
3548
3552
3556
3560
3564
3568
3572
3576
3580
3584
3588
3592
3596
3600
3604
3608
3612
3616
3620
3624
3628
3632
3636
3640
3644
3648
3652
3656
3660
3664
3668
3672
3676
3680
3684
3688
3692
3696
3700
3704
3708
3712
3716
3720
3724
3728
3732
3736
3740
3744
3748
3752
3756
3760
3764
3768
3772
3776
3780
3784
3788
3792
3796
3800
3804
3808
3812
3816
3820
3824
3828
3832
3836
3840
3844
3848
3852
3856
3860
3864
3868
3872
3876
3880
3884
3888
3892
3896
3900
3904
3908
3912
3916
3920
3924
3928
3932
3936
3940
3944
3948
3952
3956
3960
3964
3968
3972
3976
3980
3984
3988
3992
3996
4000
4004
4008
4012
4016
4020
4024
4028
4032
4036
4040
4044
4048
4052
4056
4060
4064
4068
4072
4076
4080
4084
4088
4092
4096
4100
4104
4108
4112
4116
4120
4124
4128
4132
4136
4140
4144
4148
4152
4156
4160
4164
4168
4172
4176
4180
4184
4188
4192
4196
4200
4204
4208
4212
4216
4220
4224
4228
4232
4236
4240
4244
4248
4252
4256
4260
4264
4268
4272
4276
4280
4284
4288
4292
4296
4300
4304
4308
4312
4316
4320
4324
4328
4332
4336
4340
4344
4348
4352
4356
4360
4364
4368
4372
4376
4380
4384
4388
4392
4396
4400
4404
4408
4412
4416
4420
4424
4428
4432
4436
4440
4444
4448
4452
4456
4460
4464
4468
4472
4476
4480
4484
4488
4492
4496
4500
4504
4508
4512
4516
4520
4524
4528
4532
4536
4540
4544
4548
4552
4556
4560
4564
4568
4572
4576
4580
4584
4588
4592
4596
4600
4604
4608
4612
4616
4620
4624
4628
4632
4636
4640
4644
4648
4652
4656
4660
4664
4668
4672
4676
4680
4684
4688
4692
4696
4700
4704
4708
4712
4716
4720
4724
4728
4732
4736
4740
4744
4748
4752
4756
4760
4764
4768
4772
4776
4780
4784
4788
4792
4796
4800
4804
4808
4812
4816
4820
4824
4828
4832
4836
4840
4844
4848
4852
4856
4860
4864
4868
4872
4876
4880
4884
4888
4892
4896
4900
4904
4908
4912
4916
4920
4924
4928
4932
4936
4940
4944
4948
4952
4956
4960
4964
4968
4972
4976
4980
4984
4988
4992
4996
5000
5004
5008
5012
5016
5020
5024
5028
5032
5036
5040
5044
5048
5052
5056
5060
5064
5068
5072
5076
5080
5084
5088
5092
5096
5100
5104
5108
5112
5116
5120
5124
5128
5132
5136
5140
5144
5148
5152
5156
5160
5164
5168
5172
5176
5180
5184
5188
5192
5196
5200
5204
5208
5212
5216
5220
5224
5228
5232
5236
5240
5244
5248
5252
5256
5260
5264
5268
5272
5276
5280
5284
5288
5292
5296
5300
5304
5308
5312
5316
5320
5324
5328
5332
5336
5340
5344
5348
5352
5356
5360
5364
5368
5372
5376
5380
5384
5388
5392
5396
5400
5404
5408
5412
5416
5420
5424
5428
5432
5436
5440
5444
5448
5452
5456
5460
5464
5468
5472
5476
5480
5484
5488
5492
5496
5500
5504
5508
5512
5516
5520
5524
5528
5532
5536
5540
5544
5548
5552
5556
5560
5564
5568
5572
5576
5580
5584
5588
5592
5596
5600
5604
5608
5612
5616
5620
5624
5628
5632
5636
5640
5644
5648
5652
5656
5660
5664
5668
5672
5676
5680
5684
5688
5692
5696
5700
5704
5708
5712
5716
5720
5724
5728
5732
5736
5740
5744
5748
5752
5756
5760
5764
5768
5772
5776
5780
5784
5788
5792
5796
5800
5804
5808
5812
5816
5820
5824
5828
5832
5836
5840
5844
5848
5852
5856
5860
5864
5868
5872
5876
5880
5884
5888
5892
5896
5900
5904
5908
5912
5916
5920
5924
5928
5932
5936
5940
5944
5948
5952
5956
5960
5964
5968
5972
5976
5980
5984
5988
5992
5996
6000
              </DataArray>   
              <DataArray type="UInt8" Name="types" format="ascii">   
10
10
10
10
10
10
10
10
10
10
10
10
10
10
10
10
10
10
10
10
10
10
10
10
10
10
10
10
10
10
10
10
10
10
10
10
10
10
10
10
10
10
10
10
10
10
10
10
10
10
10
10
10
10
10
10
10
10
10
10
10
10
10
10
10
10
10
10
10
10
10
10
10
10
10
10
10
10
10
10
10
10
10
10
10
10
10
10
10
10
10
10
10
10
10
10
10
10
10
10
10
10
10
10
10
10
10
10
10
10
10
10
10
10
10
10
10
10
10
10
10
10
10
10
10
10
10
10
10
10
10
10
10
10
10
10
10
10
10
10
10
10
10
10
10
10
10
10
10
10
10
10
10
10
10
10
10
10
10
10
10
10
10
10
10
10
10
10
10
10
10
10
10
10
10
10
10
10
10
10
10
10
10
10
10
10
10
10
10
10
10
10
10
10
10
10
10
10
10
10
10
10
10
10
10
10
10
10
10
10
10
10
10
10
10
10
10
10
10
10
10
10
10
10
10
10
10
10
10
10
10
10
10
10
10
10
10
10
10
10
10
10
10
10
10
10
10
10
10
10
10
10
10
10
10
10
10
10
10
10
10
10
10
10
10
10
10
10
10
10
10
10
10
10
10
10
10
10
10
10
10
10
10
10
10
10
10
10
10
10
10
10
10
10
10
10
10
10
10
10
10
10
10
10
10
10
10
10
10
10
10
10
10
10
10
10
10
10
10
10
10
10
10
10
10
10
10
10
10
10
10
10
10
10
10
10
10
10
10
10
10
10
10
10
10
10
10
10
10
10
10
10
10
10
10
10
10
10
10
10
10
10
10
10
10
10
10
10
10
10
10
10
10
10
10
10
10
10
10
10
10
10
10
10
10
10
10
10
10
10
10
10
10
10
10
10
10
10
10
10
10
10
10
10
10
10
10
10
10
10
10
10
10
10
10
10
10
10
10
10
10
10
10
10
10
10
10
10
10
10
10
10
10
10
10
10
10
10
10
10
10
10
10
10
10
10
10
10
10
10
10
10
10
10
10
10
10
10
10
10
10
10
10
10
10
10
10
10
10
10
10
10
10
10
10
10
10
10
10
10
10
10
10
10
10
10
10
10
10
10
10
10
10
10
10
10
10
10
10
10
10
10
10
10
10
10
10
10
10
10
10
10
10
10
10
10
10
10
10
10
10
10
10
10
10
10
10
10
10
10
10
10
10
10
10
10
10
10
10
10
10
10
10
10
10
10
10
10
10
10
10
10
10
10
10
10
10
10
10
10
10
10
10
10
10
10
10
10
10
10
10
10
10
10
10
10
10
10
10
10
10
10
10
10
10
10
10
10
10
10
10
10
10
10
10
10
10
10
10
10
10
10
10
10
10
10
10
10
10
10
10
10
10
10
10
10
10
10
10
10
10
10
10
10
10
10
10
10
10
10
10
10
10
10
10
10
10
10
10
10
10
10
10
10
10
10
10
10
10
10
10
10
10
10
10
10
10
10
10
10
10
10
10
10
10
10
10
10
10
10
10
10
10
10
10
10
10
10
10
10
10
10
10
10
10
10
10
10
10
10
10
10
10
10
10
10
10
10
10
10
10
10
10
10
10
10
10
10
10
10
10
10
10
10
10
10
10
10
10
10
10
10
10
10
10
10
10
10
10
10
10
10
10
10
10
10
10
10
10
10
10
10
10
10
10
10
10
10
10
10
10
10
10
10
10
10
10
10
10
10
10
10
10
10
10
10
10
10
10
10
10
10
10
10
10
10
10
10
10
10
10
10
10
10
10
10
10
10
10
10
10
10
10
10
10
10
10
10
10
10
10
10
10
10
10
10
10
10
10
10
10
10
10
10
10
10
10
10
10
10
10
10
10
10
10
10
10
10
10
10
10
10
10
10
10
10
10
10
10
10
10
10
10
10
10
10
10
10
10
10
10
10
10
10
10
10
10
10
10
10
10
10
10
10
10
10
10
10
10
10
10
10
10
10
10
10
10
10
10
10
10
10
10
10
10
10
10
10
10
10
10
10
10
10
10
10
10
10
10
10
10
10
10
10
10
10
10
10
10
10
10
10
10
10
10
10
10
10
10
10
10
10
10
10
10
10
10
10
10
10
10
10
10
10
10
10
10
10
10
10
10
10
10
10
10
10
10
10
10
10
10
10
10
10
10
10
10
10
10
10
10
10
10
10
10
10
10
10
10
10
10
10
10
10
10
10
10
10
10
10
10
10
10
10
10
10
10
10
10
10
10
10
10
10
10
10
10
10
10
10
10
10
10
10
10
10
10
10
10
10
10
10
10
10
10
10
10
10
10
10
10
10
10
10
10
10
10
10
10
10
10
10
10
10
10
10
10
10
10
10
10
10
10
10
10
10
10
10
10
10
10
10
10
10
10
10
10
10
10
10
10
10
10
10
10
10
10
10
10
10
10
10
10
10
10
10
10
10
10
10
10
10
10
10
10
10
10
10
10
10
10
10
10
10
10
10
10
10
10
10
10
10
10
10
10
10
10
10
10
10
10
10
10
10
10
10
10
10
10
10
10
10
10
10
10
10
10
10
10
10
10
10
10
10
10
10
10
10
10
10
10
10
10
10
10
10
10
10
10
10
10
10
10
10
10
10
10
10
10
10
10
10
10
10
10
10
10
10
10
10
10
10
10
10
10
10
10
10
10
10
10
10
10
10
10
10
10
10
10
10
10
10
10
10
10
10
10
10
10
10
10
10
10
10
10
10
10
10
10
10
10
10
10
10
10
10
10
10
10
10
10
10
10
10
10
10
10
10
10
10
10
10
10
10
10
10
10
10
10
10
10
10
10
10
10
10
10
10
10
10
10
10
10
10
10
10
10
10
10
10
10
10
10
10
10
10
10
10
10
10
10
10
10
10
10
10
10
10
10
10
10
10
10
10
10
10
10
10
10
10
10
10
10
10
10
10
10
10
10
10
10
10
10
10
10
10
10
10
10
10
10
10
10
10
10
10
10
10
10
10
10
10
10
10
10
10
10
10
10
10
10
10
10
10
10
10
10
10
10
10
10
10
10
10
10
10
10
10
10
10
10
10
10
10
10
10
10
10
10
10
10
10
10
10
10
10
10
10
10
10
10
10
10
10
10
10
10
10
10
10
10
10
10
10
10
10
10
10
10
10
10
10
10
10
10
10
10
10
10
10
10
10
10
10
10
10
10
10
10
10
10
10
10
10
10
10
10
10
10
10
10
10
10
10
10
10
10
10
10
10
10
10
10
10
10
10
10
10
10
10
10
10
10
10
10
10
10
10
10
10
10
10
10
10
10
10
10
10
10
10
10
10
10
10
10
10
10
10
10
10
10
10
10
10
10
10
10
10
10
10
10
10
10
10
10
10
10
10
10
10
10
10
10
10
10
10
10
10
10
10
              </DataArray>   
          </Cells>  
          <PointData>  
             <DataArray type="Float64" NumberOfComponents="3" Name="Strains" format="ascii">   
-1.3011568811721036e-05   0.0   -8.765400633043826e-06
-1.3011568811721036e-05   0.0   -8.765400633043826e-06
-1.3011568811721036e-05   0.0   -8.765400633043826e-06
-1.3011568811721036e-05   0.0   -8.765400633043826e-06
-8.257168956740023e-06   1.4114596980913644e-06   5.474944112662949e-09
-8.257168956740023e-06   1.4114596980913644e-06   5.474944112662949e-09
-8.257168956740023e-06   1.4114596980913644e-06   5.474944112662949e-09
-8.257168956740023e-06   1.4114596980913644e-06   5.474944112662949e-09
-8.0784340548442e-06   0.0   -8.302558785152433e-06
-8.0784340548442e-06   0.0   -8.302558785152433e-06
-8.0784340548442e-06   0.0   -8.302558785152433e-06
-8.0784340548442e-06   0.0   -8.302558785152433e-06
-1.3598135785059158e-05   1.708123953586122e-06   -1.2793027361247014e-07
-1.3598135785059158e-05   1.708123953586122e-06   -1.2793027361247014e-07
-1.3598135785059158e-05   1.708123953586122e-06   -1.2793027361247014e-07
-1.3598135785059158e-05   1.708123953586122e-06   -1.2793027361247014e-07
-1.05450014332826e-05   3.857015399094933e-07   -4.423034078367422e-06
-1.05450014332826e-05   3.857015399094933e-07   -4.423034078367422e-06
-1.05450014332826e-05   3.857015399094933e-07   -4.423034078367422e-06
-1.05450014332826e-05   3.857015399094933e-07   -4.423034078367422e-06
-1.359813578505918e-05   0.0   -9.327433157304108e-06
-1.359813578505918e-05   0.0   -9.327433157304108e-06
-1.359813578505918e-05   0.0   -9.327433157304108e-06
-1.359813578505918e-05   0.0   -9.327433157304108e-06
-8.0784340548442e-06   1.7081239535861237e-06   8.96944098539202e-07
-8.0784340548442e-06   1.7081239535861237e-06   8.96944098539202e-07
-8.0784340548442e-06   1.7081239535861237e-06   8.96944098539202e-07
-8.0784340548442e-06   1.7081239535861237e-06   8.96944098539202e-07
-8.084526561204989e-06   0.0   -8.501283916858425e-06
-8.084526561204989e-06   0.0   -8.501283916858425e-06
-8.084526561204989e-06   0.0   -8.501283916858425e-06
-8.084526561204989e-06   0.0   -8.501283916858425e-06
-1.400241392650177e-05   1.8338924872245297e-06   2.6152619963486624e-07
-1.400241392650177e-05   1.8338924872245297e-06   2.6152619963486624e-07
-1.400241392650177e-05   1.8338924872245297e-06   2.6152619963486624e-07
-1.400241392650177e-05   1.8338924872245297e-06   2.6152619963486624e-07
-1.0841331173132066e-05   6.884577003714016e-07   -4.319684183869429e-06
-1.0841331173132066e-05   6.884577003714016e-07   -4.319684183869429e-06
-1.0841331173132066e-05   6.884577003714016e-07   -4.319684183869429e-06
-1.0841331173132066e-05   6.884577003714016e-07   -4.319684183869429e-06
-1.4002413926501796e-05   0.0   -9.601619409193145e-06
-1.4002413926501796e-05   0.0   -9.601619409193145e-06
-1.4002413926501796e-05   0.0   -9.601619409193145e-06
-1.4002413926501796e-05   0.0   -9.601619409193145e-06
-8.084526561204976e-06   1.8338924872245297e-06   1.3618616919695813e-06
-8.084526561204976e-06   1.8338924872245297e-06   1.3618616919695813e-06
-8.084526561204976e-06   1.8338924872245297e-06   1.3618616919695813e-06
-8.084526561204976e-06   1.8338924872245297e-06   1.3618616919695813e-06
-8.061462743176735e-06   0.0   -8.554980204905372e-06
-8.061462743176735e-06   0.0   -8.554980204905372e-06
-8.061462743176735e-06   0.0   -8.554980204905372e-06
-8.061462743176735e-06   0.0   -8.554980204905372e-06
-1.4889903526823252e-05   2.101342691318723e-06   1.5649488197142955e-06
-1.4889903526823252e-05   2.101342691318723e-06   1.5649488197142955e-06
-1.4889903526823252e-05   2.101342691318723e-06   1.5649488197142955e-06
-1.4889903526823252e-05   2.101342691318723e-06   1.5649488197142955e-06
-1.1031938334839245e-05   8.721993369064777e-07   -4.127507154278363e-06
-1.1031938334839245e-05   8.721993369064777e-07   -4.127507154278363e-06
-1.1031938334839245e-05   8.721993369064777e-07   -4.127507154278363e-06
-1.1031938334839245e-05   8.721993369064777e-07   -4.127507154278363e-06
-8.257168956740038e-06   0.0   -7.918524814189007e-06
-8.257168956740038e-06   0.0   -7.918524814189007e-06
-8.257168956740038e-06   0.0   -7.918524814189007e-06
-8.257168956740038e-06   0.0   -7.918524814189007e-06
-3.77966028646608e-06   5.118849063727591e-07   -1.4887941990875915e-07
-3.77966028646608e-06   5.118849063727591e-07   -1.4887941990875915e-07
-3.77966028646608e-06   5.118849063727591e-07   -1.4887941990875915e-07
-3.77966028646608e-06   5.118849063727591e-07   -1.4887941990875915e-07
-3.6189569733135484e-06   0.0   -7.859375196558405e-06
-3.6189569733135484e-06   0.0   -7.859375196558405e-06
-3.6189569733135484e-06   0.0   -7.859375196558405e-06
-3.6189569733135484e-06   0.0   -7.859375196558405e-06
-8.0784340548442e-06   7.386393143233575e-07   -8.70096982601361e-07
-8.0784340548442e-06   7.386393143233575e-07   -8.70096982601361e-07
-8.0784340548442e-06   7.386393143233575e-07   -8.70096982601361e-07
-8.0784340548442e-06   7.386393143233575e-07   -8.70096982601361e-07
-5.938062965026786e-06   4.929134802548982e-08   -4.0237733525183005e-06
-5.938062965026786e-06   4.929134802548982e-08   -4.0237733525183005e-06
-5.938062965026786e-06   4.929134802548982e-08   -4.0237733525183005e-06
-5.938062965026786e-06   4.929134802548982e-08   -4.0237733525183005e-06
-8.078434054844193e-06   0.0   -8.302558785152426e-06
-8.078434054844193e-06   0.0   -8.302558785152426e-06
-8.078434054844193e-06   0.0   -8.302558785152426e-06
-8.078434054844193e-06   0.0   -8.302558785152426e-06
-3.6189569733135484e-06   7.386393143233575e-07   -4.269133940073448e-07
-3.6189569733135484e-06   7.386393143233575e-07   -4.269133940073448e-07
-3.6189569733135484e-06   7.386393143233575e-07   -4.269133940073448e-07
-3.6189569733135484e-06   7.386393143233575e-07   -4.269133940073448e-07
-3.5218785485865367e-06   0.0   -7.954580018647297e-06
-3.5218785485865367e-06   0.0   -7.954580018647297e-06
-3.5218785485865367e-06   0.0   -7.954580018647297e-06
-3.5218785485865367e-06   0.0   -7.954580018647297e-06
-8.084526561204989e-06   9.111731636851921e-07   -8.968705624943492e-07
-8.084526561204989e-06   9.111731636851921e-07   -8.968705624943492e-07
-8.084526561204989e-06   9.111731636851921e-07   -8.968705624943492e-07
-8.084526561204989e-06   9.111731636851921e-07   -8.968705624943492e-07
-5.80015630171536e-06   2.8998230542093583e-07   -4.331439813351812e-06
-5.80015630171536e-06   2.8998230542093583e-07   -4.331439813351812e-06
-5.80015630171536e-06   2.8998230542093583e-07   -4.331439813351812e-06
-5.80015630171536e-06   2.8998230542093583e-07   -4.331439813351812e-06
-8.084526561204989e-06   0.0   -8.501283916858425e-06
-8.084526561204989e-06   0.0   -8.501283916858425e-06
-8.084526561204989e-06   0.0   -8.501283916858425e-06
-8.084526561204989e-06   0.0   -8.501283916858425e-06
-3.5218785485865426e-06   9.111731636851921e-07   -3.5016666428323494e-07
-3.5218785485865426e-06   9.111731636851921e-07   -3.5016666428323494e-07
-3.5218785485865426e-06   9.111731636851921e-07   -3.5016666428323494e-07
-3.5218785485865426e-06   9.111731636851921e-07   -3.5016666428323494e-07
-3.4307239270431077e-06   0.0   -7.916451089397072e-06
-3.4307239270431077e-06   0.0   -7.916451089397072e-06
-3.4307239270431077e-06   0.0   -7.916451089397072e-06
-3.4307239270431077e-06   0.0   -7.916451089397072e-06
-8.061462743176713e-06   1.0642151925138195e-06   -8.370821780159915e-07
-8.061462743176713e-06   1.0642151925138195e-06   -8.370821780159915e-07
-8.061462743176713e-06   1.0642151925138195e-06   -8.370821780159915e-07
-8.061462743176713e-06   1.0642151925138195e-06   -8.370821780159915e-07
-5.7576252441240465e-06   4.873606895511218e-07   -4.33069864132618e-06
-5.7576252441240465e-06   4.873606895511218e-07   -4.33069864132618e-06
-5.7576252441240465e-06   4.873606895511218e-07   -4.33069864132618e-06
-5.7576252441240465e-06   4.873606895511218e-07   -4.33069864132618e-06
-3.7796602864660864e-06   0.0   -7.61139387036535e-06
-3.7796602864660864e-06   0.0   -7.61139387036535e-06
-3.7796602864660864e-06   0.0   -7.61139387036535e-06
-3.7796602864660864e-06   0.0   -7.61139387036535e-06
4.3648036146312436e-07   -6.993256020095043e-08   -6.264523266038948e-07
4.3648036146312436e-07   -6.993256020095043e-08   -6.264523266038948e-07
4.3648036146312436e-07   -6.993256020095043e-08   -6.264523266038948e-07
4.3648036146312436e-07   -6.993256020095043e-08   -6.264523266038948e-07
5.46793819326177e-07   0.0   -7.779658742561167e-06
5.46793819326177e-07   0.0   -7.779658742561167e-06
5.46793819326177e-07   0.0   -7.779658742561167e-06
5.46793819326177e-07   0.0   -7.779658742561167e-06
-3.6189569733135484e-06   1.328607566620405e-07   -9.164572088255287e-07
-3.6189569733135484e-06   1.328607566620405e-07   -9.164572088255287e-07
-3.6189569733135484e-06   1.328607566620405e-07   -9.164572088255287e-07
-3.6189569733135484e-06   1.328607566620405e-07   -9.164572088255287e-07
-1.6164332335699512e-06   -1.4022072682986947e-07   -4.090147884969708e-06
-1.6164332335699512e-06   -1.4022072682986947e-07   -4.090147884969708e-06
-1.6164332335699512e-06   -1.4022072682986947e-07   -4.090147884969708e-06
-1.6164332335699512e-06   -1.4022072682986947e-07   -4.090147884969708e-06
-3.6189569733135547e-06   0.0   -7.859375196558418e-06
-3.6189569733135547e-06   0.0   -7.859375196558418e-06
-3.6189569733135547e-06   0.0   -7.859375196558418e-06
-3.6189569733135547e-06   0.0   -7.859375196558418e-06
5.467938193261779e-07   1.328607566620405e-07   -8.367407548283037e-07
5.467938193261779e-07   1.328607566620405e-07   -8.367407548283037e-07
5.467938193261779e-07   1.328607566620405e-07   -8.367407548283037e-07
5.467938193261779e-07   1.328607566620405e-07   -8.367407548283037e-07
6.360661970021449e-07   0.0   -7.76724707873874e-06
6.360661970021449e-07   0.0   -7.76724707873874e-06
6.360661970021449e-07   0.0   -7.76724707873874e-06
6.360661970021449e-07   0.0   -7.76724707873874e-06
-3.5218785485865303e-06   3.1222156651426064e-07   -1.024672109332828e-06
-3.5218785485865303e-06   3.1222156651426064e-07   -1.024672109332828e-06
-3.5218785485865303e-06   3.1222156651426064e-07   -1.024672109332828e-06
-3.5218785485865303e-06   3.1222156651426064e-07   -1.024672109332828e-06
-1.4914453881557017e-06   7.677343151638741e-08   -4.267458495718825e-06
-1.4914453881557017e-06   7.677343151638741e-08   -4.267458495718825e-06
-1.4914453881557017e-06   7.677343151638741e-08   -4.267458495718825e-06
-1.4914453881557017e-06   7.677343151638741e-08   -4.267458495718825e-06
-3.5218785485865426e-06   0.0   -7.95458001864731e-06
-3.5218785485865426e-06   0.0   -7.95458001864731e-06
-3.5218785485865426e-06   0.0   -7.95458001864731e-06
-3.5218785485865426e-06   0.0   -7.95458001864731e-06
6.36066197002146e-07   3.1222156651426233e-07   -8.373391694242724e-07
6.36066197002146e-07   3.1222156651426233e-07   -8.373391694242724e-07
6.36066197002146e-07   3.1222156651426233e-07   -8.373391694242724e-07
6.36066197002146e-07   3.1222156651426233e-07   -8.373391694242724e-07
7.506422246991985e-07   0.0   -7.6050662320577555e-06
7.506422246991985e-07   0.0   -7.6050662320577555e-06
7.506422246991985e-07   0.0   -7.6050662320577555e-06
7.506422246991985e-07   0.0   -7.6050662320577555e-06
-3.4307239270431048e-06   5.189747622321812e-07   -9.475075031598949e-07
-3.4307239270431048e-06   5.189747622321812e-07   -9.475075031598949e-07
-3.4307239270431048e-06   5.189747622321812e-07   -9.475075031598949e-07
-3.4307239270431048e-06   5.189747622321812e-07   -9.475075031598949e-07
-1.385618161943669e-06   2.912614888246172e-07   -4.219389147614411e-06
-1.385618161943669e-06   2.912614888246172e-07   -4.219389147614411e-06
-1.385618161943669e-06   2.912614888246172e-07   -4.219389147614411e-06
-1.385618161943669e-06   2.912614888246172e-07   -4.219389147614411e-06
4.364803614631251e-07   0.0   -7.65335340648592e-06
4.364803614631251e-07   0.0   -7.65335340648592e-06
4.364803614631251e-07   0.0   -7.65335340648592e-06
4.364803614631251e-07   0.0   -7.65335340648592e-06
5.027236771108896e-06   -5.89731464718601e-07   -3.55931602574093e-07
5.027236771108896e-06   -5.89731464718601e-07   -3.55931602574093e-07
5.027236771108896e-06   -5.89731464718601e-07   -3.55931602574093e-07
5.027236771108896e-06   -5.89731464718601e-07   -3.55931602574093e-07
5.057065175192567e-06   0.0   -8.043583758753143e-06
5.057065175192567e-06   0.0   -8.043583758753143e-06
5.057065175192567e-06   0.0   -8.043583758753143e-06
5.057065175192567e-06   0.0   -8.043583758753143e-06
5.467938193261779e-07   -4.398750269865821e-07   -2.625398161172147e-07
5.467938193261779e-07   -4.398750269865821e-07   -2.625398161172147e-07
5.467938193261779e-07   -4.398750269865821e-07   -2.625398161172147e-07
5.467938193261779e-07   -4.398750269865821e-07   -2.625398161172147e-07
2.746772768327846e-06   -3.2519196022268616e-07   -3.997981237844995e-06
2.746772768327846e-06   -3.2519196022268616e-07   -3.997981237844995e-06
2.746772768327846e-06   -3.2519196022268616e-07   -3.997981237844995e-06
2.746772768327846e-06   -3.2519196022268616e-07   -3.997981237844995e-06
5.467938193261789e-07   0.0   -7.779658742561194e-06
5.467938193261789e-07   0.0   -7.779658742561194e-06
5.467938193261789e-07   0.0   -7.779658742561194e-06
5.467938193261789e-07   0.0   -7.779658742561194e-06
5.0570651751925575e-06   -4.398750269865821e-07   -5.264648323091639e-07
5.0570651751925575e-06   -4.398750269865821e-07   -5.264648323091639e-07
5.0570651751925575e-06   -4.398750269865821e-07   -5.264648323091639e-07
5.0570651751925575e-06   -4.398750269865821e-07   -5.264648323091639e-07
5.0534083549641905e-06   0.0   -7.928874072280113e-06
5.0534083549641905e-06   0.0   -7.928874072280113e-06
5.0534083549641905e-06   0.0   -7.928874072280113e-06
5.0534083549641905e-06   0.0   -7.928874072280113e-06
6.36066197002146e-07   -2.693783225689328e-07   -4.0501014880201315e-07
6.36066197002146e-07   -2.693783225689328e-07   -4.0501014880201315e-07
6.36066197002146e-07   -2.693783225689328e-07   -4.0501014880201315e-07
6.36066197002146e-07   -2.693783225689328e-07   -4.0501014880201315e-07
2.8001010871451847e-06   -1.2434610809909924e-07   -4.098754294388975e-06
2.8001010871451847e-06   -1.2434610809909924e-07   -4.098754294388975e-06
2.8001010871451847e-06   -1.2434610809909924e-07   -4.098754294388975e-06
2.8001010871451847e-06   -1.2434610809909924e-07   -4.098754294388975e-06
6.36066197002146e-07   0.0   -7.767247078738752e-06
6.36066197002146e-07   0.0   -7.767247078738752e-06
6.36066197002146e-07   0.0   -7.767247078738752e-06
6.36066197002146e-07   0.0   -7.767247078738752e-06
5.053408354964181e-06   -2.693783225689328e-07   -5.66637142343372e-07
5.053408354964181e-06   -2.693783225689328e-07   -5.66637142343372e-07
5.053408354964181e-06   -2.693783225689328e-07   -5.66637142343372e-07
5.053408354964181e-06   -2.693783225689328e-07   -5.66637142343372e-07
5.1685750625887975e-06   0.0   -7.629885727194613e-06
5.1685750625887975e-06   0.0   -7.629885727194613e-06
5.1685750625887975e-06   0.0   -7.629885727194613e-06
5.1685750625887975e-06   0.0   -7.629885727194613e-06
7.506422246991998e-07   -4.1365825228071405e-08   -2.418448355751077e-07
7.506422246991998e-07   -4.1365825228071405e-08   -2.418448355751077e-07
7.506422246991998e-07   -4.1365825228071405e-08   -2.418448355751077e-07
7.506422246991998e-07   -4.1365825228071405e-08   -2.418448355751077e-07
2.902320629795472e-06   1.1446779295345118e-07   -3.921475681644471e-06
2.902320629795472e-06   1.1446779295345118e-07   -3.921475681644471e-06
2.902320629795472e-06   1.1446779295345118e-07   -3.921475681644471e-06
2.902320629795472e-06   1.1446779295345118e-07   -3.921475681644471e-06
5.027236771108914e-06   0.0   -8.007192285317082e-06
5.027236771108914e-06   0.0   -8.007192285317082e-06
5.027236771108914e-06   0.0   -8.007192285317082e-06
5.027236771108914e-06   0.0   -8.007192285317082e-06
1.1460153835279605e-05   -1.5090194608071675e-06   1.8089244784831432e-06
1.1460153835279605e-05   -1.5090194608071675e-06   1.8089244784831432e-06
1.1460153835279605e-05   -1.5090194608071675e-06   1.8089244784831432e-06
1.1460153835279605e-05   -1.5090194608071675e-06   1.8089244784831432e-06
1.0790067338671569e-05   0.0   -8.807325162908608e-06
1.0790067338671569e-05   0.0   -8.807325162908608e-06
1.0790067338671569e-05   0.0   -8.807325162908608e-06
1.0790067338671569e-05   0.0   -8.807325162908608e-06
5.0570651751925575e-06   -1.2729023402591063e-06   1.511419847045191e-06
5.0570651751925575e-06   -1.2729023402591063e-06   1.511419847045191e-06
5.0570651751925575e-06   -1.2729023402591063e-06   1.511419847045191e-06
5.0570651751925575e-06   -1.2729023402591063e-06   1.511419847045191e-06
7.908652054890242e-06   -6.667773979929396e-07   -3.6048999178106288e-06
7.908652054890242e-06   -6.667773979929396e-07   -3.6048999178106288e-06
7.908652054890242e-06   -6.667773979929396e-07   -3.6048999178106288e-06
7.908652054890242e-06   -6.667773979929396e-07   -3.6048999178106288e-06
5.057065175192562e-06   0.0   -8.043583758753136e-06
5.057065175192562e-06   0.0   -8.043583758753136e-06
5.057065175192562e-06   0.0   -8.043583758753136e-06
5.057065175192562e-06   0.0   -8.043583758753136e-06
1.0790067338671569e-05   -1.272902340259108e-06   7.476784428897293e-07
1.0790067338671569e-05   -1.272902340259108e-06   7.476784428897293e-07
1.0790067338671569e-05   -1.272902340259108e-06   7.476784428897293e-07
1.0790067338671569e-05   -1.272902340259108e-06   7.476784428897293e-07
1.048919491862152e-05   0.0   -8.624413389309498e-06
1.048919491862152e-05   0.0   -8.624413389309498e-06
1.048919491862152e-05   0.0   -8.624413389309498e-06
1.048919491862152e-05   0.0   -8.624413389309498e-06
5.053408354964181e-06   -1.1592321950489736e-06   1.130770200482103e-06
5.053408354964181e-06   -1.1592321950489736e-06   1.130770200482103e-06
5.053408354964181e-06   -1.1592321950489736e-06   1.130770200482103e-06
5.053408354964181e-06   -1.1592321950489736e-06   1.130770200482103e-06
7.773130046907039e-06   -4.840246921302958e-07   -3.807223787840519e-06
7.773130046907039e-06   -4.840246921302958e-07   -3.807223787840519e-06
7.773130046907039e-06   -4.840246921302958e-07   -3.807223787840519e-06
7.773130046907039e-06   -4.840246921302958e-07   -3.807223787840519e-06
5.0534083549641905e-06   0.0   -7.928874072280113e-06
5.0534083549641905e-06   0.0   -7.928874072280113e-06
5.0534083549641905e-06   0.0   -7.928874072280113e-06
5.0534083549641905e-06   0.0   -7.928874072280113e-06
1.0489194918621502e-05   -1.1592321950489736e-06   4.3523088345271877e-07
1.0489194918621502e-05   -1.1592321950489736e-06   4.3523088345271877e-07
1.0489194918621502e-05   -1.1592321950489736e-06   4.3523088345271877e-07
1.0489194918621502e-05   -1.1592321950489736e-06   4.3523088345271877e-07
1.0028698233517128e-05   0.0   -8.162694671001457e-06
1.0028698233517128e-05   0.0   -8.162694671001457e-06
1.0028698233517128e-05   0.0   -8.162694671001457e-06
1.0028698233517128e-05   0.0   -8.162694671001457e-06
5.168575062588784e-06   -8.880149063447393e-07   4.7031955768594515e-07
5.168575062588784e-06   -8.880149063447393e-07   4.7031955768594515e-07
5.168575062588784e-06   -8.880149063447393e-07   4.7031955768594515e-07
5.168575062588784e-06   -8.880149063447393e-07   4.7031955768594515e-07
7.541053294240646e-06   -1.9485049893445292e-07   -3.899709472846659e-06
7.541053294240646e-06   -1.9485049893445292e-07   -3.899709472846659e-06
7.541053294240646e-06   -1.9485049893445292e-07   -3.899709472846659e-06
7.541053294240646e-06   -1.9485049893445292e-07   -3.899709472846659e-06
-1.1122161246849357e-05   1.411459698091361e-06   -7.447797858020777e-06
-1.1122161246849357e-05   1.411459698091361e-06   -7.447797858020777e-06
-1.1122161246849357e-05   1.411459698091361e-06   -7.447797858020777e-06
-1.1122161246849357e-05   1.411459698091361e-06   -7.447797858020777e-06
-7.138690086179754e-06   1.259177011173266e-06   -9.000488690556306e-07
-7.138690086179754e-06   1.259177011173266e-06   -9.000488690556306e-07
-7.138690086179754e-06   1.259177011173266e-06   -9.000488690556306e-07
-7.138690086179754e-06   1.259177011173266e-06   -9.000488690556306e-07
-7.3093099566311765e-06   1.7081239535861203e-06   -6.269211391253315e-06
-7.3093099566311765e-06   1.7081239535861203e-06   -6.269211391253315e-06
-7.3093099566311765e-06   1.7081239535861203e-06   -6.269211391253315e-06
-7.3093099566311765e-06   1.7081239535861203e-06   -6.269211391253315e-06
-1.1223726696857218e-05   1.5205112958190979e-06   3.6738410378364577e-07
-1.1223726696857218e-05   1.5205112958190979e-06   3.6738410378364577e-07
-1.1223726696857218e-05   1.5205112958190979e-06   3.6738410378364577e-07
-1.1223726696857218e-05   1.5205112958190979e-06   3.6738410378364577e-07
-8.83308466412329e-06   1.4790279436533241e-06   -3.5921292728068054e-06
-8.83308466412329e-06   1.4790279436533241e-06   -3.5921292728068054e-06
-8.83308466412329e-06   1.4790279436533241e-06   -3.5921292728068054e-06
-8.83308466412329e-06   1.4790279436533241e-06   -3.5921292728068054e-06
-1.1223726696857218e-05   1.7081239535861203e-06   -6.156643796593095e-06
-1.1223726696857218e-05   1.7081239535861203e-06   -6.156643796593095e-06
-1.1223726696857218e-05   1.7081239535861203e-06   -6.156643796593095e-06
-1.1223726696857218e-05   1.7081239535861203e-06   -6.156643796593095e-06
-7.309309956631202e-06   1.5205112958191047e-06   2.548165091234442e-07
-7.309309956631202e-06   1.5205112958191047e-06   2.548165091234442e-07
-7.309309956631202e-06   1.5205112958191047e-06   2.548165091234442e-07
-7.309309956631202e-06   1.5205112958191047e-06   2.548165091234442e-07
-7.335552021016304e-06   1.833892487224528e-06   -5.646749332427108e-06
-7.335552021016304e-06   1.833892487224528e-06   -5.646749332427108e-06
-7.335552021016304e-06   1.833892487224528e-06   -5.646749332427108e-06
-7.335552021016304e-06   1.833892487224528e-06   -5.646749332427108e-06
-1.1286458192541556e-05   1.6388150167611249e-06   1.0551407690596636e-06
-1.1286458192541556e-05   1.6388150167611249e-06   1.0551407690596636e-06
-1.1286458192541556e-05   1.6388150167611249e-06   1.0551407690596636e-06
-1.1286458192541556e-05   1.6388150167611249e-06   1.0551407690596636e-06
-9.080546541395868e-06   1.642884669596684e-06   -2.6238204412178096e-06
-9.080546541395868e-06   1.642884669596684e-06   -2.6238204412178096e-06
-9.080546541395868e-06   1.642884669596684e-06   -2.6238204412178096e-06
-9.080546541395868e-06   1.642884669596684e-06   -2.6238204412178096e-06
-1.1286458192541536e-05   1.833892487224528e-06   -5.529702850149062e-06
-1.1286458192541536e-05   1.833892487224528e-06   -5.529702850149062e-06
-1.1286458192541536e-05   1.833892487224528e-06   -5.529702850149062e-06
-1.1286458192541536e-05   1.833892487224528e-06   -5.529702850149062e-06
-7.335552021016316e-06   1.6388150167611181e-06   9.380942867816092e-07
-7.335552021016316e-06   1.6388150167611181e-06   9.380942867816092e-07
-7.335552021016316e-06   1.6388150167611181e-06   9.380942867816092e-07
-7.335552021016316e-06   1.6388150167611181e-06   9.380942867816092e-07
-7.283351183874046e-06   2.101342691318721e-06   -4.203969919634565e-06
-7.283351183874046e-06   2.101342691318721e-06   -4.203969919634565e-06
-7.283351183874046e-06   2.101342691318721e-06   -4.203969919634565e-06
-7.283351183874046e-06   2.101342691318721e-06   -4.203969919634565e-06
-1.0949750152107662e-05   1.7378306966493872e-06   2.1248022242230322e-06
-1.0949750152107662e-05   1.7378306966493872e-06   2.1248022242230322e-06
-1.0949750152107662e-05   1.7378306966493872e-06   2.1248022242230322e-06
-1.0949750152107662e-05   1.7378306966493872e-06   2.1248022242230322e-06
-8.82962797903294e-06   1.8077375058813027e-06   -1.4506788164406462e-06
-8.82962797903294e-06   1.8077375058813027e-06   -1.4506788164406462e-06
-8.82962797903294e-06   1.8077375058813027e-06   -1.4506788164406462e-06
-8.82962797903294e-06   1.8077375058813027e-06   -1.4506788164406462e-06
-7.138690086179754e-06   5.118849063727591e-07   -8.000652778016711e-06
-7.138690086179754e-06   5.118849063727591e-07   -8.000652778016711e-06
-7.138690086179754e-06   5.118849063727591e-07   -8.000652778016711e-06
-7.138690086179754e-06   5.118849063727591e-07   -8.000652778016711e-06
-3.4095500621932584e-06   5.862321843568146e-07   -1.7408110379154394e-06
-3.4095500621932584e-06   5.862321843568146e-07   -1.7408110379154394e-06
-3.4095500621932584e-06   5.862321843568146e-07   -1.7408110379154394e-06
-3.4095500621932584e-06   5.862321843568146e-07   -1.7408110379154394e-06
-3.481431684100629e-06   7.386393143233575e-07   -7.98363847473556e-06
-3.481431684100629e-06   7.386393143233575e-07   -7.98363847473556e-06
-3.481431684100629e-06   7.386393143233575e-07   -7.98363847473556e-06
-3.481431684100629e-06   7.386393143233575e-07   -7.98363847473556e-06
-7.3093099566311765e-06   8.263293104205619e-07   -1.6564553515096153e-06
-7.3093099566311765e-06   8.263293104205619e-07   -1.6564553515096153e-06
-7.3093099566311765e-06   8.263293104205619e-07   -1.6564553515096153e-06
-7.3093099566311765e-06   8.263293104205619e-07   -1.6564553515096153e-06
-5.319076679511851e-06   6.644845696702906e-07   -4.876403968925013e-06
-5.319076679511851e-06   6.644845696702906e-07   -4.876403968925013e-06
-5.319076679511851e-06   6.644845696702906e-07   -4.876403968925013e-06
-5.319076679511851e-06   6.644845696702906e-07   -4.876403968925013e-06
-7.30930995663117e-06   7.386393143233558e-07   -8.036252472393858e-06
-7.30930995663117e-06   7.386393143233558e-07   -8.036252472393858e-06
-7.30930995663117e-06   7.386393143233558e-07   -8.036252472393858e-06
-7.30930995663117e-06   7.386393143233558e-07   -8.036252472393858e-06
-3.4814316841006224e-06   8.263293104205619e-07   -1.6038413538512725e-06
-3.4814316841006224e-06   8.263293104205619e-07   -1.6038413538512725e-06
-3.4814316841006224e-06   8.263293104205619e-07   -1.6038413538512725e-06
-3.4814316841006224e-06   8.263293104205619e-07   -1.6038413538512725e-06
-3.496781235383563e-06   9.111731636851921e-07   -7.836470899212555e-06
-3.496781235383563e-06   9.111731636851921e-07   -7.836470899212555e-06
-3.496781235383563e-06   9.111731636851921e-07   -7.836470899212555e-06
-3.496781235383563e-06   9.111731636851921e-07   -7.836470899212555e-06
-7.335552021016304e-06   1.0261909764826748e-06   -1.5075302775031223e-06
-7.335552021016304e-06   1.0261909764826748e-06   -1.5075302775031223e-06
-7.335552021016304e-06   1.0261909764826748e-06   -1.5075302775031223e-06
-7.335552021016304e-06   1.0261909764826748e-06   -1.5075302775031223e-06
-5.351460130463471e-06   8.480979234778839e-07   -4.707494263288297e-06
-5.351460130463471e-06   8.480979234778839e-07   -4.707494263288297e-06
-5.351460130463471e-06   8.480979234778839e-07   -4.707494263288297e-06
-5.351460130463471e-06   8.480979234778839e-07   -4.707494263288297e-06
-7.335552021016304e-06   9.111731636851887e-07   -7.905481586891032e-06
-7.335552021016304e-06   9.111731636851887e-07   -7.905481586891032e-06
-7.335552021016304e-06   9.111731636851887e-07   -7.905481586891032e-06
-7.335552021016304e-06   9.111731636851887e-07   -7.905481586891032e-06
-3.496781235383569e-06   1.0261909764826748e-06   -1.4385195898246447e-06
-3.496781235383569e-06   1.0261909764826748e-06   -1.4385195898246447e-06
-3.496781235383569e-06   1.0261909764826748e-06   -1.4385195898246447e-06
-3.496781235383569e-06   1.0261909764826748e-06   -1.4385195898246447e-06
-3.478473635289538e-06   1.0642151925138195e-06   -7.760024949277772e-06
-3.478473635289538e-06   1.0642151925138195e-06   -7.760024949277772e-06
-3.478473635289538e-06   1.0642151925138195e-06   -7.760024949277772e-06
-3.478473635289538e-06   1.0642151925138195e-06   -7.760024949277772e-06
-7.2833511838740525e-06   1.2421844973109963e-06   -1.5253439511818922e-06
-7.2833511838740525e-06   1.2421844973109963e-06   -1.5253439511818922e-06
-7.2833511838740525e-06   1.2421844973109963e-06   -1.5253439511818922e-06
-7.2833511838740525e-06   1.2421844973109963e-06   -1.5253439511818922e-06
-5.372967426395334e-06   1.0143374823394755e-06   -4.572608671330175e-06
-5.372967426395334e-06   1.0143374823394755e-06   -4.572608671330175e-06
-5.372967426395334e-06   1.0143374823394755e-06   -4.572608671330175e-06
-5.372967426395334e-06   1.0143374823394755e-06   -4.572608671330175e-06
-3.4095500621932534e-06   -6.993256020094873e-08   -8.391657781800845e-06
-3.4095500621932534e-06   -6.993256020094873e-08   -8.391657781800845e-06
-3.4095500621932534e-06   -6.993256020094873e-08   -8.391657781800845e-06
-3.4095500621932534e-06   -6.993256020094873e-08   -8.391657781800845e-06
2.709083863566001e-07   -2.0133716568955355e-08   -2.227681061371891e-06
2.709083863566001e-07   -2.0133716568955355e-08   -2.227681061371891e-06
2.709083863566001e-07   -2.0133716568955355e-08   -2.227681061371891e-06
2.709083863566001e-07   -2.0133716568955355e-08   -2.227681061371891e-06
2.6510877757160026e-07   1.328607566620405e-07   -8.43194093907609e-06
2.6510877757160026e-07   1.328607566620405e-07   -8.43194093907609e-06
2.6510877757160026e-07   1.328607566620405e-07   -8.43194093907609e-06
2.6510877757160026e-07   1.328607566620405e-07   -8.43194093907609e-06
-3.4814316841006224e-06   2.0159634079143854e-07   -2.228948186766685e-06
-3.4814316841006224e-06   2.0159634079143854e-07   -2.228948186766685e-06
-3.4814316841006224e-06   2.0159634079143854e-07   -2.228948186766685e-06
-3.4814316841006224e-06   2.0159634079143854e-07   -2.228948186766685e-06
-1.5974155699555652e-06   6.788071062544863e-08   -5.288745665575523e-06
-1.5974155699555652e-06   6.788071062544863e-08   -5.288745665575523e-06
-1.5974155699555652e-06   6.788071062544863e-08   -5.288745665575523e-06
-1.5974155699555652e-06   6.788071062544863e-08   -5.288745665575523e-06
-3.4814316841006224e-06   1.328607566620405e-07   -8.473182289553727e-06
-3.4814316841006224e-06   1.328607566620405e-07   -8.473182289553727e-06
-3.4814316841006224e-06   1.328607566620405e-07   -8.473182289553727e-06
-3.4814316841006224e-06   1.328607566620405e-07   -8.473182289553727e-06
2.651087775716007e-07   2.0159634079143854e-07   -2.1877068362890416e-06
2.651087775716007e-07   2.0159634079143854e-07   -2.1877068362890416e-06
2.651087775716007e-07   2.0159634079143854e-07   -2.1877068362890416e-06
2.651087775716007e-07   2.0159634079143854e-07   -2.1877068362890416e-06
2.546677155130907e-07   3.1222156651426233e-07   -8.447163074686147e-06
2.546677155130907e-07   3.1222156651426233e-07   -8.447163074686147e-06
2.546677155130907e-07   3.1222156651426233e-07   -8.447163074686147e-06
2.546677155130907e-07   3.1222156651426233e-07   -8.447163074686147e-06
-3.4967812353835568e-06   4.185770158075729e-07   -2.258561426101053e-06
-3.4967812353835568e-06   4.185770158075729e-07   -2.258561426101053e-06
-3.4967812353835568e-06   4.185770158075729e-07   -2.258561426101053e-06
-3.4967812353835568e-06   4.185770158075729e-07   -2.258561426101053e-06
-1.6172850078192887e-06   2.550655726598136e-07   -5.292948272819504e-06
-1.6172850078192887e-06   2.550655726598136e-07   -5.292948272819504e-06
-1.6172850078192887e-06   2.550655726598136e-07   -5.292948272819504e-06
-1.6172850078192887e-06   2.550655726598136e-07   -5.292948272819504e-06
-3.4967812353835568e-06   3.1222156651426233e-07   -8.510976344262136e-06
-3.4967812353835568e-06   3.1222156651426233e-07   -8.510976344262136e-06
-3.4967812353835568e-06   3.1222156651426233e-07   -8.510976344262136e-06
-3.4967812353835568e-06   3.1222156651426233e-07   -8.510976344262136e-06
2.546677155130907e-07   4.185770158075797e-07   -2.194748156525074e-06
2.546677155130907e-07   4.185770158075797e-07   -2.194748156525074e-06
2.546677155130907e-07   4.185770158075797e-07   -2.194748156525074e-06
2.546677155130907e-07   4.185770158075797e-07   -2.194748156525074e-06
2.226689633923235e-07   5.189747622321812e-07   -8.433811337390003e-06
2.226689633923235e-07   5.189747622321812e-07   -8.433811337390003e-06
2.226689633923235e-07   5.189747622321812e-07   -8.433811337390003e-06
2.226689633923235e-07   5.189747622321812e-07   -8.433811337390003e-06
-3.478473635289535e-06   6.442548497987783e-07   -2.3404083921268716e-06
-3.478473635289535e-06   6.442548497987783e-07   -2.3404083921268716e-06
-3.478473635289535e-06   6.442548497987783e-07   -2.3404083921268716e-06
-3.478473635289535e-06   6.442548497987783e-07   -2.3404083921268716e-06
-1.625345432918806e-06   4.473726059977453e-07   -5.310826049797463e-06
-1.625345432918806e-06   4.473726059977453e-07   -5.310826049797463e-06
-1.625345432918806e-06   4.473726059977453e-07   -5.310826049797463e-06
-1.625345432918806e-06   4.473726059977453e-07   -5.310826049797463e-06
2.709083863566001e-07   -5.89731464718601e-07   -7.737418872760688e-06
2.709083863566001e-07   -5.89731464718601e-07   -7.737418872760688e-06
2.709083863566001e-07   -5.89731464718601e-07   -7.737418872760688e-06
2.709083863566001e-07   -5.89731464718601e-07   -7.737418872760688e-06
4.063218975261737e-06   -6.054846183274607e-07   -1.4263531167507746e-06
4.063218975261737e-06   -6.054846183274607e-07   -1.4263531167507746e-06
4.063218975261737e-06   -6.054846183274607e-07   -1.4263531167507746e-06
4.063218975261737e-06   -6.054846183274607e-07   -1.4263531167507746e-06
4.107814936201843e-06   -4.398750269865821e-07   -7.835111646254262e-06
4.107814936201843e-06   -4.398750269865821e-07   -7.835111646254262e-06
4.107814936201843e-06   -4.398750269865821e-07   -7.835111646254262e-06
4.107814936201843e-06   -4.398750269865821e-07   -7.835111646254262e-06
2.651087775716007e-07   -4.0216110346868723e-07   -1.4532297359812621e-06
2.651087775716007e-07   -4.0216110346868723e-07   -1.4532297359812621e-06
2.651087775716007e-07   -4.0216110346868723e-07   -1.4532297359812621e-06
2.651087775716007e-07   -4.0216110346868723e-07   -1.4532297359812621e-06
2.1491191343895213e-06   -4.844290935147372e-07   -4.543886203316834e-06
2.1491191343895213e-06   -4.844290935147372e-07   -4.543886203316834e-06
2.1491191343895213e-06   -4.844290935147372e-07   -4.543886203316834e-06
2.1491191343895213e-06   -4.844290935147372e-07   -4.543886203316834e-06
2.6510877757160026e-07   -4.398750269865821e-07   -7.857740000365002e-06
2.6510877757160026e-07   -4.398750269865821e-07   -7.857740000365002e-06
2.6510877757160026e-07   -4.398750269865821e-07   -7.857740000365002e-06
2.6510877757160026e-07   -4.398750269865821e-07   -7.857740000365002e-06
4.107814936201843e-06   -4.0216110346868723e-07   -1.4306013818705052e-06
4.107814936201843e-06   -4.0216110346868723e-07   -1.4306013818705052e-06
4.107814936201843e-06   -4.0216110346868723e-07   -1.4306013818705052e-06
4.107814936201843e-06   -4.0216110346868723e-07   -1.4306013818705052e-06
4.0993625894801735e-06   -2.693783225689311e-07   -7.975702118260542e-06
4.0993625894801735e-06   -2.693783225689311e-07   -7.975702118260542e-06
4.0993625894801735e-06   -2.693783225689311e-07   -7.975702118260542e-06
4.0993625894801735e-06   -2.693783225689311e-07   -7.975702118260542e-06
2.546677155130907e-07   -2.0415842956332558e-07   -1.6070092641187605e-06
2.546677155130907e-07   -2.0415842956332558e-07   -1.6070092641187605e-06
2.546677155130907e-07   -2.0415842956332558e-07   -1.6070092641187605e-06
2.546677155130907e-07   -2.0415842956332558e-07   -1.6070092641187605e-06
2.1357710845737154e-06   -3.238601092679915e-07   -4.670360538063672e-06
2.1357710845737154e-06   -3.238601092679915e-07   -4.670360538063672e-06
2.1357710845737154e-06   -3.238601092679915e-07   -4.670360538063672e-06
2.1357710845737154e-06   -3.238601092679915e-07   -4.670360538063672e-06
2.546677155130907e-07   -2.693783225689328e-07   -8.014834054063888e-06
2.546677155130907e-07   -2.693783225689328e-07   -8.014834054063888e-06
2.546677155130907e-07   -2.693783225689328e-07   -8.014834054063888e-06
2.546677155130907e-07   -2.693783225689328e-07   -8.014834054063888e-06
4.0993625894801735e-06   -2.0415842956332558e-07   -1.5678773283154111e-06
4.0993625894801735e-06   -2.0415842956332558e-07   -1.5678773283154111e-06
4.0993625894801735e-06   -2.0415842956332558e-07   -1.5678773283154111e-06
4.0993625894801735e-06   -2.0415842956332558e-07   -1.5678773283154111e-06
3.988225680079161e-06   -4.1365825228071405e-08   -7.991137274018548e-06
3.988225680079161e-06   -4.1365825228071405e-08   -7.991137274018548e-06
3.988225680079161e-06   -4.1365825228071405e-08   -7.991137274018548e-06
3.988225680079161e-06   -4.1365825228071405e-08   -7.991137274018548e-06
2.226689633923235e-07   3.929459664857998e-08   -1.7636056659998183e-06
2.226689633923235e-07   3.929459664857998e-08   -1.7636056659998183e-06
2.226689633923235e-07   3.929459664857998e-08   -1.7636056659998183e-06
2.226689633923235e-07   3.929459664857998e-08   -1.7636056659998183e-06
2.121742037759903e-06   -1.3644514598230734e-07   -4.823283611033909e-06
2.121742037759903e-06   -1.3644514598230734e-07   -4.823283611033909e-06
2.121742037759903e-06   -1.3644514598230734e-07   -4.823283611033909e-06
2.121742037759903e-06   -1.3644514598230734e-07   -4.823283611033909e-06
4.063218975261737e-06   -1.5090194608071641e-06   -4.676603007384481e-06
4.063218975261737e-06   -1.5090194608071641e-06   -4.676603007384481e-06
4.063218975261737e-06   -1.5090194608071641e-06   -4.676603007384481e-06
4.063218975261737e-06   -1.5090194608071641e-06   -4.676603007384481e-06
7.78551015149902e-06   -1.1165288556287445e-06   1.762709982784716e-06
7.78551015149902e-06   -1.1165288556287445e-06   1.762709982784716e-06
7.78551015149902e-06   -1.1165288556287445e-06   1.762709982784716e-06
7.78551015149902e-06   -1.1165288556287445e-06   1.762709982784716e-06
8.10871598961777e-06   -1.272902340259108e-06   -5.635946805538892e-06
8.10871598961777e-06   -1.272902340259108e-06   -5.635946805538892e-06
8.10871598961777e-06   -1.272902340259108e-06   -5.635946805538892e-06
8.10871598961777e-06   -1.272902340259108e-06   -5.635946805538892e-06
4.1078149362018495e-06   -1.0041020713240552e-06   8.709414554599488e-07
4.1078149362018495e-06   -1.0041020713240552e-06   8.709414554599488e-07
4.1078149362018495e-06   -1.0041020713240552e-06   8.709414554599488e-07
4.1078149362018495e-06   -1.0041020713240552e-06   8.709414554599488e-07
5.7360100320939035e-06   -1.2183100369233271e-06   -1.7141922583339145e-06
5.7360100320939035e-06   -1.2183100369233271e-06   -1.7141922583339145e-06
5.7360100320939035e-06   -1.2183100369233271e-06   -1.7141922583339145e-06
5.7360100320939035e-06   -1.2183100369233271e-06   -1.7141922583339145e-06
4.1078149362018385e-06   -1.2729023402591046e-06   -5.7972269668999004e-06
4.1078149362018385e-06   -1.2729023402591046e-06   -5.7972269668999004e-06
4.1078149362018385e-06   -1.2729023402591046e-06   -5.7972269668999004e-06
4.1078149362018385e-06   -1.2729023402591046e-06   -5.7972269668999004e-06
8.108715989617757e-06   -1.0041020713240552e-06   1.0322216168209974e-06
8.108715989617757e-06   -1.0041020713240552e-06   1.0322216168209974e-06
8.108715989617757e-06   -1.0041020713240552e-06   1.0322216168209974e-06
8.108715989617757e-06   -1.0041020713240552e-06   1.0322216168209974e-06
8.095775681710528e-06   -1.1592321950489753e-06   -6.116994382389667e-06
8.095775681710528e-06   -1.1592321950489753e-06   -6.116994382389667e-06
8.095775681710528e-06   -1.1592321950489753e-06   -6.116994382389667e-06
8.095775681710528e-06   -1.1592321950489753e-06   -6.116994382389667e-06
4.0993625894801735e-06   -8.903982066399711e-07   3.823937116155292e-07
4.0993625894801735e-06   -8.903982066399711e-07   3.823937116155292e-07
4.0993625894801735e-06   -8.903982066399711e-07   3.823937116155292e-07
4.0993625894801735e-06   -8.903982066399711e-07   3.823937116155292e-07
5.9531875090453446e-06   -1.069740669698721e-06   -2.59970900982451e-06
5.9531875090453446e-06   -1.069740669698721e-06   -2.59970900982451e-06
5.9531875090453446e-06   -1.069740669698721e-06   -2.59970900982451e-06
5.9531875090453446e-06   -1.069740669698721e-06   -2.59970900982451e-06
4.099362589480165e-06   -1.159232195048972e-06   -6.2782947754350555e-06
4.099362589480165e-06   -1.159232195048972e-06   -6.2782947754350555e-06
4.099362589480165e-06   -1.159232195048972e-06   -6.2782947754350555e-06
4.099362589480165e-06   -1.159232195048972e-06   -6.2782947754350555e-06
8.095775681710516e-06   -8.903982066399643e-07   5.436941046609188e-07
8.095775681710516e-06   -8.903982066399643e-07   5.436941046609188e-07
8.095775681710516e-06   -8.903982066399643e-07   5.436941046609188e-07
8.095775681710516e-06   -8.903982066399643e-07   5.436941046609188e-07
8.067033793345842e-06   -8.880149063447393e-07   -7.109252821842494e-06
8.067033793345842e-06   -8.880149063447393e-07   -7.109252821842494e-06
8.067033793345842e-06   -8.880149063447393e-07   -7.109252821842494e-06
8.067033793345842e-06   -8.880149063447393e-07   -7.109252821842494e-06
3.988225680079157e-06   -6.465139667144644e-07   -4.5613986350952085e-07
3.988225680079157e-06   -6.465139667144644e-07   -4.5613986350952085e-07
3.988225680079157e-06   -6.465139667144644e-07   -4.5613986350952085e-07
3.988225680079157e-06   -6.465139667144644e-07   -4.5613986350952085e-07
5.7953664950485135e-06   -9.165560994683295e-07   -3.306015942139457e-06
5.7953664950485135e-06   -9.165560994683295e-07   -3.306015942139457e-06
5.7953664950485135e-06   -9.165560994683295e-07   -3.306015942139457e-06
5.7953664950485135e-06   -9.165560994683295e-07   -3.306015942139457e-06
-8.722253885152107e-06   1.259177011173266e-06   -6.123381883561861e-06
-8.722253885152107e-06   1.259177011173266e-06   -6.123381883561861e-06
-8.722253885152107e-06   1.259177011173266e-06   -6.123381883561861e-06
-8.722253885152107e-06   1.259177011173266e-06   -6.123381883561861e-06
-5.751454218164491e-06   9.502058877690827e-07   -1.35743177929167e-06
-5.751454218164491e-06   9.502058877690827e-07   -1.35743177929167e-06
-5.751454218164491e-06   9.502058877690827e-07   -1.35743177929167e-06
-5.751454218164491e-06   9.502058877690827e-07   -1.35743177929167e-06
-5.7738771690928445e-06   1.5205112958190979e-06   -5.0904271480230954e-06
-5.7738771690928445e-06   1.5205112958190979e-06   -5.0904271480230954e-06
-5.7738771690928445e-06   1.5205112958190979e-06   -5.0904271480230954e-06
-5.7738771690928445e-06   1.5205112958190979e-06   -5.0904271480230954e-06
-8.574336765120432e-06   1.1559392167157786e-06   -2.0425124051512737e-07
-8.574336765120432e-06   1.1559392167157786e-06   -2.0425124051512737e-07
-8.574336765120432e-06   1.1559392167157786e-06   -2.0425124051512737e-07
-8.574336765120432e-06   1.1559392167157786e-06   -2.0425124051512737e-07
-6.899941799727279e-06   1.2836294125695639e-06   -3.071523633682683e-06
-6.899941799727279e-06   1.2836294125695639e-06   -3.071523633682683e-06
-6.899941799727279e-06   1.2836294125695639e-06   -3.071523633682683e-06
-6.899941799727279e-06   1.2836294125695639e-06   -3.071523633682683e-06
-8.574336765120432e-06   1.5205112958190979e-06   -4.8716839005611025e-06
-8.574336765120432e-06   1.5205112958190979e-06   -4.8716839005611025e-06
-8.574336765120432e-06   1.5205112958190979e-06   -4.8716839005611025e-06
-8.574336765120432e-06   1.5205112958190979e-06   -4.8716839005611025e-06
-5.7738771690928445e-06   1.1559392167157786e-06   -4.2299448797711013e-07
-5.7738771690928445e-06   1.1559392167157786e-06   -4.2299448797711013e-07
-5.7738771690928445e-06   1.1559392167157786e-06   -4.2299448797711013e-07
-5.7738771690928445e-06   1.1559392167157786e-06   -4.2299448797711013e-07
-5.762301230901676e-06   1.6388150167611181e-06   -4.359467267611489e-06
-5.762301230901676e-06   1.6388150167611181e-06   -4.359467267611489e-06
-5.762301230901676e-06   1.6388150167611181e-06   -4.359467267611489e-06
-5.762301230901676e-06   1.6388150167611181e-06   -4.359467267611489e-06
-8.433176174937928e-06   1.2474557095963303e-06   3.2680655674781537e-07
-8.433176174937928e-06   1.2474557095963303e-06   3.2680655674781537e-07
-8.433176174937928e-06   1.2474557095963303e-06   3.2680655674781537e-07
-8.433176174937928e-06   1.2474557095963303e-06   3.2680655674781537e-07
-6.950981464820548e-06   1.4027949804411614e-06   -2.2367215226213826e-06
-6.950981464820548e-06   1.4027949804411614e-06   -2.2367215226213826e-06
-6.950981464820548e-06   1.4027949804411614e-06   -2.2367215226213826e-06
-6.950981464820548e-06   1.4027949804411614e-06   -2.2367215226213826e-06
-8.433176174937928e-06   1.6388150167611181e-06   -4.124651683312606e-06
-8.433176174937928e-06   1.6388150167611181e-06   -4.124651683312606e-06
-8.433176174937928e-06   1.6388150167611181e-06   -4.124651683312606e-06
-8.433176174937928e-06   1.6388150167611181e-06   -4.124651683312606e-06
-5.762301230901683e-06   1.2474557095963303e-06   9.199097244895626e-08
-5.762301230901683e-06   1.2474557095963303e-06   9.199097244895626e-08
-5.762301230901683e-06   1.2474557095963303e-06   9.199097244895626e-08
-5.762301230901683e-06   1.2474557095963303e-06   9.199097244895626e-08
-5.763947990932145e-06   1.7378306966493872e-06   -3.3450958675568156e-06
-5.763947990932145e-06   1.7378306966493872e-06   -3.3450958675568156e-06
-5.763947990932145e-06   1.7378306966493872e-06   -3.3450958675568156e-06
-5.763947990932145e-06   1.7378306966493872e-06   -3.3450958675568156e-06
-8.253119292004572e-06   1.3412360776732246e-06   1.0414797389495706e-06
-8.253119292004572e-06   1.3412360776732246e-06   1.0414797389495706e-06
-8.253119292004572e-06   1.3412360776732246e-06   1.0414797389495706e-06
-8.253119292004572e-06   1.3412360776732246e-06   1.0414797389495706e-06
-6.785538975405986e-06   1.4684440711433117e-06   -1.4808122514633808e-06
-6.785538975405986e-06   1.4684440711433117e-06   -1.4808122514633808e-06
-6.785538975405986e-06   1.4684440711433117e-06   -1.4808122514633808e-06
-6.785538975405986e-06   1.4684440711433117e-06   -1.4808122514633808e-06
-5.751454218164491e-06   5.862321843568146e-07   -7.194135093254611e-06
-5.751454218164491e-06   5.862321843568146e-07   -7.194135093254611e-06
-5.751454218164491e-06   5.862321843568146e-07   -7.194135093254611e-06
-5.751454218164491e-06   5.862321843568146e-07   -7.194135093254611e-06
-2.963389835996972e-06   4.783129438757603e-07   -2.6121126672640492e-06
-2.963389835996972e-06   4.783129438757603e-07   -2.6121126672640492e-06
-2.963389835996972e-06   4.783129438757603e-07   -2.6121126672640492e-06
-2.963389835996972e-06   4.783129438757603e-07   -2.6121126672640492e-06
-2.9949476695459847e-06   8.263293104205619e-07   -7.088529893271091e-06
-2.9949476695459847e-06   8.263293104205619e-07   -7.088529893271091e-06
-2.9949476695459847e-06   8.263293104205619e-07   -7.088529893271091e-06
-2.9949476695459847e-06   8.263293104205619e-07   -7.088529893271091e-06
-5.7738771690928445e-06   6.816111693956395e-07   -2.3701498427447077e-06
-5.7738771690928445e-06   6.816111693956395e-07   -2.3701498427447077e-06
-5.7738771690928445e-06   6.816111693956395e-07   -2.3701498427447077e-06
-5.7738771690928445e-06   6.816111693956395e-07   -2.3701498427447077e-06
-4.332847613954866e-06   6.821924976517006e-07   -4.772214564928308e-06
-4.332847613954866e-06   6.821924976517006e-07   -4.772214564928308e-06
-4.332847613954866e-06   6.821924976517006e-07   -4.772214564928308e-06
-4.332847613954866e-06   6.821924976517006e-07   -4.772214564928308e-06
-5.773877169092841e-06   8.263293104205619e-07   -7.001699008656119e-06
-5.773877169092841e-06   8.263293104205619e-07   -7.001699008656119e-06
-5.773877169092841e-06   8.263293104205619e-07   -7.001699008656119e-06
-5.773877169092841e-06   8.263293104205619e-07   -7.001699008656119e-06
-2.9949476695459914e-06   6.816111693956259e-07   -2.4569807273596676e-06
-2.9949476695459914e-06   6.816111693956259e-07   -2.4569807273596676e-06
-2.9949476695459914e-06   6.816111693956259e-07   -2.4569807273596676e-06
-2.9949476695459914e-06   6.816111693956259e-07   -2.4569807273596676e-06
-3.013882853915816e-06   1.0261909764826748e-06   -6.902615734599513e-06
-3.013882853915816e-06   1.0261909764826748e-06   -6.902615734599513e-06
-3.013882853915816e-06   1.0261909764826748e-06   -6.902615734599513e-06
-3.013882853915816e-06   1.0261909764826748e-06   -6.902615734599513e-06
-5.762301230901676e-06   8.636511386438529e-07   -2.2243945369197947e-06
-5.762301230901676e-06   8.636511386438529e-07   -2.2243945369197947e-06
-5.762301230901676e-06   8.636511386438529e-07   -2.2243945369197947e-06
-5.762301230901676e-06   8.636511386438529e-07   -2.2243945369197947e-06
-4.336848289409327e-06   8.504080882349204e-07   -4.59220360916165e-06
-4.336848289409327e-06   8.504080882349204e-07   -4.59220360916165e-06
-4.336848289409327e-06   8.504080882349204e-07   -4.59220360916165e-06
-4.336848289409327e-06   8.504080882349204e-07   -4.59220360916165e-06
-5.762301230901676e-06   1.0261909764826748e-06   -6.8050918318962235e-06
-5.762301230901676e-06   1.0261909764826748e-06   -6.8050918318962235e-06
-5.762301230901676e-06   1.0261909764826748e-06   -6.8050918318962235e-06
-5.762301230901676e-06   1.0261909764826748e-06   -6.8050918318962235e-06
-3.0138828539158226e-06   8.636511386438529e-07   -2.321918439623077e-06
-3.0138828539158226e-06   8.636511386438529e-07   -2.321918439623077e-06
-3.0138828539158226e-06   8.636511386438529e-07   -2.321918439623077e-06
-3.0138828539158226e-06   8.636511386438529e-07   -2.321918439623077e-06
-3.0400300132655694e-06   1.2421844973109963e-06   -6.887162118755659e-06
-3.0400300132655694e-06   1.2421844973109963e-06   -6.887162118755659e-06
-3.0400300132655694e-06   1.2421844973109963e-06   -6.887162118755659e-06
-3.0400300132655694e-06   1.2421844973109963e-06   -6.887162118755659e-06
-5.763947990932142e-06   1.0588057096517768e-06   -2.2372715500491966e-06
-5.763947990932142e-06   1.0588057096517768e-06   -2.2372715500491966e-06
-5.763947990932142e-06   1.0588057096517768e-06   -2.2372715500491966e-06
-5.763947990932142e-06   1.0588057096517768e-06   -2.2372715500491966e-06
-4.384066838850146e-06   1.0182992110876788e-06   -4.512769571047341e-06
-4.384066838850146e-06   1.0182992110876788e-06   -4.512769571047341e-06
-4.384066838850146e-06   1.0182992110876788e-06   -4.512769571047341e-06
-4.384066838850146e-06   1.0182992110876788e-06   -4.512769571047341e-06
-2.963389835996968e-06   -2.0133716568955355e-08   -7.775635967178899e-06
-2.963389835996968e-06   -2.0133716568955355e-08   -7.775635967178899e-06
-2.963389835996968e-06   -2.0133716568955355e-08   -7.775635967178899e-06
-2.963389835996968e-06   -2.0133716568955355e-08   -7.775635967178899e-06
-2.01761729225189e-07   2.635024954952673e-08   -3.145032076221502e-06
-2.01761729225189e-07   2.635024954952673e-08   -3.145032076221502e-06
-2.01761729225189e-07   2.635024954952673e-08   -3.145032076221502e-06
-2.01761729225189e-07   2.635024954952673e-08   -3.145032076221502e-06
-2.2652224261134029e-07   2.0159634079143854e-07   -7.69792944439164e-06
-2.2652224261134029e-07   2.0159634079143854e-07   -7.69792944439164e-06
-2.2652224261134029e-07   2.0159634079143854e-07   -7.69792944439164e-06
-2.2652224261134029e-07   2.0159634079143854e-07   -7.69792944439164e-06
-2.9949476695459804e-06   2.2777514378285655e-07   -3.0995943479620904e-06
-2.9949476695459804e-06   2.2777514378285655e-07   -3.0995943479620904e-06
-2.9949476695459804e-06   2.2777514378285655e-07   -3.0995943479620904e-06
-2.9949476695459804e-06   2.2777514378285655e-07   -3.0995943479620904e-06
-1.5871099603877079e-06   1.3369208411049012e-07   -5.389540694089127e-06
-1.5871099603877079e-06   1.3369208411049012e-07   -5.389540694089127e-06
-1.5871099603877079e-06   1.3369208411049012e-07   -5.389540694089127e-06
-1.5871099603877079e-06   1.3369208411049012e-07   -5.389540694089127e-06
-2.9949476695459847e-06   2.0159634079143854e-07   -7.7136367261865e-06
-2.9949476695459847e-06   2.0159634079143854e-07   -7.7136367261865e-06
-2.9949476695459847e-06   2.0159634079143854e-07   -7.7136367261865e-06
-2.9949476695459847e-06   2.0159634079143854e-07   -7.7136367261865e-06
-2.2652224261134029e-07   2.2777514378285655e-07   -3.0838870661672294e-06
-2.2652224261134029e-07   2.2777514378285655e-07   -3.0838870661672294e-06
-2.2652224261134029e-07   2.2777514378285655e-07   -3.0838870661672294e-06
-2.2652224261134029e-07   2.2777514378285655e-07   -3.0838870661672294e-06
-2.428706711472221e-07   4.185770158075729e-07   -7.716563515552416e-06
-2.428706711472221e-07   4.185770158075729e-07   -7.716563515552416e-06
-2.428706711472221e-07   4.185770158075729e-07   -7.716563515552416e-06
-2.428706711472221e-07   4.185770158075729e-07   -7.716563515552416e-06
-3.013882853915816e-06   4.287337746801265e-07   -3.1043039329282866e-06
-3.013882853915816e-06   4.287337746801265e-07   -3.1043039329282866e-06
-3.013882853915816e-06   4.287337746801265e-07   -3.1043039329282866e-06
-3.013882853915816e-06   4.287337746801265e-07   -3.1043039329282866e-06
-1.6203579492599133e-06   3.1167207303154577e-07   -5.35660841969898e-06
-1.6203579492599133e-06   3.1167207303154577e-07   -5.35660841969898e-06
-1.6203579492599133e-06   3.1167207303154577e-07   -5.35660841969898e-06
-1.6203579492599133e-06   3.1167207303154577e-07   -5.35660841969898e-06
-3.013882853915816e-06   4.185770158075729e-07   -7.722657570875948e-06
-3.013882853915816e-06   4.185770158075729e-07   -7.722657570875948e-06
-3.013882853915816e-06   4.185770158075729e-07   -7.722657570875948e-06
-3.013882853915816e-06   4.185770158075729e-07   -7.722657570875948e-06
-2.428706711472221e-07   4.287337746801265e-07   -3.0982098776047464e-06
-2.428706711472221e-07   4.287337746801265e-07   -3.0982098776047464e-06
-2.428706711472221e-07   4.287337746801265e-07   -3.0982098776047464e-06
-2.428706711472221e-07   4.287337746801265e-07   -3.0982098776047464e-06
-2.710848103558039e-07   6.44254849798785e-07   -7.815029473774311e-06
-2.710848103558039e-07   6.44254849798785e-07   -7.815029473774311e-06
-2.710848103558039e-07   6.44254849798785e-07   -7.815029473774311e-06
-2.710848103558039e-07   6.44254849798785e-07   -7.815029473774311e-06
-3.040030013265572e-06   6.342192978065251e-07   -3.1940994710627007e-06
-3.040030013265572e-06   6.342192978065251e-07   -3.1940994710627007e-06
-3.040030013265572e-06   6.342192978065251e-07   -3.1940994710627007e-06
-3.040030013265572e-06   6.342192978065251e-07   -3.1940994710627007e-06
-1.6559263051663942e-06   4.917795499173065e-07   -5.415475135827753e-06
-1.6559263051663942e-06   4.917795499173065e-07   -5.415475135827753e-06
-1.6559263051663942e-06   4.917795499173065e-07   -5.415475135827753e-06
-1.6559263051663942e-06   4.917795499173065e-07   -5.415475135827753e-06
-2.0176172922518932e-07   -6.054846183274607e-07   -6.936965750721365e-06
-2.0176172922518932e-07   -6.054846183274607e-07   -6.936965750721365e-06
-2.0176172922518932e-07   -6.054846183274607e-07   -6.936965750721365e-06
-2.0176172922518932e-07   -6.054846183274607e-07   -6.936965750721365e-06
2.5372972318278172e-06   -3.9826987666094114e-07   -2.247538637299789e-06
2.5372972318278172e-06   -3.9826987666094114e-07   -2.247538637299789e-06
2.5372972318278172e-06   -3.9826987666094114e-07   -2.247538637299789e-06
2.5372972318278172e-06   -3.9826987666094114e-07   -2.247538637299789e-06
2.539760731885555e-06   -4.0216110346868723e-07   -6.849225164782586e-06
2.539760731885555e-06   -4.0216110346868723e-07   -6.849225164782586e-06
2.539760731885555e-06   -4.0216110346868723e-07   -6.849225164782586e-06
2.539760731885555e-06   -4.0216110346868723e-07   -6.849225164782586e-06
-2.2652224261134029e-07   -2.117824712999139e-07   -2.3529807199223564e-06
-2.2652224261134029e-07   -2.117824712999139e-07   -2.3529807199223564e-06
-2.2652224261134029e-07   -2.117824712999139e-07   -2.3529807199223564e-06
-2.2652224261134029e-07   -2.117824712999139e-07   -2.3529807199223564e-06
1.1539547593030347e-06   -3.889147558736798e-07   -4.547496352368722e-06
1.1539547593030347e-06   -3.889147558736798e-07   -4.547496352368722e-06
1.1539547593030347e-06   -3.889147558736798e-07   -4.547496352368722e-06
1.1539547593030347e-06   -3.889147558736798e-07   -4.547496352368722e-06
-2.2652224261134029e-07   -4.0216110346868723e-07   -6.9634523440838455e-06
-2.2652224261134029e-07   -4.0216110346868723e-07   -6.9634523440838455e-06
-2.2652224261134029e-07   -4.0216110346868723e-07   -6.9634523440838455e-06
-2.2652224261134029e-07   -4.0216110346868723e-07   -6.9634523440838455e-06
2.5397607318855583e-06   -2.117824712999139e-07   -2.238753540621104e-06
2.5397607318855583e-06   -2.117824712999139e-07   -2.238753540621104e-06
2.5397607318855583e-06   -2.117824712999139e-07   -2.238753540621104e-06
2.5397607318855583e-06   -2.117824712999139e-07   -2.238753540621104e-06
2.5583471221051517e-06   -2.0415842956332558e-07   -7.024402206001922e-06
2.5583471221051517e-06   -2.0415842956332558e-07   -7.024402206001922e-06
2.5583471221051517e-06   -2.0415842956332558e-07   -7.024402206001922e-06
2.5583471221051517e-06   -2.0415842956332558e-07   -7.024402206001922e-06
-2.4287067114722253e-07   -3.012106765634573e-08   -2.4601283010588235e-06
-2.4287067114722253e-07   -3.012106765634573e-08   -2.4601283010588235e-06
-2.4287067114722253e-07   -3.012106765634573e-08   -2.4601283010588235e-06
-2.4287067114722253e-07   -3.012106765634573e-08   -2.4601283010588235e-06
1.1204421984631503e-06   -2.2764509232618544e-07   -4.613802002274204e-06
1.1204421984631503e-06   -2.2764509232618544e-07   -4.613802002274204e-06
1.1204421984631503e-06   -2.2764509232618544e-07   -4.613802002274204e-06
1.1204421984631503e-06   -2.2764509232618544e-07   -4.613802002274204e-06
-2.428706711472221e-07   -2.0415842956332558e-07   -7.128824623146113e-06
-2.428706711472221e-07   -2.0415842956332558e-07   -7.128824623146113e-06
-2.428706711472221e-07   -2.0415842956332558e-07   -7.128824623146113e-06
-2.428706711472221e-07   -2.0415842956332558e-07   -7.128824623146113e-06
2.5583471221051568e-06   -3.012106765634573e-08   -2.3557058839146207e-06
2.5583471221051568e-06   -3.012106765634573e-08   -2.3557058839146207e-06
2.5583471221051568e-06   -3.012106765634573e-08   -2.3557058839146207e-06
2.5583471221051568e-06   -3.012106765634573e-08   -2.3557058839146207e-06
2.5437512596776403e-06   3.929459664857998e-08   -7.228599538137143e-06
2.5437512596776403e-06   3.929459664857998e-08   -7.228599538137143e-06
2.5437512596776403e-06   3.929459664857998e-08   -7.228599538137143e-06
2.5437512596776403e-06   3.929459664857998e-08   -7.228599538137143e-06
-2.7108481035580444e-07   1.8062003339873033e-07   -2.6220013501315032e-06
-2.7108481035580444e-07   1.8062003339873033e-07   -2.6220013501315032e-06
-2.7108481035580444e-07   1.8062003339873033e-07   -2.6220013501315032e-06
-2.7108481035580444e-07   1.8062003339873033e-07   -2.6220013501315032e-06
1.1111665555888628e-06   -5.6483960404450244e-08   -4.783491230424015e-06
1.1111665555888628e-06   -5.6483960404450244e-08   -4.783491230424015e-06
1.1111665555888628e-06   -5.6483960404450244e-08   -4.783491230424015e-06
1.1111665555888628e-06   -5.6483960404450244e-08   -4.783491230424015e-06
2.537297231827812e-06   -1.1165288556287445e-06   -3.859068169293017e-06
2.537297231827812e-06   -1.1165288556287445e-06   -3.859068169293017e-06
2.537297231827812e-06   -1.1165288556287445e-06   -3.859068169293017e-06
2.537297231827812e-06   -1.1165288556287445e-06   -3.859068169293017e-06
5.067264018803772e-06   -7.104970415768404e-07   6.01162230764741e-07
5.067264018803772e-06   -7.104970415768404e-07   6.01162230764741e-07
5.067264018803772e-06   -7.104970415768404e-07   6.01162230764741e-07
5.067264018803772e-06   -7.104970415768404e-07   6.01162230764741e-07
5.255397561487569e-06   -1.0041020713240552e-06   -4.305286678226121e-06
5.255397561487569e-06   -1.0041020713240552e-06   -4.305286678226121e-06
5.255397561487569e-06   -1.0041020713240552e-06   -4.305286678226121e-06
5.255397561487569e-06   -1.0041020713240552e-06   -4.305286678226121e-06
2.539760731885555e-06   -6.001093226140728e-07   -2.1620944782078743e-08
2.539760731885555e-06   -6.001093226140728e-07   -2.1620944782078743e-08
2.539760731885555e-06   -6.001093226140728e-07   -2.1620944782078743e-08
2.539760731885555e-06   -6.001093226140728e-07   -2.1620944782078743e-08
3.685694884901152e-06   -8.470183549302742e-07   -1.7833657804183607e-06
3.685694884901152e-06   -8.470183549302742e-07   -1.7833657804183607e-06
3.685694884901152e-06   -8.470183549302742e-07   -1.7833657804183607e-06
3.685694884901152e-06   -8.470183549302742e-07   -1.7833657804183607e-06
2.5397607318855515e-06   -1.0041020713240552e-06   -4.54768232745209e-06
2.5397607318855515e-06   -1.0041020713240552e-06   -4.54768232745209e-06
2.5397607318855515e-06   -1.0041020713240552e-06   -4.54768232745209e-06
2.5397607318855515e-06   -1.0041020713240552e-06   -4.54768232745209e-06
5.255397561487569e-06   -6.001093226140863e-07   2.207747044439141e-07
5.255397561487569e-06   -6.001093226140863e-07   2.207747044439141e-07
5.255397561487569e-06   -6.001093226140863e-07   2.207747044439141e-07
5.255397561487569e-06   -6.001093226140863e-07   2.207747044439141e-07
5.403330751495137e-06   -8.903982066399711e-07   -4.84516819953158e-06
5.403330751495137e-06   -8.903982066399711e-07   -4.84516819953158e-06
5.403330751495137e-06   -8.903982066399711e-07   -4.84516819953158e-06
5.403330751495137e-06   -8.903982066399711e-07   -4.84516819953158e-06
2.5583471221051483e-06   -5.087932624076139e-07   -3.3249178375434736e-07
2.5583471221051483e-06   -5.087932624076139e-07   -3.3249178375434736e-07
2.5583471221051483e-06   -5.087932624076139e-07   -3.3249178375434736e-07
2.5583471221051483e-06   -5.087932624076139e-07   -3.3249178375434736e-07
3.820693961186717e-06   -7.76122308760407e-07   -2.276005754411949e-06
3.820693961186717e-06   -7.76122308760407e-07   -2.276005754411949e-06
3.820693961186717e-06   -7.76122308760407e-07   -2.276005754411949e-06
3.820693961186717e-06   -7.76122308760407e-07   -2.276005754411949e-06
2.5583471221051517e-06   -8.903982066399711e-07   -5.0741311660709915e-06
2.5583471221051517e-06   -8.903982066399711e-07   -5.0741311660709915e-06
2.5583471221051517e-06   -8.903982066399711e-07   -5.0741311660709915e-06
2.5583471221051517e-06   -8.903982066399711e-07   -5.0741311660709915e-06
5.403330751495127e-06   -5.087932624076139e-07   -1.0352881721490727e-07
5.403330751495127e-06   -5.087932624076139e-07   -1.0352881721490727e-07
5.403330751495127e-06   -5.087932624076139e-07   -1.0352881721490727e-07
5.403330751495127e-06   -5.087932624076139e-07   -1.0352881721490727e-07
5.563811471509814e-06   -6.465139667144644e-07   -5.77148481407094e-06
5.563811471509814e-06   -6.465139667144644e-07   -5.77148481407094e-06
5.563811471509814e-06   -6.465139667144644e-07   -5.77148481407094e-06
5.563811471509814e-06   -6.465139667144644e-07   -5.77148481407094e-06
2.5437512596776336e-06   -3.164386755446488e-07   -9.360963023858681e-07
2.5437512596776336e-06   -3.164386755446488e-07   -9.360963023858681e-07
2.5437512596776336e-06   -3.164386755446488e-07   -9.360963023858681e-07
2.5437512596776336e-06   -3.164386755446488e-07   -9.360963023858681e-07
3.814445110961155e-06   -6.644891659928706e-07   -2.8450890935894615e-06
3.814445110961155e-06   -6.644891659928706e-07   -2.8450890935894615e-06
3.814445110961155e-06   -6.644891659928706e-07   -2.8450890935894615e-06
3.814445110961155e-06   -6.644891659928706e-07   -2.8450890935894615e-06
-6.150671708091893e-06   9.502058877690827e-07   -4.755541871406562e-06
-6.150671708091893e-06   9.502058877690827e-07   -4.755541871406562e-06
-6.150671708091893e-06   9.502058877690827e-07   -4.755541871406562e-06
-6.150671708091893e-06   9.502058877690827e-07   -4.755541871406562e-06
-4.23360378773369e-06   5.932483656148168e-07   -1.7746031841021175e-06
-4.23360378773369e-06   5.932483656148168e-07   -1.7746031841021175e-06
-4.23360378773369e-06   5.932483656148168e-07   -1.7746031841021175e-06
-4.23360378773369e-06   5.932483656148168e-07   -1.7746031841021175e-06
-4.21729491719327e-06   1.1559392167157786e-06   -4.042232305108865e-06
-4.21729491719327e-06   1.1559392167157786e-06   -4.042232305108865e-06
-4.21729491719327e-06   1.1559392167157786e-06   -4.042232305108865e-06
-4.21729491719327e-06   1.1559392167157786e-06   -4.042232305108865e-06
-5.955814029736426e-06   7.609983394570692e-07   -9.077359245150563e-07
-5.955814029736426e-06   7.609983394570692e-07   -9.077359245150563e-07
-5.955814029736426e-06   7.609983394570692e-07   -9.077359245150563e-07
-5.955814029736426e-06   7.609983394570692e-07   -9.077359245150563e-07
-4.921029620727386e-06   9.170702688371881e-07   -2.7260197638248564e-06
-4.921029620727386e-06   9.170702688371881e-07   -2.7260197638248564e-06
-4.921029620727386e-06   9.170702688371881e-07   -2.7260197638248564e-06
-4.921029620727386e-06   9.170702688371881e-07   -2.7260197638248564e-06
-5.955814029736426e-06   1.1559392167157786e-06   -3.8052677787536404e-06
-5.955814029736426e-06   1.1559392167157786e-06   -3.8052677787536404e-06
-5.955814029736426e-06   1.1559392167157786e-06   -3.8052677787536404e-06
-5.955814029736426e-06   1.1559392167157786e-06   -3.8052677787536404e-06
-4.217294917193277e-06   7.609983394570692e-07   -1.1447004508702827e-06
-4.217294917193277e-06   7.609983394570692e-07   -1.1447004508702827e-06
-4.217294917193277e-06   7.609983394570692e-07   -1.1447004508702827e-06
-4.217294917193277e-06   7.609983394570692e-07   -1.1447004508702827e-06
-4.184705135807877e-06   1.2474557095963303e-06   -3.525624339455641e-06
-4.184705135807877e-06   1.2474557095963303e-06   -3.525624339455641e-06
-4.184705135807877e-06   1.2474557095963303e-06   -3.525624339455641e-06
-4.184705135807877e-06   1.2474557095963303e-06   -3.525624339455641e-06
-5.8120718901749836e-06   8.407293137248215e-07   -5.693105779875705e-07
-5.8120718901749836e-06   8.407293137248215e-07   -5.693105779875705e-07
-5.8120718901749836e-06   8.407293137248215e-07   -5.693105779875705e-07
-5.8120718901749836e-06   8.407293137248215e-07   -5.693105779875705e-07
-4.917714375577316e-06   1.0109969759187172e-06   -2.1620670329666957e-06
-4.917714375577316e-06   1.0109969759187172e-06   -2.1620670329666957e-06
-4.917714375577316e-06   1.0109969759187172e-06   -2.1620670329666957e-06
-4.917714375577316e-06   1.0109969759187172e-06   -2.1620670329666957e-06
-5.8120718901749836e-06   1.2474557095963303e-06   -3.281588501932744e-06
-5.8120718901749836e-06   1.2474557095963303e-06   -3.281588501932744e-06
-5.8120718901749836e-06   1.2474557095963303e-06   -3.281588501932744e-06
-5.8120718901749836e-06   1.2474557095963303e-06   -3.281588501932744e-06
-4.184705135807887e-06   8.407293137248215e-07   -8.133464155104659e-07
-4.184705135807887e-06   8.407293137248215e-07   -8.133464155104659e-07
-4.184705135807887e-06   8.407293137248215e-07   -8.133464155104659e-07
-4.184705135807887e-06   8.407293137248215e-07   -8.133464155104659e-07
-4.172912653008085e-06   1.3412360776732246e-06   -2.8163689390403644e-06
-4.172912653008085e-06   1.3412360776732246e-06   -2.8163689390403644e-06
-4.172912653008085e-06   1.3412360776732246e-06   -2.8163689390403644e-06
-4.172912653008085e-06   1.3412360776732246e-06   -2.8163689390403644e-06
-5.6262280720391225e-06   9.434053337359978e-07   -1.5547812762628472e-07
-5.6262280720391225e-06   9.434053337359978e-07   -1.5547812762628472e-07
-5.6262280720391225e-06   9.434053337359978e-07   -1.5547812762628472e-07
-5.6262280720391225e-06   9.434053337359978e-07   -1.5547812762628472e-07
-4.770320985544395e-06   1.064886401469716e-06   -1.6548785790910539e-06
-4.770320985544395e-06   1.064886401469716e-06   -1.6548785790910539e-06
-4.770320985544395e-06   1.064886401469716e-06   -1.6548785790910539e-06
-4.770320985544395e-06   1.064886401469716e-06   -1.6548785790910539e-06
-4.233603787733683e-06   4.783129438757603e-07   -6.159645728382863e-06
-4.233603787733683e-06   4.783129438757603e-07   -6.159645728382863e-06
-4.233603787733683e-06   4.783129438757603e-07   -6.159645728382863e-06
-4.233603787733683e-06   4.783129438757603e-07   -6.159645728382863e-06
-2.481764737742309e-06   3.1419967203966906e-07   -3.338381941498896e-06
-2.481764737742309e-06   3.1419967203966906e-07   -3.338381941498896e-06
-2.481764737742309e-06   3.1419967203966906e-07   -3.338381941498896e-06
-2.481764737742309e-06   3.1419967203966906e-07   -3.338381941498896e-06
-2.483410712507127e-06   6.816111693956395e-07   -6.1029278017178765e-06
-2.483410712507127e-06   6.816111693956395e-07   -6.1029278017178765e-06
-2.483410712507127e-06   6.816111693956395e-07   -6.1029278017178765e-06
-2.483410712507127e-06   6.816111693956395e-07   -6.1029278017178765e-06
-4.21729491719327e-06   4.923775996599084e-07   -3.099580652066229e-06
-4.21729491719327e-06   4.923775996599084e-07   -3.099580652066229e-06
-4.21729491719327e-06   4.923775996599084e-07   -3.099580652066229e-06
-4.21729491719327e-06   4.923775996599084e-07   -3.099580652066229e-06
-3.3227213615303674e-06   5.278217494397247e-07   -4.61180306803896e-06
-3.3227213615303674e-06   5.278217494397247e-07   -4.61180306803896e-06
-3.3227213615303674e-06   5.278217494397247e-07   -4.61180306803896e-06
-3.3227213615303674e-06   5.278217494397247e-07   -4.61180306803896e-06
-4.217294917193267e-06   6.816111693956395e-07   -5.989387659876445e-06
-4.217294917193267e-06   6.816111693956395e-07   -5.989387659876445e-06
-4.217294917193267e-06   6.816111693956395e-07   -5.989387659876445e-06
-4.217294917193267e-06   6.816111693956395e-07   -5.989387659876445e-06
-2.483410712507127e-06   4.923775996599084e-07   -3.2131207939076535e-06
-2.483410712507127e-06   4.923775996599084e-07   -3.2131207939076535e-06
-2.483410712507127e-06   4.923775996599084e-07   -3.2131207939076535e-06
-2.483410712507127e-06   4.923775996599084e-07   -3.2131207939076535e-06
-2.4822257521513554e-06   8.636511386438529e-07   -5.96655347476178e-06
-2.4822257521513554e-06   8.636511386438529e-07   -5.96655347476178e-06
-2.4822257521513554e-06   8.636511386438529e-07   -5.96655347476178e-06
-2.4822257521513554e-06   8.636511386438529e-07   -5.96655347476178e-06
-4.184705135807877e-06   6.560784287481847e-07   -3.004544209396853e-06
-4.184705135807877e-06   6.560784287481847e-07   -3.004544209396853e-06
-4.184705135807877e-06   6.560784287481847e-07   -3.004544209396853e-06
-4.184705135807877e-06   6.560784287481847e-07   -3.004544209396853e-06
-3.307984173857811e-06   6.756147504639296e-07   -4.477467605676364e-06
-3.307984173857811e-06   6.756147504639296e-07   -4.477467605676364e-06
-3.307984173857811e-06   6.756147504639296e-07   -4.477467605676364e-06
-3.307984173857811e-06   6.756147504639296e-07   -4.477467605676364e-06
-4.184705135807877e-06   8.636511386438529e-07   -5.842009848824385e-06
-4.184705135807877e-06   8.636511386438529e-07   -5.842009848824385e-06
-4.184705135807877e-06   8.636511386438529e-07   -5.842009848824385e-06
-4.184705135807877e-06   8.636511386438529e-07   -5.842009848824385e-06
-2.4822257521513554e-06   6.560784287481847e-07   -3.1290878353342276e-06
-2.4822257521513554e-06   6.560784287481847e-07   -3.1290878353342276e-06
-2.4822257521513554e-06   6.560784287481847e-07   -3.1290878353342276e-06
-2.4822257521513554e-06   6.560784287481847e-07   -3.1290878353342276e-06
-2.4851758719587343e-06   1.0588057096517768e-06   -5.991149014510276e-06
-2.4851758719587343e-06   1.0588057096517768e-06   -5.991149014510276e-06
-2.4851758719587343e-06   1.0588057096517768e-06   -5.991149014510276e-06
-2.4851758719587343e-06   1.0588057096517768e-06   -5.991149014510276e-06
-4.1729126530080785e-06   8.354964465570418e-07   -3.0442688215711637e-06
-4.1729126530080785e-06   8.354964465570418e-07   -3.0442688215711637e-06
-4.1729126530080785e-06   8.354964465570418e-07   -3.0442688215711637e-06
-4.1729126530080785e-06   8.354964465570418e-07   -3.0442688215711637e-06
-3.330091920309472e-06   8.234774983711403e-07   -4.441758673823992e-06
-3.330091920309472e-06   8.234774983711403e-07   -4.441758673823992e-06
-3.330091920309472e-06   8.234774983711403e-07   -4.441758673823992e-06
-3.330091920309472e-06   8.234774983711403e-07   -4.441758673823992e-06
-2.4817647377423143e-06   2.635024954952673e-08   -6.818923480113071e-06
-2.4817647377423143e-06   2.635024954952673e-08   -6.818923480113071e-06
-2.4817647377423143e-06   2.635024954952673e-08   -6.818923480113071e-06
-2.4817647377423143e-06   2.635024954952673e-08   -6.818923480113071e-06
-7.473800888262993e-07   5.876085100554949e-08   -3.908836037712777e-06
-7.473800888262993e-07   5.876085100554949e-08   -3.908836037712777e-06
-7.473800888262993e-07   5.876085100554949e-08   -3.908836037712777e-06
-7.473800888262993e-07   5.876085100554949e-08   -3.908836037712777e-06
-7.49542466382397e-07   2.2777514378285655e-07   -6.738477701231188e-06
-7.49542466382397e-07   2.2777514378285655e-07   -6.738477701231188e-06
-7.49542466382397e-07   2.2777514378285655e-07   -6.738477701231188e-06
-7.49542466382397e-07   2.2777514378285655e-07   -6.738477701231188e-06
-2.483410712507127e-06   2.395480122647538e-07   -3.855761012112413e-06
-2.483410712507127e-06   2.395480122647538e-07   -3.855761012112413e-06
-2.483410712507127e-06   2.395480122647538e-07   -3.855761012112413e-06
-2.483410712507127e-06   2.395480122647538e-07   -3.855761012112413e-06
-1.604408863064477e-06   1.6286545962921072e-07   -5.274754562935532e-06
-1.604408863064477e-06   1.6286545962921072e-07   -5.274754562935532e-06
-1.604408863064477e-06   1.6286545962921072e-07   -5.274754562935532e-06
-1.604408863064477e-06   1.6286545962921072e-07   -5.274754562935532e-06
-2.483410712507132e-06   2.2777514378285655e-07   -6.745541422320313e-06
-2.483410712507132e-06   2.2777514378285655e-07   -6.745541422320313e-06
-2.483410712507132e-06   2.2777514378285655e-07   -6.745541422320313e-06
-2.483410712507132e-06   2.2777514378285655e-07   -6.745541422320313e-06
-7.49542466382397e-07   2.3954801226476734e-07   -3.8486972910232965e-06
-7.49542466382397e-07   2.3954801226476734e-07   -3.8486972910232965e-06
-7.49542466382397e-07   2.3954801226476734e-07   -3.8486972910232965e-06
-7.49542466382397e-07   2.3954801226476734e-07   -3.8486972910232965e-06
-7.477352360251125e-07   4.287337746801265e-07   -6.753615842421426e-06
-7.477352360251125e-07   4.287337746801265e-07   -6.753615842421426e-06
-7.477352360251125e-07   4.287337746801265e-07   -6.753615842421426e-06
-7.477352360251125e-07   4.287337746801265e-07   -6.753615842421426e-06
-2.4822257521513554e-06   4.2093898408937513e-07   -3.858121441189918e-06
-2.4822257521513554e-06   4.2093898408937513e-07   -3.858121441189918e-06
-2.4822257521513554e-06   4.2093898408937513e-07   -3.858121441189918e-06
-2.4822257521513554e-06   4.2093898408937513e-07   -3.858121441189918e-06
-1.6157283752624571e-06   3.219574452481647e-07   -5.242894812700016e-06
-1.6157283752624571e-06   3.219574452481647e-07   -5.242894812700016e-06
-1.6157283752624571e-06   3.219574452481647e-07   -5.242894812700016e-06
-1.6157283752624571e-06   3.219574452481647e-07   -5.242894812700016e-06
-2.4822257521513554e-06   4.287337746801265e-07   -6.7489389680669814e-06
-2.4822257521513554e-06   4.287337746801265e-07   -6.7489389680669814e-06
-2.4822257521513554e-06   4.287337746801265e-07   -6.7489389680669814e-06
-2.4822257521513554e-06   4.287337746801265e-07   -6.7489389680669814e-06
-7.477352360251125e-07   4.2093898408937513e-07   -3.8627983155443445e-06
-7.477352360251125e-07   4.2093898408937513e-07   -3.8627983155443445e-06
-7.477352360251125e-07   4.2093898408937513e-07   -3.8627983155443445e-06
-7.477352360251125e-07   4.2093898408937513e-07   -3.8627983155443445e-06
-7.491653369271217e-07   6.342192978065386e-07   -6.8551809641331316e-06
-7.491653369271217e-07   6.342192978065386e-07   -6.8551809641331316e-06
-7.491653369271217e-07   6.342192978065386e-07   -6.8551809641331316e-06
-7.491653369271217e-07   6.342192978065386e-07   -6.8551809641331316e-06
-2.485175871958736e-06   6.055004624650471e-07   -3.944598771208873e-06
-2.485175871958736e-06   6.055004624650471e-07   -3.944598771208873e-06
-2.485175871958736e-06   6.055004624650471e-07   -3.944598771208873e-06
-2.485175871958736e-06   6.055004624650471e-07   -3.944598771208873e-06
-1.6301715074992363e-06   4.831525477437464e-07   -5.296197296475264e-06
-1.6301715074992363e-06   4.831525477437464e-07   -5.296197296475264e-06
-1.6301715074992363e-06   4.831525477437464e-07   -5.296197296475264e-06
-1.6301715074992363e-06   4.831525477437464e-07   -5.296197296475264e-06
-7.47380088826298e-07   -3.9826987666094114e-07   -6.02631252531765e-06
-7.47380088826298e-07   -3.9826987666094114e-07   -6.02631252531765e-06
-7.47380088826298e-07   -3.9826987666094114e-07   -6.02631252531765e-06
-7.47380088826298e-07   -3.9826987666094114e-07   -6.02631252531765e-06
9.511132355270611e-07   -1.7354013644685395e-07   -3.060652473933621e-06
9.511132355270611e-07   -1.7354013644685395e-07   -3.060652473933621e-06
9.511132355270611e-07   -1.7354013644685395e-07   -3.060652473933621e-06
9.511132355270611e-07   -1.7354013644685395e-07   -3.060652473933621e-06
9.645989664607697e-07   -2.117824712999139e-07   -5.881459887695085e-06
9.645989664607697e-07   -2.117824712999139e-07   -5.881459887695085e-06
9.645989664607697e-07   -2.117824712999139e-07   -5.881459887695085e-06
9.645989664607697e-07   -2.117824712999139e-07   -5.881459887695085e-06
-7.495424663823957e-07   -1.5966924811938905e-09   -3.1506689669143632e-06
-7.495424663823957e-07   -1.5966924811938905e-09   -3.1506689669143632e-06
-7.495424663823957e-07   -1.5966924811938905e-09   -3.1506689669143632e-06
-7.495424663823957e-07   -1.5966924811938905e-09   -3.1506689669143632e-06
1.0717670351203511e-07   -1.803358223360666e-07   -4.471290772158831e-06
1.0717670351203511e-07   -1.803358223360666e-07   -4.471290772158831e-06
1.0717670351203511e-07   -1.803358223360666e-07   -4.471290772158831e-06
1.0717670351203511e-07   -1.803358223360666e-07   -4.471290772158831e-06
-7.49542466382397e-07   -2.117824712999139e-07   -6.007571354986311e-06
-7.49542466382397e-07   -2.117824712999139e-07   -6.007571354986311e-06
-7.49542466382397e-07   -2.117824712999139e-07   -6.007571354986311e-06
-7.49542466382397e-07   -2.117824712999139e-07   -6.007571354986311e-06
9.645989664607714e-07   -1.596692481207443e-09   -3.024557499623157e-06
9.645989664607714e-07   -1.596692481207443e-09   -3.024557499623157e-06
9.645989664607714e-07   -1.596692481207443e-09   -3.024557499623157e-06
9.645989664607714e-07   -1.596692481207443e-09   -3.024557499623157e-06
9.990610582823943e-07   -3.012106765634573e-08   -6.000091974798156e-06
9.990610582823943e-07   -3.012106765634573e-08   -6.000091974798156e-06
9.990610582823943e-07   -3.012106765634573e-08   -6.000091974798156e-06
9.990610582823943e-07   -3.012106765634573e-08   -6.000091974798156e-06
-7.477352360251111e-07   1.6228275080589893e-07   -3.2042071086963074e-06
-7.477352360251111e-07   1.6228275080589893e-07   -3.2042071086963074e-06
-7.477352360251111e-07   1.6228275080589893e-07   -3.2042071086963074e-06
-7.477352360251111e-07   1.6228275080589893e-07   -3.2042071086963074e-06
9.675646404398315e-08   -3.6933308471296473e-08   -4.492163639911836e-06
9.675646404398315e-08   -3.6933308471296473e-08   -4.492163639911836e-06
9.675646404398315e-08   -3.6933308471296473e-08   -4.492163639911836e-06
9.675646404398315e-08   -3.6933308471296473e-08   -4.492163639911836e-06
-7.477352360251125e-07   -3.012106765634573e-08   -6.115534265875496e-06
-7.477352360251125e-07   -3.012106765634573e-08   -6.115534265875496e-06
-7.477352360251125e-07   -3.012106765634573e-08   -6.115534265875496e-06
-7.477352360251125e-07   -3.012106765634573e-08   -6.115534265875496e-06
9.99061058282396e-07   1.6228275080589893e-07   -3.0887648176189673e-06
9.99061058282396e-07   1.6228275080589893e-07   -3.0887648176189673e-06
9.99061058282396e-07   1.6228275080589893e-07   -3.0887648176189673e-06
9.99061058282396e-07   1.6228275080589893e-07   -3.0887648176189673e-06
1.0166088336444226e-06   1.8062003339871678e-07   -6.176397911162878e-06
1.0166088336444226e-06   1.8062003339871678e-07   -6.176397911162878e-06
1.0166088336444226e-06   1.8062003339871678e-07   -6.176397911162878e-06
1.0166088336444226e-06   1.8062003339871678e-07   -6.176397911162878e-06
-7.491653369271217e-07   3.483927014715784e-07   -3.3341045610539872e-06
-7.491653369271217e-07   3.483927014715784e-07   -3.3341045610539872e-06
-7.491653369271217e-07   3.483927014715784e-07   -3.3341045610539872e-06
-7.491653369271217e-07   3.483927014715784e-07   -3.3341045610539872e-06
1.0197219852384264e-07   1.1470922370341262e-07   -4.612457033478038e-06
1.0197219852384264e-07   1.1470922370341262e-07   -4.612457033478038e-06
1.0197219852384264e-07   1.1470922370341262e-07   -4.612457033478038e-06
1.0197219852384264e-07   1.1470922370341262e-07   -4.612457033478038e-06
9.511132355270594e-07   -7.10497041576854e-07   -3.2863929015558154e-06
9.511132355270594e-07   -7.10497041576854e-07   -3.2863929015558154e-06
9.511132355270594e-07   -7.10497041576854e-07   -3.2863929015558154e-06
9.511132355270594e-07   -7.10497041576854e-07   -3.2863929015558154e-06
2.4196954801269038e-06   -3.093941152620592e-07   -5.980940714338397e-07
2.4196954801269038e-06   -3.093941152620592e-07   -5.980940714338397e-07
2.4196954801269038e-06   -3.093941152620592e-07   -5.980940714338397e-07
2.4196954801269038e-06   -3.093941152620592e-07   -5.980940714338397e-07
2.608351120185213e-06   -6.001093226140728e-07   -3.418733245718839e-06
2.608351120185213e-06   -6.001093226140728e-07   -3.418733245718839e-06
2.608351120185213e-06   -6.001093226140728e-07   -3.418733245718839e-06
2.608351120185213e-06   -6.001093226140728e-07   -3.418733245718839e-06
9.645989664607697e-07   -1.9078591238536492e-07   -9.247403689819896e-07
9.645989664607697e-07   -1.9078591238536492e-07   -9.247403689819896e-07
9.645989664607697e-07   -1.9078591238536492e-07   -9.247403689819896e-07
9.645989664607697e-07   -1.9078591238536492e-07   -9.247403689819896e-07
1.6619146874126242e-06   -4.383159954437921e-07   -1.93841518740003e-06
1.6619146874126242e-06   -4.383159954437921e-07   -1.93841518740003e-06
1.6619146874126242e-06   -4.383159954437921e-07   -1.93841518740003e-06
1.6619146874126242e-06   -4.383159954437921e-07   -1.93841518740003e-06
9.64598966460768e-07   -6.001093226140728e-07   -3.664327291856056e-06
9.64598966460768e-07   -6.001093226140728e-07   -3.664327291856056e-06
9.64598966460768e-07   -6.001093226140728e-07   -3.664327291856056e-06
9.64598966460768e-07   -6.001093226140728e-07   -3.664327291856056e-06
2.6083511201852063e-06   -1.9078591238536492e-07   -6.791463228447621e-07
2.6083511201852063e-06   -1.9078591238536492e-07   -6.791463228447621e-07
2.6083511201852063e-06   -1.9078591238536492e-07   -6.791463228447621e-07
2.6083511201852063e-06   -1.9078591238536492e-07   -6.791463228447621e-07
2.7552917634764463e-06   -5.087932624076274e-07   -3.7380916435999256e-06
2.7552917634764463e-06   -5.087932624076274e-07   -3.7380916435999256e-06
2.7552917634764463e-06   -5.087932624076274e-07   -3.7380916435999256e-06
2.7552917634764463e-06   -5.087932624076274e-07   -3.7380916435999256e-06
9.99061058282396e-07   -1.1081621067772377e-07   -1.0498266993144695e-06
9.99061058282396e-07   -1.1081621067772377e-07   -1.0498266993144695e-06
9.99061058282396e-07   -1.1081621067772377e-07   -1.0498266993144695e-06
9.99061058282396e-07   -1.1081621067772377e-07   -1.0498266993144695e-06
1.7737669843589568e-06   -3.7653719504841815e-07   -2.181570652152971e-06
1.7737669843589568e-06   -3.7653719504841815e-07   -2.181570652152971e-06
1.7737669843589568e-06   -3.7653719504841815e-07   -2.181570652152971e-06
1.7737669843589568e-06   -3.7653719504841815e-07   -2.181570652152971e-06
9.990610582823943e-07   -5.087932624076274e-07   -3.976877874637869e-06
9.990610582823943e-07   -5.087932624076274e-07   -3.976877874637869e-06
9.990610582823943e-07   -5.087932624076274e-07   -3.976877874637869e-06
9.990610582823943e-07   -5.087932624076274e-07   -3.976877874637869e-06
2.7552917634764395e-06   -1.1081621067772377e-07   -8.110404682765056e-07
2.7552917634764395e-06   -1.1081621067772377e-07   -8.110404682765056e-07
2.7552917634764395e-06   -1.1081621067772377e-07   -8.110404682765056e-07
2.7552917634764395e-06   -1.1081621067772377e-07   -8.110404682765056e-07
2.9530183465204736e-06   -3.1643867554463525e-07   -4.359765226703963e-06
2.9530183465204736e-06   -3.1643867554463525e-07   -4.359765226703963e-06
2.9530183465204736e-06   -3.1643867554463525e-07   -4.359765226703963e-06
2.9530183465204736e-06   -3.1643867554463525e-07   -4.359765226703963e-06
1.0166088336444243e-06   4.276615572767074e-08   -1.3479389373405627e-06
1.0166088336444243e-06   4.276615572767074e-08   -1.3479389373405627e-06
1.0166088336444243e-06   4.276615572767074e-08   -1.3479389373405627e-06
1.0166088336444243e-06   4.276615572767074e-08   -1.3479389373405627e-06
1.8169438077762063e-06   -2.897557217388668e-07   -2.4823174344136454e-06
1.8169438077762063e-06   -2.897557217388668e-07   -2.4823174344136454e-06
1.8169438077762063e-06   -2.897557217388668e-07   -2.4823174344136454e-06
1.8169438077762063e-06   -2.897557217388668e-07   -2.4823174344136454e-06
-3.6195193286012346e-06   5.932483656148168e-07   -3.461230806308588e-06
-3.6195193286012346e-06   5.932483656148168e-07   -3.461230806308588e-06
-3.6195193286012346e-06   5.932483656148168e-07   -3.461230806308588e-06
-3.6195193286012346e-06   5.932483656148168e-07   -3.461230806308588e-06
-2.733402867929828e-06   2.3154583966622294e-07   -2.2013915540920685e-06
-2.733402867929828e-06   2.3154583966622294e-07   -2.2013915540920685e-06
-2.733402867929828e-06   2.3154583966622294e-07   -2.2013915540920685e-06
-2.733402867929828e-06   2.3154583966622294e-07   -2.2013915540920685e-06
-2.696575095516872e-06   7.609983394570692e-07   -3.053823614461421e-06
-2.696575095516872e-06   7.609983394570692e-07   -3.053823614461421e-06
-2.696575095516872e-06   7.609983394570692e-07   -3.053823614461421e-06
-2.696575095516872e-06   7.609983394570692e-07   -3.053823614461421e-06
-3.415340994448993e-06   3.6895523482116817e-07   -1.6206545867929743e-06
-3.415340994448993e-06   3.6895523482116817e-07   -1.6206545867929743e-06
-3.415340994448993e-06   3.6895523482116817e-07   -1.6206545867929743e-06
-3.415340994448993e-06   3.6895523482116817e-07   -1.6206545867929743e-06
-2.984367924051391e-06   5.341868790538292e-07   -2.4380820239953934e-06
-2.984367924051391e-06   5.341868790538292e-07   -2.4380820239953934e-06
-2.984367924051391e-06   5.341868790538292e-07   -2.4380820239953934e-06
-2.984367924051391e-06   5.341868790538292e-07   -2.4380820239953934e-06
-3.415340994448993e-06   7.609983394570692e-07   -2.818597751679879e-06
-3.415340994448993e-06   7.609983394570692e-07   -2.818597751679879e-06
-3.415340994448993e-06   7.609983394570692e-07   -2.818597751679879e-06
-3.415340994448993e-06   7.609983394570692e-07   -2.818597751679879e-06
-2.6965750955168753e-06   3.6895523482116817e-07   -1.8558804495745433e-06
-2.6965750955168753e-06   3.6895523482116817e-07   -1.8558804495745433e-06
-2.6965750955168753e-06   3.6895523482116817e-07   -1.8558804495745433e-06
-2.6965750955168753e-06   3.6895523482116817e-07   -1.8558804495745433e-06
-2.642976362163935e-06   8.407293137248215e-07   -2.725475364024699e-06
-2.642976362163935e-06   8.407293137248215e-07   -2.725475364024699e-06
-2.642976362163935e-06   8.407293137248215e-07   -2.725475364024699e-06
-2.642976362163935e-06   8.407293137248215e-07   -2.725475364024699e-06
-3.255500885479369e-06   4.4028031494111565e-07   -1.4643317592287703e-06
-3.255500885479369e-06   4.4028031494111565e-07   -1.4643317592287703e-06
-3.255500885479369e-06   4.4028031494111565e-07   -1.4643317592287703e-06
-3.255500885479369e-06   4.4028031494111565e-07   -1.4643317592287703e-06
-2.93218965019965e-06   6.091074048957551e-07   -2.104480072001082e-06
-2.93218965019965e-06   6.091074048957551e-07   -2.104480072001082e-06
-2.93218965019965e-06   6.091074048957551e-07   -2.104480072001082e-06
-2.93218965019965e-06   6.091074048957551e-07   -2.104480072001082e-06
-3.255500885479369e-06   8.407293137248215e-07   -2.4852059647545094e-06
-3.255500885479369e-06   8.407293137248215e-07   -2.4852059647545094e-06
-3.255500885479369e-06   8.407293137248215e-07   -2.4852059647545094e-06
-3.255500885479369e-06   8.407293137248215e-07   -2.4852059647545094e-06
-2.6429763621639385e-06   4.4028031494111565e-07   -1.7046011584989836e-06
-2.6429763621639385e-06   4.4028031494111565e-07   -1.7046011584989836e-06
-2.6429763621639385e-06   4.4028031494111565e-07   -1.7046011584989836e-06
-2.6429763621639385e-06   4.4028031494111565e-07   -1.7046011584989836e-06
-2.6091786907102947e-06   9.434053337359978e-07   -2.3083507255730878e-06
-2.6091786907102947e-06   9.434053337359978e-07   -2.3083507255730878e-06
-2.6091786907102947e-06   9.434053337359978e-07   -2.3083507255730878e-06
-2.6091786907102947e-06   9.434053337359978e-07   -2.3083507255730878e-06
-3.052705784219131e-06   5.541964106970548e-07   -1.335613549235018e-06
-3.052705784219131e-06   5.541964106970548e-07   -1.335613549235018e-06
-3.052705784219131e-06   5.541964106970548e-07   -1.335613549235018e-06
-3.052705784219131e-06   5.541964106970548e-07   -1.335613549235018e-06
-2.7971941697157407e-06   6.640421942174116e-07   -1.8273737101862145e-06
-2.7971941697157407e-06   6.640421942174116e-07   -1.8273737101862145e-06
-2.7971941697157407e-06   6.640421942174116e-07   -1.8273737101862145e-06
-2.7971941697157407e-06   6.640421942174116e-07   -1.8273737101862145e-06
-2.733402867929828e-06   3.141996720396826e-07   -5.1435631161728775e-06
-2.733402867929828e-06   3.141996720396826e-07   -5.1435631161728775e-06
-2.733402867929828e-06   3.141996720396826e-07   -5.1435631161728775e-06
-2.733402867929828e-06   3.141996720396826e-07   -5.1435631161728775e-06
-2.0059652973577822e-06   1.431801519770782e-07   -4.0337788772570226e-06
-2.0059652973577822e-06   1.431801519770782e-07   -4.0337788772570226e-06
-2.0059652973577822e-06   1.431801519770782e-07   -4.0337788772570226e-06
-2.0059652973577822e-06   1.431801519770782e-07   -4.0337788772570226e-06
-1.9841767850896817e-06   4.92377599659922e-07   -5.123063019542355e-06
-1.9841767850896817e-06   4.92377599659922e-07   -5.123063019542355e-06
-1.9841767850896817e-06   4.92377599659922e-07   -5.123063019542355e-06
-1.9841767850896817e-06   4.92377599659922e-07   -5.123063019542355e-06
-2.6965750955168753e-06   3.0177892651825225e-07   -3.821373298278671e-06
-2.6965750955168753e-06   3.0177892651825225e-07   -3.821373298278671e-06
-2.6965750955168753e-06   3.0177892651825225e-07   -3.821373298278671e-06
-2.6965750955168753e-06   3.0177892651825225e-07   -3.821373298278671e-06
-2.3319813605723326e-06   3.4590408877117093e-07   -4.455504620538105e-06
-2.3319813605723326e-06   3.4590408877117093e-07   -4.455504620538105e-06
-2.3319813605723326e-06   3.4590408877117093e-07   -4.455504620538105e-06
-2.3319813605723326e-06   3.4590408877117093e-07   -4.455504620538105e-06
-2.6965750955168685e-06   4.923775996599084e-07   -5.008703815657329e-06
-2.6965750955168685e-06   4.923775996599084e-07   -5.008703815657329e-06
-2.6965750955168685e-06   4.923775996599084e-07   -5.008703815657329e-06
-2.6965750955168685e-06   4.923775996599084e-07   -5.008703815657329e-06
-1.984176785089685e-06   3.0177892651825225e-07   -3.935732502163684e-06
-1.984176785089685e-06   3.0177892651825225e-07   -3.935732502163684e-06
-1.984176785089685e-06   3.0177892651825225e-07   -3.935732502163684e-06
-1.984176785089685e-06   3.0177892651825225e-07   -3.935732502163684e-06
-1.9597955057597347e-06   6.560784287481847e-07   -5.039812782663537e-06
-1.9597955057597347e-06   6.560784287481847e-07   -5.039812782663537e-06
-1.9597955057597347e-06   6.560784287481847e-07   -5.039812782663537e-06
-1.9597955057597347e-06   6.560784287481847e-07   -5.039812782663537e-06
-2.642976362163942e-06   4.5084572082741887e-07   -3.7780383972373923e-06
-2.642976362163942e-06   4.5084572082741887e-07   -3.7780383972373923e-06
-2.642976362163942e-06   4.5084572082741887e-07   -3.7780383972373923e-06
-2.642976362163942e-06   4.5084572082741887e-07   -3.7780383972373923e-06
-2.3021115503386134e-06   4.75876790866451e-07   -4.361165058969637e-06
-2.3021115503386134e-06   4.75876790866451e-07   -4.361165058969637e-06
-2.3021115503386134e-06   4.75876790866451e-07   -4.361165058969637e-06
-2.3021115503386134e-06   4.75876790866451e-07   -4.361165058969637e-06
-2.642976362163935e-06   6.560784287481711e-07   -4.916673157911068e-06
-2.642976362163935e-06   6.560784287481711e-07   -4.916673157911068e-06
-2.642976362163935e-06   6.560784287481711e-07   -4.916673157911068e-06
-2.642976362163935e-06   6.560784287481711e-07   -4.916673157911068e-06
-1.9597955057597347e-06   4.5084572082741887e-07   -3.901178021989838e-06
-1.9597955057597347e-06   4.5084572082741887e-07   -3.901178021989838e-06
-1.9597955057597347e-06   4.5084572082741887e-07   -3.901178021989838e-06
-1.9597955057597347e-06   4.5084572082741887e-07   -3.901178021989838e-06
-1.939018692966125e-06   8.354964465570418e-07   -5.088913454458655e-06
-1.939018692966125e-06   8.354964465570418e-07   -5.088913454458655e-06
-1.939018692966125e-06   8.354964465570418e-07   -5.088913454458655e-06
-1.939018692966125e-06   8.354964465570418e-07   -5.088913454458655e-06
-2.609178690710305e-06   6.180456443853795e-07   -3.8415096435819946e-06
-2.609178690710305e-06   6.180456443853795e-07   -3.8415096435819946e-06
-2.609178690710305e-06   6.180456443853795e-07   -3.8415096435819946e-06
-2.609178690710305e-06   6.180456443853795e-07   -3.8415096435819946e-06
-2.293520245294784e-06   6.09261406445637e-07   -4.362336509844011e-06
-2.293520245294784e-06   6.09261406445637e-07   -4.362336509844011e-06
-2.293520245294784e-06   6.09261406445637e-07   -4.362336509844011e-06
-2.293520245294784e-06   6.09261406445637e-07   -4.362336509844011e-06
-2.0059652973577754e-06   5.876085100554949e-08   -5.836075285297886e-06
-2.0059652973577754e-06   5.876085100554949e-08   -5.836075285297886e-06
-2.0059652973577754e-06   5.876085100554949e-08   -5.836075285297886e-06
-2.0059652973577754e-06   5.876085100554949e-08   -5.836075285297886e-06
-1.2907700302661938e-06   8.885260745244332e-08   -4.626028119610474e-06
-1.2907700302661938e-06   8.885260745244332e-08   -4.626028119610474e-06
-1.2907700302661938e-06   8.885260745244332e-08   -4.626028119610474e-06
-1.2907700302661938e-06   8.885260745244332e-08   -4.626028119610474e-06
-1.2700917831932727e-06   2.395480122647538e-07   -5.758124956549876e-06
-1.2700917831932727e-06   2.395480122647538e-07   -5.758124956549876e-06
-1.2700917831932727e-06   2.395480122647538e-07   -5.758124956549876e-06
-1.2700917831932727e-06   2.395480122647538e-07   -5.758124956549876e-06
-1.9841767850896817e-06   2.5217848092685285e-07   -4.575561567919732e-06
-1.9841767850896817e-06   2.5217848092685285e-07   -4.575561567919732e-06
-1.9841767850896817e-06   2.5217848092685285e-07   -4.575561567919732e-06
-1.9841767850896817e-06   2.5217848092685285e-07   -4.575561567919732e-06
-1.627042002673289e-06   1.8359487891885846e-07   -5.129636044075709e-06
-1.627042002673289e-06   1.8359487891885846e-07   -5.129636044075709e-06
-1.627042002673289e-06   1.8359487891885846e-07   -5.129636044075709e-06
-1.627042002673289e-06   1.8359487891885846e-07   -5.129636044075709e-06
-1.9841767850896783e-06   2.395480122647538e-07   -5.765703237747112e-06
-1.9841767850896783e-06   2.395480122647538e-07   -5.765703237747112e-06
-1.9841767850896783e-06   2.395480122647538e-07   -5.765703237747112e-06
-1.9841767850896783e-06   2.395480122647538e-07   -5.765703237747112e-06
-1.2700917831932703e-06   2.5217848092682574e-07   -4.5679832867225105e-06
-1.2700917831932703e-06   2.5217848092682574e-07   -4.5679832867225105e-06
-1.2700917831932703e-06   2.5217848092682574e-07   -4.5679832867225105e-06
-1.2700917831932703e-06   2.5217848092682574e-07   -4.5679832867225105e-06
-1.2458178697464735e-06   4.2093898408937513e-07   -5.771297840570942e-06
-1.2458178697464735e-06   4.2093898408937513e-07   -5.771297840570942e-06
-1.2458178697464735e-06   4.2093898408937513e-07   -5.771297840570942e-06
-1.2458178697464735e-06   4.2093898408937513e-07   -5.771297840570942e-06
-1.9597955057597296e-06   4.168532306698101e-07   -4.578883661830404e-06
-1.9597955057597296e-06   4.168532306698101e-07   -4.578883661830404e-06
-1.9597955057597296e-06   4.168532306698101e-07   -4.578883661830404e-06
-1.9597955057597296e-06   4.168532306698101e-07   -4.578883661830404e-06
-1.6148415934136585e-06   3.251487347005077e-07   -5.098784151492292e-06
-1.6148415934136585e-06   3.251487347005077e-07   -5.098784151492292e-06
-1.6148415934136585e-06   3.251487347005077e-07   -5.098784151492292e-06
-1.6148415934136585e-06   3.251487347005077e-07   -5.098784151492292e-06
-1.9597955057597263e-06   4.2093898408937513e-07   -5.768846388519177e-06
-1.9597955057597263e-06   4.2093898408937513e-07   -5.768846388519177e-06
-1.9597955057597263e-06   4.2093898408937513e-07   -5.768846388519177e-06
-1.9597955057597263e-06   4.2093898408937513e-07   -5.768846388519177e-06
-1.2458178697464714e-06   4.168532306698101e-07   -4.581335113882149e-06
-1.2458178697464714e-06   4.168532306698101e-07   -4.581335113882149e-06
-1.2458178697464714e-06   4.168532306698101e-07   -4.581335113882149e-06
-1.2458178697464714e-06   4.168532306698101e-07   -4.581335113882149e-06
-1.2243005331735482e-06   6.055004624650471e-07   -5.86809319641908e-06
-1.2243005331735482e-06   6.055004624650471e-07   -5.86809319641908e-06
-1.2243005331735482e-06   6.055004624650471e-07   -5.86809319641908e-06
-1.2243005331735482e-06   6.055004624650471e-07   -5.86809319641908e-06
-1.9390186929661267e-06   5.8410821216577e-07   -4.664060913251868e-06
-1.9390186929661267e-06   5.8410821216577e-07   -4.664060913251868e-06
-1.9390186929661267e-06   5.8410821216577e-07   -4.664060913251868e-06
-1.9390186929661267e-06   5.8410821216577e-07   -4.664060913251868e-06
-1.60576397297395e-06   4.6861392088096566e-07   -5.150188871801272e-06
-1.60576397297395e-06   4.6861392088096566e-07   -5.150188871801272e-06
-1.60576397297395e-06   4.6861392088096566e-07   -5.150188871801272e-06
-1.60576397297395e-06   4.6861392088096566e-07   -5.150188871801272e-06
-1.2907700302661893e-06   -1.7354013644685395e-07   -5.1046745117790696e-06
-1.2907700302661893e-06   -1.7354013644685395e-07   -5.1046745117790696e-06
-1.2907700302661893e-06   -1.7354013644685395e-07   -5.1046745117790696e-06
-1.2907700302661893e-06   -1.7354013644685395e-07   -5.1046745117790696e-06
-6.09535666184778e-07   5.0193342711227044e-08   -3.835043817481876e-06
-6.09535666184778e-07   5.0193342711227044e-08   -3.835043817481876e-06
-6.09535666184778e-07   5.0193342711227044e-08   -3.835043817481876e-06
-6.09535666184778e-07   5.0193342711227044e-08   -3.835043817481876e-06
-5.762190759783285e-07   -1.5966924811938905e-09   -4.93326741682996e-06
-5.762190759783285e-07   -1.5966924811938905e-09   -4.93326741682996e-06
-5.762190759783285e-07   -1.5966924811938905e-09   -4.93326741682996e-06
-5.762190759783285e-07   -1.5966924811938905e-09   -4.93326741682996e-06
-1.2700917831932703e-06   2.097853335371444e-07   -3.903642120416009e-06
-1.2700917831932703e-06   2.097853335371444e-07   -3.903642120416009e-06
-1.2700917831932703e-06   2.097853335371444e-07   -3.903642120416009e-06
-1.2700917831932703e-06   2.097853335371444e-07   -3.903642120416009e-06
-9.271032341825556e-07   3.751716760540513e-08   -4.371928802541574e-06
-9.271032341825556e-07   3.751716760540513e-08   -4.371928802541574e-06
-9.271032341825556e-07   3.751716760540513e-08   -4.371928802541574e-06
-9.271032341825556e-07   3.751716760540513e-08   -4.371928802541574e-06
-1.270091783193268e-06   -1.5966924811938905e-09   -5.06009663244095e-06
-1.270091783193268e-06   -1.5966924811938905e-09   -5.06009663244095e-06
-1.270091783193268e-06   -1.5966924811938905e-09   -5.06009663244095e-06
-1.270091783193268e-06   -1.5966924811938905e-09   -5.06009663244095e-06
-5.762190759783285e-07   2.097853335371444e-07   -3.776812904805033e-06
-5.762190759783285e-07   2.097853335371444e-07   -3.776812904805033e-06
-5.762190759783285e-07   2.097853335371444e-07   -3.776812904805033e-06
-5.762190759783285e-07   2.097853335371444e-07   -3.776812904805033e-06
-5.228233285336183e-07   1.6228275080589893e-07   -4.994793194602759e-06
-5.228233285336183e-07   1.6228275080589893e-07   -4.994793194602759e-06
-5.228233285336183e-07   1.6228275080589893e-07   -4.994793194602759e-06
-5.228233285336183e-07   1.6228275080589893e-07   -4.994793194602759e-06
-1.2458178697464714e-06   3.5880514933945163e-07   -3.907715731701447e-06
-1.2458178697464714e-06   3.5880514933945163e-07   -3.907715731701447e-06
-1.2458178697464714e-06   3.5880514933945163e-07   -3.907715731701447e-06
-1.2458178697464714e-06   3.5880514933945163e-07   -3.907715731701447e-06
-9.081329570372905e-07   1.6719423062152937e-07   -4.3555573683193465e-06
-9.081329570372905e-07   1.6719423062152937e-07   -4.3555573683193465e-06
-9.081329570372905e-07   1.6719423062152937e-07   -4.3555573683193465e-06
-9.081329570372905e-07   1.6719423062152937e-07   -4.3555573683193465e-06
-1.2458178697464693e-06   1.6228275080589893e-07   -5.112706633722877e-06
-1.2458178697464693e-06   1.6228275080589893e-07   -5.112706633722877e-06
-1.2458178697464693e-06   1.6228275080589893e-07   -5.112706633722877e-06
-1.2458178697464693e-06   1.6228275080589893e-07   -5.112706633722877e-06
-5.2282332853362e-07   3.588051493394245e-07   -3.789802292581329e-06
-5.2282332853362e-07   3.588051493394245e-07   -3.789802292581329e-06
-5.2282332853362e-07   3.588051493394245e-07   -3.789802292581329e-06
-5.2282332853362e-07   3.588051493394245e-07   -3.789802292581329e-06
-4.86209587419182e-07   3.483927014715784e-07   -5.134067768084786e-06
-4.86209587419182e-07   3.483927014715784e-07   -5.134067768084786e-06
-4.86209587419182e-07   3.483927014715784e-07   -5.134067768084786e-06
-4.86209587419182e-07   3.483927014715784e-07   -5.134067768084786e-06
-1.2243005331735482e-06   5.25559229762432e-07   -4.0102161088020205e-06
-1.2243005331735482e-06   5.25559229762432e-07   -4.0102161088020205e-06
-1.2243005331735482e-06   5.25559229762432e-07   -4.0102161088020205e-06
-1.2243005331735482e-06   5.25559229762432e-07   -4.0102161088020205e-06
-8.889893907366206e-07   3.013580645976958e-07   -4.434547313764722e-06
-8.889893907366206e-07   3.013580645976958e-07   -4.434547313764722e-06
-8.889893907366206e-07   3.013580645976958e-07   -4.434547313764722e-06
-8.889893907366206e-07   3.013580645976958e-07   -4.434547313764722e-06
-6.095356661847763e-07   -3.093941152620592e-07   -2.748537777573356e-06
-6.095356661847763e-07   -3.093941152620592e-07   -2.748537777573356e-06
-6.095356661847763e-07   -3.093941152620592e-07   -2.748537777573356e-06
-6.095356661847763e-07   -3.093941152620592e-07   -2.748537777573356e-06
-1.5595380242189503e-07   8.324898043306477e-08   -1.7569821472181559e-06
-1.5595380242189503e-07   8.324898043306477e-08   -1.7569821472181559e-06
-1.5595380242189503e-07   8.324898043306477e-08   -1.7569821472181559e-06
-1.5595380242189503e-07   8.324898043306477e-08   -1.7569821472181559e-06
4.5330202149623593e-08   -1.9078591238536492e-07   -2.5923100573436964e-06
4.5330202149623593e-08   -1.9078591238536492e-07   -2.5923100573436964e-06
4.5330202149623593e-08   -1.9078591238536492e-07   -2.5923100573436964e-06
4.5330202149623593e-08   -1.9078591238536492e-07   -2.5923100573436964e-06
-5.762190759783268e-07   2.111144690231429e-07   -1.79753482264217e-06
-5.762190759783268e-07   2.111144690231429e-07   -1.79753482264217e-06
-5.762190759783268e-07   2.111144690231429e-07   -1.79753482264217e-06
-5.762190759783268e-07   2.111144690231429e-07   -1.79753482264217e-06
-3.1233526789879056e-07   -3.5920980629056034e-08   -2.089119899650148e-06
-3.1233526789879056e-07   -3.5920980629056034e-08   -2.089119899650148e-06
-3.1233526789879056e-07   -3.5920980629056034e-08   -2.089119899650148e-06
-3.1233526789879056e-07   -3.5920980629056034e-08   -2.089119899650148e-06
-5.762190759783251e-07   -1.9078591238536492e-07   -2.8334502861887794e-06
-5.762190759783251e-07   -1.9078591238536492e-07   -2.8334502861887794e-06
-5.762190759783251e-07   -1.9078591238536492e-07   -2.8334502861887794e-06
-5.762190759783251e-07   -1.9078591238536492e-07   -2.8334502861887794e-06
4.533020214962698e-08   2.111144690231158e-07   -1.556394593797087e-06
4.533020214962698e-08   2.111144690231158e-07   -1.556394593797087e-06
4.533020214962698e-08   2.111144690231158e-07   -1.556394593797087e-06
4.533020214962698e-08   2.111144690231158e-07   -1.556394593797087e-06
2.0485308827262053e-07   -1.1081621067772377e-07   -2.7200861453978637e-06
2.0485308827262053e-07   -1.1081621067772377e-07   -2.7200861453978637e-06
2.0485308827262053e-07   -1.1081621067772377e-07   -2.7200861453978637e-06
2.0485308827262053e-07   -1.1081621067772377e-07   -2.7200861453978637e-06
-5.228233285336183e-07   2.8213200748956977e-07   -1.7430610482878307e-06
-5.228233285336183e-07   2.8213200748956977e-07   -1.7430610482878307e-06
-5.228233285336183e-07   2.8213200748956977e-07   -1.7430610482878307e-06
-5.228233285336183e-07   2.8213200748956977e-07   -1.7430610482878307e-06
-2.1562209872769914e-07   2.6833236002103363e-08   -2.1018838350718606e-06
-2.1562209872769914e-07   2.6833236002103363e-08   -2.1018838350718606e-06
-2.1562209872769914e-07   2.6833236002103363e-08   -2.1018838350718606e-06
-2.1562209872769914e-07   2.6833236002103363e-08   -2.1018838350718606e-06
-5.228233285336183e-07   -1.1081621067772377e-07   -2.9558550762982344e-06
-5.228233285336183e-07   -1.1081621067772377e-07   -2.9558550762982344e-06
-5.228233285336183e-07   -1.1081621067772377e-07   -2.9558550762982344e-06
-5.228233285336183e-07   -1.1081621067772377e-07   -2.9558550762982344e-06
2.0485308827262053e-07   2.821320074895969e-07   -1.50729211738746e-06
2.0485308827262053e-07   2.821320074895969e-07   -1.50729211738746e-06
2.0485308827262053e-07   2.821320074895969e-07   -1.50729211738746e-06
2.0485308827262053e-07   2.821320074895969e-07   -1.50729211738746e-06
4.097411931530558e-07   4.276615572767074e-08   -3.0318855396655408e-06
4.097411931530558e-07   4.276615572767074e-08   -3.0318855396655408e-06
4.097411931530558e-07   4.276615572767074e-08   -3.0318855396655408e-06
4.097411931530558e-07   4.276615572767074e-08   -3.0318855396655408e-06
-4.86209587419182e-07   4.0389983164358027e-07   -1.7553144442613184e-06
-4.86209587419182e-07   4.0389983164358027e-07   -1.7553144442613184e-06
-4.86209587419182e-07   4.0389983164358027e-07   -1.7553144442613184e-06
-4.86209587419182e-07   4.0389983164358027e-07   -1.7553144442613184e-06
-1.2554755847451362e-07   9.430094967510902e-08   -2.1706584966547307e-06
-1.2554755847451362e-07   9.430094967510902e-08   -2.1706584966547307e-06
-1.2554755847451362e-07   9.430094967510902e-08   -2.1706584966547307e-06
-1.2554755847451362e-07   9.430094967510902e-08   -2.1706584966547307e-06
-1.1505938015823346e-06   2.3154583966622294e-07   -2.222660800320841e-06
-1.1505938015823346e-06   2.3154583966622294e-07   -2.222660800320841e-06
-1.1505938015823346e-06   2.3154583966622294e-07   -2.222660800320841e-06
-1.1505938015823346e-06   2.3154583966622294e-07   -2.222660800320841e-06
-1.2723781436911822e-06   -1.2387133554794274e-07   -2.6388850089641074e-06
-1.2723781436911822e-06   -1.2387133554794274e-07   -2.6388850089641074e-06
-1.2723781436911822e-06   -1.2387133554794274e-07   -2.6388850089641074e-06
-1.2723781436911822e-06   -1.2387133554794274e-07   -2.6388850089641074e-06
-1.214835649415234e-06   3.6895523482116817e-07   -2.090965253945731e-06
-1.214835649415234e-06   3.6895523482116817e-07   -2.090965253945731e-06
-1.214835649415234e-06   3.6895523482116817e-07   -2.090965253945731e-06
-1.214835649415234e-06   3.6895523482116817e-07   -2.090965253945731e-06
-9.308733556357963e-07   -1.4802952702351211e-08   -2.333980831063998e-06
-9.308733556357963e-07   -1.4802952702351211e-08   -2.333980831063998e-06
-9.308733556357963e-07   -1.4802952702351211e-08   -2.333980831063998e-06
-9.308733556357963e-07   -1.4802952702351211e-08   -2.333980831063998e-06
-1.0927107183607596e-06   1.5998569495058457e-07   -2.1691250817809237e-06
-1.0927107183607596e-06   1.5998569495058457e-07   -2.1691250817809237e-06
-1.0927107183607596e-06   1.5998569495058457e-07   -2.1691250817809237e-06
-1.0927107183607596e-06   1.5998569495058457e-07   -2.1691250817809237e-06
-9.308733556357963e-07   3.6895523482116817e-07   -1.8607103414316098e-06
-9.308733556357963e-07   3.6895523482116817e-07   -1.8607103414316098e-06
-9.308733556357963e-07   3.6895523482116817e-07   -1.8607103414316098e-06
-9.308733556357963e-07   3.6895523482116817e-07   -1.8607103414316098e-06
-1.2148356494152374e-06   -1.4802952702378316e-08   -2.5642357435781395e-06
-1.2148356494152374e-06   -1.4802952702378316e-08   -2.5642357435781395e-06
-1.2148356494152374e-06   -1.4802952702378316e-08   -2.5642357435781395e-06
-1.2148356494152374e-06   -1.4802952702378316e-08   -2.5642357435781395e-06
-1.1409647892011591e-06   4.4028031494111565e-07   -1.939457195818757e-06
-1.1409647892011591e-06   4.4028031494111565e-07   -1.939457195818757e-06
-1.1409647892011591e-06   4.4028031494111565e-07   -1.939457195818757e-06
-1.1409647892011591e-06   4.4028031494111565e-07   -1.939457195818757e-06
-7.527746935360078e-07   4.9084574123324856e-08   -2.351723244103311e-06
-7.527746935360078e-07   4.9084574123324856e-08   -2.351723244103311e-06
-7.527746935360078e-07   4.9084574123324856e-08   -2.351723244103311e-06
-7.527746935360078e-07   4.9084574123324856e-08   -2.351723244103311e-06
-9.920707321200037e-07   2.1719445095159853e-07   -2.0537624392270272e-06
-9.920707321200037e-07   2.1719445095159853e-07   -2.0537624392270272e-06
-9.920707321200037e-07   2.1719445095159853e-07   -2.0537624392270272e-06
-9.920707321200037e-07   2.1719445095159853e-07   -2.0537624392270272e-06
-7.52774693536001e-07   4.4028031494111565e-07   -1.7047397513280472e-06
-7.52774693536001e-07   4.4028031494111565e-07   -1.7047397513280472e-06
-7.52774693536001e-07   4.4028031494111565e-07   -1.7047397513280472e-06
-7.52774693536001e-07   4.4028031494111565e-07   -1.7047397513280472e-06
-1.140964789201166e-06   4.9084574123324856e-08   -2.58644068859398e-06
-1.140964789201166e-06   4.9084574123324856e-08   -2.58644068859398e-06
-1.140964789201166e-06   4.9084574123324856e-08   -2.58644068859398e-06
-1.140964789201166e-06   4.9084574123324856e-08   -2.58644068859398e-06
-1.0863297748063287e-06   5.541964106970548e-07   -1.8028638766288626e-06
-1.0863297748063287e-06   5.541964106970548e-07   -1.8028638766288626e-06
-1.0863297748063287e-06   5.541964106970548e-07   -1.8028638766288626e-06
-1.0863297748063287e-06   5.541964106970548e-07   -1.8028638766288626e-06
-5.328752040209986e-07   1.7574493700557234e-07   -2.4982172770562124e-06
-5.328752040209986e-07   1.7574493700557234e-07   -2.4982172770562124e-06
-5.328752040209986e-07   1.7574493700557234e-07   -2.4982172770562124e-06
-5.328752040209986e-07   1.7574493700557234e-07   -2.4982172770562124e-06
-8.689053306953725e-07   2.7478241541348226e-07   -1.997589552976924e-06
-8.689053306953725e-07   2.7478241541348226e-07   -1.997589552976924e-06
-8.689053306953725e-07   2.7478241541348226e-07   -1.997589552976924e-06
-8.689053306953725e-07   2.7478241541348226e-07   -1.997589552976924e-06
-1.2723781436911788e-06   1.431801519771053e-07   -4.1656867165767425e-06
-1.2723781436911788e-06   1.431801519771053e-07   -4.1656867165767425e-06
-1.2723781436911788e-06   1.431801519771053e-07   -4.1656867165767425e-06
-1.2723781436911788e-06   1.431801519771053e-07   -4.1656867165767425e-06
-1.5483874812143604e-06   -1.9685046967504076e-08   -4.723421398482151e-06
-1.5483874812143604e-06   -1.9685046967504076e-08   -4.723421398482151e-06
-1.5483874812143604e-06   -1.9685046967504076e-08   -4.723421398482151e-06
-1.5483874812143604e-06   -1.9685046967504076e-08   -4.723421398482151e-06
-1.5042668400817058e-06   3.0177892651825225e-07   -4.165911475432875e-06
-1.5042668400817058e-06   3.0177892651825225e-07   -4.165911475432875e-06
-1.5042668400817058e-06   3.0177892651825225e-07   -4.165911475432875e-06
-1.5042668400817058e-06   3.0177892651825225e-07   -4.165911475432875e-06
-1.2148356494152374e-06   1.1935663854666036e-07   -4.538843420427306e-06
-1.2148356494152374e-06   1.1935663854666036e-07   -4.538843420427306e-06
-1.2148356494152374e-06   1.1935663854666036e-07   -4.538843420427306e-06
-1.2148356494152374e-06   1.1935663854666036e-07   -4.538843420427306e-06
-1.3690336560214478e-06   1.6871214057585467e-07   -4.3114600439679e-06
-1.3690336560214478e-06   1.6871214057585467e-07   -4.3114600439679e-06
-1.3690336560214478e-06   1.6871214057585467e-07   -4.3114600439679e-06
-1.3690336560214478e-06   1.6871214057585467e-07   -4.3114600439679e-06
-1.2148356494152306e-06   3.0177892651825225e-07   -4.056458102649859e-06
-1.2148356494152306e-06   3.0177892651825225e-07   -4.056458102649859e-06
-1.2148356494152306e-06   3.0177892651825225e-07   -4.056458102649859e-06
-1.2148356494152306e-06   3.0177892651825225e-07   -4.056458102649859e-06
-1.504266840081704e-06   1.1935663854666036e-07   -4.648296793210288e-06
-1.504266840081704e-06   1.1935663854666036e-07   -4.648296793210288e-06
-1.504266840081704e-06   1.1935663854666036e-07   -4.648296793210288e-06
-1.504266840081704e-06   1.1935663854666036e-07   -4.648296793210288e-06
-1.4581700197628087e-06   4.50845720827446e-07   -4.130602026020753e-06
-1.4581700197628087e-06   4.50845720827446e-07   -4.130602026020753e-06
-1.4581700197628087e-06   4.50845720827446e-07   -4.130602026020753e-06
-1.4581700197628087e-06   4.50845720827446e-07   -4.130602026020753e-06
-1.140964789201166e-06   2.546664017214178e-07   -4.5415698188265325e-06
-1.140964789201166e-06   2.546664017214178e-07   -4.5415698188265325e-06
-1.140964789201166e-06   2.546664017214178e-07   -4.5415698188265325e-06
-1.140964789201166e-06   2.546664017214178e-07   -4.5415698188265325e-06
-1.3250378113008213e-06   2.826784339520378e-07   -4.251588667998831e-06
-1.3250378113008213e-06   2.826784339520378e-07   -4.251588667998831e-06
-1.3250378113008213e-06   2.826784339520378e-07   -4.251588667998831e-06
-1.3250378113008213e-06   2.826784339520378e-07   -4.251588667998831e-06
-1.1409647892011591e-06   4.50845720827446e-07   -4.0128944345571555e-06
-1.1409647892011591e-06   4.50845720827446e-07   -4.0128944345571555e-06
-1.1409647892011591e-06   4.50845720827446e-07   -4.0128944345571555e-06
-1.1409647892011591e-06   4.50845720827446e-07   -4.0128944345571555e-06
-1.4581700197628036e-06   2.546664017214178e-07   -4.659277410290144e-06
-1.4581700197628036e-06   2.546664017214178e-07   -4.659277410290144e-06
-1.4581700197628036e-06   2.546664017214178e-07   -4.659277410290144e-06
-1.4581700197628036e-06   2.546664017214178e-07   -4.659277410290144e-06
-1.415584193840339e-06   6.180456443853795e-07   -4.199666434225274e-06
-1.415584193840339e-06   6.180456443853795e-07   -4.199666434225274e-06
-1.415584193840339e-06   6.180456443853795e-07   -4.199666434225274e-06
-1.415584193840339e-06   6.180456443853795e-07   -4.199666434225274e-06
-1.0863297748063287e-06   4.106592825974323e-07   -4.623991982209198e-06
-1.0863297748063287e-06   4.106592825974323e-07   -4.623991982209198e-06
-1.0863297748063287e-06   4.106592825974323e-07   -4.623991982209198e-06
-1.0863297748063287e-06   4.106592825974323e-07   -4.623991982209198e-06
-1.2873076385805203e-06   4.038944247157587e-07   -4.284969961189779e-06
-1.2873076385805203e-06   4.038944247157587e-07   -4.284969961189779e-06
-1.2873076385805203e-06   4.038944247157587e-07   -4.284969961189779e-06
-1.2873076385805203e-06   4.038944247157587e-07   -4.284969961189779e-06
-1.5483874812143536e-06   8.885260745241622e-08   -4.873710132165081e-06
-1.5483874812143536e-06   8.885260745241622e-08   -4.873710132165081e-06
-1.5483874812143536e-06   8.885260745241622e-08   -4.873710132165081e-06
-1.5483874812143536e-06   8.885260745241622e-08   -4.873710132165081e-06
-1.8278056117173501e-06   1.2523416205412977e-07   -5.317578083575722e-06
-1.8278056117173501e-06   1.2523416205412977e-07   -5.317578083575722e-06
-1.8278056117173501e-06   1.2523416205412977e-07   -5.317578083575722e-06
-1.8278056117173501e-06   1.2523416205412977e-07   -5.317578083575722e-06
-1.785005891474424e-06   2.5217848092682574e-07   -4.794562675611232e-06
-1.785005891474424e-06   2.5217848092682574e-07   -4.794562675611232e-06
-1.785005891474424e-06   2.5217848092682574e-07   -4.794562675611232e-06
-1.785005891474424e-06   2.5217848092682574e-07   -4.794562675611232e-06
-1.504266840081704e-06   2.7080825688963563e-07   -5.273638960176749e-06
-1.504266840081704e-06   2.7080825688963563e-07   -5.273638960176749e-06
-1.504266840081704e-06   2.7080825688963563e-07   -5.273638960176749e-06
-1.504266840081704e-06   2.7080825688963563e-07   -5.273638960176749e-06
-1.656265281339741e-06   2.074956329715065e-07   -4.982320650395898e-06
-1.656265281339741e-06   2.074956329715065e-07   -4.982320650395898e-06
-1.656265281339741e-06   2.074956329715065e-07   -4.982320650395898e-06
-1.656265281339741e-06   2.074956329715065e-07   -4.982320650395898e-06
-1.5042668400817024e-06   2.5217848092682574e-07   -4.805740541188901e-06
-1.5042668400817024e-06   2.5217848092682574e-07   -4.805740541188901e-06
-1.5042668400817024e-06   2.5217848092682574e-07   -4.805740541188901e-06
-1.5042668400817024e-06   2.5217848092682574e-07   -4.805740541188901e-06
-1.785005891474424e-06   2.7080825688963563e-07   -5.2624610945990985e-06
-1.785005891474424e-06   2.7080825688963563e-07   -5.2624610945990985e-06
-1.785005891474424e-06   2.7080825688963563e-07   -5.2624610945990985e-06
-1.785005891474424e-06   2.7080825688963563e-07   -5.2624610945990985e-06
-1.7391442997725322e-06   4.168532306698101e-07   -4.8068473203149124e-06
-1.7391442997725322e-06   4.168532306698101e-07   -4.8068473203149124e-06
-1.7391442997725322e-06   4.168532306698101e-07   -4.8068473203149124e-06
-1.7391442997725322e-06   4.168532306698101e-07   -4.8068473203149124e-06
-1.4581700197628036e-06   4.1928713991388035e-07   -5.276598132544208e-06
-1.4581700197628036e-06   4.1928713991388035e-07   -5.276598132544208e-06
-1.4581700197628036e-06   4.1928713991388035e-07   -5.276598132544208e-06
-1.4581700197628036e-06   4.1928713991388035e-07   -5.276598132544208e-06
-1.621603518864277e-06   3.333100646853512e-07   -4.952622722238049e-06
-1.621603518864277e-06   3.333100646853512e-07   -4.952622722238049e-06
-1.621603518864277e-06   3.333100646853512e-07   -4.952622722238049e-06
-1.621603518864277e-06   3.333100646853512e-07   -4.952622722238049e-06
-1.458170019762802e-06   4.168532306698101e-07   -4.808307665861336e-06
-1.458170019762802e-06   4.168532306698101e-07   -4.808307665861336e-06
-1.458170019762802e-06   4.168532306698101e-07   -4.808307665861336e-06
-1.458170019762802e-06   4.168532306698101e-07   -4.808307665861336e-06
-1.739144299772529e-06   4.1928713991388035e-07   -5.275137786997774e-06
-1.739144299772529e-06   4.1928713991388035e-07   -5.275137786997774e-06
-1.739144299772529e-06   4.1928713991388035e-07   -5.275137786997774e-06
-1.739144299772529e-06   4.1928713991388035e-07   -5.275137786997774e-06
-1.6961113937926031e-06   5.8410821216577e-07   -4.900233638694556e-06
-1.6961113937926031e-06   5.8410821216577e-07   -4.900233638694556e-06
-1.6961113937926031e-06   5.8410821216577e-07   -4.900233638694556e-06
-1.6961113937926031e-06   5.8410821216577e-07   -4.900233638694556e-06
-1.415584193840339e-06   5.69964185328435e-07   -5.35929255584591e-06
-1.415584193840339e-06   5.69964185328435e-07   -5.35929255584591e-06
-1.415584193840339e-06   5.69964185328435e-07   -5.35929255584591e-06
-1.415584193840339e-06   5.69964185328435e-07   -5.35929255584591e-06
-1.5904863983953563e-06   4.6094710966145544e-07   -5.002378636187315e-06
-1.5904863983953563e-06   4.6094710966145544e-07   -5.002378636187315e-06
-1.5904863983953563e-06   4.6094710966145544e-07   -5.002378636187315e-06
-1.5904863983953563e-06   4.6094710966145544e-07   -5.002378636187315e-06
-1.827805611717347e-06   5.0193342711227044e-08   -4.195136984770298e-06
-1.827805611717347e-06   5.0193342711227044e-08   -4.195136984770298e-06
-1.827805611717347e-06   5.0193342711227044e-08   -4.195136984770298e-06
-1.827805611717347e-06   5.0193342711227044e-08   -4.195136984770298e-06
-2.1307711848086917e-06   2.7436543267885904e-07   -4.565576352608645e-06
-2.1307711848086917e-06   2.7436543267885904e-07   -4.565576352608645e-06
-2.1307711848086917e-06   2.7436543267885904e-07   -4.565576352608645e-06
-2.1307711848086917e-06   2.7436543267885904e-07   -4.565576352608645e-06
-2.077327529928166e-06   2.097853335371444e-07   -4.003242925551022e-06
-2.077327529928166e-06   2.097853335371444e-07   -4.003242925551022e-06
-2.077327529928166e-06   2.097853335371444e-07   -4.003242925551022e-06
-2.077327529928166e-06   2.097853335371444e-07   -4.003242925551022e-06
-1.785005891474424e-06   4.2141630646005024e-07   -4.6174242400609685e-06
-1.785005891474424e-06   4.2141630646005024e-07   -4.6174242400609685e-06
-1.785005891474424e-06   4.2141630646005024e-07   -4.6174242400609685e-06
-1.785005891474424e-06   4.2141630646005024e-07   -4.6174242400609685e-06
-1.939856080316292e-06   2.5459413606665384e-07   -4.2592472897552295e-06
-1.939856080316292e-06   2.5459413606665384e-07   -4.2592472897552295e-06
-1.939856080316292e-06   2.5459413606665384e-07   -4.2592472897552295e-06
-1.939856080316292e-06   2.5459413606665384e-07   -4.2592472897552295e-06
-1.785005891474421e-06   2.097853335371444e-07   -4.130221509304744e-06
-1.785005891474421e-06   2.097853335371444e-07   -4.130221509304744e-06
-1.785005891474421e-06   2.097853335371444e-07   -4.130221509304744e-06
-1.785005891474421e-06   2.097853335371444e-07   -4.130221509304744e-06
-2.077327529928166e-06   4.2141630646002314e-07   -4.49044565630726e-06
-2.077327529928166e-06   4.2141630646002314e-07   -4.49044565630726e-06
-2.077327529928166e-06   4.2141630646002314e-07   -4.49044565630726e-06
-2.077327529928166e-06   4.2141630646002314e-07   -4.49044565630726e-06
-2.0044570655849953e-06   3.5880514933945163e-07   -4.01498358636457e-06
-2.0044570655849953e-06   3.5880514933945163e-07   -4.01498358636457e-06
-2.0044570655849953e-06   3.5880514933945163e-07   -4.01498358636457e-06
-2.0044570655849953e-06   3.5880514933945163e-07   -4.01498358636457e-06
-1.739144299772529e-06   5.5587906895547e-07   -4.5754158811549695e-06
-1.739144299772529e-06   5.5587906895547e-07   -4.5754158811549695e-06
-1.739144299772529e-06   5.5587906895547e-07   -4.5754158811549695e-06
-1.739144299772529e-06   5.5587906895547e-07   -4.5754158811549695e-06
-1.8918459627046004e-06   3.7231152215194913e-07   -4.2107725815194454e-06
-1.8918459627046004e-06   3.7231152215194913e-07   -4.2107725815194454e-06
-1.8918459627046004e-06   3.7231152215194913e-07   -4.2107725815194454e-06
-1.8918459627046004e-06   3.7231152215194913e-07   -4.2107725815194454e-06
-1.7391442997725259e-06   3.588051493394245e-07   -4.133227938134207e-06
-1.7391442997725259e-06   3.588051493394245e-07   -4.133227938134207e-06
-1.7391442997725259e-06   3.588051493394245e-07   -4.133227938134207e-06
-1.7391442997725259e-06   3.588051493394245e-07   -4.133227938134207e-06
-2.004457065584997e-06   5.5587906895547e-07   -4.457171529385356e-06
-2.004457065584997e-06   5.5587906895547e-07   -4.457171529385356e-06
-2.004457065584997e-06   5.5587906895547e-07   -4.457171529385356e-06
-2.004457065584997e-06   5.5587906895547e-07   -4.457171529385356e-06
-1.9481747975031242e-06   5.25559229762432e-07   -4.126073326275655e-06
-1.9481747975031242e-06   5.25559229762432e-07   -4.126073326275655e-06
-1.9481747975031242e-06   5.25559229762432e-07   -4.126073326275655e-06
-1.9481747975031242e-06   5.25559229762432e-07   -4.126073326275655e-06
-1.6961113937926031e-06   7.046928260781907e-07   -4.653659156916005e-06
-1.6961113937926031e-06   7.046928260781907e-07   -4.653659156916005e-06
-1.6961113937926031e-06   7.046928260781907e-07   -4.653659156916005e-06
-1.6961113937926031e-06   7.046928260781907e-07   -4.653659156916005e-06
-1.8590870085208643e-06   4.909984213304785e-07   -4.253816489520195e-06
-1.8590870085208643e-06   4.909984213304785e-07   -4.253816489520195e-06
-1.8590870085208643e-06   4.909984213304785e-07   -4.253816489520195e-06
-1.8590870085208643e-06   4.909984213304785e-07   -4.253816489520195e-06
-2.130771184808683e-06   8.324898043306477e-08   -2.218157917943104e-06
-2.130771184808683e-06   8.324898043306477e-08   -2.218157917943104e-06
-2.130771184808683e-06   8.324898043306477e-08   -2.218157917943104e-06
-2.130771184808683e-06   8.324898043306477e-08   -2.218157917943104e-06
-2.651541674965023e-06   4.684156762865463e-07   -2.855008717358228e-06
-2.651541674965023e-06   4.684156762865463e-07   -2.855008717358228e-06
-2.651541674965023e-06   4.684156762865463e-07   -2.855008717358228e-06
-2.651541674965023e-06   4.684156762865463e-07   -2.855008717358228e-06
-2.4372778404491447e-06   2.111144690231429e-07   -1.7886031990136097e-06
-2.4372778404491447e-06   2.111144690231429e-07   -1.7886031990136097e-06
-2.4372778404491447e-06   2.111144690231429e-07   -1.7886031990136097e-06
-2.4372778404491447e-06   2.111144690231429e-07   -1.7886031990136097e-06
-2.0773275299281624e-06   6.03383876314126e-07   -2.623882027589792e-06
-2.0773275299281624e-06   6.03383876314126e-07   -2.623882027589792e-06
-2.0773275299281624e-06   6.03383876314126e-07   -2.623882027589792e-06
-2.0773275299281624e-06   6.03383876314126e-07   -2.623882027589792e-06
-2.2302733413275936e-06   3.5583518133226104e-07   -2.2204431249350025e-06
-2.2302733413275936e-06   3.5583518133226104e-07   -2.2204431249350025e-06
-2.2302733413275936e-06   3.5583518133226104e-07   -2.2204431249350025e-06
-2.2302733413275936e-06   3.5583518133226104e-07   -2.2204431249350025e-06
-2.0773275299281573e-06   2.111144690231429e-07   -2.023964843388152e-06
-2.0773275299281573e-06   2.111144690231429e-07   -2.023964843388152e-06
-2.0773275299281573e-06   2.111144690231429e-07   -2.023964843388152e-06
-2.0773275299281573e-06   2.111144690231429e-07   -2.023964843388152e-06
-2.4372778404491447e-06   6.03383876314126e-07   -2.3885203832152294e-06
-2.4372778404491447e-06   6.03383876314126e-07   -2.3885203832152294e-06
-2.4372778404491447e-06   6.03383876314126e-07   -2.3885203832152294e-06
-2.4372778404491447e-06   6.03383876314126e-07   -2.3885203832152294e-06
-2.263006846619021e-06   2.8213200748956977e-07   -1.7385028371821464e-06
-2.263006846619021e-06   2.8213200748956977e-07   -1.7385028371821464e-06
-2.263006846619021e-06   2.8213200748956977e-07   -1.7385028371821464e-06
-2.263006846619021e-06   2.8213200748956977e-07   -1.7385028371821464e-06
-2.0044570655849953e-06   6.65031182304495e-07   -2.399158643794433e-06
-2.0044570655849953e-06   6.65031182304495e-07   -2.399158643794433e-06
-2.0044570655849953e-06   6.65031182304495e-07   -2.399158643794433e-06
-2.0044570655849953e-06   6.65031182304495e-07   -2.399158643794433e-06
-2.1470427238092943e-06   4.202736199160036e-07   -2.0146613426542018e-06
-2.1470427238092943e-06   4.202736199160036e-07   -2.0146613426542018e-06
-2.1470427238092943e-06   4.202736199160036e-07   -2.0146613426542018e-06
-2.1470427238092943e-06   4.202736199160036e-07   -2.0146613426542018e-06
-2.0044570655849902e-06   2.821320074895969e-07   -1.968242342071092e-06
-2.0044570655849902e-06   2.821320074895969e-07   -1.968242342071092e-06
-2.0044570655849902e-06   2.821320074895969e-07   -1.968242342071092e-06
-2.0044570655849902e-06   2.821320074895969e-07   -1.968242342071092e-06
-2.2630068466190276e-06   6.65031182304495e-07   -2.169419138905494e-06
-2.2630068466190276e-06   6.65031182304495e-07   -2.169419138905494e-06
-2.2630068466190276e-06   6.65031182304495e-07   -2.169419138905494e-06
-2.2630068466190276e-06   6.65031182304495e-07   -2.169419138905494e-06
-2.0457414459144153e-06   4.0389983164358027e-07   -1.76623038552634e-06
-2.0457414459144153e-06   4.0389983164358027e-07   -1.76623038552634e-06
-2.0457414459144153e-06   4.0389983164358027e-07   -1.76623038552634e-06
-2.0457414459144153e-06   4.0389983164358027e-07   -1.76623038552634e-06
-1.9481747975031225e-06   7.559684869488839e-07   -2.1400826593949706e-06
-1.9481747975031225e-06   7.559684869488839e-07   -2.1400826593949706e-06
-1.9481747975031225e-06   7.559684869488839e-07   -2.1400826593949706e-06
-1.9481747975031225e-06   7.559684869488839e-07   -2.1400826593949706e-06
-2.009968564650938e-06   4.6932951919074074e-07   -1.865109666827089e-06
-2.009968564650938e-06   4.6932951919074074e-07   -1.865109666827089e-06
-2.009968564650938e-06   4.6932951919074074e-07   -1.865109666827089e-06
-2.009968564650938e-06   4.6932951919074074e-07   -1.865109666827089e-06
1.2745496841656183e-06   -1.2387133554796984e-07   -1.0263964628193004e-06
1.2745496841656183e-06   -1.2387133554796984e-07   -1.0263964628193004e-06
1.2745496841656183e-06   -1.2387133554796984e-07   -1.0263964628193004e-06
1.2745496841656183e-06   -1.2387133554796984e-07   -1.0263964628193004e-06
1.5037454932522696e-07   -4.7580514152479247e-07   -3.1111819711393605e-06
1.5037454932522696e-07   -4.7580514152479247e-07   -3.1111819711393605e-06
1.5037454932522696e-07   -4.7580514152479247e-07   -3.1111819711393605e-06
1.5037454932522696e-07   -4.7580514152479247e-07   -3.1111819711393605e-06
2.2778981507223388e-07   -1.4802952702378316e-08   -1.1572553626508953e-06
2.2778981507223388e-07   -1.4802952702378316e-08   -1.1572553626508953e-06
2.2778981507223388e-07   -1.4802952702378316e-08   -1.1572553626508953e-06
2.2778981507223388e-07   -1.4802952702378316e-08   -1.1572553626508953e-06
1.5110558939374408e-06   -3.936295988451262e-07   -3.068736173073895e-06
1.5110558939374408e-06   -3.936295988451262e-07   -3.068736173073895e-06
1.5110558939374408e-06   -3.936295988451262e-07   -3.068736173073895e-06
1.5110558939374408e-06   -3.936295988451262e-07   -3.068736173073895e-06
7.600847809216489e-07   -2.0315020315904474e-07   -1.9314052887925564e-06
7.600847809216489e-07   -2.0315020315904474e-07   -1.9314052887925564e-06
7.600847809216489e-07   -2.0315020315904474e-07   -1.9314052887925564e-06
7.600847809216489e-07   -2.0315020315904474e-07   -1.9314052887925564e-06
1.5110558939374408e-06   -1.4802952702378316e-08   -9.299593749651964e-07
1.5110558939374408e-06   -1.4802952702378316e-08   -9.299593749651964e-07
1.5110558939374408e-06   -1.4802952702378316e-08   -9.299593749651964e-07
1.5110558939374408e-06   -1.4802952702378316e-08   -9.299593749651964e-07
2.2778981507223388e-07   -3.936295988451262e-07   -3.29603216075956e-06
2.2778981507223388e-07   -3.936295988451262e-07   -3.29603216075956e-06
2.2778981507223388e-07   -3.936295988451262e-07   -3.29603216075956e-06
2.2778981507223388e-07   -3.936295988451262e-07   -3.29603216075956e-06
3.2018635827193716e-07   4.9084574123324856e-08   -1.1738891130340758e-06
3.2018635827193716e-07   4.9084574123324856e-08   -1.1738891130340758e-06
3.2018635827193716e-07   4.9084574123324856e-08   -1.1738891130340758e-06
3.2018635827193716e-07   4.9084574123324856e-08   -1.1738891130340758e-06
1.7071749919674928e-06   -3.3630269899816894e-07   -3.2543044719870714e-06
1.7071749919674928e-06   -3.3630269899816894e-07   -3.2543044719870714e-06
1.7071749919674928e-06   -3.3630269899816894e-07   -3.2543044719870714e-06
1.7071749919674928e-06   -3.3630269899816894e-07   -3.2543044719870714e-06
9.073555654603044e-07   -1.6317408033481473e-07   -2.0251492656732216e-06
9.073555654603044e-07   -1.6317408033481473e-07   -2.0251492656732216e-06
9.073555654603044e-07   -1.6317408033481473e-07   -2.0251492656732216e-06
9.073555654603044e-07   -1.6317408033481473e-07   -2.0251492656732216e-06
1.7071749919674928e-06   4.9084574123324856e-08   -9.426567491611565e-07
1.7071749919674928e-06   4.9084574123324856e-08   -9.426567491611565e-07
1.7071749919674928e-06   4.9084574123324856e-08   -9.426567491611565e-07
1.7071749919674928e-06   4.9084574123324856e-08   -9.426567491611565e-07
3.2018635827193716e-07   -3.3630269899816894e-07   -3.4855368358599568e-06
3.2018635827193716e-07   -3.3630269899816894e-07   -3.4855368358599568e-06
3.2018635827193716e-07   -3.3630269899816894e-07   -3.4855368358599568e-06
3.2018635827193716e-07   -3.3630269899816894e-07   -3.4855368358599568e-06
3.9332642510951516e-07   1.7574493700557234e-07   -1.306864402674619e-06
3.9332642510951516e-07   1.7574493700557234e-07   -1.306864402674619e-06
3.9332642510951516e-07   1.7574493700557234e-07   -1.306864402674619e-06
3.9332642510951516e-07   1.7574493700557234e-07   -1.306864402674619e-06
1.9430909831138633e-06   -1.9433432918853884e-07   -3.6677577729654198e-06
1.9430909831138633e-06   -1.9433432918853884e-07   -3.6677577729654198e-06
1.9430909831138633e-06   -1.9433432918853884e-07   -3.6677577729654198e-06
1.9430909831138633e-06   -1.9433432918853884e-07   -3.6677577729654198e-06
1.0182653744542121e-06   -1.0224347212926463e-07   -2.1816362727681884e-06
1.0182653744542121e-06   -1.0224347212926463e-07   -2.1816362727681884e-06
1.0182653744542121e-06   -1.0224347212926463e-07   -2.1816362727681884e-06
1.0182653744542121e-06   -1.0224347212926463e-07   -2.1816362727681884e-06
1.5037454932522696e-07   -1.9685046967504076e-08   -3.2243740165566664e-06
1.5037454932522696e-07   -1.9685046967504076e-08   -3.2243740165566664e-06
1.5037454932522696e-07   -1.9685046967504076e-08   -3.2243740165566664e-06
1.5037454932522696e-07   -1.9685046967504076e-08   -3.2243740165566664e-06
-1.1144489928741538e-06   -1.7775172424678307e-07   -5.427253259923233e-06
-1.1144489928741538e-06   -1.7775172424678307e-07   -5.427253259923233e-06
-1.1144489928741538e-06   -1.7775172424678307e-07   -5.427253259923233e-06
-1.1144489928741538e-06   -1.7775172424678307e-07   -5.427253259923233e-06
-1.048736093548803e-06   1.1935663854666036e-07   -3.240865111484026e-06
-1.048736093548803e-06   1.1935663854666036e-07   -3.240865111484026e-06
-1.048736093548803e-06   1.1935663854666036e-07   -3.240865111484026e-06
-1.048736093548803e-06   1.1935663854666036e-07   -3.240865111484026e-06
2.2778981507223388e-07   -6.231348142652715e-08   -5.2594062205351e-06
2.2778981507223388e-07   -6.231348142652715e-08   -5.2594062205351e-06
2.2778981507223388e-07   -6.231348142652715e-08   -5.2594062205351e-06
2.2778981507223388e-07   -6.231348142652715e-08   -5.2594062205351e-06
-4.366028628184369e-07   1.1545797575114852e-09   -4.190165927427782e-06
-4.366028628184369e-07   1.1545797575114852e-09   -4.190165927427782e-06
-4.366028628184369e-07   1.1545797575114852e-09   -4.190165927427782e-06
-4.366028628184369e-07   1.1545797575114852e-09   -4.190165927427782e-06
2.2778981507223388e-07   1.1935663854666036e-07   -3.1318630395000348e-06
2.2778981507223388e-07   1.1935663854666036e-07   -3.1318630395000348e-06
2.2778981507223388e-07   1.1935663854666036e-07   -3.1318630395000348e-06
2.2778981507223388e-07   1.1935663854666036e-07   -3.1318630395000348e-06
-1.048736093548803e-06   -6.231348142652715e-08   -5.368408292519091e-06
-1.048736093548803e-06   -6.231348142652715e-08   -5.368408292519091e-06
-1.048736093548803e-06   -6.231348142652715e-08   -5.368408292519091e-06
-1.048736093548803e-06   -6.231348142652715e-08   -5.368408292519091e-06
-9.825561747124675e-07   2.546664017214178e-07   -3.2470507676134793e-06
-9.825561747124675e-07   2.546664017214178e-07   -3.2470507676134793e-06
-9.825561747124675e-07   2.546664017214178e-07   -3.2470507676134793e-06
-9.825561747124675e-07   2.546664017214178e-07   -3.2470507676134793e-06
3.2018635827193716e-07   5.794552780994094e-08   -5.300255798240628e-06
3.2018635827193716e-07   5.794552780994094e-08   -5.300255798240628e-06
3.2018635827193716e-07   5.794552780994094e-08   -5.300255798240628e-06
3.2018635827193716e-07   5.794552780994094e-08   -5.300255798240628e-06
-3.798051764794972e-07   9.774951520440014e-08   -4.157485632758217e-06
-3.798051764794972e-07   9.774951520440014e-08   -4.157485632758217e-06
-3.798051764794972e-07   9.774951520440014e-08   -4.157485632758217e-06
-3.798051764794972e-07   9.774951520440014e-08   -4.157485632758217e-06
3.2018635827193716e-07   2.546664017214178e-07   -3.1290182432666047e-06
3.2018635827193716e-07   2.546664017214178e-07   -3.1290182432666047e-06
3.2018635827193716e-07   2.546664017214178e-07   -3.1290182432666047e-06
3.2018635827193716e-07   2.546664017214178e-07   -3.1290182432666047e-06
-9.825561747124675e-07   5.794552780994094e-08   -5.418288322587479e-06
-9.825561747124675e-07   5.794552780994094e-08   -5.418288322587479e-06
-9.825561747124675e-07   5.794552780994094e-08   -5.418288322587479e-06
-9.825561747124675e-07   5.794552780994094e-08   -5.418288322587479e-06
-9.200942655294792e-07   4.106592825974323e-07   -3.330922108402964e-06
-9.200942655294792e-07   4.106592825974323e-07   -3.330922108402964e-06
-9.200942655294792e-07   4.106592825974323e-07   -3.330922108402964e-06
-9.200942655294792e-07   4.106592825974323e-07   -3.330922108402964e-06
3.9332642510951516e-07   2.0173614128022373e-07   -5.394602708011032e-06
3.9332642510951516e-07   2.0173614128022373e-07   -5.394602708011032e-06
3.9332642510951516e-07   2.0173614128022373e-07   -5.394602708011032e-06
3.9332642510951516e-07   2.0173614128022373e-07   -5.394602708011032e-06
-3.1501169492472516e-07   2.0623668036785444e-07   -4.216739498073171e-06
-3.1501169492472516e-07   2.0623668036785444e-07   -4.216739498073171e-06
-3.1501169492472516e-07   2.0623668036785444e-07   -4.216739498073171e-06
-3.1501169492472516e-07   2.0623668036785444e-07   -4.216739498073171e-06
-1.1144489928741572e-06   1.2523416205415688e-07   -3.935199640778867e-06
-1.1144489928741572e-06   1.2523416205415688e-07   -3.935199640778867e-06
-1.1144489928741572e-06   1.2523416205415688e-07   -3.935199640778867e-06
-1.1144489928741572e-06   1.2523416205415688e-07   -3.935199640778867e-06
-2.364245547032211e-06   1.572259233851214e-07   -5.998998840910365e-06
-2.364245547032211e-06   1.572259233851214e-07   -5.998998840910365e-06
-2.364245547032211e-06   1.572259233851214e-07   -5.998998840910365e-06
-2.364245547032211e-06   1.572259233851214e-07   -5.998998840910365e-06
-2.2985581662782495e-06   2.7080825688966274e-07   -3.860003225306639e-06
-2.2985581662782495e-06   2.7080825688966274e-07   -3.860003225306639e-06
-2.2985581662782495e-06   2.7080825688966274e-07   -3.860003225306639e-06
-2.2985581662782495e-06   2.7080825688966274e-07   -3.860003225306639e-06
-1.0487360935488064e-06   2.811483454627918e-07   -5.949244066332906e-06
-1.0487360935488064e-06   2.811483454627918e-07   -5.949244066332906e-06
-1.0487360935488064e-06   2.811483454627918e-07   -5.949244066332906e-06
-1.0487360935488064e-06   2.811483454627918e-07   -5.949244066332906e-06
-1.6967326350164173e-06   2.3354337636604717e-07   -4.840686849095504e-06
-1.6967326350164173e-06   2.3354337636604717e-07   -4.840686849095504e-06
-1.6967326350164173e-06   2.3354337636604717e-07   -4.840686849095504e-06
-1.6967326350164173e-06   2.3354337636604717e-07   -4.840686849095504e-06
-1.0487360935488064e-06   2.7080825688966274e-07   -3.8662072784504986e-06
-1.0487360935488064e-06   2.7080825688966274e-07   -3.8662072784504986e-06
-1.0487360935488064e-06   2.7080825688966274e-07   -3.8662072784504986e-06
-1.0487360935488064e-06   2.7080825688966274e-07   -3.8662072784504986e-06
-2.2985581662782456e-06   2.8114834546273757e-07   -5.943040013189031e-06
-2.2985581662782456e-06   2.8114834546273757e-07   -5.943040013189031e-06
-2.2985581662782456e-06   2.8114834546273757e-07   -5.943040013189031e-06
-2.2985581662782456e-06   2.8114834546273757e-07   -5.943040013189031e-06
-2.231115416857275e-06   4.1928713991385325e-07   -3.86902344156191e-06
-2.231115416857275e-06   4.1928713991385325e-07   -3.86902344156191e-06
-2.231115416857275e-06   4.1928713991385325e-07   -3.86902344156191e-06
-2.231115416857275e-06   4.1928713991385325e-07   -3.86902344156191e-06
-9.825561747124675e-07   4.1153388708993965e-07   -5.945303560108865e-06
-9.825561747124675e-07   4.1153388708993965e-07   -5.945303560108865e-06
-9.825561747124675e-07   4.1153388708993965e-07   -5.945303560108865e-06
-9.825561747124675e-07   4.1153388708993965e-07   -5.945303560108865e-06
-1.639941318448699e-06   3.427441270467831e-07   -4.808387797855994e-06
-1.639941318448699e-06   3.427441270467831e-07   -4.808387797855994e-06
-1.639941318448699e-06   3.427441270467831e-07   -4.808387797855994e-06
-1.639941318448699e-06   3.427441270467831e-07   -4.808387797855994e-06
-9.825561747124675e-07   4.1928713991385325e-07   -3.864371489867534e-06
-9.825561747124675e-07   4.1928713991385325e-07   -3.864371489867534e-06
-9.825561747124675e-07   4.1928713991385325e-07   -3.864371489867534e-06
-9.825561747124675e-07   4.1928713991385325e-07   -3.864371489867534e-06
-2.231115416857271e-06   4.1153388708993965e-07   -5.949955511803232e-06
-2.231115416857271e-06   4.1153388708993965e-07   -5.949955511803232e-06
-2.231115416857271e-06   4.1153388708993965e-07   -5.949955511803232e-06
-2.231115416857271e-06   4.1153388708993965e-07   -5.949955511803232e-06
-2.166938113698857e-06   5.69964185328435e-07   -3.9572107559244206e-06
-2.166938113698857e-06   5.69964185328435e-07   -3.9572107559244206e-06
-2.166938113698857e-06   5.69964185328435e-07   -3.9572107559244206e-06
-2.166938113698857e-06   5.69964185328435e-07   -3.9572107559244206e-06
-9.200942655294792e-07   5.442643670659992e-07   -6.019863945249228e-06
-9.200942655294792e-07   5.442643670659992e-07   -6.019863945249228e-06
-9.200942655294792e-07   5.442643670659992e-07   -6.019863945249228e-06
-9.200942655294792e-07   5.442643670659992e-07   -6.019863945249228e-06
-1.5878692957945853e-06   4.537100286540805e-07   -4.852572958426933e-06
-1.5878692957945853e-06   4.537100286540805e-07   -4.852572958426933e-06
-1.5878692957945853e-06   4.537100286540805e-07   -4.852572958426933e-06
-1.5878692957945853e-06   4.537100286540805e-07   -4.852572958426933e-06
-2.364245547032215e-06   2.7436543267883194e-07   -3.2985061069937854e-06
-2.364245547032215e-06   2.7436543267883194e-07   -3.2985061069937854e-06
-2.364245547032215e-06   2.7436543267883194e-07   -3.2985061069937854e-06
-2.364245547032215e-06   2.7436543267883194e-07   -3.2985061069937854e-06
-3.6148207895401076e-06   4.868870461225447e-07   -5.255285209774055e-06
-3.6148207895401076e-06   4.868870461225447e-07   -5.255285209774055e-06
-3.6148207895401076e-06   4.868870461225447e-07   -5.255285209774055e-06
-3.6148207895401076e-06   4.868870461225447e-07   -5.255285209774055e-06
-3.538536475683971e-06   4.2141630646005024e-07   -3.0962332480387886e-06
-3.538536475683971e-06   4.2141630646005024e-07   -3.0962332480387886e-06
-3.538536475683971e-06   4.2141630646005024e-07   -3.0962332480387886e-06
-3.538536475683971e-06   4.2141630646005024e-07   -3.0962332480387886e-06
-2.2985581662782456e-06   6.193048443428996e-07   -5.281596886444722e-06
-2.2985581662782456e-06   6.193048443428996e-07   -5.281596886444722e-06
-2.2985581662782456e-06   6.193048443428996e-07   -5.281596886444722e-06
-2.2985581662782456e-06   6.193048443428996e-07   -5.281596886444722e-06
-2.9333585535328236e-06   4.663614247395209e-07   -4.131830189258381e-06
-2.9333585535328236e-06   4.663614247395209e-07   -4.131830189258381e-06
-2.9333585535328236e-06   4.663614247395209e-07   -4.131830189258381e-06
-2.9333585535328236e-06   4.663614247395209e-07   -4.131830189258381e-06
-2.2985581662782495e-06   4.2141630646002314e-07   -3.2149663707685192e-06
-2.2985581662782495e-06   4.2141630646002314e-07   -3.2149663707685192e-06
-2.2985581662782495e-06   4.2141630646002314e-07   -3.2149663707685192e-06
-2.2985581662782495e-06   4.2141630646002314e-07   -3.2149663707685192e-06
-3.538536475683977e-06   6.193048443428996e-07   -5.162863763715002e-06
-3.538536475683977e-06   6.193048443428996e-07   -5.162863763715002e-06
-3.538536475683977e-06   6.193048443428996e-07   -5.162863763715002e-06
-3.538536475683977e-06   6.193048443428996e-07   -5.162863763715002e-06
-3.443755260778486e-06   5.5587906895547e-07   -3.0602570081105006e-06
-3.443755260778486e-06   5.5587906895547e-07   -3.0602570081105006e-06
-3.443755260778486e-06   5.5587906895547e-07   -3.0602570081105006e-06
-3.443755260778486e-06   5.5587906895547e-07   -3.0602570081105006e-06
-2.231115416857275e-06   7.376199483031458e-07   -5.1903679422544735e-06
-2.231115416857275e-06   7.376199483031458e-07   -5.1903679422544735e-06
-2.231115416857275e-06   7.376199483031458e-07   -5.1903679422544735e-06
-2.231115416857275e-06   7.376199483031458e-07   -5.1903679422544735e-06
-2.8547667613826215e-06   5.720445117400315e-07   -4.051603772774418e-06
-2.8547667613826215e-06   5.720445117400315e-07   -4.051603772774418e-06
-2.8547667613826215e-06   5.720445117400315e-07   -4.051603772774418e-06
-2.8547667613826215e-06   5.720445117400315e-07   -4.051603772774418e-06
-2.231115416857275e-06   5.5587906895547e-07   -3.169301535719089e-06
-2.231115416857275e-06   5.5587906895547e-07   -3.169301535719089e-06
-2.231115416857275e-06   5.5587906895547e-07   -3.169301535719089e-06
-2.231115416857275e-06   5.5587906895547e-07   -3.169301535719089e-06
-3.443755260778486e-06   7.376199483031458e-07   -5.0813234146458545e-06
-3.443755260778486e-06   7.376199483031458e-07   -5.0813234146458545e-06
-3.443755260778486e-06   7.376199483031458e-07   -5.0813234146458545e-06
-3.443755260778486e-06   7.376199483031458e-07   -5.0813234146458545e-06
-3.365677267299114e-06   7.046928260782178e-07   -3.145164933469251e-06
-3.365677267299114e-06   7.046928260782178e-07   -3.145164933469251e-06
-3.365677267299114e-06   7.046928260782178e-07   -3.145164933469251e-06
-3.365677267299114e-06   7.046928260782178e-07   -3.145164933469251e-06
-2.166938113698857e-06   8.679028384496077e-07   -5.240989530225877e-06
-2.166938113698857e-06   8.679028384496077e-07   -5.240989530225877e-06
-2.166938113698857e-06   8.679028384496077e-07   -5.240989530225877e-06
-2.166938113698857e-06   8.679028384496077e-07   -5.240989530225877e-06
-2.8071991209102595e-06   6.748519461474727e-07   -4.058057316158893e-06
-2.8071991209102595e-06   6.748519461474727e-07   -4.058057316158893e-06
-2.8071991209102595e-06   6.748519461474727e-07   -4.058057316158893e-06
-2.8071991209102595e-06   6.748519461474727e-07   -4.058057316158893e-06
-3.6148207895401076e-06   4.684156762865463e-07   -1.6915255211892428e-06
-3.6148207895401076e-06   4.684156762865463e-07   -1.6915255211892428e-06
-3.6148207895401076e-06   4.684156762865463e-07   -1.6915255211892428e-06
-3.6148207895401076e-06   4.684156762865463e-07   -1.6915255211892428e-06
-5.0571653939495356e-06   8.400625067533799e-07   -3.872445096924845e-06
-5.0571653939495356e-06   8.400625067533799e-07   -3.872445096924845e-06
-5.0571653939495356e-06   8.400625067533799e-07   -3.872445096924845e-06
-5.0571653939495356e-06   8.400625067533799e-07   -3.872445096924845e-06
-4.82600962992946e-06   6.033838763141531e-07   -1.0041517279335273e-06
-4.82600962992946e-06   6.033838763141531e-07   -1.0041517279335273e-06
-4.82600962992946e-06   6.033838763141531e-07   -1.0041517279335273e-06
-4.82600962992946e-06   6.033838763141531e-07   -1.0041517279335273e-06
-3.538536475683971e-06   9.792470286271464e-07   -3.3754582097304944e-06
-3.538536475683971e-06   9.792470286271464e-07   -3.3754582097304944e-06
-3.538536475683971e-06   9.792470286271464e-07   -3.3754582097304944e-06
-3.538536475683971e-06   9.792470286271464e-07   -3.3754582097304944e-06
-4.086253948615784e-06   7.360411009050969e-07   -2.316672198210915e-06
-4.086253948615784e-06   7.360411009050969e-07   -2.316672198210915e-06
-4.086253948615784e-06   7.360411009050969e-07   -2.316672198210915e-06
-4.086253948615784e-06   7.360411009050969e-07   -2.316672198210915e-06
-3.5385364756839744e-06   6.033838763141531e-07   -1.229669619321307e-06
-3.5385364756839744e-06   6.033838763141531e-07   -1.229669619321307e-06
-3.5385364756839744e-06   6.033838763141531e-07   -1.229669619321307e-06
-3.5385364756839744e-06   6.033838763141531e-07   -1.229669619321307e-06
-4.8260096299294435e-06   9.792470286271464e-07   -3.149940318342674e-06
-4.8260096299294435e-06   9.792470286271464e-07   -3.149940318342674e-06
-4.8260096299294435e-06   9.792470286271464e-07   -3.149940318342674e-06
-4.8260096299294435e-06   9.792470286271464e-07   -3.149940318342674e-06
-4.635099792388371e-06   6.65031182304495e-07   -7.834551492598435e-07
-4.635099792388371e-06   6.65031182304495e-07   -7.834551492598435e-07
-4.635099792388371e-06   6.65031182304495e-07   -7.834551492598435e-07
-4.635099792388371e-06   6.65031182304495e-07   -7.834551492598435e-07
-3.443755260778479e-06   1.0296794710707368e-06   -2.9878183418694107e-06
-3.443755260778479e-06   1.0296794710707368e-06   -2.9878183418694107e-06
-3.443755260778479e-06   1.0296794710707368e-06   -2.9878183418694107e-06
-3.443755260778479e-06   1.0296794710707368e-06   -2.9878183418694107e-06
-4.012993404828394e-06   8.009842287832509e-07   -1.9018709564137549e-06
-4.012993404828394e-06   8.009842287832509e-07   -1.9018709564137549e-06
-4.012993404828394e-06   8.009842287832509e-07   -1.9018709564137549e-06
-4.012993404828394e-06   8.009842287832509e-07   -1.9018709564137549e-06
-3.443755260778486e-06   6.65031182304495e-07   -1.0022441225195913e-06
-3.443755260778486e-06   6.65031182304495e-07   -1.0022441225195913e-06
-3.443755260778486e-06   6.65031182304495e-07   -1.0022441225195913e-06
-3.443755260778486e-06   6.65031182304495e-07   -1.0022441225195913e-06
-4.635099792388361e-06   1.029679471070764e-06   -2.769029368609663e-06
-4.635099792388361e-06   1.029679471070764e-06   -2.769029368609663e-06
-4.635099792388361e-06   1.029679471070764e-06   -2.769029368609663e-06
-4.635099792388361e-06   1.029679471070764e-06   -2.769029368609663e-06
-4.404857430677082e-06   7.559684869488839e-07   -5.394454522480752e-07
-4.404857430677082e-06   7.559684869488839e-07   -5.394454522480752e-07
-4.404857430677082e-06   7.559684869488839e-07   -5.394454522480752e-07
-4.404857430677082e-06   7.559684869488839e-07   -5.394454522480752e-07
-3.3656772672991115e-06   1.0886737227649144e-06   -2.471035532700965e-06
-3.3656772672991115e-06   1.0886737227649144e-06   -2.471035532700965e-06
-3.3656772672991115e-06   1.0886737227649144e-06   -2.471035532700965e-06
-3.3656772672991115e-06   1.0886737227649144e-06   -2.471035532700965e-06
-3.828684088317641e-06   8.305480114914957e-07   -1.5444820709060794e-06
-3.828684088317641e-06   8.305480114914957e-07   -1.5444820709060794e-06
-3.828684088317641e-06   8.305480114914957e-07   -1.5444820709060794e-06
-3.828684088317641e-06   8.305480114914957e-07   -1.5444820709060794e-06
3.6809661666373756e-06   -4.7580514152473826e-07   1.4244345177370093e-07
3.6809661666373756e-06   -4.7580514152473826e-07   1.4244345177370093e-07
3.6809661666373756e-06   -4.7580514152473826e-07   1.4244345177370093e-07
3.6809661666373756e-06   -4.7580514152473826e-07   1.4244345177370093e-07
1.5390743851354143e-06   -8.356897013670102e-07   -3.6433069199682194e-06
1.5390743851354143e-06   -8.356897013670102e-07   -3.6433069199682194e-06
1.5390743851354143e-06   -8.356897013670102e-07   -3.6433069199682194e-06
1.5390743851354143e-06   -8.356897013670102e-07   -3.6433069199682194e-06
1.6324088588614033e-06   -3.936295988451262e-07   -2.4087323254956767e-07
1.6324088588614033e-06   -3.936295988451262e-07   -2.4087323254956767e-07
1.6324088588614033e-06   -3.936295988451262e-07   -2.4087323254956767e-07
1.6324088588614033e-06   -3.936295988451262e-07   -2.4087323254956767e-07
3.9324885551924655e-06   -7.797913287912453e-07   -3.8426423551336515e-06
3.9324885551924655e-06   -7.797913287912453e-07   -3.8426423551336515e-06
3.9324885551924655e-06   -7.797913287912453e-07   -3.8426423551336515e-06
3.9324885551924655e-06   -7.797913287912453e-07   -3.8426423551336515e-06
2.5860570720396994e-06   -5.57952271816321e-07   -1.7316933173973365e-06
2.5860570720396994e-06   -5.57952271816321e-07   -1.7316933173973365e-06
2.5860570720396994e-06   -5.57952271816321e-07   -1.7316933173973365e-06
2.5860570720396994e-06   -5.57952271816321e-07   -1.7316933173973365e-06
3.932488555192472e-06   -3.936295988451262e-07   -9.176194581873192e-09
3.932488555192472e-06   -3.936295988451262e-07   -9.176194581873192e-09
3.932488555192472e-06   -3.936295988451262e-07   -9.176194581873192e-09
3.932488555192472e-06   -3.936295988451262e-07   -9.176194581873192e-09
1.6324088588613965e-06   -7.797913287912453e-07   -4.074339393101312e-06
1.6324088588613965e-06   -7.797913287912453e-07   -4.074339393101312e-06
1.6324088588613965e-06   -7.797913287912453e-07   -4.074339393101312e-06
1.6324088588613965e-06   -7.797913287912453e-07   -4.074339393101312e-06
1.736652358996353e-06   -3.3630269899822315e-07   -4.135324733201809e-07
1.736652358996353e-06   -3.3630269899822315e-07   -4.135324733201809e-07
1.736652358996353e-06   -3.3630269899822315e-07   -4.135324733201809e-07
1.736652358996353e-06   -3.3630269899822315e-07   -4.135324733201809e-07
4.140348967819882e-06   -7.285047235426612e-07   -4.184372273299358e-06
4.140348967819882e-06   -7.285047235426612e-07   -4.184372273299358e-06
4.140348967819882e-06   -7.285047235426612e-07   -4.184372273299358e-06
4.140348967819882e-06   -7.285047235426612e-07   -4.184372273299358e-06
2.7744436190348486e-06   -5.349107199269947e-07   -2.0240197608270346e-06
2.7744436190348486e-06   -5.349107199269947e-07   -2.0240197608270346e-06
2.7744436190348486e-06   -5.349107199269947e-07   -2.0240197608270346e-06
2.7744436190348486e-06   -5.349107199269947e-07   -2.0240197608270346e-06
4.140348967819896e-06   -3.3630269899822315e-07   -1.7821125859350181e-07
4.140348967819896e-06   -3.3630269899822315e-07   -1.7821125859350181e-07
4.140348967819896e-06   -3.3630269899822315e-07   -1.7821125859350181e-07
4.140348967819896e-06   -3.3630269899822315e-07   -1.7821125859350181e-07
1.7366523589963462e-06   -7.285047235426612e-07   -4.419693488026078e-06
1.7366523589963462e-06   -7.285047235426612e-07   -4.419693488026078e-06
1.7366523589963462e-06   -7.285047235426612e-07   -4.419693488026078e-06
1.7366523589963462e-06   -7.285047235426612e-07   -4.419693488026078e-06
1.8201224578168966e-06   -1.9433432918853884e-07   -8.013779824933218e-07
1.8201224578168966e-06   -1.9433432918853884e-07   -8.013779824933218e-07
1.8201224578168966e-06   -1.9433432918853884e-07   -8.013779824933218e-07
1.8201224578168966e-06   -1.9433432918853884e-07   -8.013779824933218e-07
4.382186116123462e-06   -5.699643350549118e-07   -4.846106076151119e-06
4.382186116123462e-06   -5.699643350549118e-07   -4.846106076151119e-06
4.382186116123462e-06   -5.699643350549118e-07   -4.846106076151119e-06
4.382186116123462e-06   -5.699643350549118e-07   -4.846106076151119e-06
2.8668624165797014e-06   -4.6969829445813035e-07   -2.3807262012697194e-06
2.8668624165797014e-06   -4.6969829445813035e-07   -2.3807262012697194e-06
2.8668624165797014e-06   -4.6969829445813035e-07   -2.3807262012697194e-06
2.8668624165797014e-06   -4.6969829445813035e-07   -2.3807262012697194e-06
1.5390743851354176e-06   -1.7775172424683728e-07   -2.294718566547927e-06
1.5390743851354176e-06   -1.7775172424683728e-07   -2.294718566547927e-06
1.5390743851354176e-06   -1.7775172424683728e-07   -2.294718566547927e-06
1.5390743851354176e-06   -1.7775172424683728e-07   -2.294718566547927e-06
-6.964748442635846e-07   -3.744856870963693e-07   -6.138674326589265e-06
-6.964748442635846e-07   -3.744856870963693e-07   -6.138674326589265e-06
-6.964748442635846e-07   -3.744856870963693e-07   -6.138674326589265e-06
-6.964748442635846e-07   -3.744856870963693e-07   -6.138674326589265e-06
-6.115579045349258e-07   -6.231348142658136e-08   -2.341839116468445e-06
-6.115579045349258e-07   -6.231348142658136e-08   -2.341839116468445e-06
-6.115579045349258e-07   -6.231348142658136e-08   -2.341839116468445e-06
-6.115579045349258e-07   -6.231348142658136e-08   -2.341839116468445e-06
1.6324088588614033e-06   -2.9163318833208985e-07   -5.944191897985698e-06
1.6324088588614033e-06   -2.9163318833208985e-07   -5.944191897985698e-06
1.6324088588614033e-06   -2.9163318833208985e-07   -5.944191897985698e-06
1.6324088588614033e-06   -2.9163318833208985e-07   -5.944191897985698e-06
4.704849663827673e-07   -1.7798507799974346e-07   -4.075840943387399e-06
4.704849663827673e-07   -1.7798507799974346e-07   -4.075840943387399e-06
4.704849663827673e-07   -1.7798507799974346e-07   -4.075840943387399e-06
4.704849663827673e-07   -1.7798507799974346e-07   -4.075840943387399e-06
1.6324088588613999e-06   -6.231348142658136e-08   -2.204247292325121e-06
1.6324088588613999e-06   -6.231348142658136e-08   -2.204247292325121e-06
1.6324088588613999e-06   -6.231348142658136e-08   -2.204247292325121e-06
1.6324088588613999e-06   -6.231348142658136e-08   -2.204247292325121e-06
-6.115579045349258e-07   -2.9163318833208985e-07   -6.081783722128995e-06
-6.115579045349258e-07   -2.9163318833208985e-07   -6.081783722128995e-06
-6.115579045349258e-07   -2.9163318833208985e-07   -6.081783722128995e-06
-6.115579045349258e-07   -2.9163318833208985e-07   -6.081783722128995e-06
-5.305494772951834e-07   5.794552780994094e-08   -2.377524606693367e-06
-5.305494772951834e-07   5.794552780994094e-08   -2.377524606693367e-06
-5.305494772951834e-07   5.794552780994094e-08   -2.377524606693367e-06
-5.305494772951834e-07   5.794552780994094e-08   -2.377524606693367e-06
1.7366523589963462e-06   -1.908430905109889e-07   -6.006921162853322e-06
1.7366523589963462e-06   -1.908430905109889e-07   -6.006921162853322e-06
1.7366523589963462e-06   -1.908430905109889e-07   -6.006921162853322e-06
1.7366523589963462e-06   -1.908430905109889e-07   -6.006921162853322e-06
5.353993819420389e-07   -1.0344199200104567e-07   -4.057273526868688e-06
5.353993819420389e-07   -1.0344199200104567e-07   -4.057273526868688e-06
5.353993819420389e-07   -1.0344199200104567e-07   -4.057273526868688e-06
5.353993819420389e-07   -1.0344199200104567e-07   -4.057273526868688e-06
1.736652358996353e-06   5.794552780999515e-08   -2.228251435700815e-06
1.736652358996353e-06   5.794552780999515e-08   -2.228251435700815e-06
1.736652358996353e-06   5.794552780999515e-08   -2.228251435700815e-06
1.736652358996353e-06   5.794552780999515e-08   -2.228251435700815e-06
-5.305494772951834e-07   -1.908430905109889e-07   -6.156194333845931e-06
-5.305494772951834e-07   -1.908430905109889e-07   -6.156194333845931e-06
-5.305494772951834e-07   -1.908430905109889e-07   -6.156194333845931e-06
-5.305494772951834e-07   -1.908430905109889e-07   -6.156194333845931e-06
-4.5515552015337385e-07   2.0173614128022373e-07   -2.4649608038339094e-06
-4.5515552015337385e-07   2.0173614128022373e-07   -2.4649608038339094e-06
-4.5515552015337385e-07   2.0173614128022373e-07   -2.4649608038339094e-06
-4.5515552015337385e-07   2.0173614128022373e-07   -2.4649608038339094e-06
1.8201224578168932e-06   -6.290626873876534e-08   -6.0983053211062965e-06
1.8201224578168932e-06   -6.290626873876534e-08   -6.0983053211062965e-06
1.8201224578168932e-06   -6.290626873876534e-08   -6.0983053211062965e-06
1.8201224578168932e-06   -6.290626873876534e-08   -6.0983053211062965e-06
6.203515992982406e-07   -1.075913855696966e-08   -4.129975501684402e-06
6.203515992982406e-07   -1.075913855696966e-08   -4.129975501684402e-06
6.203515992982406e-07   -1.075913855696966e-08   -4.129975501684402e-06
6.203515992982406e-07   -1.075913855696966e-08   -4.129975501684402e-06
-6.96474844263588e-07   1.572259233851214e-07   -3.0036995820433775e-06
-6.96474844263588e-07   1.572259233851214e-07   -3.0036995820433775e-06
-6.96474844263588e-07   1.572259233851214e-07   -3.0036995820433775e-06
-6.96474844263588e-07   1.572259233851214e-07   -3.0036995820433775e-06
-2.892517568847144e-06   1.0149163271285693e-07   -6.697211364086017e-06
-2.892517568847144e-06   1.0149163271285693e-07   -6.697211364086017e-06
-2.892517568847144e-06   1.0149163271285693e-07   -6.697211364086017e-06
-2.892517568847144e-06   1.0149163271285693e-07   -6.697211364086017e-06
-2.8013678895994866e-06   2.811483454627918e-07   -2.9738783160084654e-06
-2.8013678895994866e-06   2.811483454627918e-07   -2.9738783160084654e-06
-2.8013678895994866e-06   2.811483454627918e-07   -2.9738783160084654e-06
-2.8013678895994866e-06   2.811483454627918e-07   -2.9738783160084654e-06
-6.115579045349258e-07   1.958093025858105e-07   -6.57235819872325e-06
-6.115579045349258e-07   1.958093025858105e-07   -6.57235819872325e-06
-6.115579045349258e-07   1.958093025858105e-07   -6.57235819872325e-06
-6.115579045349258e-07   1.958093025858105e-07   -6.57235819872325e-06
-1.7391631816574428e-06   2.1693211924722492e-07   -4.705689760182527e-06
-1.7391631816574428e-06   2.1693211924722492e-07   -4.705689760182527e-06
-1.7391631816574428e-06   2.1693211924722492e-07   -4.705689760182527e-06
-1.7391631816574428e-06   2.1693211924722492e-07   -4.705689760182527e-06
-6.115579045349258e-07   2.811483454627918e-07   -2.922674890282284e-06
-6.115579045349258e-07   2.811483454627918e-07   -2.922674890282284e-06
-6.115579045349258e-07   2.811483454627918e-07   -2.922674890282284e-06
-6.115579045349258e-07   2.811483454627918e-07   -2.922674890282284e-06
-2.8013678895994866e-06   1.958093025858105e-07   -6.623561624449428e-06
-2.8013678895994866e-06   1.958093025858105e-07   -6.623561624449428e-06
-2.8013678895994866e-06   1.958093025858105e-07   -6.623561624449428e-06
-2.8013678895994866e-06   1.958093025858105e-07   -6.623561624449428e-06
-2.7130107728496323e-06   4.1153388708993965e-07   -2.9695479126948883e-06
-2.7130107728496323e-06   4.1153388708993965e-07   -2.9695479126948883e-06
-2.7130107728496323e-06   4.1153388708993965e-07   -2.9695479126948883e-06
-2.7130107728496323e-06   4.1153388708993965e-07   -2.9695479126948883e-06
-5.305494772951834e-07   3.031871062897178e-07   -6.541975336805532e-06
-5.305494772951834e-07   3.031871062897178e-07   -6.541975336805532e-06
-5.305494772951834e-07   3.031871062897178e-07   -6.541975336805532e-06
-5.305494772951834e-07   3.031871062897178e-07   -6.541975336805532e-06
-1.6616684866456195e-06   3.055695641362836e-07   -4.658206462596038e-06
-1.6616684866456195e-06   3.055695641362836e-07   -4.658206462596038e-06
-1.6616684866456195e-06   3.055695641362836e-07   -4.658206462596038e-06
-1.6616684866456195e-06   3.055695641362836e-07   -4.658206462596038e-06
-5.305494772951834e-07   4.1153388708993965e-07   -2.9045398442147796e-06
-5.305494772951834e-07   4.1153388708993965e-07   -2.9045398442147796e-06
-5.305494772951834e-07   4.1153388708993965e-07   -2.9045398442147796e-06
-5.305494772951834e-07   4.1153388708993965e-07   -2.9045398442147796e-06
-2.7130107728496323e-06   3.031871062897178e-07   -6.6069834052856545e-06
-2.7130107728496323e-06   3.031871062897178e-07   -6.6069834052856545e-06
-2.7130107728496323e-06   3.031871062897178e-07   -6.6069834052856545e-06
-2.7130107728496323e-06   3.031871062897178e-07   -6.6069834052856545e-06
-2.6314397715320937e-06   5.442643670659992e-07   -3.0431411678260092e-06
-2.6314397715320937e-06   5.442643670659992e-07   -3.0431411678260092e-06
-2.6314397715320937e-06   5.442643670659992e-07   -3.0431411678260092e-06
-2.6314397715320937e-06   5.442643670659992e-07   -3.0431411678260092e-06
-4.5515552015337385e-07   4.1380934782573545e-07   -6.592008575246369e-06
-4.5515552015337385e-07   4.1380934782573545e-07   -6.592008575246369e-06
-4.5515552015337385e-07   4.1380934782573545e-07   -6.592008575246369e-06
-4.5515552015337385e-07   4.1380934782573545e-07   -6.592008575246369e-06
-1.5932590790148467e-06   3.9646595351622337e-07   -4.684763273891666e-06
-1.5932590790148467e-06   3.9646595351622337e-07   -4.684763273891666e-06
-1.5932590790148467e-06   3.9646595351622337e-07   -4.684763273891666e-06
-1.5932590790148467e-06   3.9646595351622337e-07   -4.684763273891666e-06
-2.892517568847149e-06   4.868870461225447e-07   -2.420939493376623e-06
-2.892517568847149e-06   4.868870461225447e-07   -2.420939493376623e-06
-2.892517568847149e-06   4.868870461225447e-07   -2.420939493376623e-06
-2.892517568847149e-06   4.868870461225447e-07   -2.420939493376623e-06
-5.0670935275549456e-06   5.951678050570577e-07   -5.980264302528885e-06
-5.0670935275549456e-06   5.951678050570577e-07   -5.980264302528885e-06
-5.0670935275549456e-06   5.951678050570577e-07   -5.980264302528885e-06
-5.0670935275549456e-06   5.951678050570577e-07   -5.980264302528885e-06
-4.956015854456339e-06   6.193048443428996e-07   -2.256439996725266e-06
-4.956015854456339e-06   6.193048443428996e-07   -2.256439996725266e-06
-4.956015854456339e-06   6.193048443428996e-07   -2.256439996725266e-06
-4.956015854456339e-06   6.193048443428996e-07   -2.256439996725266e-06
-2.801367889599491e-06   7.126301652410501e-07   -5.903515130692254e-06
-2.801367889599491e-06   7.126301652410501e-07   -5.903515130692254e-06
-2.801367889599491e-06   7.126301652410501e-07   -5.903515130692254e-06
-2.801367889599491e-06   7.126301652410501e-07   -5.903515130692254e-06
-3.900935787275394e-06   6.25370735841198e-07   -4.0185463102591576e-06
-3.900935787275394e-06   6.25370735841198e-07   -4.0185463102591576e-06
-3.900935787275394e-06   6.25370735841198e-07   -4.0185463102591576e-06
-3.900935787275394e-06   6.25370735841198e-07   -4.0185463102591576e-06
-2.801367889599491e-06   6.193048443428996e-07   -2.312435189264151e-06
-2.801367889599491e-06   6.193048443428996e-07   -2.312435189264151e-06
-2.801367889599491e-06   6.193048443428996e-07   -2.312435189264151e-06
-2.801367889599491e-06   6.193048443428996e-07   -2.312435189264151e-06
-4.956015854456339e-06   7.126301652410501e-07   -5.847519938153363e-06
-4.956015854456339e-06   7.126301652410501e-07   -5.847519938153363e-06
-4.956015854456339e-06   7.126301652410501e-07   -5.847519938153363e-06
-4.956015854456339e-06   7.126301652410501e-07   -5.847519938153363e-06
-4.8304259592703155e-06   7.376199483031458e-07   -2.1644695476931008e-06
-4.8304259592703155e-06   7.376199483031458e-07   -2.1644695476931008e-06
-4.8304259592703155e-06   7.376199483031458e-07   -2.1644695476931008e-06
-4.8304259592703155e-06   7.376199483031458e-07   -2.1644695476931008e-06
-2.7130107728496382e-06   8.134379407248702e-07   -5.738985653847229e-06
-2.7130107728496382e-06   8.134379407248702e-07   -5.738985653847229e-06
-2.7130107728496382e-06   8.134379407248702e-07   -5.738985653847229e-06
-2.7130107728496382e-06   8.134379407248702e-07   -5.738985653847229e-06
-3.7858377395468987e-06   7.182693618322663e-07   -3.893839562016247e-06
-3.7858377395468987e-06   7.182693618322663e-07   -3.893839562016247e-06
-3.7858377395468987e-06   7.182693618322663e-07   -3.893839562016247e-06
-3.7858377395468987e-06   7.182693618322663e-07   -3.893839562016247e-06
-2.7130107728496382e-06   7.376199483031458e-07   -2.209960343146118e-06
-2.7130107728496382e-06   7.376199483031458e-07   -2.209960343146118e-06
-2.7130107728496382e-06   7.376199483031458e-07   -2.209960343146118e-06
-2.7130107728496382e-06   7.376199483031458e-07   -2.209960343146118e-06
-4.8304259592703155e-06   8.134379407248159e-07   -5.6934948583942265e-06
-4.8304259592703155e-06   8.134379407248159e-07   -5.6934948583942265e-06
-4.8304259592703155e-06   8.134379407248159e-07   -5.6934948583942265e-06
-4.8304259592703155e-06   8.134379407248159e-07   -5.6934948583942265e-06
-4.725006608025894e-06   8.679028384496077e-07   -2.2157085197371752e-06
-4.725006608025894e-06   8.679028384496077e-07   -2.2157085197371752e-06
-4.725006608025894e-06   8.679028384496077e-07   -2.2157085197371752e-06
-4.725006608025894e-06   8.679028384496077e-07   -2.2157085197371752e-06
-2.631439771532098e-06   9.231334086296341e-07   -5.738124922668162e-06
-2.631439771532098e-06   9.231334086296341e-07   -5.738124922668162e-06
-2.631439771532098e-06   9.231334086296341e-07   -5.738124922668162e-06
-2.631439771532098e-06   9.231334086296341e-07   -5.738124922668162e-06
-3.720861124109359e-06   8.031168953047819e-07   -3.850412760377905e-06
-3.720861124109359e-06   8.031168953047819e-07   -3.850412760377905e-06
-3.720861124109359e-06   8.031168953047819e-07   -3.850412760377905e-06
-3.720861124109359e-06   8.031168953047819e-07   -3.850412760377905e-06
-5.0670935275549456e-06   8.40062506753407e-07   -1.1961190234468331e-06
-5.0670935275549456e-06   8.40062506753407e-07   -1.1961190234468331e-06
-5.0670935275549456e-06   8.40062506753407e-07   -1.1961190234468331e-06
-5.0670935275549456e-06   8.40062506753407e-07   -1.1961190234468331e-06
-7.383909689010242e-06   1.1428200592922657e-06   -4.875824761015719e-06
-7.383909689010242e-06   1.1428200592922657e-06   -4.875824761015719e-06
-7.383909689010242e-06   1.1428200592922657e-06   -4.875824761015719e-06
-7.383909689010242e-06   1.1428200592922657e-06   -4.875824761015719e-06
-7.110073723088193e-06   9.792470286271464e-07   -2.770422604326183e-07
-7.110073723088193e-06   9.792470286271464e-07   -2.770422604326183e-07
-7.110073723088193e-06   9.792470286271464e-07   -2.770422604326183e-07
-7.110073723088193e-06   9.792470286271464e-07   -2.770422604326183e-07
-4.956015854456331e-06   1.299233999140718e-06   -4.0591308904605215e-06
-4.956015854456331e-06   1.299233999140718e-06   -4.0591308904605215e-06
-4.956015854456331e-06   1.299233999140718e-06   -4.0591308904605215e-06
-4.956015854456331e-06   1.299233999140718e-06   -4.0591308904605215e-06
-5.876986639120584e-06   1.0877826640882682e-06   -2.3973087816553124e-06
-5.876986639120584e-06   1.0877826640882682e-06   -2.3973087816553124e-06
-5.876986639120584e-06   1.0877826640882682e-06   -2.3973087816553124e-06
-5.876986639120584e-06   1.0877826640882682e-06   -2.3973087816553124e-06
-4.9560158544563345e-06   9.792470286271735e-07   -4.690344427407518e-07
-4.9560158544563345e-06   9.792470286271735e-07   -4.690344427407518e-07
-4.9560158544563345e-06   9.792470286271735e-07   -4.690344427407518e-07
-4.9560158544563345e-06   9.792470286271735e-07   -4.690344427407518e-07
-7.110073723088181e-06   1.2992339991406638e-06   -3.867138708152422e-06
-7.110073723088181e-06   1.2992339991406638e-06   -3.867138708152422e-06
-7.110073723088181e-06   1.2992339991406638e-06   -3.867138708152422e-06
-7.110073723088181e-06   1.2992339991406638e-06   -3.867138708152422e-06
-6.885112022818562e-06   1.0296794710707097e-06   1.1608214949275801e-07
-6.885112022818562e-06   1.0296794710707097e-06   1.1608214949275801e-07
-6.885112022818562e-06   1.0296794710707097e-06   1.1608214949275801e-07
-6.885112022818562e-06   1.0296794710707097e-06   1.1608214949275801e-07
-4.8304259592703155e-06   1.3414238450863334e-06   -3.49544124749707e-06
-4.8304259592703155e-06   1.3414238450863334e-06   -3.49544124749707e-06
-4.8304259592703155e-06   1.3414238450863334e-06   -3.49544124749707e-06
-4.8304259592703155e-06   1.3414238450863334e-06   -3.49544124749707e-06
-5.7986748981118755e-06   1.1534797419169218e-06   -1.7689265541927056e-06
-5.7986748981118755e-06   1.1534797419169218e-06   -1.7689265541927056e-06
-5.7986748981118755e-06   1.1534797419169218e-06   -1.7689265541927056e-06
-5.7986748981118755e-06   1.1534797419169218e-06   -1.7689265541927056e-06
-4.8304259592703155e-06   1.0296794710707097e-06   -7.096447491662975e-08
-4.8304259592703155e-06   1.0296794710707097e-06   -7.096447491662975e-08
-4.8304259592703155e-06   1.0296794710707097e-06   -7.096447491662975e-08
-4.8304259592703155e-06   1.0296794710707097e-06   -7.096447491662975e-08
-6.88511202281854e-06   1.3414238450863334e-06   -3.308394623087669e-06
-6.88511202281854e-06   1.3414238450863334e-06   -3.308394623087669e-06
-6.88511202281854e-06   1.3414238450863334e-06   -3.308394623087669e-06
-6.88511202281854e-06   1.3414238450863334e-06   -3.308394623087669e-06
-6.637687204412571e-06   1.0886737227649415e-06   6.264038065525578e-07
-6.637687204412571e-06   1.0886737227649415e-06   6.264038065525578e-07
-6.637687204412571e-06   1.0886737227649415e-06   6.264038065525578e-07
-6.637687204412571e-06   1.0886737227649415e-06   6.264038065525578e-07
-4.725006608025889e-06   1.3721476164111463e-06   -2.7314815236129054e-06
-4.725006608025889e-06   1.3721476164111463e-06   -2.7314815236129054e-06
-4.725006608025889e-06   1.3721476164111463e-06   -2.7314815236129054e-06
-4.725006608025889e-06   1.3721476164111463e-06   -2.7314815236129054e-06
-5.562352140315339e-06   1.1633600494584303e-06   -1.2106330962923743e-06
-5.562352140315339e-06   1.1633600494584303e-06   -1.2106330962923743e-06
-5.562352140315339e-06   1.1633600494584303e-06   -1.2106330962923743e-06
-5.562352140315339e-06   1.1633600494584303e-06   -1.2106330962923743e-06
6.063588091952976e-06   -8.35689701366956e-07   1.3707400285032614e-06
6.063588091952976e-06   -8.35689701366956e-07   1.3707400285032614e-06
6.063588091952976e-06   -8.35689701366956e-07   1.3707400285032614e-06
6.063588091952976e-06   -8.35689701366956e-07   1.3707400285032614e-06
2.8843904755842072e-06   -1.2119043422987859e-06   -4.153651450003709e-06
2.8843904755842072e-06   -1.2119043422987859e-06   -4.153651450003709e-06
2.8843904755842072e-06   -1.2119043422987859e-06   -4.153651450003709e-06
2.8843904755842072e-06   -1.2119043422987859e-06   -4.153651450003709e-06
2.986784410086708e-06   -7.797913287912453e-07   7.497713871580636e-07
2.986784410086708e-06   -7.797913287912453e-07   7.497713871580636e-07
2.986784410086708e-06   -7.797913287912453e-07   7.497713871580636e-07
2.986784410086708e-06   -7.797913287912453e-07   7.497713871580636e-07
6.316252698908638e-06   -1.186607919098821e-06   -4.555252473360631e-06
6.316252698908638e-06   -1.186607919098821e-06   -4.555252473360631e-06
6.316252698908638e-06   -1.186607919098821e-06   -4.555252473360631e-06
6.316252698908638e-06   -1.186607919098821e-06   -4.555252473360631e-06
4.3754618528956e-06   -9.09313276966137e-07   -1.4869778486185166e-06
4.3754618528956e-06   -9.09313276966137e-07   -1.4869778486185166e-06
4.3754618528956e-06   -9.09313276966137e-07   -1.4869778486185166e-06
4.3754618528956e-06   -9.09313276966137e-07   -1.4869778486185166e-06
6.3162526989086446e-06   -7.797913287912453e-07   9.938613413426132e-07
6.3162526989086446e-06   -7.797913287912453e-07   9.938613413426132e-07
6.3162526989086446e-06   -7.797913287912453e-07   9.938613413426132e-07
6.3162526989086446e-06   -7.797913287912453e-07   9.938613413426132e-07
2.9867844100867048e-06   -1.186607919098821e-06   -4.7993424275451875e-06
2.9867844100867048e-06   -1.186607919098821e-06   -4.7993424275451875e-06
2.9867844100867048e-06   -1.186607919098821e-06   -4.7993424275451875e-06
2.9867844100867048e-06   -1.186607919098821e-06   -4.7993424275451875e-06
3.089050610488057e-06   -7.285047235426612e-07   4.389324976718375e-07
3.089050610488057e-06   -7.285047235426612e-07   4.389324976718375e-07
3.089050610488057e-06   -7.285047235426612e-07   4.389324976718375e-07
3.089050610488057e-06   -7.285047235426612e-07   4.389324976718375e-07
6.5079012050591365e-06   -1.1444002341657027e-06   -5.009614520239456e-06
6.5079012050591365e-06   -1.1444002341657027e-06   -5.009614520239456e-06
6.5079012050591365e-06   -1.1444002341657027e-06   -5.009614520239456e-06
6.5079012050591365e-06   -1.1444002341657027e-06   -5.009614520239456e-06
4.590716360392543e-06   -9.056573561543112e-07   -1.9575521726020298e-06
4.590716360392543e-06   -9.056573561543112e-07   -1.9575521726020298e-06
4.590716360392543e-06   -9.056573561543112e-07   -1.9575521726020298e-06
4.590716360392543e-06   -9.056573561543112e-07   -1.9575521726020298e-06
6.5079012050591365e-06   -7.285047235426612e-07   6.884698040456801e-07
6.5079012050591365e-06   -7.285047235426612e-07   6.884698040456801e-07
6.5079012050591365e-06   -7.285047235426612e-07   6.884698040456801e-07
6.5079012050591365e-06   -7.285047235426612e-07   6.884698040456801e-07
3.089050610488057e-06   -1.144400234165757e-06   -5.259151826613319e-06
3.089050610488057e-06   -1.144400234165757e-06   -5.259151826613319e-06
3.089050610488057e-06   -1.144400234165757e-06   -5.259151826613319e-06
3.089050610488057e-06   -1.144400234165757e-06   -5.259151826613319e-06
3.155938388802426e-06   -5.699643350549118e-07   -1.7525168840009254e-07
3.155938388802426e-06   -5.699643350549118e-07   -1.7525168840009254e-07
3.155938388802426e-06   -5.699643350549118e-07   -1.7525168840009254e-07
3.155938388802426e-06   -5.699643350549118e-07   -1.7525168840009254e-07
6.7114037749334855e-06   -9.83442116453718e-07   -5.8529406631126e-06
6.7114037749334855e-06   -9.83442116453718e-07   -5.8529406631126e-06
6.7114037749334855e-06   -9.83442116453718e-07   -5.8529406631126e-06
6.7114037749334855e-06   -9.83442116453718e-07   -5.8529406631126e-06
4.639362975950584e-06   -8.341223813920339e-07   -2.4891311725115016e-06
4.639362975950584e-06   -8.341223813920339e-07   -2.4891311725115016e-06
4.639362975950584e-06   -8.341223813920339e-07   -2.4891311725115016e-06
4.639362975950584e-06   -8.341223813920339e-07   -2.4891311725115016e-06
2.884390475584214e-06   -3.744856870963693e-07   -1.2323157849671462e-06
2.884390475584214e-06   -3.744856870963693e-07   -1.2323157849671462e-06
2.884390475584214e-06   -3.744856870963693e-07   -1.2323157849671462e-06
2.884390475584214e-06   -3.744856870963693e-07   -1.2323157849671462e-06
-2.424233666196129e-07   -7.445221613421645e-07   -6.665694073187695e-06
-2.424233666196129e-07   -7.445221613421645e-07   -6.665694073187695e-06
-2.424233666196129e-07   -7.445221613421645e-07   -6.665694073187695e-06
-2.424233666196129e-07   -7.445221613421645e-07   -6.665694073187695e-06
-1.387971191245567e-07   -2.9163318833208985e-07   -1.3670154510793018e-06
-1.387971191245567e-07   -2.9163318833208985e-07   -1.3670154510793018e-06
-1.387971191245567e-07   -2.9163318833208985e-07   -1.3670154510793018e-06
-1.387971191245567e-07   -2.9163318833208985e-07   -1.3670154510793018e-06
2.986784410086708e-06   -7.031904105872099e-07   -6.329383666411724e-06
2.986784410086708e-06   -7.031904105872099e-07   -6.329383666411724e-06
2.986784410086708e-06   -7.031904105872099e-07   -6.329383666411724e-06
2.986784410086708e-06   -7.031904105872099e-07   -6.329383666411724e-06
1.3753146373136866e-06   -4.5230349026288393e-07   -3.7941328639845963e-06
1.3753146373136866e-06   -4.5230349026288393e-07   -3.7941328639845963e-06
1.3753146373136866e-06   -4.5230349026288393e-07   -3.7941328639845963e-06
1.3753146373136866e-06   -4.5230349026288393e-07   -3.7941328639845963e-06
2.986784410086708e-06   -2.9163318833208985e-07   -1.1200811177262745e-06
2.986784410086708e-06   -2.9163318833208985e-07   -1.1200811177262745e-06
2.986784410086708e-06   -2.9163318833208985e-07   -1.1200811177262745e-06
2.986784410086708e-06   -2.9163318833208985e-07   -1.1200811177262745e-06
-1.387971191245567e-07   -7.031904105872099e-07   -6.576317999764758e-06
-1.387971191245567e-07   -7.031904105872099e-07   -6.576317999764758e-06
-1.387971191245567e-07   -7.031904105872099e-07   -6.576317999764758e-06
-1.387971191245567e-07   -7.031904105872099e-07   -6.576317999764758e-06
-4.78712920890465e-08   -1.908430905109889e-07   -1.412038047984474e-06
-4.78712920890465e-08   -1.908430905109889e-07   -1.412038047984474e-06
-4.78712920890465e-08   -1.908430905109889e-07   -1.412038047984474e-06
-4.78712920890465e-08   -1.908430905109889e-07   -1.412038047984474e-06
3.089050610488057e-06   -6.304145418926737e-07   -6.376498348117297e-06
3.089050610488057e-06   -6.304145418926737e-07   -6.376498348117297e-06
3.089050610488057e-06   -6.304145418926737e-07   -6.376498348117297e-06
3.089050610488057e-06   -6.304145418926737e-07   -6.376498348117297e-06
1.4423087137101646e-06   -4.091248999459247e-07   -3.7647023053220927e-06
1.4423087137101646e-06   -4.091248999459247e-07   -3.7647023053220927e-06
1.4423087137101646e-06   -4.091248999459247e-07   -3.7647023053220927e-06
1.4423087137101646e-06   -4.091248999459247e-07   -3.7647023053220927e-06
3.089050610488057e-06   -1.908430905109347e-07   -1.148295177155457e-06
3.089050610488057e-06   -1.908430905109347e-07   -1.148295177155457e-06
3.089050610488057e-06   -1.908430905109347e-07   -1.148295177155457e-06
3.089050610488057e-06   -1.908430905109347e-07   -1.148295177155457e-06
-4.78712920890465e-08   -6.304145418926737e-07   -6.6402412189463516e-06
-4.78712920890465e-08   -6.304145418926737e-07   -6.6402412189463516e-06
-4.78712920890465e-08   -6.304145418926737e-07   -6.6402412189463516e-06
-4.78712920890465e-08   -6.304145418926737e-07   -6.6402412189463516e-06
1.5571472888751192e-08   -6.290626873876534e-08   -1.4802570881807062e-06
1.5571472888751192e-08   -6.290626873876534e-08   -1.4802570881807062e-06
1.5571472888751192e-08   -6.290626873876534e-08   -1.4802570881807062e-06
1.5571472888751192e-08   -6.290626873876534e-08   -1.4802570881807062e-06
3.1559383888024363e-06   -5.26546532647631e-07   -6.436017789691585e-06
3.1559383888024363e-06   -5.26546532647631e-07   -6.436017789691585e-06
3.1559383888024363e-06   -5.26546532647631e-07   -6.436017789691585e-06
3.1559383888024363e-06   -5.26546532647631e-07   -6.436017789691585e-06
1.5278761507257864e-06   -3.356349083610095e-07   -3.837127700802553e-06
1.5278761507257864e-06   -3.356349083610095e-07   -3.837127700802553e-06
1.5278761507257864e-06   -3.356349083610095e-07   -3.837127700802553e-06
1.5278761507257864e-06   -3.356349083610095e-07   -3.837127700802553e-06
-2.424233666196129e-07   1.0149163271280272e-07   -1.979434132607978e-06
-2.424233666196129e-07   1.0149163271280272e-07   -1.979434132607978e-06
-2.424233666196129e-07   1.0149163271280272e-07   -1.979434132607978e-06
-2.424233666196129e-07   1.0149163271280272e-07   -1.979434132607978e-06
-3.323244781654512e-06   -3.2755113917319785e-07   -7.371562154131101e-06
-3.323244781654512e-06   -3.2755113917319785e-07   -7.371562154131101e-06
-3.323244781654512e-06   -3.2755113917319785e-07   -7.371562154131101e-06
-3.323244781654512e-06   -3.2755113917319785e-07   -7.371562154131101e-06
-3.19836197821317e-06   1.958093025858105e-07   -2.141317438376087e-06
-3.19836197821317e-06   1.958093025858105e-07   -2.141317438376087e-06
-3.19836197821317e-06   1.958093025858105e-07   -2.141317438376087e-06
-3.19836197821317e-06   1.958093025858105e-07   -2.141317438376087e-06
-1.387971191245567e-07   -2.7706988191836474e-07   -6.956864692821244e-06
-1.387971191245567e-07   -2.7706988191836474e-07   -6.956864692821244e-06
-1.387971191245567e-07   -2.7706988191836474e-07   -6.956864692821244e-06
-1.387971191245567e-07   -2.7706988191836474e-07   -6.956864692821244e-06
-1.7075181173827976e-06   -2.2014940028537754e-08   -4.495362660858094e-06
-1.7075181173827976e-06   -2.2014940028537754e-08   -4.495362660858094e-06
-1.7075181173827976e-06   -2.2014940028537754e-08   -4.495362660858094e-06
-1.7075181173827976e-06   -2.2014940028537754e-08   -4.495362660858094e-06
-1.387971191245567e-07   1.958093025858105e-07   -1.8575899276735422e-06
-1.387971191245567e-07   1.958093025858105e-07   -1.8575899276735422e-06
-1.387971191245567e-07   1.958093025858105e-07   -1.8575899276735422e-06
-1.387971191245567e-07   1.958093025858105e-07   -1.8575899276735422e-06
-3.19836197821317e-06   -2.7706988191836474e-07   -7.240592203523787e-06
-3.19836197821317e-06   -2.7706988191836474e-07   -7.240592203523787e-06
-3.19836197821317e-06   -2.7706988191836474e-07   -7.240592203523787e-06
-3.19836197821317e-06   -2.7706988191836474e-07   -7.240592203523787e-06
-3.083855123355295e-06   3.031871062896636e-07   -2.1024275335376535e-06
-3.083855123355295e-06   3.031871062896636e-07   -2.1024275335376535e-06
-3.083855123355295e-06   3.031871062896636e-07   -2.1024275335376535e-06
-3.083855123355295e-06   3.031871062896636e-07   -2.1024275335376535e-06
-4.78712920890465e-08   -2.044936980328811e-07   -6.857792103054486e-06
-4.78712920890465e-08   -2.044936980328811e-07   -6.857792103054486e-06
-4.78712920890465e-08   -2.044936980328811e-07   -6.857792103054486e-06
-4.78712920890465e-08   -2.044936980328811e-07   -6.857792103054486e-06
-1.6070359244382103e-06   3.354965287961226e-08   -4.402010393020052e-06
-1.6070359244382103e-06   3.354965287961226e-08   -4.402010393020052e-06
-1.6070359244382103e-06   3.354965287961226e-08   -4.402010393020052e-06
-1.6070359244382103e-06   3.354965287961226e-08   -4.402010393020052e-06
-4.78712920890465e-08   3.031871062896636e-07   -1.7978190509440837e-06
-4.78712920890465e-08   3.031871062896636e-07   -1.7978190509440837e-06
-4.78712920890465e-08   3.031871062896636e-07   -1.7978190509440837e-06
-4.78712920890465e-08   3.031871062896636e-07   -1.7978190509440837e-06
-3.083855123355295e-06   -2.044936980328269e-07   -7.162400585648051e-06
-3.083855123355295e-06   -2.044936980328269e-07   -7.162400585648051e-06
-3.083855123355295e-06   -2.044936980328269e-07   -7.162400585648051e-06
-3.083855123355295e-06   -2.044936980328269e-07   -7.162400585648051e-06
-3.0071571652786824e-06   4.1380934782573545e-07   -2.1443534700714482e-06
-3.0071571652786824e-06   4.1380934782573545e-07   -2.1443534700714482e-06
-3.0071571652786824e-06   4.1380934782573545e-07   -2.1443534700714482e-06
-3.0071571652786824e-06   4.1380934782573545e-07   -2.1443534700714482e-06
1.557147288875458e-08   -1.3482160844436068e-07   -6.853055959921806e-06
1.557147288875458e-08   -1.3482160844436068e-07   -6.853055959921806e-06
1.557147288875458e-08   -1.3482160844436068e-07   -6.853055959921806e-06
1.557147288875458e-08   -1.3482160844436068e-07   -6.853055959921806e-06
-1.5366901611972048e-06   9.52082458773886e-08   -4.403971149038335e-06
-1.5366901611972048e-06   9.52082458773886e-08   -4.403971149038335e-06
-1.5366901611972048e-06   9.52082458773886e-08   -4.403971149038335e-06
-1.5366901611972048e-06   9.52082458773886e-08   -4.403971149038335e-06
-3.323244781654512e-06   5.951678050570577e-07   -1.584881189543185e-06
-3.323244781654512e-06   5.951678050570577e-07   -1.584881189543185e-06
-3.323244781654512e-06   5.951678050570577e-07   -1.584881189543185e-06
-3.323244781654512e-06   5.951678050570577e-07   -1.584881189543185e-06
-6.455410345546161e-06   2.1911973619679346e-07   -7.030785970678751e-06
-6.455410345546161e-06   2.1911973619679346e-07   -7.030785970678751e-06
-6.455410345546161e-06   2.1911973619679346e-07   -7.030785970678751e-06
-6.455410345546161e-06   2.1911973619679346e-07   -7.030785970678751e-06
-6.276952372589102e-06   7.126301652410501e-07   -1.6664336952451565e-06
-6.276952372589102e-06   7.126301652410501e-07   -1.6664336952451565e-06
-6.276952372589102e-06   7.126301652410501e-07   -1.6664336952451565e-06
-6.276952372589102e-06   7.126301652410501e-07   -1.6664336952451565e-06
-3.19836197821317e-06   3.040255808639406e-07   -6.552254935245441e-06
-3.19836197821317e-06   3.040255808639406e-07   -6.552254935245441e-06
-3.19836197821317e-06   3.040255808639406e-07   -6.552254935245441e-06
-3.19836197821317e-06   3.040255808639406e-07   -6.552254935245441e-06
-4.766803655819982e-06   4.93452671225655e-07   -4.0518417267844565e-06
-4.766803655819982e-06   4.93452671225655e-07   -4.0518417267844565e-06
-4.766803655819982e-06   4.93452671225655e-07   -4.0518417267844565e-06
-4.766803655819982e-06   4.93452671225655e-07   -4.0518417267844565e-06
-3.19836197821317e-06   7.126301652410501e-07   -1.4212709446189044e-06
-3.19836197821317e-06   7.126301652410501e-07   -1.4212709446189044e-06
-3.19836197821317e-06   7.126301652410501e-07   -1.4212709446189044e-06
-3.19836197821317e-06   7.126301652410501e-07   -1.4212709446189044e-06
-6.276952372589114e-06   3.040255808639948e-07   -6.797417685871739e-06
-6.276952372589114e-06   3.040255808639948e-07   -6.797417685871739e-06
-6.276952372589114e-06   3.040255808639948e-07   -6.797417685871739e-06
-6.276952372589114e-06   3.040255808639948e-07   -6.797417685871739e-06
-6.101601259836329e-06   8.134379407248702e-07   -1.493709174546677e-06
-6.101601259836329e-06   8.134379407248702e-07   -1.493709174546677e-06
-6.101601259836329e-06   8.134379407248702e-07   -1.493709174546677e-06
-6.101601259836329e-06   8.134379407248702e-07   -1.493709174546677e-06
-3.0838551233552983e-06   3.8130561997906697e-07   -6.2640066762342924e-06
-3.0838551233552983e-06   3.8130561997906697e-07   -6.2640066762342924e-06
-3.0838551233552983e-06   3.8130561997906697e-07   -6.2640066762342924e-06
-3.0838551233552983e-06   3.8130561997906697e-07   -6.2640066762342924e-06
-4.60130604491866e-06   5.674589333039943e-07   -3.846613794956962e-06
-4.60130604491866e-06   5.674589333039943e-07   -3.846613794956962e-06
-4.60130604491866e-06   5.674589333039943e-07   -3.846613794956962e-06
-4.60130604491866e-06   5.674589333039943e-07   -3.846613794956962e-06
-3.083855123355295e-06   8.134379407248702e-07   -1.2344297820992136e-06
-3.083855123355295e-06   8.134379407248702e-07   -1.2344297820992136e-06
-3.083855123355295e-06   8.134379407248702e-07   -1.2344297820992136e-06
-3.083855123355295e-06   8.134379407248702e-07   -1.2344297820992136e-06
-6.101601259836339e-06   3.8130561997906697e-07   -6.523286068681769e-06
-6.101601259836339e-06   3.8130561997906697e-07   -6.523286068681769e-06
-6.101601259836339e-06   3.8130561997906697e-07   -6.523286068681769e-06
-6.101601259836339e-06   3.8130561997906697e-07   -6.523286068681769e-06
-5.97270914831215e-06   9.231334086296341e-07   -1.4992037984036023e-06
-5.97270914831215e-06   9.231334086296341e-07   -1.4992037984036023e-06
-5.97270914831215e-06   9.231334086296341e-07   -1.4992037984036023e-06
-5.97270914831215e-06   9.231334086296341e-07   -1.4992037984036023e-06
-3.0071571652786875e-06   4.4478842120538155e-07   -6.154783444338181e-06
-3.0071571652786875e-06   4.4478842120538155e-07   -6.154783444338181e-06
-3.0071571652786875e-06   4.4478842120538155e-07   -6.154783444338181e-06
-3.0071571652786875e-06   4.4478842120538155e-07   -6.154783444338181e-06
-4.518210394541874e-06   6.196636019460873e-07   -3.741286504010705e-06
-4.518210394541874e-06   6.196636019460873e-07   -3.741286504010705e-06
-4.518210394541874e-06   6.196636019460873e-07   -3.741286504010705e-06
-4.518210394541874e-06   6.196636019460873e-07   -3.741286504010705e-06
-6.455410345546161e-06   1.1428200592922657e-06   -8.877250208694858e-07
-6.455410345546161e-06   1.1428200592922657e-06   -8.877250208694858e-07
-6.455410345546161e-06   1.1428200592922657e-06   -8.877250208694858e-07
-6.455410345546161e-06   1.1428200592922657e-06   -8.877250208694858e-07
-9.752303978146966e-06   1.1052964520657464e-06   -6.405061906206768e-06
-9.752303978146966e-06   1.1052964520657464e-06   -6.405061906206768e-06
-9.752303978146966e-06   1.1052964520657464e-06   -6.405061906206768e-06
-9.752303978146966e-06   1.1052964520657464e-06   -6.405061906206768e-06
-9.377592213801356e-06   1.2992339991406638e-06   1.6030962884168876e-07
-9.377592213801356e-06   1.2992339991406638e-06   1.6030962884168876e-07
-9.377592213801356e-06   1.2992339991406638e-06   1.6030962884168876e-07
-9.377592213801356e-06   1.2992339991406638e-06   1.6030962884168876e-07
-6.276952372589092e-06   1.3631577931307688e-06   -5.045777716239434e-06
-6.276952372589092e-06   1.3631577931307688e-06   -5.045777716239434e-06
-6.276952372589092e-06   1.3631577931307688e-06   -5.045777716239434e-06
-6.276952372589092e-06   1.3631577931307688e-06   -5.045777716239434e-06
-7.623525147061043e-06   1.2805666467182505e-06   -2.7519350709387033e-06
-7.623525147061043e-06   1.2805666467182505e-06   -2.7519350709387033e-06
-7.623525147061043e-06   1.2805666467182505e-06   -2.7519350709387033e-06
-7.623525147061043e-06   1.2805666467182505e-06   -2.7519350709387033e-06
-6.276952372589108e-06   1.299233999140718e-06   1.2195535244767522e-07
-6.276952372589108e-06   1.299233999140718e-06   1.2195535244767522e-07
-6.276952372589108e-06   1.299233999140718e-06   1.2195535244767522e-07
-6.276952372589108e-06   1.299233999140718e-06   1.2195535244767522e-07
-9.377592213801339e-06   1.3631577931307688e-06   -5.007423439845404e-06
-9.377592213801339e-06   1.3631577931307688e-06   -5.007423439845404e-06
-9.377592213801339e-06   1.3631577931307688e-06   -5.007423439845404e-06
-9.377592213801339e-06   1.3631577931307688e-06   -5.007423439845404e-06
-9.070232803402845e-06   1.3414238450863876e-06   7.531366841061833e-07
-9.070232803402845e-06   1.3414238450863876e-06   7.531366841061833e-07
-9.070232803402845e-06   1.3414238450863876e-06   7.531366841061833e-07
-9.070232803402845e-06   1.3414238450863876e-06   7.531366841061833e-07
-6.101601259836329e-06   1.4227442580126964e-06   -4.243374802927077e-06
-6.101601259836329e-06   1.4227442580126964e-06   -4.243374802927077e-06
-6.101601259836329e-06   1.4227442580126964e-06   -4.243374802927077e-06
-6.101601259836329e-06   1.4227442580126964e-06   -4.243374802927077e-06
-7.502017644928585e-06   1.369716301086269e-06   -1.8775307202840812e-06
-7.502017644928585e-06   1.369716301086269e-06   -1.8775307202840812e-06
-7.502017644928585e-06   1.369716301086269e-06   -1.8775307202840812e-06
-7.502017644928585e-06   1.369716301086269e-06   -1.8775307202840812e-06
-6.101601259836339e-06   1.3414238450863334e-06   7.043444363504455e-07
-6.101601259836339e-06   1.3414238450863334e-06   7.043444363504455e-07
-6.101601259836339e-06   1.3414238450863334e-06   7.043444363504455e-07
-6.101601259836339e-06   1.3414238450863334e-06   7.043444363504455e-07
-9.07023280340286e-06   1.4227442580126422e-06   -4.194582555171319e-06
-9.07023280340286e-06   1.4227442580126422e-06   -4.194582555171319e-06
-9.07023280340286e-06   1.4227442580126422e-06   -4.194582555171319e-06
-9.07023280340286e-06   1.4227442580126422e-06   -4.194582555171319e-06
-8.745144751109853e-06   1.372147616411092e-06   1.5595778062348412e-06
-8.745144751109853e-06   1.372147616411092e-06   1.5595778062348412e-06
-8.745144751109853e-06   1.372147616411092e-06   1.5595778062348412e-06
-8.745144751109853e-06   1.372147616411092e-06   1.5595778062348412e-06
-5.972709148312155e-06   1.514275195896547e-06   -3.146424746119258e-06
-5.972709148312155e-06   1.514275195896547e-06   -3.146424746119258e-06
-5.972709148312155e-06   1.514275195896547e-06   -3.146424746119258e-06
-5.972709148312155e-06   1.514275195896547e-06   -3.146424746119258e-06
-7.180665830366222e-06   1.3952936081332312e-06   -1.0617746567046096e-06
-7.180665830366222e-06   1.3952936081332312e-06   -1.0617746567046096e-06
-7.180665830366222e-06   1.3952936081332312e-06   -1.0617746567046096e-06
-7.180665830366222e-06   1.3952936081332312e-06   -1.0617746567046096e-06
8.193118907276008e-06   -1.2119043422987859e-06   2.9282689363493693e-06
8.193118907276008e-06   -1.2119043422987859e-06   2.9282689363493693e-06
8.193118907276008e-06   -1.2119043422987859e-06   2.9282689363493693e-06
8.193118907276008e-06   -1.2119043422987859e-06   2.9282689363493693e-06
4.077868940374975e-06   -1.512716794477894e-06   -4.110968479793174e-06
4.077868940374975e-06   -1.512716794477894e-06   -4.110968479793174e-06
4.077868940374975e-06   -1.512716794477894e-06   -4.110968479793174e-06
4.077868940374975e-06   -1.512716794477894e-06   -4.110968479793174e-06
4.164041627523507e-06   -1.186607919098821e-06   2.1331545679543573e-06
4.164041627523507e-06   -1.186607919098821e-06   2.1331545679543573e-06
4.164041627523507e-06   -1.186607919098821e-06   2.1331545679543573e-06
4.164041627523507e-06   -1.186607919098821e-06   2.1331545679543573e-06
8.379826754191199e-06   -1.550696592307881e-06   -4.674700772566362e-06
8.379826754191199e-06   -1.550696592307881e-06   -4.674700772566362e-06
8.379826754191199e-06   -1.550696592307881e-06   -4.674700772566362e-06
8.379826754191199e-06   -1.550696592307881e-06   -4.674700772566362e-06
5.9537205330489315e-06   -1.2372410644978873e-06   -8.192637206819094e-07
5.9537205330489315e-06   -1.2372410644978873e-06   -8.192637206819094e-07
5.9537205330489315e-06   -1.2372410644978873e-06   -8.192637206819094e-07
5.9537205330489315e-06   -1.2372410644978873e-06   -8.192637206819094e-07
8.379826754191199e-06   -1.186607919098821e-06   2.351607771879792e-06
8.379826754191199e-06   -1.186607919098821e-06   2.351607771879792e-06
8.379826754191199e-06   -1.186607919098821e-06   2.351607771879792e-06
8.379826754191199e-06   -1.186607919098821e-06   2.351607771879792e-06
4.164041627523507e-06   -1.550696592307881e-06   -4.893153976491803e-06
4.164041627523507e-06   -1.550696592307881e-06   -4.893153976491803e-06
4.164041627523507e-06   -1.550696592307881e-06   -4.893153976491803e-06
4.164041627523507e-06   -1.550696592307881e-06   -4.893153976491803e-06
4.2365627450712466e-06   -1.144400234165757e-06   1.7004146537692884e-06
4.2365627450712466e-06   -1.144400234165757e-06   1.7004146537692884e-06
4.2365627450712466e-06   -1.144400234165757e-06   1.7004146537692884e-06
4.2365627450712466e-06   -1.144400234165757e-06   1.7004146537692884e-06
8.494814710924152e-06   -1.5340213242104393e-06   -5.162899301958736e-06
8.494814710924152e-06   -1.5340213242104393e-06   -5.162899301958736e-06
8.494814710924152e-06   -1.5340213242104393e-06   -5.162899301958736e-06
8.494814710924152e-06   -1.5340213242104393e-06   -5.162899301958736e-06
6.151568302450857e-06   -1.2730915440011252e-06   -1.4140464892954831e-06
6.151568302450857e-06   -1.2730915440011252e-06   -1.4140464892954831e-06
6.151568302450857e-06   -1.2730915440011252e-06   -1.4140464892954831e-06
6.151568302450857e-06   -1.2730915440011252e-06   -1.4140464892954831e-06
8.494814710924152e-06   -1.144400234165757e-06   1.9341873077961032e-06
8.494814710924152e-06   -1.144400234165757e-06   1.9341873077961032e-06
8.494814710924152e-06   -1.144400234165757e-06   1.9341873077961032e-06
8.494814710924152e-06   -1.144400234165757e-06   1.9341873077961032e-06
4.2365627450712466e-06   -1.5340213242104393e-06   -5.396671955985551e-06
4.2365627450712466e-06   -1.5340213242104393e-06   -5.396671955985551e-06
4.2365627450712466e-06   -1.5340213242104393e-06   -5.396671955985551e-06
4.2365627450712466e-06   -1.5340213242104393e-06   -5.396671955985551e-06
4.310351863881823e-06   -9.834421164536637e-07   8.761482791881593e-07
4.310351863881823e-06   -9.834421164536637e-07   8.761482791881593e-07
4.310351863881823e-06   -9.834421164536637e-07   8.761482791881593e-07
4.310351863881823e-06   -9.834421164536637e-07   8.761482791881593e-07
8.608199659741549e-06   -1.4410482882852918e-06   -6.012367677479103e-06
8.608199659741549e-06   -1.4410482882852918e-06   -6.012367677479103e-06
8.608199659741549e-06   -1.4410482882852918e-06   -6.012367677479103e-06
8.608199659741549e-06   -1.4410482882852918e-06   -6.012367677479103e-06
6.141719070642786e-06   -1.220997541482487e-06   -2.033597143729523e-06
6.141719070642786e-06   -1.220997541482487e-06   -2.033597143729523e-06
6.141719070642786e-06   -1.220997541482487e-06   -2.033597143729523e-06
6.141719070642786e-06   -1.220997541482487e-06   -2.033597143729523e-06
4.077868940374975e-06   -7.445221613421645e-07   4.577607264054282e-07
4.077868940374975e-06   -7.445221613421645e-07   4.577607264054282e-07
4.077868940374975e-06   -7.445221613421645e-07   4.577607264054282e-07
4.077868940374975e-06   -7.445221613421645e-07   4.577607264054282e-07
3.7537832911826644e-07   -1.4195104753586063e-06   -6.118049947432283e-06
3.7537832911826644e-07   -1.4195104753586063e-06   -6.118049947432283e-06
3.7537832911826644e-07   -1.4195104753586063e-06   -6.118049947432283e-06
3.7537832911826644e-07   -1.4195104753586063e-06   -6.118049947432283e-06
4.7452656058052426e-07   -7.031904105871557e-07   1.8081556598992026e-07
4.7452656058052426e-07   -7.031904105871557e-07   1.8081556598992026e-07
4.7452656058052426e-07   -7.031904105871557e-07   1.8081556598992026e-07
4.7452656058052426e-07   -7.031904105871557e-07   1.8081556598992026e-07
4.16404162752351e-06   -1.4070200157502693e-06   -5.546078449150541e-06
4.16404162752351e-06   -1.4070200157502693e-06   -5.546078449150541e-06
4.16404162752351e-06   -1.4070200157502693e-06   -5.546078449150541e-06
4.16404162752351e-06   -1.4070200157502693e-06   -5.546078449150541e-06
2.2793318660578885e-06   -9.633497962557467e-07   -2.6710976450711893e-06
2.2793318660578885e-06   -9.633497962557467e-07   -2.6710976450711893e-06
2.2793318660578885e-06   -9.633497962557467e-07   -2.6710976450711893e-06
2.2793318660578885e-06   -9.633497962557467e-07   -2.6710976450711893e-06
4.1640416275235e-06   -7.031904105871557e-07   6.031133290878142e-07
4.1640416275235e-06   -7.031904105871557e-07   6.031133290878142e-07
4.1640416275235e-06   -7.031904105871557e-07   6.031133290878142e-07
4.1640416275235e-06   -7.031904105871557e-07   6.031133290878142e-07
4.7452656058052426e-07   -1.4070200157502693e-06   -5.968376212248387e-06
4.7452656058052426e-07   -1.4070200157502693e-06   -5.968376212248387e-06
4.7452656058052426e-07   -1.4070200157502693e-06   -5.968376212248387e-06
4.7452656058052426e-07   -1.4070200157502693e-06   -5.968376212248387e-06
5.638625043756169e-07   -6.304145418926737e-07   1.326471111315168e-07
5.638625043756169e-07   -6.304145418926737e-07   1.326471111315168e-07
5.638625043756169e-07   -6.304145418926737e-07   1.326471111315168e-07
5.638625043756169e-07   -6.304145418926737e-07   1.326471111315168e-07
4.2365627450712466e-06   -1.3811162437822925e-06   -5.538098935560753e-06
4.2365627450712466e-06   -1.3811162437822925e-06   -5.538098935560753e-06
4.2365627450712466e-06   -1.3811162437822925e-06   -5.538098935560753e-06
4.2365627450712466e-06   -1.3811162437822925e-06   -5.538098935560753e-06
2.3311340339779763e-06   -9.676964579490575e-07   -2.610436288571816e-06
2.3311340339779763e-06   -9.676964579490575e-07   -2.610436288571816e-06
2.3311340339779763e-06   -9.676964579490575e-07   -2.610436288571816e-06
2.3311340339779763e-06   -9.676964579490575e-07   -2.610436288571816e-06
4.2365627450712466e-06   -6.304145418926737e-07   5.830681322652928e-07
4.2365627450712466e-06   -6.304145418926737e-07   5.830681322652928e-07
4.2365627450712466e-06   -6.304145418926737e-07   5.830681322652928e-07
4.2365627450712466e-06   -6.304145418926737e-07   5.830681322652928e-07
5.638625043756135e-07   -1.3811162437822925e-06   -5.988519956694546e-06
5.638625043756135e-07   -1.3811162437822925e-06   -5.988519956694546e-06
5.638625043756135e-07   -1.3811162437822925e-06   -5.988519956694546e-06
5.638625043756135e-07   -1.3811162437822925e-06   -5.988519956694546e-06
6.982802271068144e-07   -5.26546532647631e-07   5.673788337391011e-08
6.982802271068144e-07   -5.26546532647631e-07   5.673788337391011e-08
6.982802271068144e-07   -5.26546532647631e-07   5.673788337391011e-08
6.982802271068144e-07   -5.26546532647631e-07   5.673788337391011e-08
4.3103518638818196e-06   -1.3339130961051915e-06   -5.478961573176529e-06
4.3103518638818196e-06   -1.3339130961051915e-06   -5.478961573176529e-06
4.3103518638818196e-06   -1.3339130961051915e-06   -5.478961573176529e-06
4.3103518638818196e-06   -1.3339130961051915e-06   -5.478961573176529e-06
2.441264088458122e-06   -9.44429640149341e-07   -2.5975053543772438e-06
2.441264088458122e-06   -9.44429640149341e-07   -2.5975053543772438e-06
2.441264088458122e-06   -9.44429640149341e-07   -2.5975053543772438e-06
2.441264088458122e-06   -9.44429640149341e-07   -2.5975053543772438e-06
3.7537832911826644e-07   -3.2755113917319785e-07   -3.956746798162319e-07
3.7537832911826644e-07   -3.2755113917319785e-07   -3.956746798162319e-07
3.7537832911826644e-07   -3.2755113917319785e-07   -3.956746798162319e-07
3.7537832911826644e-07   -3.2755113917319785e-07   -3.956746798162319e-07
-3.284306366007578e-06   -1.6084870864229014e-06   -7.263710740042451e-06
-3.284306366007578e-06   -1.6084870864229014e-06   -7.263710740042451e-06
-3.284306366007578e-06   -1.6084870864229014e-06   -7.263710740042451e-06
-3.284306366007578e-06   -1.6084870864229014e-06   -7.263710740042451e-06
-3.1286839790752765e-06   -2.7706988191841895e-07   -1.01513453622842e-06
-3.1286839790752765e-06   -2.7706988191841895e-07   -1.01513453622842e-06
-3.1286839790752765e-06   -2.7706988191841895e-07   -1.01513453622842e-06
-3.1286839790752765e-06   -2.7706988191841895e-07   -1.01513453622842e-06
4.7452656058052426e-07   -1.6360755638548247e-06   -6.205082026492897e-06
4.7452656058052426e-07   -1.6360755638548247e-06   -6.205082026492897e-06
4.7452656058052426e-07   -1.6360755638548247e-06   -6.205082026492897e-06
4.7452656058052426e-07   -1.6360755638548247e-06   -6.205082026492897e-06
-1.35314999197177e-06   -8.83812704796877e-07   -3.6103121543405037e-06
-1.35314999197177e-06   -8.83812704796877e-07   -3.6103121543405037e-06
-1.35314999197177e-06   -8.83812704796877e-07   -3.6103121543405037e-06
-1.35314999197177e-06   -8.83812704796877e-07   -3.6103121543405037e-06
4.7452656058052426e-07   -2.7706988191841895e-07   -1.9973112706656569e-07
4.7452656058052426e-07   -2.7706988191841895e-07   -1.9973112706656569e-07
4.7452656058052426e-07   -2.7706988191841895e-07   -1.9973112706656569e-07
4.7452656058052426e-07   -2.7706988191841895e-07   -1.9973112706656569e-07
-3.1286839790752816e-06   -1.6360755638548247e-06   -7.020485435654724e-06
-3.1286839790752816e-06   -1.6360755638548247e-06   -7.020485435654724e-06
-3.1286839790752816e-06   -1.6360755638548247e-06   -7.020485435654724e-06
-3.1286839790752816e-06   -1.6360755638548247e-06   -7.020485435654724e-06
-2.9932271497184835e-06   -2.044936980328269e-07   -9.334815765284373e-07
-2.9932271497184835e-06   -2.044936980328269e-07   -9.334815765284373e-07
-2.9932271497184835e-06   -2.044936980328269e-07   -9.334815765284373e-07
-2.9932271497184835e-06   -2.044936980328269e-07   -9.334815765284373e-07
5.638625043756135e-07   -1.618790037285914e-06   -6.013386529800163e-06
5.638625043756135e-07   -1.618790037285914e-06   -6.013386529800163e-06
5.638625043756135e-07   -1.618790037285914e-06   -6.013386529800163e-06
5.638625043756135e-07   -1.618790037285914e-06   -6.013386529800163e-06
-1.2432695838560842e-06   -8.969091387297254e-07   -3.4346282552143533e-06
-1.2432695838560842e-06   -8.969091387297254e-07   -3.4346282552143533e-06
-1.2432695838560842e-06   -8.969091387297254e-07   -3.4346282552143533e-06
-1.2432695838560842e-06   -8.969091387297254e-07   -3.4346282552143533e-06
5.638625043756135e-07   -2.044936980328269e-07   -8.49037729766446e-08
5.638625043756135e-07   -2.044936980328269e-07   -8.49037729766446e-08
5.638625043756135e-07   -2.044936980328269e-07   -8.49037729766446e-08
5.638625043756135e-07   -2.044936980328269e-07   -8.49037729766446e-08
-2.9932271497184937e-06   -1.6187900372858599e-06   -6.8619643333519555e-06
-2.9932271497184937e-06   -1.6187900372858599e-06   -6.8619643333519555e-06
-2.9932271497184937e-06   -1.6187900372858599e-06   -6.8619643333519555e-06
-2.9932271497184937e-06   -1.6187900372858599e-06   -6.8619643333519555e-06
-2.7586668838012006e-06   -1.3482160844436068e-07   -9.316701935782005e-07
-2.7586668838012006e-06   -1.3482160844436068e-07   -9.316701935782005e-07
-2.7586668838012006e-06   -1.3482160844436068e-07   -9.316701935782005e-07
-2.7586668838012006e-06   -1.3482160844436068e-07   -9.316701935782005e-07
6.982802271068144e-07   -1.5507450502230246e-06   -5.843694646691058e-06
6.982802271068144e-07   -1.5507450502230246e-06   -5.843694646691058e-06
6.982802271068144e-07   -1.5507450502230246e-06   -5.843694646691058e-06
6.982802271068144e-07   -1.5507450502230246e-06   -5.843694646691058e-06
-1.0999505256767307e-06   -8.68217626062305e-07   -3.2561598465482265e-06
-1.0999505256767307e-06   -8.68217626062305e-07   -3.2561598465482265e-06
-1.0999505256767307e-06   -8.68217626062305e-07   -3.2561598465482265e-06
-1.0999505256767307e-06   -8.68217626062305e-07   -3.2561598465482265e-06
-3.284306366007573e-06   2.1911973619679346e-07   -5.978312233975396e-07
-3.284306366007573e-06   2.1911973619679346e-07   -5.978312233975396e-07
-3.284306366007573e-06   2.1911973619679346e-07   -5.978312233975396e-07
-3.284306366007573e-06   2.1911973619679346e-07   -5.978312233975396e-07
-7.325490504993342e-06   -1.9040460282143353e-06   -8.607037580353808e-06
-7.325490504993342e-06   -1.9040460282143353e-06   -8.607037580353808e-06
-7.325490504993342e-06   -1.9040460282143353e-06   -8.607037580353808e-06
-7.325490504993342e-06   -1.9040460282143353e-06   -8.607037580353808e-06
-7.131630440276967e-06   3.040255808639948e-07   -1.8097078929086479e-06
-7.131630440276967e-06   3.040255808639948e-07   -1.8097078929086479e-06
-7.131630440276967e-06   3.040255808639948e-07   -1.8097078929086479e-06
-7.131630440276967e-06   3.040255808639948e-07   -1.8097078929086479e-06
-3.1286839790752765e-06   -2.167492127400322e-06   -6.998374703286251e-06
-3.1286839790752765e-06   -2.167492127400322e-06   -6.998374703286251e-06
-3.1286839790752765e-06   -2.167492127400322e-06   -6.998374703286251e-06
-3.1286839790752765e-06   -2.167492127400322e-06   -6.998374703286251e-06
-5.147885897082594e-06   -9.152204162279811e-07   -4.3844011999774325e-06
-5.147885897082594e-06   -9.152204162279811e-07   -4.3844011999774325e-06
-5.147885897082594e-06   -9.152204162279811e-07   -4.3844011999774325e-06
-5.147885897082594e-06   -9.152204162279811e-07   -4.3844011999774325e-06
-3.1286839790752765e-06   3.040255808639948e-07   -3.267972679501062e-07
-3.1286839790752765e-06   3.040255808639948e-07   -3.267972679501062e-07
-3.1286839790752765e-06   3.040255808639948e-07   -3.267972679501062e-07
-3.1286839790752765e-06   3.040255808639948e-07   -3.267972679501062e-07
-7.131630440276979e-06   -2.167492127400322e-06   -8.481285328244825e-06
-7.131630440276979e-06   -2.167492127400322e-06   -8.481285328244825e-06
-7.131630440276979e-06   -2.167492127400322e-06   -8.481285328244825e-06
-7.131630440276979e-06   -2.167492127400322e-06   -8.481285328244825e-06
-6.946690370611485e-06   3.8130561997901276e-07   -1.565773227783264e-06
-6.946690370611485e-06   3.8130561997901276e-07   -1.565773227783264e-06
-6.946690370611485e-06   3.8130561997901276e-07   -1.565773227783264e-06
-6.946690370611485e-06   3.8130561997901276e-07   -1.565773227783264e-06
-2.9932271497184886e-06   -2.1698369811352773e-06   -6.624193035269677e-06
-2.9932271497184886e-06   -2.1698369811352773e-06   -6.624193035269677e-06
-2.9932271497184886e-06   -2.1698369811352773e-06   -6.624193035269677e-06
-2.9932271497184886e-06   -2.1698369811352773e-06   -6.624193035269677e-06
-4.958589471789844e-06   -9.095302079215409e-07   -4.104773229078991e-06
-4.958589471789844e-06   -9.095302079215409e-07   -4.104773229078991e-06
-4.958589471789844e-06   -9.095302079215409e-07   -4.104773229078991e-06
-4.958589471789844e-06   -9.095302079215409e-07   -4.104773229078991e-06
-2.9932271497184886e-06   3.8130561997901276e-07   -3.508766711467909e-08
-2.9932271497184886e-06   3.8130561997901276e-07   -3.508766711467909e-08
-2.9932271497184886e-06   3.8130561997901276e-07   -3.508766711467909e-08
-2.9932271497184886e-06   3.8130561997901276e-07   -3.508766711467909e-08
-6.946690370611498e-06   -2.1698369811352773e-06   -8.154878595938262e-06
-6.946690370611498e-06   -2.1698369811352773e-06   -8.154878595938262e-06
-6.946690370611498e-06   -2.1698369811352773e-06   -8.154878595938262e-06
-6.946690370611498e-06   -2.1698369811352773e-06   -8.154878595938262e-06
-6.6373708208693665e-06   4.4478842120538155e-07   -1.3243532280626065e-06
-6.6373708208693665e-06   4.4478842120538155e-07   -1.3243532280626065e-06
-6.6373708208693665e-06   4.4478842120538155e-07   -1.3243532280626065e-06
-6.6373708208693665e-06   4.4478842120538155e-07   -1.3243532280626065e-06
-2.7586668838012108e-06   -1.922101785178118e-06   -6.368725666012825e-06
-2.7586668838012108e-06   -1.922101785178118e-06   -6.368725666012825e-06
-2.7586668838012108e-06   -1.922101785178118e-06   -6.368725666012825e-06
-2.7586668838012108e-06   -1.922101785178118e-06   -6.368725666012825e-06
-4.779130167278295e-06   -7.618098857967203e-07   -3.697461999846476e-06
-4.779130167278295e-06   -7.618098857967203e-07   -3.697461999846476e-06
-4.779130167278295e-06   -7.618098857967203e-07   -3.697461999846476e-06
-4.779130167278295e-06   -7.618098857967203e-07   -3.697461999846476e-06
-7.325490504993342e-06   1.1052964520658006e-06   -1.2234924532363318e-06
-7.325490504993342e-06   1.1052964520658006e-06   -1.2234924532363318e-06
-7.325490504993342e-06   1.1052964520658006e-06   -1.2234924532363318e-06
-7.325490504993342e-06   1.1052964520658006e-06   -1.2234924532363318e-06
-1.2387208762959056e-05   0.0   -1.0322867421085373e-05
-1.2387208762959056e-05   0.0   -1.0322867421085373e-05
-1.2387208762959056e-05   0.0   -1.0322867421085373e-05
-1.2387208762959056e-05   0.0   -1.0322867421085373e-05
-1.2110883604842165e-05   1.3631577931307688e-06   -8.75962599154853e-07
-1.2110883604842165e-05   1.3631577931307688e-06   -8.75962599154853e-07
-1.2110883604842165e-05   1.3631577931307688e-06   -8.75962599154853e-07
-1.2110883604842165e-05   1.3631577931307688e-06   -8.75962599154853e-07
-7.131630440276967e-06   0.0   -8.35682319755171e-06
-7.131630440276967e-06   0.0   -8.35682319755171e-06
-7.131630440276967e-06   0.0   -8.35682319755171e-06
-7.131630440276967e-06   0.0   -8.35682319755171e-06
-9.327084026610748e-06   4.374380334800623e-07   -4.960196707083463e-06
-9.327084026610748e-06   4.374380334800623e-07   -4.960196707083463e-06
-9.327084026610748e-06   4.374380334800623e-07   -4.960196707083463e-06
-9.327084026610748e-06   4.374380334800623e-07   -4.960196707083463e-06
-7.131630440276973e-06   1.3631577931307146e-06   -5.806792327637936e-08
-7.131630440276973e-06   1.3631577931307146e-06   -5.806792327637936e-08
-7.131630440276973e-06   1.3631577931307146e-06   -5.806792327637936e-08
-7.131630440276973e-06   1.3631577931307146e-06   -5.806792327637936e-08
-1.2110883604842144e-05   0.0   -9.174717873430165e-06
-1.2110883604842144e-05   0.0   -9.174717873430165e-06
-1.2110883604842144e-05   0.0   -9.174717873430165e-06
-1.2110883604842144e-05   0.0   -9.174717873430165e-06
-1.1872425845010356e-05   1.4227442580126964e-06   -1.3950851683616305e-07
-1.1872425845010356e-05   1.4227442580126964e-06   -1.3950851683616305e-07
-1.1872425845010356e-05   1.4227442580126964e-06   -1.3950851683616305e-07
-1.1872425845010356e-05   1.4227442580126964e-06   -1.3950851683616305e-07
-6.946690370611498e-06   0.0   -7.4954210860267195e-06
-6.946690370611498e-06   0.0   -7.4954210860267195e-06
-6.946690370611498e-06   0.0   -7.4954210860267195e-06
-6.946690370611498e-06   0.0   -7.4954210860267195e-06
-9.264449050753399e-06   6.651419423544982e-07   -4.031575117869455e-06
-9.264449050753399e-06   6.651419423544982e-07   -4.031575117869455e-06
-9.264449050753399e-06   6.651419423544982e-07   -4.031575117869455e-06
-9.264449050753399e-06   6.651419423544982e-07   -4.031575117869455e-06
-6.946690370611498e-06   1.4227442580126422e-06   7.141380379713989e-07
-6.946690370611498e-06   1.4227442580126422e-06   7.141380379713989e-07
-6.946690370611498e-06   1.4227442580126422e-06   7.141380379713989e-07
-6.946690370611498e-06   1.4227442580126422e-06   7.141380379713989e-07
-1.1872425845010336e-05   0.0   -8.349067640834283e-06
-1.1872425845010336e-05   0.0   -8.349067640834283e-06
-1.1872425845010336e-05   0.0   -8.349067640834283e-06
-1.1872425845010336e-05   0.0   -8.349067640834283e-06
-1.1391855755313566e-05   1.514275195896547e-06   1.062447345072929e-06
-1.1391855755313566e-05   1.514275195896547e-06   1.062447345072929e-06
-1.1391855755313566e-05   1.514275195896547e-06   1.062447345072929e-06
-1.1391855755313566e-05   1.514275195896547e-06   1.062447345072929e-06
-6.637370820869373e-06   0.0   -5.9531290947961615e-06
-6.637370820869373e-06   0.0   -5.9531290947961615e-06
-6.637370820869373e-06   0.0   -5.9531290947961615e-06
-6.637370820869373e-06   0.0   -5.9531290947961615e-06
-8.828467917471255e-06   8.120865231745758e-07   -2.788552514364475e-06
-8.828467917471255e-06   8.120865231745758e-07   -2.788552514364475e-06
-8.828467917471255e-06   8.120865231745758e-07   -2.788552514364475e-06
-8.828467917471255e-06   8.120865231745758e-07   -2.788552514364475e-06
9.060968009607542e-06   -1.512716794477894e-06   5.329427323182159e-06
9.060968009607542e-06   -1.512716794477894e-06   5.329427323182159e-06
9.060968009607542e-06   -1.512716794477894e-06   5.329427323182159e-06
9.060968009607542e-06   -1.512716794477894e-06   5.329427323182159e-06
4.649787394960633e-06   -1.205313602013877e-06   -1.8380984524175967e-06
4.649787394960633e-06   -1.205313602013877e-06   -1.8380984524175967e-06
4.649787394960633e-06   -1.205313602013877e-06   -1.8380984524175967e-06
4.649787394960633e-06   -1.205313602013877e-06   -1.8380984524175967e-06
4.543286135188582e-06   -1.550696592307881e-06   4.660623087816504e-06
4.543286135188582e-06   -1.550696592307881e-06   4.660623087816504e-06
4.543286135188582e-06   -1.550696592307881e-06   4.660623087816504e-06
4.543286135188582e-06   -1.550696592307881e-06   4.660623087816504e-06
8.97857263654552e-06   -1.3177853823206215e-06   -2.871267807104096e-06
8.97857263654552e-06   -1.3177853823206215e-06   -2.871267807104096e-06
8.97857263654552e-06   -1.3177853823206215e-06   -2.871267807104096e-06
8.97857263654552e-06   -1.3177853823206215e-06   -2.871267807104096e-06
6.526999758163908e-06   -1.3248010166583063e-06   1.2188963708012073e-06
6.526999758163908e-06   -1.3248010166583063e-06   1.2188963708012073e-06
6.526999758163908e-06   -1.3248010166583063e-06   1.2188963708012073e-06
6.526999758163908e-06   -1.3248010166583063e-06   1.2188963708012073e-06
8.97857263654552e-06   -1.550696592307881e-06   4.52087636182413e-06
8.97857263654552e-06   -1.550696592307881e-06   4.52087636182413e-06
8.97857263654552e-06   -1.550696592307881e-06   4.52087636182413e-06
8.97857263654552e-06   -1.550696592307881e-06   4.52087636182413e-06
4.543286135188582e-06   -1.3177853823206215e-06   -2.7315210811117293e-06
4.543286135188582e-06   -1.3177853823206215e-06   -2.7315210811117293e-06
4.543286135188582e-06   -1.3177853823206215e-06   -2.7315210811117293e-06
4.543286135188582e-06   -1.3177853823206215e-06   -2.7315210811117293e-06
4.445960767300521e-06   -1.5340213242104393e-06   4.16107299689068e-06
4.445960767300521e-06   -1.5340213242104393e-06   4.16107299689068e-06
4.445960767300521e-06   -1.5340213242104393e-06   4.16107299689068e-06
4.445960767300521e-06   -1.5340213242104393e-06   4.16107299689068e-06
8.879506581201106e-06   -1.3251328087748198e-06   -3.3535031355383523e-06
8.879506581201106e-06   -1.3251328087748198e-06   -3.3535031355383523e-06
8.879506581201106e-06   -1.3251328087748198e-06   -3.3535031355383523e-06
8.879506581201106e-06   -1.3251328087748198e-06   -3.3535031355383523e-06
6.534406835150047e-06   -1.3481399102232194e-06   5.688007020824897e-07
6.534406835150047e-06   -1.3481399102232194e-06   5.688007020824897e-07
6.534406835150047e-06   -1.3481399102232194e-06   5.688007020824897e-07
6.534406835150047e-06   -1.3481399102232194e-06   5.688007020824897e-07
8.879506581201122e-06   -1.5340213242104393e-06   4.035739887629318e-06
8.879506581201122e-06   -1.5340213242104393e-06   4.035739887629318e-06
8.879506581201122e-06   -1.5340213242104393e-06   4.035739887629318e-06
8.879506581201122e-06   -1.5340213242104393e-06   4.035739887629318e-06
4.445960767300521e-06   -1.3251328087748198e-06   -3.22817002627697e-06
4.445960767300521e-06   -1.3251328087748198e-06   -3.22817002627697e-06
4.445960767300521e-06   -1.3251328087748198e-06   -3.22817002627697e-06
4.445960767300521e-06   -1.3251328087748198e-06   -3.22817002627697e-06
4.3266909052740295e-06   -1.4410482882852918e-06   3.3482279243022303e-06
4.3266909052740295e-06   -1.4410482882852918e-06   3.3482279243022303e-06
4.3266909052740295e-06   -1.4410482882852918e-06   3.3482279243022303e-06
4.3266909052740295e-06   -1.4410482882852918e-06   3.3482279243022303e-06
8.72394091237846e-06   -1.2872737830111171e-06   -4.072786790702994e-06
8.72394091237846e-06   -1.2872737830111171e-06   -4.072786790702994e-06
8.72394091237846e-06   -1.2872737830111171e-06   -4.072786790702994e-06
8.72394091237846e-06   -1.2872737830111171e-06   -4.072786790702994e-06
6.322436611473965e-06   -1.28084440967707e-06   -7.413724652927242e-08
6.322436611473965e-06   -1.28084440967707e-06   -7.413724652927242e-08
6.322436611473965e-06   -1.28084440967707e-06   -7.413724652927242e-08
6.322436611473965e-06   -1.28084440967707e-06   -7.413724652927242e-08
4.649787394960633e-06   -1.4195104753586063e-06   3.911780759431327e-06
4.649787394960633e-06   -1.4195104753586063e-06   3.911780759431327e-06
4.649787394960633e-06   -1.4195104753586063e-06   3.911780759431327e-06
4.649787394960633e-06   -1.4195104753586063e-06   3.911780759431327e-06
8.452105816071881e-07   -6.998128690765214e-07   -1.9973620323884985e-06
8.452105816071881e-07   -6.998128690765214e-07   -1.9973620323884985e-06
8.452105816071881e-07   -6.998128690765214e-07   -1.9973620323884985e-06
8.452105816071881e-07   -6.998128690765214e-07   -1.9973620323884985e-06
6.768910777086074e-07   -1.4070200157502693e-06   4.408462598360784e-06
6.768910777086074e-07   -1.4070200157502693e-06   4.408462598360784e-06
6.768910777086074e-07   -1.4070200157502693e-06   4.408462598360784e-06
6.768910777086074e-07   -1.4070200157502693e-06   4.408462598360784e-06
4.543286135188582e-06   -7.390800437452128e-07   -2.436293147308811e-06
4.543286135188582e-06   -7.390800437452128e-07   -2.436293147308811e-06
4.543286135188582e-06   -7.390800437452128e-07   -2.436293147308811e-06
4.543286135188582e-06   -7.390800437452128e-07   -2.436293147308811e-06
2.672961124071624e-06   -1.0260911790493368e-06   8.531218857352153e-07
2.672961124071624e-06   -1.0260911790493368e-06   8.531218857352153e-07
2.672961124071624e-06   -1.0260911790493368e-06   8.531218857352153e-07
2.672961124071624e-06   -1.0260911790493368e-06   8.531218857352153e-07
4.543286135188579e-06   -1.4070200157502693e-06   4.007698615157763e-06
4.543286135188579e-06   -1.4070200157502693e-06   4.007698615157763e-06
4.543286135188579e-06   -1.4070200157502693e-06   4.007698615157763e-06
4.543286135188579e-06   -1.4070200157502693e-06   4.007698615157763e-06
6.768910777086074e-07   -7.390800437452128e-07   -2.0355291641058475e-06
6.768910777086074e-07   -7.390800437452128e-07   -2.0355291641058475e-06
6.768910777086074e-07   -7.390800437452128e-07   -2.0355291641058475e-06
6.768910777086074e-07   -7.390800437452128e-07   -2.0355291641058475e-06
5.552608698151979e-07   -1.3811162437822925e-06   4.3967930377533215e-06
5.552608698151979e-07   -1.3811162437822925e-06   4.3967930377533215e-06
5.552608698151979e-07   -1.3811162437822925e-06   4.3967930377533215e-06
5.552608698151979e-07   -1.3811162437822925e-06   4.3967930377533215e-06
4.445960767300521e-06   -7.52537876385869e-07   -2.464853811826723e-06
4.445960767300521e-06   -7.52537876385869e-07   -2.464853811826723e-06
4.445960767300521e-06   -7.52537876385869e-07   -2.464853811826723e-06
4.445960767300521e-06   -7.52537876385869e-07   -2.464853811826723e-06
2.524862883653976e-06   -1.0020155030257582e-06   8.866625702348745e-07
2.524862883653976e-06   -1.0020155030257582e-06   8.866625702348745e-07
2.524862883653976e-06   -1.0020155030257582e-06   8.866625702348745e-07
2.524862883653976e-06   -1.0020155030257582e-06   8.866625702348745e-07
4.445960767300528e-06   -1.3811162437823467e-06   4.019646017315478e-06
4.445960767300528e-06   -1.3811162437823467e-06   4.019646017315478e-06
4.445960767300528e-06   -1.3811162437823467e-06   4.019646017315478e-06
4.445960767300528e-06   -1.3811162437823467e-06   4.019646017315478e-06
5.552608698151979e-07   -7.52537876385869e-07   -2.0877067913888797e-06
5.552608698151979e-07   -7.52537876385869e-07   -2.0877067913888797e-06
5.552608698151979e-07   -7.52537876385869e-07   -2.0877067913888797e-06
5.552608698151979e-07   -7.52537876385869e-07   -2.0877067913888797e-06
4.2061812397791863e-07   -1.3339130961051915e-06   4.519479902529854e-06
4.2061812397791863e-07   -1.3339130961051915e-06   4.519479902529854e-06
4.2061812397791863e-07   -1.3339130961051915e-06   4.519479902529854e-06
4.2061812397791863e-07   -1.3339130961051915e-06   4.519479902529854e-06
4.326690905274026e-06   -7.28442811395052e-07   -2.3539235704564366e-06
4.326690905274026e-06   -7.28442811395052e-07   -2.3539235704564366e-06
4.326690905274026e-06   -7.28442811395052e-07   -2.3539235704564366e-06
4.326690905274026e-06   -7.28442811395052e-07   -2.3539235704564366e-06
2.4374463499686305e-06   -9.525333887357135e-07   9.292717014569509e-07
2.4374463499686305e-06   -9.525333887357135e-07   9.292717014569509e-07
2.4374463499686305e-06   -9.525333887357135e-07   9.292717014569509e-07
2.4374463499686305e-06   -9.525333887357135e-07   9.292717014569509e-07
8.452105816071881e-07   -1.6084870864229014e-06   3.966500098940245e-06
8.452105816071881e-07   -1.6084870864229014e-06   3.966500098940245e-06
8.452105816071881e-07   -1.6084870864229014e-06   3.966500098940245e-06
8.452105816071881e-07   -1.6084870864229014e-06   3.966500098940245e-06
-2.8199645966175294e-06   -2.2410075583629467e-07   -1.311493399749024e-06
-2.8199645966175294e-06   -2.2410075583629467e-07   -1.311493399749024e-06
-2.8199645966175294e-06   -2.2410075583629467e-07   -1.311493399749024e-06
-2.8199645966175294e-06   -2.2410075583629467e-07   -1.311493399749024e-06
-3.080603731029595e-06   -1.6360755638548247e-06   5.012756881956644e-06
-3.080603731029595e-06   -1.6360755638548247e-06   5.012756881956644e-06
-3.080603731029595e-06   -1.6360755638548247e-06   5.012756881956644e-06
-3.080603731029595e-06   -1.6360755638548247e-06   5.012756881956644e-06
6.768910777086074e-07   -2.3440873412092873e-07   -2.090734563780708e-06
6.768910777086074e-07   -2.3440873412092873e-07   -2.090734563780708e-06
6.768910777086074e-07   -2.3440873412092873e-07   -2.090734563780708e-06
6.768910777086074e-07   -2.3440873412092873e-07   -2.090734563780708e-06
-1.065956663969445e-06   -8.941226469078565e-07   1.2098400200215542e-06
-1.065956663969445e-06   -8.941226469078565e-07   1.2098400200215542e-06
-1.065956663969445e-06   -8.941226469078565e-07   1.2098400200215542e-06
-1.065956663969445e-06   -8.941226469078565e-07   1.2098400200215542e-06
6.768910777086074e-07   -1.6360755638548247e-06   4.171756784116278e-06
6.768910777086074e-07   -1.6360755638548247e-06   4.171756784116278e-06
6.768910777086074e-07   -1.6360755638548247e-06   4.171756784116278e-06
6.768910777086074e-07   -1.6360755638548247e-06   4.171756784116278e-06
-3.08060373102959e-06   -2.3440873412092873e-07   -1.249734465940365e-06
-3.08060373102959e-06   -2.3440873412092873e-07   -1.249734465940365e-06
-3.08060373102959e-06   -2.3440873412092873e-07   -1.249734465940365e-06
-3.08060373102959e-06   -2.3440873412092873e-07   -1.249734465940365e-06
-3.2425619367812313e-06   -1.6187900372858599e-06   5.194331716115952e-06
-3.2425619367812313e-06   -1.6187900372858599e-06   5.194331716115952e-06
-3.2425619367812313e-06   -1.6187900372858599e-06   5.194331716115952e-06
-3.2425619367812313e-06   -1.6187900372858599e-06   5.194331716115952e-06
5.552608698151979e-07   -2.4811461817210575e-07   -1.9577782130129873e-06
5.552608698151979e-07   -2.4811461817210575e-07   -1.9577782130129873e-06
5.552608698151979e-07   -2.4811461817210575e-07   -1.9577782130129873e-06
5.552608698151979e-07   -2.4811461817210575e-07   -1.9577782130129873e-06
-1.2436942760425622e-06   -8.840124502754708e-07   1.4220190626786149e-06
-1.2436942760425622e-06   -8.840124502754708e-07   1.4220190626786149e-06
-1.2436942760425622e-06   -8.840124502754708e-07   1.4220190626786149e-06
-1.2436942760425622e-06   -8.840124502754708e-07   1.4220190626786149e-06
5.552608698151979e-07   -1.6187900372858599e-06   4.371926464647688e-06
5.552608698151979e-07   -1.6187900372858599e-06   4.371926464647688e-06
5.552608698151979e-07   -1.6187900372858599e-06   4.371926464647688e-06
5.552608698151979e-07   -1.6187900372858599e-06   4.371926464647688e-06
-3.2425619367812245e-06   -2.4811461817210575e-07   -1.1353729615447132e-06
-3.2425619367812245e-06   -2.4811461817210575e-07   -1.1353729615447132e-06
-3.2425619367812245e-06   -2.4811461817210575e-07   -1.1353729615447132e-06
-3.2425619367812245e-06   -2.4811461817210575e-07   -1.1353729615447132e-06
-3.4298929660569215e-06   -1.5507450502230246e-06   5.425067718275984e-06
-3.4298929660569215e-06   -1.5507450502230246e-06   5.425067718275984e-06
-3.4298929660569215e-06   -1.5507450502230246e-06   5.425067718275984e-06
-3.4298929660569215e-06   -1.5507450502230246e-06   5.425067718275984e-06
4.2061812397791863e-07   -2.4091013157951464e-07   -1.7783517163015052e-06
4.2061812397791863e-07   -2.4091013157951464e-07   -1.7783517163015052e-06
4.2061812397791863e-07   -2.4091013157951464e-07   -1.7783517163015052e-06
4.2061812397791863e-07   -2.4091013157951464e-07   -1.7783517163015052e-06
-1.3897931124917511e-06   -8.391579869228706e-07   1.5979490576872884e-06
-1.3897931124917511e-06   -8.391579869228706e-07   1.5979490576872884e-06
-1.3897931124917511e-06   -8.391579869228706e-07   1.5979490576872884e-06
-1.3897931124917511e-06   -8.391579869228706e-07   1.5979490576872884e-06
-2.819964596617536e-06   -1.9040460282143353e-06   4.727704515627491e-06
-2.819964596617536e-06   -1.9040460282143353e-06   4.727704515627491e-06
-2.819964596617536e-06   -1.9040460282143353e-06   4.727704515627491e-06
-2.819964596617536e-06   -1.9040460282143353e-06   4.727704515627491e-06
-6.9148573691011725e-06   4.415089378570318e-07   -6.897837922023988e-07
-6.9148573691011725e-06   4.415089378570318e-07   -6.897837922023988e-07
-6.9148573691011725e-06   4.415089378570318e-07   -6.897837922023988e-07
-6.9148573691011725e-06   4.415089378570318e-07   -6.897837922023988e-07
-7.237945325822945e-06   -2.167492127400322e-06   6.595382547701931e-06
-7.237945325822945e-06   -2.167492127400322e-06   6.595382547701931e-06
-7.237945325822945e-06   -2.167492127400322e-06   6.595382547701931e-06
-7.237945325822945e-06   -2.167492127400322e-06   6.595382547701931e-06
-3.08060373102959e-06   4.333660948943499e-07   -1.8940350436637504e-06
-3.08060373102959e-06   4.333660948943499e-07   -1.8940350436637504e-06
-3.08060373102959e-06   4.333660948943499e-07   -1.8940350436637504e-06
-3.08060373102959e-06   4.333660948943499e-07   -1.8940350436637504e-06
-4.9497536162685305e-06   -6.993744537222625e-07   1.9008590942377434e-06
-4.9497536162685305e-06   -6.993744537222625e-07   1.9008590942377434e-06
-4.9497536162685305e-06   -6.993744537222625e-07   1.9008590942377434e-06
-4.9497536162685305e-06   -6.993744537222625e-07   1.9008590942377434e-06
-3.08060373102959e-06   -2.167492127400322e-06   5.034867614325141e-06
-3.08060373102959e-06   -2.167492127400322e-06   5.034867614325141e-06
-3.08060373102959e-06   -2.167492127400322e-06   5.034867614325141e-06
-3.08060373102959e-06   -2.167492127400322e-06   5.034867614325141e-06
-7.237945325822931e-06   4.333660948943499e-07   -3.335201102869635e-07
-7.237945325822931e-06   4.333660948943499e-07   -3.335201102869635e-07
-7.237945325822931e-06   4.333660948943499e-07   -3.335201102869635e-07
-7.237945325822931e-06   4.333660948943499e-07   -3.335201102869635e-07
-7.43290420523494e-06   -2.1698369811352773e-06   6.977434224005627e-06
-7.43290420523494e-06   -2.1698369811352773e-06   6.977434224005627e-06
-7.43290420523494e-06   -2.1698369811352773e-06   6.977434224005627e-06
-7.43290420523494e-06   -2.1698369811352773e-06   6.977434224005627e-06
-3.2425619367812245e-06   4.0571503521027487e-07   -1.5518007665579064e-06
-3.2425619367812245e-06   4.0571503521027487e-07   -1.5518007665579064e-06
-3.2425619367812245e-06   4.0571503521027487e-07   -1.5518007665579064e-06
-3.2425619367812245e-06   4.0571503521027487e-07   -1.5518007665579064e-06
-5.152914644924375e-06   -8.38301610667073e-07   2.378530401207096e-06
-5.152914644924375e-06   -8.38301610667073e-07   2.378530401207096e-06
-5.152914644924375e-06   -8.38301610667073e-07   2.378530401207096e-06
-5.152914644924375e-06   -8.38301610667073e-07   2.378530401207096e-06
-3.2425619367812245e-06   -2.1698369811352773e-06   5.4321030141982576e-06
-3.2425619367812245e-06   -2.1698369811352773e-06   5.4321030141982576e-06
-3.2425619367812245e-06   -2.1698369811352773e-06   5.4321030141982576e-06
-3.2425619367812245e-06   -2.1698369811352773e-06   5.4321030141982576e-06
-7.432904205234927e-06   4.0571503521027487e-07   -6.469556750591425e-09
-7.432904205234927e-06   4.0571503521027487e-07   -6.469556750591425e-09
-7.432904205234927e-06   4.0571503521027487e-07   -6.469556750591425e-09
-7.432904205234927e-06   4.0571503521027487e-07   -6.469556750591425e-09
-7.645233413255372e-06   -1.922101785178118e-06   7.1265115083396036e-06
-7.645233413255372e-06   -1.922101785178118e-06   7.1265115083396036e-06
-7.645233413255372e-06   -1.922101785178118e-06   7.1265115083396036e-06
-7.645233413255372e-06   -1.922101785178118e-06   7.1265115083396036e-06
-3.4298929660569215e-06   3.7276612201890894e-07   -1.275976647975997e-06
-3.4298929660569215e-06   3.7276612201890894e-07   -1.275976647975997e-06
-3.4298929660569215e-06   3.7276612201890894e-07   -1.275976647975997e-06
-3.4298929660569215e-06   3.7276612201890894e-07   -1.275976647975997e-06
-5.370349215090243e-06   -8.382635822834896e-07   2.6847349229943177e-06
-5.370349215090243e-06   -8.382635822834896e-07   2.6847349229943177e-06
-5.370349215090243e-06   -8.382635822834896e-07   2.6847349229943177e-06
-5.370349215090243e-06   -8.382635822834896e-07   2.6847349229943177e-06
-6.914857369101149e-06   0.0   5.082385525778185e-06
-6.914857369101149e-06   0.0   5.082385525778185e-06
-6.914857369101149e-06   0.0   5.082385525778185e-06
-6.914857369101149e-06   0.0   5.082385525778185e-06
-1.1944347197639804e-05   1.5930653551296027e-06   -2.3442583087084784e-06
-1.1944347197639804e-05   1.5930653551296027e-06   -2.3442583087084784e-06
-1.1944347197639804e-05   1.5930653551296027e-06   -2.3442583087084784e-06
-1.1944347197639804e-05   1.5930653551296027e-06   -2.3442583087084784e-06
-1.2371269832292109e-05   0.0   7.655748785597973e-06
-1.2371269832292109e-05   0.0   7.655748785597973e-06
-1.2371269832292109e-05   0.0   7.655748785597973e-06
-1.2371269832292109e-05   0.0   7.655748785597973e-06
-7.237945325822931e-06   1.5598401786716333e-06   -1.8356961657203113e-06
-7.237945325822931e-06   1.5598401786716333e-06   -1.8356961657203113e-06
-7.237945325822931e-06   1.5598401786716333e-06   -1.8356961657203113e-06
-7.237945325822931e-06   1.5598401786716333e-06   -1.8356961657203113e-06
-9.21072802568937e-06   9.435372303851994e-07   1.8220567696956039e-06
-9.21072802568937e-06   9.435372303851994e-07   1.8220567696956039e-06
-9.21072802568937e-06   9.435372303851994e-07   1.8220567696956039e-06
-9.21072802568937e-06   9.435372303851994e-07   1.8220567696956039e-06
-7.2379453258229245e-06   0.0   6.719844678395015e-06
-7.2379453258229245e-06   0.0   6.719844678395015e-06
-7.2379453258229245e-06   0.0   6.719844678395015e-06
-7.2379453258229245e-06   0.0   6.719844678395015e-06
-1.2371269832292131e-05   1.5598401786716333e-06   -8.997920585173584e-07
-1.2371269832292131e-05   1.5598401786716333e-06   -8.997920585173584e-07
-1.2371269832292131e-05   1.5598401786716333e-06   -8.997920585173584e-07
-1.2371269832292131e-05   1.5598401786716333e-06   -8.997920585173584e-07
-1.2583989353461006e-05   0.0   8.553758010100798e-06
-1.2583989353461006e-05   0.0   8.553758010100798e-06
-1.2583989353461006e-05   0.0   8.553758010100798e-06
-1.2583989353461006e-05   0.0   8.553758010100798e-06
-7.432904205234927e-06   1.528110460306039e-06   -9.482501797930521e-07
-7.432904205234927e-06   1.528110460306039e-06   -9.482501797930521e-07
-7.432904205234927e-06   1.528110460306039e-06   -9.482501797930521e-07
-7.432904205234927e-06   1.528110460306039e-06   -9.482501797930521e-07
-9.646629402668546e-06   7.939890626064102e-07   3.1817646545495673e-06
-9.646629402668546e-06   7.939890626064102e-07   3.1817646545495673e-06
-9.646629402668546e-06   7.939890626064102e-07   3.1817646545495673e-06
-9.646629402668546e-06   7.939890626064102e-07   3.1817646545495673e-06
-7.432904205234927e-06   0.0   7.636891733917132e-06
-7.432904205234927e-06   0.0   7.636891733917132e-06
-7.432904205234927e-06   0.0   7.636891733917132e-06
-7.432904205234927e-06   0.0   7.636891733917132e-06
-1.2583989353461026e-05   1.528110460306039e-06   -3.138390360939614e-08
-1.2583989353461026e-05   1.528110460306039e-06   -3.138390360939614e-08
-1.2583989353461026e-05   1.528110460306039e-06   -3.138390360939614e-08
-1.2583989353461026e-05   1.528110460306039e-06   -3.138390360939614e-08
-1.2812086978113661e-05   0.0   9.746642872811583e-06
-1.2812086978113661e-05   0.0   9.746642872811583e-06
-1.2812086978113661e-05   0.0   9.746642872811583e-06
-1.2812086978113661e-05   0.0   9.746642872811583e-06
-7.645233413255367e-06   1.307334449042062e-06   3.5081959528913314e-07
-7.645233413255367e-06   1.307334449042062e-06   3.5081959528913314e-07
-7.645233413255367e-06   1.307334449042062e-06   3.5081959528913314e-07
-7.645233413255367e-06   1.307334449042062e-06   3.5081959528913314e-07
-9.696065176205704e-06   5.735970172214631e-07   4.2091149926319664e-06
-9.696065176205704e-06   5.735970172214631e-07   4.2091149926319664e-06
-9.696065176205704e-06   5.735970172214631e-07   4.2091149926319664e-06
-9.696065176205704e-06   5.735970172214631e-07   4.2091149926319664e-06
8.142488052037795e-06   -1.205313602013877e-06   5.62924559655142e-06
8.142488052037795e-06   -1.205313602013877e-06   5.62924559655142e-06
8.142488052037795e-06   -1.205313602013877e-06   5.62924559655142e-06
8.142488052037795e-06   -1.205313602013877e-06   5.62924559655142e-06
4.082083243753268e-06   -9.41602602179219e-07   -9.798691506886681e-07
4.082083243753268e-06   -9.41602602179219e-07   -9.798691506886681e-07
4.082083243753268e-06   -9.41602602179219e-07   -9.798691506886681e-07
4.082083243753268e-06   -9.41602602179219e-07   -9.798691506886681e-07
3.984448702882786e-06   -1.3177853823206215e-06   4.880022112253781e-06
3.984448702882786e-06   -1.3177853823206215e-06   4.880022112253781e-06
3.984448702882786e-06   -1.3177853823206215e-06   4.880022112253781e-06
3.984448702882786e-06   -1.3177853823206215e-06   4.880022112253781e-06
7.972592386992544e-06   -1.058484988117228e-06   -1.9224642644511422e-06
7.972592386992544e-06   -1.058484988117228e-06   -1.9224642644511422e-06
7.972592386992544e-06   -1.058484988117228e-06   -1.9224642644511422e-06
7.972592386992544e-06   -1.058484988117228e-06   -1.9224642644511422e-06
5.776288119871125e-06   -1.088179458000896e-06   1.7558595293480997e-06
5.776288119871125e-06   -1.088179458000896e-06   1.7558595293480997e-06
5.776288119871125e-06   -1.088179458000896e-06   1.7558595293480997e-06
5.776288119871125e-06   -1.088179458000896e-06   1.7558595293480997e-06
7.972592386992532e-06   -1.3177853823206215e-06   4.724441875731762e-06
7.972592386992532e-06   -1.3177853823206215e-06   4.724441875731762e-06
7.972592386992532e-06   -1.3177853823206215e-06   4.724441875731762e-06
7.972592386992532e-06   -1.3177853823206215e-06   4.724441875731762e-06
3.984448702882793e-06   -1.058484988117228e-06   -1.7668840279290898e-06
3.984448702882793e-06   -1.058484988117228e-06   -1.7668840279290898e-06
3.984448702882793e-06   -1.058484988117228e-06   -1.7668840279290898e-06
3.984448702882793e-06   -1.058484988117228e-06   -1.7668840279290898e-06
3.85883761834906e-06   -1.3251328087748198e-06   4.359845380797893e-06
3.85883761834906e-06   -1.3251328087748198e-06   4.359845380797893e-06
3.85883761834906e-06   -1.3251328087748198e-06   4.359845380797893e-06
3.85883761834906e-06   -1.3251328087748198e-06   4.359845380797893e-06
7.79870002326644e-06   -1.073760333036313e-06   -2.3574154461741576e-06
7.79870002326644e-06   -1.073760333036313e-06   -2.3574154461741576e-06
7.79870002326644e-06   -1.073760333036313e-06   -2.3574154461741576e-06
7.79870002326644e-06   -1.073760333036313e-06   -2.3574154461741576e-06
5.738725479625994e-06   -1.1336519439792477e-06   1.111810426459011e-06
5.738725479625994e-06   -1.1336519439792477e-06   1.111810426459011e-06
5.738725479625994e-06   -1.1336519439792477e-06   1.111810426459011e-06
5.738725479625994e-06   -1.1336519439792477e-06   1.111810426459011e-06
7.79870002326644e-06   -1.3251328087748198e-06   4.209021895354812e-06
7.79870002326644e-06   -1.3251328087748198e-06   4.209021895354812e-06
7.79870002326644e-06   -1.3251328087748198e-06   4.209021895354812e-06
7.79870002326644e-06   -1.3251328087748198e-06   4.209021895354812e-06
3.85883761834906e-06   -1.073760333036313e-06   -2.2065919607310697e-06
3.85883761834906e-06   -1.073760333036313e-06   -2.2065919607310697e-06
3.85883761834906e-06   -1.073760333036313e-06   -2.2065919607310697e-06
3.85883761834906e-06   -1.073760333036313e-06   -2.2065919607310697e-06
3.7262847116514153e-06   -1.2872737830111171e-06   3.5803865590288352e-06
3.7262847116514153e-06   -1.2872737830111171e-06   3.5803865590288352e-06
3.7262847116514153e-06   -1.2872737830111171e-06   3.5803865590288352e-06
3.7262847116514153e-06   -1.2872737830111171e-06   3.5803865590288352e-06
7.58038881854948e-06   -1.0576462648158053e-06   -2.980896796718458e-06
7.58038881854948e-06   -1.0576462648158053e-06   -2.980896796718458e-06
7.58038881854948e-06   -1.0576462648158053e-06   -2.980896796718458e-06
7.58038881854948e-06   -1.0576462648158053e-06   -2.980896796718458e-06
5.499978139093411e-06   -1.1008598862602588e-06   5.123825085750778e-07
5.499978139093411e-06   -1.1008598862602588e-06   5.123825085750778e-07
5.499978139093411e-06   -1.1008598862602588e-06   5.123825085750778e-07
5.499978139093411e-06   -1.1008598862602588e-06   5.123825085750778e-07
4.082083243753268e-06   -6.998128690765214e-07   5.196390052712059e-06
4.082083243753268e-06   -6.998128690765214e-07   5.196390052712059e-06
4.082083243753268e-06   -6.998128690765214e-07   5.196390052712059e-06
4.082083243753268e-06   -6.998128690765214e-07   5.196390052712059e-06
3.6027464712013024e-07   -3.2088322977398293e-07   -7.792664914283039e-07
3.6027464712013024e-07   -3.2088322977398293e-07   -7.792664914283039e-07
3.6027464712013024e-07   -3.2088322977398293e-07   -7.792664914283039e-07
3.6027464712013024e-07   -3.2088322977398293e-07   -7.792664914283039e-07
2.6226158399091006e-07   -7.390800437452128e-07   5.389708980949699e-06
2.6226158399091006e-07   -7.390800437452128e-07   5.389708980949699e-06
2.6226158399091006e-07   -7.390800437452128e-07   5.389708980949699e-06
2.6226158399091006e-07   -7.390800437452128e-07   5.389708980949699e-06
3.984448702882793e-06   -3.816484855902408e-07   -1.0283951520964596e-06
3.984448702882793e-06   -3.816484855902408e-07   -1.0283951520964596e-06
3.984448702882793e-06   -3.816484855902408e-07   -1.0283951520964596e-06
3.984448702882793e-06   -3.816484855902408e-07   -1.0283951520964596e-06
2.1508851795458235e-06   -4.99216143084384e-07   2.0980846479616197e-06
2.1508851795458235e-06   -4.99216143084384e-07   2.0980846479616197e-06
2.1508851795458235e-06   -4.99216143084384e-07   2.0980846479616197e-06
2.1508851795458235e-06   -4.99216143084384e-07   2.0980846479616197e-06
3.98444870288279e-06   -7.390800437452128e-07   5.175250046056716e-06
3.98444870288279e-06   -7.390800437452128e-07   5.175250046056716e-06
3.98444870288279e-06   -7.390800437452128e-07   5.175250046056716e-06
3.98444870288279e-06   -7.390800437452128e-07   5.175250046056716e-06
2.6226158399091006e-07   -3.816484855902408e-07   -8.139362172034873e-07
2.6226158399091006e-07   -3.816484855902408e-07   -8.139362172034873e-07
2.6226158399091006e-07   -3.816484855902408e-07   -8.139362172034873e-07
2.6226158399091006e-07   -3.816484855902408e-07   -8.139362172034873e-07
1.3824692640495965e-07   -7.52537876385869e-07   5.323475207359794e-06
1.3824692640495965e-07   -7.52537876385869e-07   5.323475207359794e-06
1.3824692640495965e-07   -7.52537876385869e-07   5.323475207359794e-06
1.3824692640495965e-07   -7.52537876385869e-07   5.323475207359794e-06
3.85883761834906e-06   -4.1868185619983386e-07   -1.0778228913253557e-06
3.85883761834906e-06   -4.1868185619983386e-07   -1.0778228913253557e-06
3.85883761834906e-06   -4.1868185619983386e-07   -1.0778228913253557e-06
3.85883761834906e-06   -4.1868185619983386e-07   -1.0778228913253557e-06
2.0247847757932896e-06   -5.207239955057742e-07   2.0401571298512725e-06
2.0247847757932896e-06   -5.207239955057742e-07   2.0401571298512725e-06
2.0247847757932896e-06   -5.207239955057742e-07   2.0401571298512725e-06
2.0247847757932896e-06   -5.207239955057742e-07   2.0401571298512725e-06
3.858837618349055e-06   -7.52537876385869e-07   5.123161595248167e-06
3.858837618349055e-06   -7.52537876385869e-07   5.123161595248167e-06
3.858837618349055e-06   -7.52537876385869e-07   5.123161595248167e-06
3.858837618349055e-06   -7.52537876385869e-07   5.123161595248167e-06
1.3824692640495965e-07   -4.1868185619983386e-07   -8.775092792137021e-07
1.3824692640495965e-07   -4.1868185619983386e-07   -8.775092792137021e-07
1.3824692640495965e-07   -4.1868185619983386e-07   -8.775092792137021e-07
1.3824692640495965e-07   -4.1868185619983386e-07   -8.775092792137021e-07
1.3747253049159849e-09   -7.28442811395052e-07   5.385780831994904e-06
1.3747253049159849e-09   -7.28442811395052e-07   5.385780831994904e-06
1.3747253049159849e-09   -7.28442811395052e-07   5.385780831994904e-06
1.3747253049159849e-09   -7.28442811395052e-07   5.385780831994904e-06
3.726284711651412e-06   -4.304498849215738e-07   -1.0011982344666423e-06
3.726284711651412e-06   -4.304498849215738e-07   -1.0011982344666423e-06
3.726284711651412e-06   -4.304498849215738e-07   -1.0011982344666423e-06
3.726284711651412e-06   -4.304498849215738e-07   -1.0011982344666423e-06
1.926576634250997e-06   -5.118367088902923e-07   2.0471473222486683e-06
1.926576634250997e-06   -5.118367088902923e-07   2.0471473222486683e-06
1.926576634250997e-06   -5.118367088902923e-07   2.0471473222486683e-06
1.926576634250997e-06   -5.118367088902923e-07   2.0471473222486683e-06
3.6027464712013024e-07   -2.2410075583634888e-07   5.278984670581142e-06
3.6027464712013024e-07   -2.2410075583634888e-07   5.278984670581142e-06
3.6027464712013024e-07   -2.2410075583634888e-07   5.278984670581142e-06
3.6027464712013024e-07   -2.2410075583634888e-07   5.278984670581142e-06
-3.2537653963206785e-06   3.0982726981221027e-07   -4.2405858643107053e-07
-3.2537653963206785e-06   3.0982726981221027e-07   -4.2405858643107053e-07
-3.2537653963206785e-06   3.0982726981221027e-07   -4.2405858643107053e-07
-3.2537653963206785e-06   3.0982726981221027e-07   -4.2405858643107053e-07
-3.364616070356588e-06   -2.3440873412092873e-07   5.63536538210498e-06
-3.364616070356588e-06   -2.3440873412092873e-07   5.63536538210498e-06
-3.364616070356588e-06   -2.3440873412092873e-07   5.63536538210498e-06
-3.364616070356588e-06   -2.3440873412092873e-07   5.63536538210498e-06
2.6226158399091006e-07   2.670276005961006e-07   -7.102925093043606e-07
2.6226158399091006e-07   2.670276005961006e-07   -7.102925093043606e-07
2.6226158399091006e-07   2.670276005961006e-07   -7.102925093043606e-07
2.6226158399091006e-07   2.670276005961006e-07   -7.102925093043606e-07
-1.4965906161332138e-06   5.222891605514393e-08   2.3500070349604264e-06
-1.4965906161332138e-06   5.222891605514393e-08   2.3500070349604264e-06
-1.4965906161332138e-06   5.222891605514393e-08   2.3500070349604264e-06
-1.4965906161332138e-06   5.222891605514393e-08   2.3500070349604264e-06
2.6226158399091345e-07   -2.3440873412092873e-07   5.334503581274801e-06
2.6226158399091345e-07   -2.3440873412092873e-07   5.334503581274801e-06
2.6226158399091345e-07   -2.3440873412092873e-07   5.334503581274801e-06
2.6226158399091345e-07   -2.3440873412092873e-07   5.334503581274801e-06
-3.364616070356588e-06   2.670276005961006e-07   -4.0943070847416466e-07
-3.364616070356588e-06   2.670276005961006e-07   -4.0943070847416466e-07
-3.364616070356588e-06   2.670276005961006e-07   -4.0943070847416466e-07
-3.364616070356588e-06   2.670276005961006e-07   -4.0943070847416466e-07
-3.5107381947406985e-06   -2.4811461817210575e-07   5.738602295272228e-06
-3.5107381947406985e-06   -2.4811461817210575e-07   5.738602295272228e-06
-3.5107381947406985e-06   -2.4811461817210575e-07   5.738602295272228e-06
-3.5107381947406985e-06   -2.4811461817210575e-07   5.738602295272228e-06
1.3824692640495965e-07   2.2721623105546396e-07   -6.28238082840438e-07
1.3824692640495965e-07   2.2721623105546396e-07   -6.28238082840438e-07
1.3824692640495965e-07   2.2721623105546396e-07   -6.28238082840438e-07
1.3824692640495965e-07   2.2721623105546396e-07   -6.28238082840438e-07
-1.6052611508102586e-06   4.277293394954829e-08   2.3882746907818037e-06
-1.6052611508102586e-06   4.277293394954829e-08   2.3882746907818037e-06
-1.6052611508102586e-06   4.277293394954829e-08   2.3882746907818037e-06
-1.6052611508102586e-06   4.277293394954829e-08   2.3882746907818037e-06
1.3824692640495965e-07   -2.4811461817210575e-07   5.453403785735679e-06
1.3824692640495965e-07   -2.4811461817210575e-07   5.453403785735679e-06
1.3824692640495965e-07   -2.4811461817210575e-07   5.453403785735679e-06
1.3824692640495965e-07   -2.4811461817210575e-07   5.453403785735679e-06
-3.5107381947406985e-06   2.2721623105546396e-07   -3.4303957330389617e-07
-3.5107381947406985e-06   2.2721623105546396e-07   -3.4303957330389617e-07
-3.5107381947406985e-06   2.2721623105546396e-07   -3.4303957330389617e-07
-3.5107381947406985e-06   2.2721623105546396e-07   -3.4303957330389617e-07
-3.6663576381035684e-06   -2.4091013157951464e-07   5.862293435252773e-06
-3.6663576381035684e-06   -2.4091013157951464e-07   5.862293435252773e-06
-3.6663576381035684e-06   -2.4091013157951464e-07   5.862293435252773e-06
-3.6663576381035684e-06   -2.4091013157951464e-07   5.862293435252773e-06
1.3747253049159849e-09   1.9946140163547505e-07   -5.148167570237375e-07
1.3747253049159849e-09   1.9946140163547505e-07   -5.148167570237375e-07
1.3747253049159849e-09   1.9946140163547505e-07   -5.148167570237375e-07
1.3747253049159849e-09   1.9946140163547505e-07   -5.148167570237375e-07
-1.7428765619394051e-06   3.7399016638862406e-08   2.4895061527148974e-06
-1.7428765619394051e-06   3.7399016638862406e-08   2.4895061527148974e-06
-1.7428765619394051e-06   3.7399016638862406e-08   2.4895061527148974e-06
-1.7428765619394051e-06   3.7399016638862406e-08   2.4895061527148974e-06
-3.2537653963206684e-06   4.415089378569776e-07   4.8137181138740255e-06
-3.2537653963206684e-06   4.415089378569776e-07   4.8137181138740255e-06
-3.2537653963206684e-06   4.415089378569776e-07   4.8137181138740255e-06
-3.2537653963206684e-06   4.415089378569776e-07   4.8137181138740255e-06
-6.823069189190021e-06   9.771699007694932e-07   -8.137249631607723e-07
-6.823069189190021e-06   9.771699007694932e-07   -8.137249631607723e-07
-6.823069189190021e-06   9.771699007694932e-07   -8.137249631607723e-07
-6.823069189190021e-06   9.771699007694932e-07   -8.137249631607723e-07
-6.979224456995215e-06   4.333660948943499e-07   5.292840321182731e-06
-6.979224456995215e-06   4.333660948943499e-07   5.292840321182731e-06
-6.979224456995215e-06   4.333660948943499e-07   5.292840321182731e-06
-6.979224456995215e-06   4.333660948943499e-07   5.292840321182731e-06
-3.3646160703565814e-06   9.363252895629105e-07   -1.0332825066827896e-06
-3.3646160703565814e-06   9.363252895629105e-07   -1.0332825066827896e-06
-3.3646160703565814e-06   9.363252895629105e-07   -1.0332825066827896e-06
-3.3646160703565814e-06   9.363252895629105e-07   -1.0332825066827896e-06
-5.068517992861084e-06   7.034367619194472e-07   1.9462871474108004e-06
-5.068517992861084e-06   7.034367619194472e-07   1.9462871474108004e-06
-5.068517992861084e-06   7.034367619194472e-07   1.9462871474108004e-06
-5.068517992861084e-06   7.034367619194472e-07   1.9462871474108004e-06
-3.364616070356588e-06   4.333660948943499e-07   4.9910648043815945e-06
-3.364616070356588e-06   4.333660948943499e-07   4.9910648043815945e-06
-3.364616070356588e-06   4.333660948943499e-07   4.9910648043815945e-06
-3.364616070356588e-06   4.333660948943499e-07   4.9910648043815945e-06
-6.979224456995205e-06   9.363252895629105e-07   -7.315069898816532e-07
-6.979224456995205e-06   9.363252895629105e-07   -7.315069898816532e-07
-6.979224456995205e-06   9.363252895629105e-07   -7.315069898816532e-07
-6.979224456995205e-06   9.363252895629105e-07   -7.315069898816532e-07
-7.172410148534485e-06   4.057150352103291e-07   5.61673832555088e-06
-7.172410148534485e-06   4.057150352103291e-07   5.61673832555088e-06
-7.172410148534485e-06   4.057150352103291e-07   5.61673832555088e-06
-7.172410148534485e-06   4.057150352103291e-07   5.61673832555088e-06
-3.5107381947406985e-06   8.966547606967376e-07   -7.806120993972666e-07
-3.5107381947406985e-06   8.966547606967376e-07   -7.806120993972666e-07
-3.5107381947406985e-06   8.966547606967376e-07   -7.806120993972666e-07
-3.5107381947406985e-06   8.966547606967376e-07   -7.806120993972666e-07
-5.181174123067835e-06   6.983268705331217e-07   2.1224445152461224e-06
-5.181174123067835e-06   6.983268705331217e-07   2.1224445152461224e-06
-5.181174123067835e-06   6.983268705331217e-07   2.1224445152461224e-06
-5.181174123067835e-06   6.983268705331217e-07   2.1224445152461224e-06
-3.5107381947406985e-06   4.0571503521027487e-07   5.322174490259028e-06
-3.5107381947406985e-06   4.0571503521027487e-07   5.322174490259028e-06
-3.5107381947406985e-06   4.0571503521027487e-07   5.322174490259028e-06
-3.5107381947406985e-06   4.0571503521027487e-07   5.322174490259028e-06
-7.1724101485344745e-06   8.966547606967376e-07   -4.860482641053944e-07
-7.1724101485344745e-06   8.966547606967376e-07   -4.860482641053944e-07
-7.1724101485344745e-06   8.966547606967376e-07   -4.860482641053944e-07
-7.1724101485344745e-06   8.966547606967376e-07   -4.860482641053944e-07
-7.3747738589183835e-06   3.7276612201890894e-07   5.859805436202338e-06
-7.3747738589183835e-06   3.7276612201890894e-07   5.859805436202338e-06
-7.3747738589183835e-06   3.7276612201890894e-07   5.859805436202338e-06
-7.3747738589183835e-06   3.7276612201890894e-07   5.859805436202338e-06
-3.6663576381035617e-06   8.411625950358113e-07   -6.019261489658171e-07
-3.6663576381035617e-06   8.411625950358113e-07   -6.019261489658171e-07
-3.6663576381035617e-06   8.411625950358113e-07   -6.019261489658171e-07
-3.6663576381035617e-06   8.411625950358113e-07   -6.019261489658171e-07
-5.381706656273856e-06   6.676847820239308e-07   2.361075569125217e-06
-5.381706656273856e-06   6.676847820239308e-07   2.361075569125217e-06
-5.381706656273856e-06   6.676847820239308e-07   2.361075569125217e-06
-5.381706656273856e-06   6.676847820239308e-07   2.361075569125217e-06
-6.823069189190021e-06   1.5930653551296027e-06   2.5248009620376598e-06
-6.823069189190021e-06   1.5930653551296027e-06   2.5248009620376598e-06
-6.823069189190021e-06   1.5930653551296027e-06   2.5248009620376598e-06
-6.823069189190021e-06   1.5930653551296027e-06   2.5248009620376598e-06
-1.0276939063213272e-05   1.5892836574950904e-06   -3.2339178465817797e-06
-1.0276939063213272e-05   1.5892836574950904e-06   -3.2339178465817797e-06
-1.0276939063213272e-05   1.5892836574950904e-06   -3.2339178465817797e-06
-1.0276939063213272e-05   1.5892836574950904e-06   -3.2339178465817797e-06
-1.056029740905778e-05   1.559840178671579e-06   3.832369610118905e-06
-1.056029740905778e-05   1.559840178671579e-06   3.832369610118905e-06
-1.056029740905778e-05   1.559840178671579e-06   3.832369610118905e-06
-1.056029740905778e-05   1.559840178671579e-06   3.832369610118905e-06
-6.979224456995205e-06   1.629349085954107e-06   -2.177790654354938e-06
-6.979224456995205e-06   1.629349085954107e-06   -2.177790654354938e-06
-6.979224456995205e-06   1.629349085954107e-06   -2.177790654354938e-06
-6.979224456995205e-06   1.629349085954107e-06   -2.177790654354938e-06
-8.311265063081905e-06   1.6093759846293805e-06   5.426088325107426e-08
-8.311265063081905e-06   1.6093759846293805e-06   5.426088325107426e-08
-8.311265063081905e-06   1.6093759846293805e-06   5.426088325107426e-08
-8.311265063081905e-06   1.6093759846293805e-06   5.426088325107426e-08
-6.979224456995198e-06   1.5598401786716333e-06   3.7906642657493762e-06
-6.979224456995198e-06   1.5598401786716333e-06   3.7906642657493762e-06
-6.979224456995198e-06   1.5598401786716333e-06   3.7906642657493762e-06
-6.979224456995198e-06   1.5598401786716333e-06   3.7906642657493762e-06
-1.056029740905778e-05   1.629349085954107e-06   -2.1360853099853887e-06
-1.056029740905778e-05   1.629349085954107e-06   -2.1360853099853887e-06
-1.056029740905778e-05   1.629349085954107e-06   -2.1360853099853887e-06
-1.056029740905778e-05   1.629349085954107e-06   -2.1360853099853887e-06
-1.083795730665456e-05   1.5281104603060932e-06   4.730544038126036e-06
-1.083795730665456e-05   1.5281104603060932e-06   4.730544038126036e-06
-1.083795730665456e-05   1.5281104603060932e-06   4.730544038126036e-06
-1.083795730665456e-05   1.5281104603060932e-06   4.730544038126036e-06
-7.1724101485344745e-06   1.6207543530020216e-06   -1.434287561025041e-06
-7.1724101485344745e-06   1.6207543530020216e-06   -1.434287561025041e-06
-7.1724101485344745e-06   1.6207543530020216e-06   -1.434287561025041e-06
-7.1724101485344745e-06   1.6207543530020216e-06   -1.434287561025041e-06
-8.653133265729906e-06   1.6176039739833293e-06   1.0354745283786606e-06
-8.653133265729906e-06   1.6176039739833293e-06   1.0354745283786606e-06
-8.653133265729906e-06   1.6176039739833293e-06   1.0354745283786606e-06
-8.653133265729906e-06   1.6176039739833293e-06   1.0354745283786606e-06
-7.1724101485344745e-06   1.528110460306039e-06   4.674957702508453e-06
-7.1724101485344745e-06   1.528110460306039e-06   4.674957702508453e-06
-7.1724101485344745e-06   1.528110460306039e-06   4.674957702508453e-06
-7.1724101485344745e-06   1.528110460306039e-06   4.674957702508453e-06
-1.083795730665458e-05   1.6207543530020216e-06   -1.3787012254074785e-06
-1.083795730665458e-05   1.6207543530020216e-06   -1.3787012254074785e-06
-1.083795730665458e-05   1.6207543530020216e-06   -1.3787012254074785e-06
-1.083795730665458e-05   1.6207543530020216e-06   -1.3787012254074785e-06
-1.1167026439454951e-05   1.307334449042062e-06   6.226230686288395e-06
-1.1167026439454951e-05   1.307334449042062e-06   6.226230686288395e-06
-1.1167026439454951e-05   1.307334449042062e-06   6.226230686288395e-06
-1.1167026439454951e-05   1.307334449042062e-06   6.226230686288395e-06
-7.374773858918373e-06   1.5015840342740114e-06   -2.107400324117333e-07
-7.374773858918373e-06   1.5015840342740114e-06   -2.107400324117333e-07
-7.374773858918373e-06   1.5015840342740114e-06   -2.107400324117333e-07
-7.374773858918373e-06   1.5015840342740114e-06   -2.107400324117333e-07
-8.751172086842238e-06   1.5478215879561328e-06   2.055514481918744e-06
-8.751172086842238e-06   1.5478215879561328e-06   2.055514481918744e-06
-8.751172086842238e-06   1.5478215879561328e-06   2.055514481918744e-06
-8.751172086842238e-06   1.5478215879561328e-06   2.055514481918744e-06
6.793915726177591e-06   -9.41602602179219e-07   5.08633185791435e-06
6.793915726177591e-06   -9.41602602179219e-07   5.08633185791435e-06
6.793915726177591e-06   -9.41602602179219e-07   5.08633185791435e-06
6.793915726177591e-06   -9.41602602179219e-07   5.08633185791435e-06
3.3342440135766724e-06   -7.155818515150849e-07   -5.441752126887048e-07
3.3342440135766724e-06   -7.155818515150849e-07   -5.441752126887048e-07
3.3342440135766724e-06   -7.155818515150849e-07   -5.441752126887048e-07
3.3342440135766724e-06   -7.155818515150849e-07   -5.441752126887048e-07
3.2212294926048667e-06   -1.058484988117228e-06   4.399662239722271e-06
3.2212294926048667e-06   -1.058484988117228e-06   4.399662239722271e-06
3.2212294926048667e-06   -1.058484988117228e-06   4.399662239722271e-06
3.2212294926048667e-06   -1.058484988117228e-06   4.399662239722271e-06
6.587473593722899e-06   -8.22442581096107e-07   -1.3523700396870803e-06
6.587473593722899e-06   -8.22442581096107e-07   -1.3523700396870803e-06
6.587473593722899e-06   -8.22442581096107e-07   -1.3523700396870803e-06
6.587473593722899e-06   -8.22442581096107e-07   -1.3523700396870803e-06
4.7565229138894444e-06   -8.749082116922319e-07   1.7306938050596537e-06
4.7565229138894444e-06   -8.749082116922319e-07   1.7306938050596537e-06
4.7565229138894444e-06   -8.749082116922319e-07   1.7306938050596537e-06
4.7565229138894444e-06   -8.749082116922319e-07   1.7306938050596537e-06
6.587473593722888e-06   -1.058484988117228e-06   4.25803679550958e-06
6.587473593722888e-06   -1.058484988117228e-06   4.25803679550958e-06
6.587473593722888e-06   -1.058484988117228e-06   4.25803679550958e-06
6.587473593722888e-06   -1.058484988117228e-06   4.25803679550958e-06
3.2212294926048785e-06   -8.22442581096107e-07   -1.2107445954744132e-06
3.2212294926048785e-06   -8.22442581096107e-07   -1.2107445954744132e-06
3.2212294926048785e-06   -8.22442581096107e-07   -1.2107445954744132e-06
3.2212294926048785e-06   -8.22442581096107e-07   -1.2107445954744132e-06
3.0947951901918946e-06   -1.073760333036313e-06   3.9275173433536e-06
3.0947951901918946e-06   -1.073760333036313e-06   3.9275173433536e-06
3.0947951901918946e-06   -1.073760333036313e-06   3.9275173433536e-06
3.0947951901918946e-06   -1.073760333036313e-06   3.9275173433536e-06
6.398752016665482e-06   -8.424830339370435e-07   -1.717843746895252e-06
6.398752016665482e-06   -8.424830339370435e-07   -1.717843746895252e-06
6.398752016665482e-06   -8.424830339370435e-07   -1.717843746895252e-06
6.398752016665482e-06   -8.424830339370435e-07   -1.717843746895252e-06
4.688285508508778e-06   -9.169753055717129e-07   1.1776291296800392e-06
4.688285508508778e-06   -9.169753055717129e-07   1.1776291296800392e-06
4.688285508508778e-06   -9.169753055717129e-07   1.1776291296800392e-06
4.688285508508778e-06   -9.169753055717129e-07   1.1776291296800392e-06
6.398752016665459e-06   -1.0737603330362587e-06   3.7887509638940206e-06
6.398752016665459e-06   -1.0737603330362587e-06   3.7887509638940206e-06
6.398752016665459e-06   -1.0737603330362587e-06   3.7887509638940206e-06
6.398752016665459e-06   -1.0737603330362587e-06   3.7887509638940206e-06
3.0947951901918997e-06   -8.424830339370435e-07   -1.5790773674356794e-06
3.0947951901918997e-06   -8.424830339370435e-07   -1.5790773674356794e-06
3.0947951901918997e-06   -8.424830339370435e-07   -1.5790773674356794e-06
3.0947951901918997e-06   -8.424830339370435e-07   -1.5790773674356794e-06
2.9723935444731306e-06   -1.0576462648158053e-06   3.2572636290743265e-06
2.9723935444731306e-06   -1.0576462648158053e-06   3.2572636290743265e-06
2.9723935444731306e-06   -1.0576462648158053e-06   3.2572636290743265e-06
2.9723935444731306e-06   -1.0576462648158053e-06   3.2572636290743265e-06
6.183329261126091e-06   -8.433098747120363e-07   -2.2228977327428464e-06
6.183329261126091e-06   -8.433098747120363e-07   -2.2228977327428464e-06
6.183329261126091e-06   -8.433098747120363e-07   -2.2228977327428464e-06
6.183329261126091e-06   -8.433098747120363e-07   -2.2228977327428464e-06
4.465937701213437e-06   -8.98511968620456e-07   6.725427901233775e-07
4.465937701213437e-06   -8.98511968620456e-07   6.725427901233775e-07
4.465937701213437e-06   -8.98511968620456e-07   6.725427901233775e-07
4.465937701213437e-06   -8.98511968620456e-07   6.725427901233775e-07
3.3342440135766724e-06   -3.2088322977398293e-07   5.195189183991691e-06
3.3342440135766724e-06   -3.2088322977398293e-07   5.195189183991691e-06
3.3342440135766724e-06   -3.2088322977398293e-07   5.195189183991691e-06
3.3342440135766724e-06   -3.2088322977398293e-07   5.195189183991691e-06
8.535846954461939e-08   -1.397403275023388e-07   -1.1093431469873932e-07
8.535846954461939e-08   -1.397403275023388e-07   -1.1093431469873932e-07
8.535846954461939e-08   -1.397403275023388e-07   -1.1093431469873932e-07
8.535846954461939e-08   -1.397403275023388e-07   -1.1093431469873932e-07
-2.403395262307365e-08   -3.816484855902408e-07   5.238927099506831e-06
-2.403395262307365e-08   -3.816484855902408e-07   5.238927099506831e-06
-2.403395262307365e-08   -3.816484855902408e-07   5.238927099506831e-06
-2.403395262307365e-08   -3.816484855902408e-07   5.238927099506831e-06
3.2212294926048785e-06   -2.1368851233714284e-07   -2.7062129315830077e-07
3.2212294926048785e-06   -2.1368851233714284e-07   -2.7062129315830077e-07
3.2212294926048785e-06   -2.1368851233714284e-07   -2.7062129315830077e-07
3.2212294926048785e-06   -2.1368851233714284e-07   -2.7062129315830077e-07
1.633628535021162e-06   -2.5516066293163834e-07   2.4002635931712337e-06
1.633628535021162e-06   -2.5516066293163834e-07   2.4002635931712337e-06
1.633628535021162e-06   -2.5516066293163834e-07   2.4002635931712337e-06
1.633628535021162e-06   -2.5516066293163834e-07   2.4002635931712337e-06
3.221229492604875e-06   -3.8164848559029503e-07   5.138151115554918e-06
3.221229492604875e-06   -3.8164848559029503e-07   5.138151115554918e-06
3.221229492604875e-06   -3.8164848559029503e-07   5.138151115554918e-06
3.221229492604875e-06   -3.8164848559029503e-07   5.138151115554918e-06
-2.403395262307365e-08   -2.1368851233714284e-07   -1.6984530920642572e-07
-2.403395262307365e-08   -2.1368851233714284e-07   -1.6984530920642572e-07
-2.403395262307365e-08   -2.1368851233714284e-07   -1.6984530920642572e-07
-2.403395262307365e-08   -2.1368851233714284e-07   -1.6984530920642572e-07
-1.378072416571545e-07   -4.1868185619983386e-07   5.147706224438057e-06
-1.378072416571545e-07   -4.1868185619983386e-07   5.147706224438057e-06
-1.378072416571545e-07   -4.1868185619983386e-07   5.147706224438057e-06
-1.378072416571545e-07   -4.1868185619983386e-07   5.147706224438057e-06
3.0947951901918997e-06   -2.6631550340190137e-07   -3.3138430698912563e-07
3.0947951901918997e-06   -2.6631550340190137e-07   -3.3138430698912563e-07
3.0947951901918997e-06   -2.6631550340190137e-07   -3.3138430698912563e-07
3.0947951901918997e-06   -2.6631550340190137e-07   -3.3138430698912563e-07
1.5059463000971624e-06   -2.928558430016011e-07   2.332621380262014e-06
1.5059463000971624e-06   -2.928558430016011e-07   2.332621380262014e-06
1.5059463000971624e-06   -2.928558430016011e-07   2.332621380262014e-06
1.5059463000971624e-06   -2.928558430016011e-07   2.332621380262014e-06
3.0947951901918946e-06   -4.1868185619983386e-07   5.056286412759304e-06
3.0947951901918946e-06   -4.1868185619983386e-07   5.056286412759304e-06
3.0947951901918946e-06   -4.1868185619983386e-07   5.056286412759304e-06
3.0947951901918946e-06   -4.1868185619983386e-07   5.056286412759304e-06
-1.378072416571545e-07   -2.663155034019556e-07   -2.399644953103553e-07
-1.378072416571545e-07   -2.663155034019556e-07   -2.399644953103553e-07
-1.378072416571545e-07   -2.663155034019556e-07   -2.399644953103553e-07
-1.378072416571545e-07   -2.663155034019556e-07   -2.399644953103553e-07
-2.5627861330596504e-07   -4.304498849215738e-07   5.174420764163869e-06
-2.5627861330596504e-07   -4.304498849215738e-07   5.174420764163869e-06
-2.5627861330596504e-07   -4.304498849215738e-07   5.174420764163869e-06
-2.5627861330596504e-07   -4.304498849215738e-07   5.174420764163869e-06
2.9723935444731374e-06   -3.0505807866343815e-07   -2.8193458255620766e-07
2.9723935444731374e-06   -3.0505807866343815e-07   -2.8193458255620766e-07
2.9723935444731374e-06   -3.0505807866343815e-07   -2.8193458255620766e-07
2.9723935444731374e-06   -3.0505807866343815e-07   -2.8193458255620766e-07
1.4135691036657719e-06   -3.1031728667569474e-07   2.3192616769302085e-06
1.4135691036657719e-06   -3.1031728667569474e-07   2.3192616769302085e-06
1.4135691036657719e-06   -3.1031728667569474e-07   2.3192616769302085e-06
1.4135691036657719e-06   -3.1031728667569474e-07   2.3192616769302085e-06
8.535846954461939e-08   3.0982726981221027e-07   5.338726014962737e-06
8.535846954461939e-08   3.0982726981221027e-07   5.338726014962737e-06
8.535846954461939e-08   3.0982726981221027e-07   5.338726014962737e-06
8.535846954461939e-08   3.0982726981221027e-07   5.338726014962737e-06
-3.0748860130242717e-06   4.3115435255456497e-07   1.444481269933487e-07
-3.0748860130242717e-06   4.3115435255456497e-07   1.444481269933487e-07
-3.0748860130242717e-06   4.3115435255456497e-07   1.444481269933487e-07
-3.0748860130242717e-06   4.3115435255456497e-07   1.444481269933487e-07
-3.1897129018653105e-06   2.670276005960464e-07   5.405722407839e-06
-3.1897129018653105e-06   2.670276005960464e-07   5.405722407839e-06
-3.1897129018653105e-06   2.670276005960464e-07   5.405722407839e-06
-3.1897129018653105e-06   2.670276005960464e-07   5.405722407839e-06
-2.403395262307365e-08   3.7228026798460413e-07   6.643922533550064e-08
-2.403395262307365e-08   3.7228026798460413e-07   6.643922533550064e-08
-2.403395262307365e-08   3.7228026798460413e-07   6.643922533550064e-08
-2.403395262307365e-08   3.7228026798460413e-07   6.643922533550064e-08
-1.5530159261286785e-06   3.4658751251305867e-07   2.6301581677944477e-06
-1.5530159261286785e-06   3.4658751251305867e-07   2.6301581677944477e-06
-1.5530159261286785e-06   3.4658751251305867e-07   2.6301581677944477e-06
-1.5530159261286785e-06   3.4658751251305867e-07   2.6301581677944477e-06
-2.403395262307365e-08   2.670276005960464e-07   5.342570807405937e-06
-2.403395262307365e-08   2.670276005960464e-07   5.342570807405937e-06
-2.403395262307365e-08   2.670276005960464e-07   5.342570807405937e-06
-2.403395262307365e-08   2.670276005960464e-07   5.342570807405937e-06
-3.1897129018653105e-06   3.7228026798460413e-07   1.2959082576862444e-07
-3.1897129018653105e-06   3.7228026798460413e-07   1.2959082576862444e-07
-3.1897129018653105e-06   3.7228026798460413e-07   1.2959082576862444e-07
-3.1897129018653105e-06   3.7228026798460413e-07   1.2959082576862444e-07
-3.310262178863628e-06   2.2721623105546396e-07   5.449788021825807e-06
-3.310262178863628e-06   2.2721623105546396e-07   5.449788021825807e-06
-3.310262178863628e-06   2.2721623105546396e-07   5.449788021825807e-06
-3.310262178863628e-06   2.2721623105546396e-07   5.449788021825807e-06
-1.378072416571545e-07   3.152338994129398e-07   1.0955252546722785e-07
-1.378072416571545e-07   3.152338994129398e-07   1.0955252546722785e-07
-1.378072416571545e-07   3.152338994129398e-07   1.0955252546722785e-07
-1.378072416571545e-07   3.152338994129398e-07   1.0955252546722785e-07
-1.659224644577797e-06   3.1446009127140745e-07   2.645712481886558e-06
-1.659224644577797e-06   3.1446009127140745e-07   2.645712481886558e-06
-1.659224644577797e-06   3.1446009127140745e-07   2.645712481886558e-06
-1.659224644577797e-06   3.1446009127140745e-07   2.645712481886558e-06
-1.378072416571545e-07   2.2721623105546396e-07   5.396977420811335e-06
-1.378072416571545e-07   2.2721623105546396e-07   5.396977420811335e-06
-1.378072416571545e-07   2.2721623105546396e-07   5.396977420811335e-06
-1.378072416571545e-07   2.2721623105546396e-07   5.396977420811335e-06
-3.310262178863628e-06   3.15233899412994e-07   1.6236312648171334e-07
-3.310262178863628e-06   3.15233899412994e-07   1.6236312648171334e-07
-3.310262178863628e-06   3.15233899412994e-07   1.6236312648171334e-07
-3.310262178863628e-06   3.15233899412994e-07   1.6236312648171334e-07
-3.4342569914402757e-06   1.9946140163547505e-07   5.521103462220294e-06
-3.4342569914402757e-06   1.9946140163547505e-07   5.521103462220294e-06
-3.4342569914402757e-06   1.9946140163547505e-07   5.521103462220294e-06
-3.4342569914402757e-06   1.9946140163547505e-07   5.521103462220294e-06
-2.5627861330596504e-07   2.64623029131415e-07   1.853758554989178e-07
-2.5627861330596504e-07   2.64623029131415e-07   1.853758554989178e-07
-2.5627861330596504e-07   2.64623029131415e-07   1.853758554989178e-07
-2.5627861330596504e-07   2.64623029131415e-07   1.853758554989178e-07
-1.774226943770224e-06   2.8398503757953654e-07   2.703672534537261e-06
-1.774226943770224e-06   2.8398503757953654e-07   2.703672534537261e-06
-1.774226943770224e-06   2.8398503757953654e-07   2.703672534537261e-06
-1.774226943770224e-06   2.8398503757953654e-07   2.703672534537261e-06
-3.074886013024282e-06   9.771699007694932e-07   4.700459310131032e-06
-3.074886013024282e-06   9.771699007694932e-07   4.700459310131032e-06
-3.074886013024282e-06   9.771699007694932e-07   4.700459310131032e-06
-3.074886013024282e-06   9.771699007694932e-07   4.700459310131032e-06
-6.162762337072493e-06   9.901736924497213e-07   -4.3819895494115664e-07
-6.162762337072493e-06   9.901736924497213e-07   -4.3819895494115664e-07
-6.162762337072493e-06   9.901736924497213e-07   -4.3819895494115664e-07
-6.162762337072493e-06   9.901736924497213e-07   -4.3819895494115664e-07
-6.295721651331506e-06   9.363252895629105e-07   4.7818691088381815e-06
-6.295721651331506e-06   9.363252895629105e-07   4.7818691088381815e-06
-6.295721651331506e-06   9.363252895629105e-07   4.7818691088381815e-06
-6.295721651331506e-06   9.363252895629105e-07   4.7818691088381815e-06
-3.189712901865314e-06   9.363227882425791e-07   -3.9481063947993666e-07
-3.189712901865314e-06   9.363227882425791e-07   -3.9481063947993666e-07
-3.189712901865314e-06   9.363227882425791e-07   -3.9481063947993666e-07
-3.189712901865314e-06   9.363227882425791e-07   -3.9481063947993666e-07
-4.659979195265664e-06   9.542428804437892e-07   2.044881127533305e-06
-4.659979195265664e-06   9.542428804437892e-07   2.044881127533305e-06
-4.659979195265664e-06   9.542428804437892e-07   2.044881127533305e-06
-4.659979195265664e-06   9.542428804437892e-07   2.044881127533305e-06
-3.189712901865314e-06   9.363252895629105e-07   4.781870609630382e-06
-3.189712901865314e-06   9.363252895629105e-07   4.781870609630382e-06
-3.189712901865314e-06   9.363252895629105e-07   4.781870609630382e-06
-3.189712901865314e-06   9.363252895629105e-07   4.781870609630382e-06
-6.295721651331506e-06   9.363227882425791e-07   -3.948121402721301e-07
-6.295721651331506e-06   9.363227882425791e-07   -3.948121402721301e-07
-6.295721651331506e-06   9.363227882425791e-07   -3.948121402721301e-07
-6.295721651331506e-06   9.363227882425791e-07   -3.948121402721301e-07
-6.4417694604483045e-06   8.966547606966834e-07   5.005006709768927e-06
-6.4417694604483045e-06   8.966547606966834e-07   5.005006709768927e-06
-6.4417694604483045e-06   8.966547606966834e-07   5.005006709768927e-06
-6.4417694604483045e-06   8.966547606966834e-07   5.005006709768927e-06
-3.310262178863635e-06   8.846401174241684e-07   -2.069633069086516e-07
-3.310262178863635e-06   8.846401174241684e-07   -2.069633069086516e-07
-3.310262178863635e-06   8.846401174241684e-07   -2.069633069086516e-07
-3.310262178863635e-06   8.846401174241684e-07   -2.069633069086516e-07
-4.751933978356676e-06   9.251945452449129e-07   2.171490368887291e-06
-4.751933978356676e-06   9.251945452449129e-07   2.171490368887291e-06
-4.751933978356676e-06   9.251945452449129e-07   2.171490368887291e-06
-4.751933978356676e-06   9.251945452449129e-07   2.171490368887291e-06
-3.310262178863635e-06   8.966547606966834e-07   5.012215495732484e-06
-3.310262178863635e-06   8.966547606966834e-07   5.012215495732484e-06
-3.310262178863635e-06   8.966547606966834e-07   5.012215495732484e-06
-3.310262178863635e-06   8.966547606966834e-07   5.012215495732484e-06
-6.4417694604483045e-06   8.846401174241684e-07   -2.141720928721877e-07
-6.4417694604483045e-06   8.846401174241684e-07   -2.141720928721877e-07
-6.4417694604483045e-06   8.846401174241684e-07   -2.141720928721877e-07
-6.4417694604483045e-06   8.846401174241684e-07   -2.141720928721877e-07
-6.580174847055628e-06   8.411625950358113e-07   5.156877972885396e-06
-6.580174847055628e-06   8.411625950358113e-07   5.156877972885396e-06
-6.580174847055628e-06   8.411625950358113e-07   5.156877972885396e-06
-6.580174847055628e-06   8.411625950358113e-07   5.156877972885396e-06
-3.4342569914402757e-06   8.196739659295537e-07   -7.34252756764205e-08
-3.4342569914402757e-06   8.196739659295537e-07   -7.34252756764205e-08
-3.4342569914402757e-06   8.196739659295537e-07   -7.34252756764205e-08
-3.4342569914402757e-06   8.196739659295537e-07   -7.34252756764205e-08
-4.907541275914469e-06   8.848017503684206e-07   2.3429718611173655e-06
-4.907541275914469e-06   8.848017503684206e-07   2.3429718611173655e-06
-4.907541275914469e-06   8.848017503684206e-07   2.3429718611173655e-06
-4.907541275914469e-06   8.848017503684206e-07   2.3429718611173655e-06
-6.1627623370724795e-06   1.5892836574950904e-06   2.2903377202988226e-06
-6.1627623370724795e-06   1.5892836574950904e-06   2.2903377202988226e-06
-6.1627623370724795e-06   1.5892836574950904e-06   2.2903377202988226e-06
-6.1627623370724795e-06   1.5892836574950904e-06   2.2903377202988226e-06
-9.14491187743806e-06   1.4488507347970928e-06   -2.764171267262636e-06
-9.14491187743806e-06   1.4488507347970928e-06   -2.764171267262636e-06
-9.14491187743806e-06   1.4488507347970928e-06   -2.764171267262636e-06
-9.14491187743806e-06   1.4488507347970928e-06   -2.764171267262636e-06
-9.354859979567646e-06   1.629349085954107e-06   3.240996390054939e-06
-9.354859979567646e-06   1.629349085954107e-06   3.240996390054939e-06
-9.354859979567646e-06   1.629349085954107e-06   3.240996390054939e-06
-9.354859979567646e-06   1.629349085954107e-06   3.240996390054939e-06
-6.295721651331506e-06   1.471700662104196e-06   -1.7629784360287458e-06
-6.295721651331506e-06   1.471700662104196e-06   -1.7629784360287458e-06
-6.295721651331506e-06   1.471700662104196e-06   -1.7629784360287458e-06
-6.295721651331506e-06   1.471700662104196e-06   -1.7629784360287458e-06
-7.4419944612977255e-06   1.5214855492370893e-06   1.1760531496859906e-07
-7.4419944612977255e-06   1.5214855492370893e-06   1.1760531496859906e-07
-7.4419944612977255e-06   1.5214855492370893e-06   1.1760531496859906e-07
-7.4419944612977255e-06   1.5214855492370893e-06   1.1760531496859906e-07
-6.295721651331493e-06   1.629349085954107e-06   3.3355854443648696e-06
-6.295721651331493e-06   1.629349085954107e-06   3.3355854443648696e-06
-6.295721651331493e-06   1.629349085954107e-06   3.3355854443648696e-06
-6.295721651331493e-06   1.629349085954107e-06   3.3355854443648696e-06
-9.35485997956766e-06   1.471700662104196e-06   -1.8575674903386626e-06
-9.35485997956766e-06   1.471700662104196e-06   -1.8575674903386626e-06
-9.35485997956766e-06   1.471700662104196e-06   -1.8575674903386626e-06
-9.35485997956766e-06   1.471700662104196e-06   -1.8575674903386626e-06
-9.557909132019114e-06   1.6207543530020216e-06   3.958875131532946e-06
-9.557909132019114e-06   1.6207543530020216e-06   3.958875131532946e-06
-9.557909132019114e-06   1.6207543530020216e-06   3.958875131532946e-06
-9.557909132019114e-06   1.6207543530020216e-06   3.958875131532946e-06
-6.4417694604483045e-06   1.4576005508082032e-06   -1.1367987064354597e-06
-6.4417694604483045e-06   1.4576005508082032e-06   -1.1367987064354597e-06
-6.4417694604483045e-06   1.4576005508082032e-06   -1.1367987064354597e-06
-6.4417694604483045e-06   1.4576005508082032e-06   -1.1367987064354597e-06
-7.713594878609069e-06   1.5521805891564096e-06   9.261623008236842e-07
-7.713594878609069e-06   1.5521805891564096e-06   9.261623008236842e-07
-7.713594878609069e-06   1.5521805891564096e-06   9.261623008236842e-07
-7.713594878609069e-06   1.5521805891564096e-06   9.261623008236842e-07
-6.4417694604483045e-06   1.6207543530020216e-06   4.056767412849254e-06
-6.4417694604483045e-06   1.6207543530020216e-06   4.056767412849254e-06
-6.4417694604483045e-06   1.6207543530020216e-06   4.056767412849254e-06
-6.4417694604483045e-06   1.6207543530020216e-06   4.056767412849254e-06
-9.557909132019128e-06   1.4576005508082032e-06   -1.2346909877517534e-06
-9.557909132019128e-06   1.4576005508082032e-06   -1.2346909877517534e-06
-9.557909132019128e-06   1.4576005508082032e-06   -1.2346909877517534e-06
-9.557909132019128e-06   1.4576005508082032e-06   -1.2346909877517534e-06
-9.793079307876553e-06   1.5015840342739572e-06   5.176399029856648e-06
-9.793079307876553e-06   1.5015840342739572e-06   5.176399029856648e-06
-9.793079307876553e-06   1.5015840342739572e-06   5.176399029856648e-06
-9.793079307876553e-06   1.5015840342739572e-06   5.176399029856648e-06
-6.580174847055618e-06   1.3505387413195193e-06   -8.781456240560545e-08
-6.580174847055618e-06   1.3505387413195193e-06   -8.781456240560545e-08
-6.580174847055618e-06   1.3505387413195193e-06   -8.781456240560545e-08
-6.580174847055618e-06   1.3505387413195193e-06   -8.781456240560545e-08
-7.76223088821819e-06   1.507546941299174e-06   1.7880739195442498e-06
-7.76223088821819e-06   1.507546941299174e-06   1.7880739195442498e-06
-7.76223088821819e-06   1.507546941299174e-06   1.7880739195442498e-06
-7.76223088821819e-06   1.507546941299174e-06   1.7880739195442498e-06
5.33826246349961e-06   -7.155818515150849e-07   4.376530185368759e-06
5.33826246349961e-06   -7.155818515150849e-07   4.376530185368759e-06
5.33826246349961e-06   -7.155818515150849e-07   4.376530185368759e-06
5.33826246349961e-06   -7.155818515150849e-07   4.376530185368759e-06
2.496930681426103e-06   -4.952010831044194e-07   -2.2679432370732158e-07
2.496930681426103e-06   -4.952010831044194e-07   -2.2679432370732158e-07
2.496930681426103e-06   -4.952010831044194e-07   -2.2679432370732158e-07
2.496930681426103e-06   -4.952010831044194e-07   -2.2679432370732158e-07
2.3944633586322787e-06   -8.22442581096107e-07   3.826281264067985e-06
2.3944633586322787e-06   -8.22442581096107e-07   3.826281264067985e-06
2.3944633586322787e-06   -8.22442581096107e-07   3.826281264067985e-06
2.3944633586322787e-06   -8.22442581096107e-07   3.826281264067985e-06
5.138755821937656e-06   -5.928866698233352e-07   -8.852730548713052e-07
5.138755821937656e-06   -5.928866698233352e-07   -8.852730548713052e-07
5.138755821937656e-06   -5.928866698233352e-07   -8.852730548713052e-07
5.138755821937656e-06   -5.928866698233352e-07   -8.852730548713052e-07
3.6620270213056132e-06   -6.599532902775492e-07   1.6161815851212946e-06
3.6620270213056132e-06   -6.599532902775492e-07   1.6161815851212946e-06
3.6620270213056132e-06   -6.599532902775492e-07   1.6161815851212946e-06
3.6620270213056132e-06   -6.599532902775492e-07   1.6161815851212946e-06
5.138755821937647e-06   -8.22442581096107e-07   3.6885477173043615e-06
5.138755821937647e-06   -8.22442581096107e-07   3.6885477173043615e-06
5.138755821937647e-06   -8.22442581096107e-07   3.6885477173043615e-06
5.138755821937647e-06   -8.22442581096107e-07   3.6885477173043615e-06
2.3944633586322813e-06   -5.928866698233352e-07   -7.475395081076204e-07
2.3944633586322813e-06   -5.928866698233352e-07   -7.475395081076204e-07
2.3944633586322813e-06   -5.928866698233352e-07   -7.475395081076204e-07
2.3944633586322813e-06   -5.928866698233352e-07   -7.475395081076204e-07
2.2801456521152867e-06   -8.424830339369893e-07   3.4415001665379303e-06
2.2801456521152867e-06   -8.424830339369893e-07   3.4415001665379303e-06
2.2801456521152867e-06   -8.424830339369893e-07   3.4415001665379303e-06
2.2801456521152867e-06   -8.424830339369893e-07   3.4415001665379303e-06
4.962362129239412e-06   -6.177680589919605e-07   -1.1636896136359598e-06
4.962362129239412e-06   -6.177680589919605e-07   -1.1636896136359598e-06
4.962362129239412e-06   -6.177680589919605e-07   -1.1636896136359598e-06
4.962362129239412e-06   -6.177680589919605e-07   -1.1636896136359598e-06
3.5877454909000746e-06   -7.002656383595248e-07   1.1768366645502397e-06
3.5877454909000746e-06   -7.002656383595248e-07   1.1768366645502397e-06
3.5877454909000746e-06   -7.002656383595248e-07   1.1768366645502397e-06
3.5877454909000746e-06   -7.002656383595248e-07   1.1768366645502397e-06
4.962362129239403e-06   -8.424830339369893e-07   3.3066711815709303e-06
4.962362129239403e-06   -8.424830339369893e-07   3.3066711815709303e-06
4.962362129239403e-06   -8.424830339369893e-07   3.3066711815709303e-06
4.962362129239403e-06   -8.424830339369893e-07   3.3066711815709303e-06
2.280145652115291e-06   -6.177680589919605e-07   -1.0288606286689209e-06
2.280145652115291e-06   -6.177680589919605e-07   -1.0288606286689209e-06
2.280145652115291e-06   -6.177680589919605e-07   -1.0288606286689209e-06
2.280145652115291e-06   -6.177680589919605e-07   -1.0288606286689209e-06
2.1739013252291683e-06   -8.433098747120363e-07   2.908995184980139e-06
2.1739013252291683e-06   -8.433098747120363e-07   2.908995184980139e-06
2.1739013252291683e-06   -8.433098747120363e-07   2.908995184980139e-06
2.1739013252291683e-06   -8.433098747120363e-07   2.908995184980139e-06
4.763017236172404e-06   -6.353835451245577e-07   -1.530953797677741e-06
4.763017236172404e-06   -6.353835451245577e-07   -1.530953797677741e-06
4.763017236172404e-06   -6.353835451245577e-07   -1.530953797677741e-06
4.763017236172404e-06   -6.353835451245577e-07   -1.530953797677741e-06
3.395007202788735e-06   -6.933916613569534e-07   7.83867794367814e-07
3.395007202788735e-06   -6.933916613569534e-07   7.83867794367814e-07
3.395007202788735e-06   -6.933916613569534e-07   7.83867794367814e-07
3.395007202788735e-06   -6.933916613569534e-07   7.83867794367814e-07
2.4969306814260953e-06   -1.397403275023388e-07   4.833313803042117e-06
2.4969306814260953e-06   -1.397403275023388e-07   4.833313803042117e-06
2.4969306814260953e-06   -1.397403275023388e-07   4.833313803042117e-06
2.4969306814260953e-06   -1.397403275023388e-07   4.833313803042117e-06
-1.832499316398421e-07   -1.4267343326950302e-08   4.4162990510418303e-07
-1.832499316398421e-07   -1.4267343326950302e-08   4.4162990510418303e-07
-1.832499316398421e-07   -1.4267343326950302e-08   4.4162990510418303e-07
-1.832499316398421e-07   -1.4267343326950302e-08   4.4162990510418303e-07
-2.802650562462392e-07   -2.1368851233714284e-07   4.8363543976164024e-06
-2.802650562462392e-07   -2.1368851233714284e-07   4.8363543976164024e-06
-2.802650562462392e-07   -2.1368851233714284e-07   4.8363543976164024e-06
-2.802650562462392e-07   -2.1368851233714284e-07   4.8363543976164024e-06
2.3944633586322813e-06   -9.71054602832565e-08   3.085238749198961e-07
2.3944633586322813e-06   -9.71054602832565e-08   3.085238749198961e-07
2.3944633586322813e-06   -9.71054602832565e-08   3.085238749198961e-07
2.3944633586322813e-06   -9.71054602832565e-08   3.085238749198961e-07
1.0886673665363487e-06   -1.195543520700836e-07   2.4983198634852288e-06
1.0886673665363487e-06   -1.195543520700836e-07   2.4983198634852288e-06
1.0886673665363487e-06   -1.195543520700836e-07   2.4983198634852288e-06
1.0886673665363487e-06   -1.195543520700836e-07   2.4983198634852288e-06
2.394463358632273e-06   -2.1368851233714284e-07   4.766404566384101e-06
2.394463358632273e-06   -2.1368851233714284e-07   4.766404566384101e-06
2.394463358632273e-06   -2.1368851233714284e-07   4.766404566384101e-06
2.394463358632273e-06   -2.1368851233714284e-07   4.766404566384101e-06
-2.802650562462392e-07   -9.71054602832565e-08   3.784737061522279e-07
-2.802650562462392e-07   -9.71054602832565e-08   3.784737061522279e-07
-2.802650562462392e-07   -9.71054602832565e-08   3.784737061522279e-07
-2.802650562462392e-07   -9.71054602832565e-08   3.784737061522279e-07
-3.796229844526782e-07   -2.663155034019556e-07   4.752763531174929e-06
-3.796229844526782e-07   -2.663155034019556e-07   4.752763531174929e-06
-3.796229844526782e-07   -2.663155034019556e-07   4.752763531174929e-06
-3.796229844526782e-07   -2.663155034019556e-07   4.752763531174929e-06
2.280145652115291e-06   -1.6036499641798943e-07   2.562454993712581e-07
2.280145652115291e-06   -1.6036499641798943e-07   2.562454993712581e-07
2.280145652115291e-06   -1.6036499641798943e-07   2.562454993712581e-07
2.280145652115291e-06   -1.6036499641798943e-07   2.562454993712581e-07
9.779858684025522e-07   -1.696075408569016e-07   2.432057332222689e-06
9.779858684025522e-07   -1.696075408569016e-07   2.432057332222689e-06
9.779858684025522e-07   -1.696075408569016e-07   2.432057332222689e-06
9.779858684025522e-07   -1.696075408569016e-07   2.432057332222689e-06
2.2801456521152867e-06   -2.663155034019556e-07   4.689193226984538e-06
2.2801456521152867e-06   -2.663155034019556e-07   4.689193226984538e-06
2.2801456521152867e-06   -2.663155034019556e-07   4.689193226984538e-06
2.2801456521152867e-06   -2.663155034019556e-07   4.689193226984538e-06
-3.796229844526782e-07   -1.6036499641798943e-07   3.1981580356164863e-07
-3.796229844526782e-07   -1.6036499641798943e-07   3.1981580356164863e-07
-3.796229844526782e-07   -1.6036499641798943e-07   3.1981580356164863e-07
-3.796229844526782e-07   -1.6036499641798943e-07   3.1981580356164863e-07
-4.796905916258194e-07   -3.0505807866343815e-07   4.7745340028173665e-06
-4.796905916258194e-07   -3.0505807866343815e-07   4.7745340028173665e-06
-4.796905916258194e-07   -3.0505807866343815e-07   4.7745340028173665e-06
-4.796905916258194e-07   -3.0505807866343815e-07   4.7745340028173665e-06
2.173901325229169e-06   -2.1642890914196685e-07   2.987033063461613e-07
2.173901325229169e-06   -2.1642890914196685e-07   2.987033063461613e-07
2.173901325229169e-06   -2.1642890914196685e-07   2.987033063461613e-07
2.173901325229169e-06   -2.1642890914196685e-07   2.987033063461613e-07
8.965034825025154e-07   -2.042249007769433e-07   2.4203773058715714e-06
8.965034825025154e-07   -2.042249007769433e-07   2.4203773058715714e-06
8.965034825025154e-07   -2.042249007769433e-07   2.4203773058715714e-06
8.965034825025154e-07   -2.042249007769433e-07   2.4203773058715714e-06
-1.832499316398421e-07   4.3115435255456497e-07   5.0911837855941e-06
-1.832499316398421e-07   4.3115435255456497e-07   5.0911837855941e-06
-1.832499316398421e-07   4.3115435255456497e-07   5.0911837855941e-06
-1.832499316398421e-07   4.3115435255456497e-07   5.0911837855941e-06
-2.8069232583518232e-06   4.483534480605937e-07   7.287143650443835e-07
-2.8069232583518232e-06   4.483534480605937e-07   7.287143650443835e-07
-2.8069232583518232e-06   4.483534480605937e-07   7.287143650443835e-07
-2.8069232583518232e-06   4.483534480605937e-07   7.287143650443835e-07
-2.9051473002995553e-06   3.7228026798460413e-07   5.075978752800867e-06
-2.9051473002995553e-06   3.7228026798460413e-07   5.075978752800867e-06
-2.9051473002995553e-06   3.7228026798460413e-07   5.075978752800867e-06
-2.9051473002995553e-06   3.7228026798460413e-07   5.075978752800867e-06
-2.802650562462392e-07   3.778466357220057e-07   6.978351920695262e-07
-2.802650562462392e-07   3.778466357220057e-07   6.978351920695262e-07
-2.802650562462392e-07   3.778466357220057e-07   6.978351920695262e-07
-2.802650562462392e-07   3.778466357220057e-07   6.978351920695262e-07
-1.5477545592746994e-06   3.989240699002212e-07   2.797671236610044e-06
-1.5477545592746994e-06   3.989240699002212e-07   2.797671236610044e-06
-1.5477545592746994e-06   3.989240699002212e-07   2.797671236610044e-06
-1.5477545592746994e-06   3.989240699002212e-07   2.797671236610044e-06
-2.802650562462392e-07   3.722802679845499e-07   5.072638932158403e-06
-2.802650562462392e-07   3.722802679845499e-07   5.072638932158403e-06
-2.802650562462392e-07   3.722802679845499e-07   5.072638932158403e-06
-2.802650562462392e-07   3.722802679845499e-07   5.072638932158403e-06
-2.9051473002995553e-06   3.778466357220057e-07   7.011750127119834e-07
-2.9051473002995553e-06   3.778466357220057e-07   7.011750127119834e-07
-2.9051473002995553e-06   3.778466357220057e-07   7.011750127119834e-07
-2.9051473002995553e-06   3.778466357220057e-07   7.011750127119834e-07
-3.0054507584574043e-06   3.15233899412994e-07   5.09827946386436e-06
-3.0054507584574043e-06   3.15233899412994e-07   5.09827946386436e-06
-3.0054507584574043e-06   3.15233899412994e-07   5.09827946386436e-06
-3.0054507584574043e-06   3.15233899412994e-07   5.09827946386436e-06
-3.796229844526816e-07   3.0856541926606567e-07   7.25900928611286e-07
-3.796229844526816e-07   3.0856541926606567e-07   7.25900928611286e-07
-3.796229844526816e-07   3.0856541926606567e-07   7.25900928611286e-07
-3.796229844526816e-07   3.0856541926606567e-07   7.25900928611286e-07
-1.6383224801683828e-06   3.5252578461101225e-07   2.7973572022639364e-06
-1.6383224801683828e-06   3.5252578461101225e-07   2.7973572022639364e-06
-1.6383224801683828e-06   3.5252578461101225e-07   2.7973572022639364e-06
-1.6383224801683828e-06   3.5252578461101225e-07   2.7973572022639364e-06
-3.796229844526816e-07   3.152338994129398e-07   5.102280551952512e-06
-3.796229844526816e-07   3.152338994129398e-07   5.102280551952512e-06
-3.796229844526816e-07   3.152338994129398e-07   5.102280551952512e-06
-3.796229844526816e-07   3.152338994129398e-07   5.102280551952512e-06
-3.0054507584574077e-06   3.0856541926606567e-07   7.218998405231344e-07
-3.0054507584574077e-06   3.0856541926606567e-07   7.218998405231344e-07
-3.0054507584574077e-06   3.0856541926606567e-07   7.218998405231344e-07
-3.0054507584574077e-06   3.0856541926606567e-07   7.218998405231344e-07
-3.105372890029264e-06   2.64623029131415e-07   5.15363527453668e-06
-3.105372890029264e-06   2.64623029131415e-07   5.15363527453668e-06
-3.105372890029264e-06   2.64623029131415e-07   5.15363527453668e-06
-3.105372890029264e-06   2.64623029131415e-07   5.15363527453668e-06
-4.796905916258228e-07   2.4299955816319734e-07   7.904721931118657e-07
-4.796905916258228e-07   2.4299955816319734e-07   7.904721931118657e-07
-4.796905916258228e-07   2.4299955816319734e-07   7.904721931118657e-07
-4.796905916258228e-07   2.4299955816319734e-07   7.904721931118657e-07
-1.7334544849264e-06   3.0760336555183906e-07   2.8413163975129753e-06
-1.7334544849264e-06   3.0760336555183906e-07   2.8413163975129753e-06
-1.7334544849264e-06   3.0760336555183906e-07   2.8413163975129753e-06
-1.7334544849264e-06   3.0760336555183906e-07   2.8413163975129753e-06
-2.8069232583518232e-06   9.901736924497213e-07   4.511053885955009e-06
-2.8069232583518232e-06   9.901736924497213e-07   4.511053885955009e-06
-2.8069232583518232e-06   9.901736924497213e-07   4.511053885955009e-06
-2.8069232583518232e-06   9.901736924497213e-07   4.511053885955009e-06
-5.392091354550584e-06   8.967944736820591e-07   1.4641286102980958e-07
-5.392091354550584e-06   8.967944736820591e-07   1.4641286102980958e-07
-5.392091354550584e-06   8.967944736820591e-07   1.4641286102980958e-07
-5.392091354550584e-06   8.967944736820591e-07   1.4641286102980958e-07
-5.4983640262111055e-06   9.363227882425791e-07   4.488530784837525e-06
-5.4983640262111055e-06   9.363227882425791e-07   4.488530784837525e-06
-5.4983640262111055e-06   9.363227882425791e-07   4.488530784837525e-06
-5.4983640262111055e-06   9.363227882425791e-07   4.488530784837525e-06
-2.905147300299562e-06   8.312452837179441e-07   2.2954941103308073e-07
-2.905147300299562e-06   8.312452837179441e-07   2.2954941103308073e-07
-2.905147300299562e-06   8.312452837179441e-07   2.2954941103308073e-07
-2.905147300299562e-06   8.312452837179441e-07   2.2954941103308073e-07
-4.136385218078226e-06   8.99316699961455e-07   2.240769757584712e-06
-4.136385218078226e-06   8.99316699961455e-07   2.240769757584712e-06
-4.136385218078226e-06   8.99316699961455e-07   2.240769757584712e-06
-4.136385218078226e-06   8.99316699961455e-07   2.240769757584712e-06
-2.9051473002995553e-06   9.363227882426333e-07   4.5515772875523265e-06
-2.9051473002995553e-06   9.363227882426333e-07   4.5515772875523265e-06
-2.9051473002995553e-06   9.363227882426333e-07   4.5515772875523265e-06
-2.9051473002995553e-06   9.363227882426333e-07   4.5515772875523265e-06
-5.498364026211099e-06   8.312452837179441e-07   1.665029083182455e-07
-5.498364026211099e-06   8.312452837179441e-07   1.665029083182455e-07
-5.498364026211099e-06   8.312452837179441e-07   1.665029083182455e-07
-5.498364026211099e-06   8.312452837179441e-07   1.665029083182455e-07
-5.614421064800971e-06   8.846401174241684e-07   4.659163166271819e-06
-5.614421064800971e-06   8.846401174241684e-07   4.659163166271819e-06
-5.614421064800971e-06   8.846401174241684e-07   4.659163166271819e-06
-5.614421064800971e-06   8.846401174241684e-07   4.659163166271819e-06
-3.0054507584574077e-06   7.683236770871437e-07   3.8066918656804935e-07
-3.0054507584574077e-06   7.683236770871437e-07   3.8066918656804935e-07
-3.0054507584574077e-06   7.683236770871437e-07   3.8066918656804935e-07
-3.0054507584574077e-06   7.683236770871437e-07   3.8066918656804935e-07
-4.208726245809375e-06   8.583087497084009e-07   2.3321372885820707e-06
-4.208726245809375e-06   8.583087497084009e-07   2.3321372885820707e-06
-4.208726245809375e-06   8.583087497084009e-07   2.3321372885820707e-06
-4.208726245809375e-06   8.583087497084009e-07   2.3321372885820707e-06
-3.0054507584574077e-06   8.846401174241684e-07   4.728953030473989e-06
-3.0054507584574077e-06   8.846401174241684e-07   4.728953030473989e-06
-3.0054507584574077e-06   8.846401174241684e-07   4.728953030473989e-06
-3.0054507584574077e-06   8.846401174241684e-07   4.728953030473989e-06
-5.614421064800964e-06   7.68323677087198e-07   3.108793223658996e-07
-5.614421064800964e-06   7.68323677087198e-07   3.108793223658996e-07
-5.614421064800964e-06   7.68323677087198e-07   3.108793223658996e-07
-5.614421064800964e-06   7.68323677087198e-07   3.108793223658996e-07
-5.719433584200923e-06   8.196739659295537e-07   4.779945654757059e-06
-5.719433584200923e-06   8.196739659295537e-07   4.779945654757059e-06
-5.719433584200923e-06   8.196739659295537e-07   4.779945654757059e-06
-5.719433584200923e-06   8.196739659295537e-07   4.779945654757059e-06
-3.105372890029264e-06   6.933547790849231e-07   4.989693432443792e-07
-3.105372890029264e-06   6.933547790849231e-07   4.989693432443792e-07
-3.105372890029264e-06   6.933547790849231e-07   4.989693432443792e-07
-3.105372890029264e-06   6.933547790849231e-07   4.989693432443792e-07
-4.331970221299334e-06   8.100065896076444e-07   2.4733071423808798e-06
-4.331970221299334e-06   8.100065896076444e-07   2.4733071423808798e-06
-4.331970221299334e-06   8.100065896076444e-07   2.4733071423808798e-06
-4.331970221299334e-06   8.100065896076444e-07   2.4733071423808798e-06
-5.392091354550584e-06   1.4488507347970928e-06   2.2133137959917687e-06
-5.392091354550584e-06   1.4488507347970928e-06   2.2133137959917687e-06
-5.392091354550584e-06   1.4488507347970928e-06   2.2133137959917687e-06
-5.392091354550584e-06   1.4488507347970928e-06   2.2133137959917687e-06
-7.891714657847389e-06   1.2601583653403165e-06   -2.0659404645102927e-06
-7.891714657847389e-06   1.2601583653403165e-06   -2.0659404645102927e-06
-7.891714657847389e-06   1.2601583653403165e-06   -2.0659404645102927e-06
-7.891714657847389e-06   1.2601583653403165e-06   -2.0659404645102927e-06
-8.084909405903703e-06   1.471700662104196e-06   2.993934642555289e-06
-8.084909405903703e-06   1.471700662104196e-06   2.993934642555289e-06
-8.084909405903703e-06   1.471700662104196e-06   2.993934642555289e-06
-8.084909405903703e-06   1.471700662104196e-06   2.993934642555289e-06
-5.4983640262111055e-06   1.2609842512281526e-06   -1.1905444770734337e-06
-5.4983640262111055e-06   1.2609842512281526e-06   -1.1905444770734337e-06
-5.4983640262111055e-06   1.2609842512281526e-06   -1.1905444770734337e-06
-5.4983640262111055e-06   1.2609842512281526e-06   -1.1905444770734337e-06
-6.4601780771401064e-06   1.3376755620117585e-06   3.664641546713998e-07
-6.4601780771401064e-06   1.3376755620117585e-06   3.664641546713998e-07
-6.4601780771401064e-06   1.3376755620117585e-06   3.664641546713998e-07
-6.4601780771401064e-06   1.3376755620117585e-06   3.664641546713998e-07
-5.498364026211078e-06   1.471700662104196e-06   3.1203644890809095e-06
-5.498364026211078e-06   1.471700662104196e-06   3.1203644890809095e-06
-5.498364026211078e-06   1.471700662104196e-06   3.1203644890809095e-06
-5.498364026211078e-06   1.471700662104196e-06   3.1203644890809095e-06
-8.084909405903724e-06   1.2609842512281526e-06   -1.3169743235990814e-06
-8.084909405903724e-06   1.2609842512281526e-06   -1.3169743235990814e-06
-8.084909405903724e-06   1.2609842512281526e-06   -1.3169743235990814e-06
-8.084909405903724e-06   1.2609842512281526e-06   -1.3169743235990814e-06
-8.255837338625406e-06   1.4576005508082032e-06   3.604570607291033e-06
-8.255837338625406e-06   1.4576005508082032e-06   3.604570607291033e-06
-8.255837338625406e-06   1.4576005508082032e-06   3.604570607291033e-06
-8.255837338625406e-06   1.4576005508082032e-06   3.604570607291033e-06
-5.614421064800971e-06   1.2376573084457525e-06   -6.658239036655693e-07
-5.614421064800971e-06   1.2376573084457525e-06   -6.658239036655693e-07
-5.614421064800971e-06   1.2376573084457525e-06   -6.658239036655693e-07
-5.614421064800971e-06   1.2376573084457525e-06   -6.658239036655693e-07
-6.692380841019361e-06   1.355045034412346e-06   1.060343087785368e-06
-6.692380841019361e-06   1.355045034412346e-06   1.060343087785368e-06
-6.692380841019361e-06   1.355045034412346e-06   1.060343087785368e-06
-6.692380841019361e-06   1.355045034412346e-06   1.060343087785368e-06
-5.614421064800971e-06   1.4576005508082032e-06   3.736536552708533e-06
-5.614421064800971e-06   1.4576005508082032e-06   3.736536552708533e-06
-5.614421064800971e-06   1.4576005508082032e-06   3.736536552708533e-06
-5.614421064800971e-06   1.4576005508082032e-06   3.736536552708533e-06
-8.255837338625427e-06   1.2376573084457525e-06   -7.977898490830831e-07
-8.255837338625427e-06   1.2376573084457525e-06   -7.977898490830831e-07
-8.255837338625427e-06   1.2376573084457525e-06   -7.977898490830831e-07
-8.255837338625427e-06   1.2376573084457525e-06   -7.977898490830831e-07
-8.45027835739245e-06   1.3505387413195193e-06   4.645565879282865e-06
-8.45027835739245e-06   1.3505387413195193e-06   4.645565879282865e-06
-8.45027835739245e-06   1.3505387413195193e-06   4.645565879282865e-06
-8.45027835739245e-06   1.3505387413195193e-06   4.645565879282865e-06
-5.719433584200923e-06   1.129065964304923e-06   2.2704159017235596e-07
-5.719433584200923e-06   1.129065964304923e-06   2.2704159017235596e-07
-5.719433584200923e-06   1.129065964304923e-06   2.2704159017235596e-07
-5.719433584200923e-06   1.129065964304923e-06   2.2704159017235596e-07
-6.7255386097775474e-06   1.3093410256558317e-06   1.795718262656104e-06
-6.7255386097775474e-06   1.3093410256558317e-06   1.795718262656104e-06
-6.7255386097775474e-06   1.3093410256558317e-06   1.795718262656104e-06
-6.7255386097775474e-06   1.3093410256558317e-06   1.795718262656104e-06
3.849386463369073e-06   -4.952010831043652e-07   3.679917972067929e-06
3.849386463369073e-06   -4.952010831043652e-07   3.679917972067929e-06
3.849386463369073e-06   -4.952010831043652e-07   3.679917972067929e-06
3.849386463369073e-06   -4.952010831043652e-07   3.679917972067929e-06
1.608024954136691e-06   -2.6802768375529034e-07   8.061949629010806e-08
1.608024954136691e-06   -2.6802768375529034e-07   8.061949629010806e-08
1.608024954136691e-06   -2.6802768375529034e-07   8.061949629010806e-08
1.608024954136691e-06   -2.6802768375529034e-07   8.061949629010806e-08
1.523434449405321e-06   -5.928866698233352e-07   3.2886986895516084e-06
1.523434449405321e-06   -5.928866698233352e-07   3.2886986895516084e-06
1.523434449405321e-06   -5.928866698233352e-07   3.2886986895516084e-06
1.523434449405321e-06   -5.928866698233352e-07   3.2886986895516084e-06
3.6665220467393667e-06   -3.581118333929412e-07   -4.239788745300367e-07
3.6665220467393667e-06   -3.581118333929412e-07   -4.239788745300367e-07
3.6665220467393667e-06   -3.581118333929412e-07   -4.239788745300367e-07
3.6665220467393667e-06   -3.581118333929412e-07   -4.239788745300367e-07
2.5305942260109335e-06   -4.372370830710531e-07   1.5167093098242859e-06
2.5305942260109335e-06   -4.372370830710531e-07   1.5167093098242859e-06
2.5305942260109335e-06   -4.372370830710531e-07   1.5167093098242859e-06
2.5305942260109335e-06   -4.372370830710531e-07   1.5167093098242859e-06
3.6665220467393726e-06   -5.928866698233894e-07   3.1478337876933655e-06
3.6665220467393726e-06   -5.928866698233894e-07   3.1478337876933655e-06
3.6665220467393726e-06   -5.928866698233894e-07   3.1478337876933655e-06
3.6665220467393726e-06   -5.928866698233894e-07   3.1478337876933655e-06
1.523434449405315e-06   -3.581118333929412e-07   -2.831139726718057e-07
1.523434449405315e-06   -3.581118333929412e-07   -2.831139726718057e-07
1.523434449405315e-06   -3.581118333929412e-07   -2.831139726718057e-07
1.523434449405315e-06   -3.581118333929412e-07   -2.831139726718057e-07
1.427042529788118e-06   -6.177680589919605e-07   3.0008460888119324e-06
1.427042529788118e-06   -6.177680589919605e-07   3.0008460888119324e-06
1.427042529788118e-06   -6.177680589919605e-07   3.0008460888119324e-06
1.427042529788118e-06   -6.177680589919605e-07   3.0008460888119324e-06
3.5081254615259993e-06   -3.876715723298053e-07   -6.056833560817753e-07
3.5081254615259993e-06   -3.876715723298053e-07   -6.056833560817753e-07
3.5081254615259993e-06   -3.876715723298053e-07   -6.056833560817753e-07
3.5081254615259993e-06   -3.876715723298053e-07   -6.056833560817753e-07
2.456115035227979e-06   -4.759636328204958e-07   1.2006425907093644e-06
2.456115035227979e-06   -4.759636328204958e-07   1.2006425907093644e-06
2.456115035227979e-06   -4.759636328204958e-07   1.2006425907093644e-06
2.456115035227979e-06   -4.759636328204958e-07   1.2006425907093644e-06
3.508125461526005e-06   -6.177680589919605e-07   2.862788196814632e-06
3.508125461526005e-06   -6.177680589919605e-07   2.862788196814632e-06
3.508125461526005e-06   -6.177680589919605e-07   2.862788196814632e-06
3.508125461526005e-06   -6.177680589919605e-07   2.862788196814632e-06
1.4270425297881164e-06   -3.876715723298053e-07   -4.6762546408447674e-07
1.4270425297881164e-06   -3.876715723298053e-07   -4.6762546408447674e-07
1.4270425297881164e-06   -3.876715723298053e-07   -4.6762546408447674e-07
1.4270425297881164e-06   -3.876715723298053e-07   -4.6762546408447674e-07
1.3400516087302948e-06   -6.353835451245577e-07   2.6163345206335956e-06
1.3400516087302948e-06   -6.353835451245577e-07   2.6163345206335956e-06
1.3400516087302948e-06   -6.353835451245577e-07   2.6163345206335956e-06
1.3400516087302948e-06   -6.353835451245577e-07   2.6163345206335956e-06
3.3260565087413304e-06   -4.220823216741665e-07   -8.216543801216748e-07
3.3260565087413304e-06   -4.220823216741665e-07   -8.216543801216748e-07
3.3260565087413304e-06   -4.220823216741665e-07   -8.216543801216748e-07
3.3260565087413304e-06   -4.220823216741665e-07   -8.216543801216748e-07
2.2975142937730426e-06   -4.803587506672843e-07   9.275485022212763e-07
2.2975142937730426e-06   -4.803587506672843e-07   9.275485022212763e-07
2.2975142937730426e-06   -4.803587506672843e-07   9.275485022212763e-07
2.2975142937730426e-06   -4.803587506672843e-07   9.275485022212763e-07
1.608024954136696e-06   -1.4267343326896092e-08   4.409362449983629e-06
1.608024954136696e-06   -1.4267343326896092e-08   4.409362449983629e-06
1.608024954136696e-06   -1.4267343326896092e-08   4.409362449983629e-06
1.608024954136696e-06   -1.4267343326896092e-08   4.409362449983629e-06
-4.823936969084003e-07   1.050516101934137e-07   9.96922737020651e-07
-4.823936969084003e-07   1.050516101934137e-07   9.96922737020651e-07
-4.823936969084003e-07   1.050516101934137e-07   9.96922737020651e-07
-4.823936969084003e-07   1.050516101934137e-07   9.96922737020651e-07
-5.607254472518526e-07   -9.71054602832565e-08   4.412880141954406e-06
-5.607254472518526e-07   -9.71054602832565e-08   4.412880141954406e-06
-5.607254472518526e-07   -9.71054602832565e-08   4.412880141954406e-06
-5.607254472518526e-07   -9.71054602832565e-08   4.412880141954406e-06
1.523434449405315e-06   1.6424655342175618e-08   8.711622448171895e-07
1.523434449405315e-06   1.6424655342175618e-08   8.711622448171895e-07
1.523434449405315e-06   1.6424655342175618e-08   8.711622448171895e-07
1.523434449405315e-06   1.6424655342175618e-08   8.711622448171895e-07
5.0671040648255e-07   -5.701250274100589e-09   2.578977859724998e-06
5.0671040648255e-07   -5.701250274100589e-09   2.578977859724998e-06
5.0671040648255e-07   -5.701250274100589e-09   2.578977859724998e-06
5.0671040648255e-07   -5.701250274100589e-09   2.578977859724998e-06
1.5234344494053193e-06   -9.71054602832565e-08   4.344762072579135e-06
1.5234344494053193e-06   -9.71054602832565e-08   4.344762072579135e-06
1.5234344494053193e-06   -9.71054602832565e-08   4.344762072579135e-06
1.5234344494053193e-06   -9.71054602832565e-08   4.344762072579135e-06
-5.60725447251856e-07   1.6424655342202723e-08   9.392803141924705e-07
-5.60725447251856e-07   1.6424655342202723e-08   9.392803141924705e-07
-5.60725447251856e-07   1.6424655342202723e-08   9.392803141924705e-07
-5.60725447251856e-07   1.6424655342202723e-08   9.392803141924705e-07
-6.411254294926584e-07   -1.6036499641798943e-07   4.349670281094092e-06
-6.411254294926584e-07   -1.6036499641798943e-07   4.349670281094092e-06
-6.411254294926584e-07   -1.6036499641798943e-07   4.349670281094092e-06
-6.411254294926584e-07   -1.6036499641798943e-07   4.349670281094092e-06
1.4270425297881164e-06   -5.416822268131897e-08   8.390056180508209e-07
1.4270425297881164e-06   -5.416822268131897e-08   8.390056180508209e-07
1.4270425297881164e-06   -5.416822268131897e-08   8.390056180508209e-07
1.4270425297881164e-06   -5.416822268131897e-08   8.390056180508209e-07
4.19200080424358e-07   -6.366052811031914e-08   2.5244384169146613e-06
4.19200080424358e-07   -6.366052811031914e-08   2.5244384169146613e-06
4.19200080424358e-07   -6.366052811031914e-08   2.5244384169146613e-06
4.19200080424358e-07   -6.366052811031914e-08   2.5244384169146613e-06
1.4270425297881206e-06   -1.6036499641798943e-07   4.285952216852108e-06
1.4270425297881206e-06   -1.6036499641798943e-07   4.285952216852108e-06
1.4270425297881206e-06   -1.6036499641798943e-07   4.285952216852108e-06
1.4270425297881206e-06   -1.6036499641798943e-07   4.285952216852108e-06
-6.411254294926584e-07   -5.4168222681346074e-08   9.027236822928015e-07
-6.411254294926584e-07   -5.4168222681346074e-08   9.027236822928015e-07
-6.411254294926584e-07   -5.4168222681346074e-08   9.027236822928015e-07
-6.411254294926584e-07   -5.4168222681346074e-08   9.027236822928015e-07
-7.210867832369742e-07   -2.1642890914202106e-07   4.378319978971736e-06
-7.210867832369742e-07   -2.1642890914202106e-07   4.378319978971736e-06
-7.210867832369742e-07   -2.1642890914202106e-07   4.378319978971736e-06
-7.210867832369742e-07   -2.1642890914202106e-07   4.378319978971736e-06
1.3400516087302888e-06   -1.2128865569746984e-07   8.860051736262213e-07
1.3400516087302888e-06   -1.2128865569746984e-07   8.860051736262213e-07
1.3400516087302888e-06   -1.2128865569746984e-07   8.860051736262213e-07
1.3400516087302888e-06   -1.2128865569746984e-07   8.860051736262213e-07
3.5234218538984017e-07   -1.096580179978595e-07   2.5252091632404594e-06
3.5234218538984017e-07   -1.096580179978595e-07   2.5252091632404594e-06
3.5234218538984017e-07   -1.096580179978595e-07   2.5252091632404594e-06
3.5234218538984017e-07   -1.096580179978595e-07   2.5252091632404594e-06
-4.823936969084003e-07   4.483534480605937e-07   4.757718824732446e-06
-4.823936969084003e-07   4.483534480605937e-07   4.757718824732446e-06
-4.823936969084003e-07   4.483534480605937e-07   4.757718824732446e-06
-4.823936969084003e-07   4.483534480605937e-07   4.757718824732446e-06
-2.5335199113398892e-06   4.477875397171599e-07   1.338835589007254e-06
-2.5335199113398892e-06   4.477875397171599e-07   1.338835589007254e-06
-2.5335199113398892e-06   4.477875397171599e-07   1.338835589007254e-06
-2.5335199113398892e-06   4.477875397171599e-07   1.338835589007254e-06
-2.6114799079236856e-06   3.778466357220057e-07   4.727173757717169e-06
-2.6114799079236856e-06   3.778466357220057e-07   4.727173757717169e-06
-2.6114799079236856e-06   3.778466357220057e-07   4.727173757717169e-06
-2.6114799079236856e-06   3.778466357220057e-07   4.727173757717169e-06
-5.607254472518526e-07   3.694001854645285e-07   1.3143175267519972e-06
-5.607254472518526e-07   3.694001854645285e-07   1.3143175267519972e-06
-5.607254472518526e-07   3.694001854645285e-07   1.3143175267519972e-06
-5.607254472518526e-07   3.694001854645285e-07   1.3143175267519972e-06
-1.5510972043917145e-06   3.992024915333819e-07   2.947055738343876e-06
-1.5510972043917145e-06   3.992024915333819e-07   2.947055738343876e-06
-1.5510972043917145e-06   3.992024915333819e-07   2.947055738343876e-06
-1.5510972043917145e-06   3.992024915333819e-07   2.947055738343876e-06
-5.607254472518526e-07   3.778466357220057e-07   4.732241627871704e-06
-5.607254472518526e-07   3.778466357220057e-07   4.732241627871704e-06
-5.607254472518526e-07   3.778466357220057e-07   4.732241627871704e-06
-5.607254472518526e-07   3.778466357220057e-07   4.732241627871704e-06
-2.611479907923689e-06   3.694001854645285e-07   1.3092496565975028e-06
-2.611479907923689e-06   3.694001854645285e-07   1.3092496565975028e-06
-2.611479907923689e-06   3.694001854645285e-07   1.3092496565975028e-06
-2.611479907923689e-06   3.694001854645285e-07   1.3092496565975028e-06
-2.691039978928149e-06   3.0856541926606567e-07   4.745804113646528e-06
-2.691039978928149e-06   3.0856541926606567e-07   4.745804113646528e-06
-2.691039978928149e-06   3.0856541926606567e-07   4.745804113646528e-06
-2.691039978928149e-06   3.0856541926606567e-07   4.745804113646528e-06
-6.41125429492655e-07   2.9197993177068485e-07   1.3392311570846254e-06
-6.41125429492655e-07   2.9197993177068485e-07   1.3392311570846254e-06
-6.41125429492655e-07   2.9197993177068485e-07   1.3392311570846254e-06
-6.41125429492655e-07   2.9197993177068485e-07   1.3392311570846254e-06
-1.6218200508822686e-06   3.43222926173933e-07   2.9429763960921046e-06
-1.6218200508822686e-06   3.43222926173933e-07   2.9429763960921046e-06
-1.6218200508822686e-06   3.43222926173933e-07   2.9429763960921046e-06
-1.6218200508822686e-06   3.43222926173933e-07   2.9429763960921046e-06
-6.411254294926584e-07   3.0856541926606567e-07   4.755755406143736e-06
-6.411254294926584e-07   3.0856541926606567e-07   4.755755406143736e-06
-6.411254294926584e-07   3.0856541926606567e-07   4.755755406143736e-06
-6.411254294926584e-07   3.0856541926606567e-07   4.755755406143736e-06
-2.6910399789281526e-06   2.9197993177071196e-07   1.329279864587397e-06
-2.6910399789281526e-06   2.9197993177071196e-07   1.329279864587397e-06
-2.6910399789281526e-06   2.9197993177071196e-07   1.329279864587397e-06
-2.6910399789281526e-06   2.9197993177071196e-07   1.329279864587397e-06
-2.7693994062654905e-06   2.4299955816319734e-07   4.80176432119715e-06
-2.7693994062654905e-06   2.4299955816319734e-07   4.80176432119715e-06
-2.7693994062654905e-06   2.4299955816319734e-07   4.80176432119715e-06
-2.7693994062654905e-06   2.4299955816319734e-07   4.80176432119715e-06
-7.210867832369776e-07   2.1775448678419424e-07   1.4030569923103664e-06
-7.210867832369776e-07   2.1775448678419424e-07   1.4030569923103664e-06
-7.210867832369776e-07   2.1775448678419424e-07   1.4030569923103664e-06
-7.210867832369776e-07   2.1775448678419424e-07   1.4030569923103664e-06
-1.6961462277638575e-06   2.888005009389405e-07   2.9855284580288823e-06
-1.6961462277638575e-06   2.888005009389405e-07   2.9855284580288823e-06
-1.6961462277638575e-06   2.888005009389405e-07   2.9855284580288823e-06
-1.6961462277638575e-06   2.888005009389405e-07   2.9855284580288823e-06
-2.5335199113398892e-06   8.967944736820591e-07   4.231105306972446e-06
-2.5335199113398892e-06   8.967944736820591e-07   4.231105306972446e-06
-2.5335199113398892e-06   8.967944736820591e-07   4.231105306972446e-06
-2.5335199113398892e-06   8.967944736820591e-07   4.231105306972446e-06
-4.564458292641588e-06   7.828640637336562e-07   7.778497588339055e-07
-4.564458292641588e-06   7.828640637336562e-07   7.778497588339055e-07
-4.564458292641588e-06   7.828640637336562e-07   7.778497588339055e-07
-4.564458292641588e-06   7.828640637336562e-07   7.778497588339055e-07
-4.648892062645703e-06   8.312452837179441e-07   4.181475070320369e-06
-4.648892062645703e-06   8.312452837179441e-07   4.181475070320369e-06
-4.648892062645703e-06   8.312452837179441e-07   4.181475070320369e-06
-4.648892062645703e-06   8.312452837179441e-07   4.181475070320369e-06
-2.611479907923679e-06   7.077901408546465e-07   8.598612315016143e-07
-2.611479907923679e-06   7.077901408546465e-07   8.598612315016143e-07
-2.611479907923679e-06   7.077901408546465e-07   8.598612315016143e-07
-2.611479907923679e-06   7.077901408546465e-07   8.598612315016143e-07
-3.578971877645946e-06   7.886777110821519e-07   2.423815305569009e-06
-3.578971877645946e-06   7.886777110821519e-07   2.423815305569009e-06
-3.578971877645946e-06   7.886777110821519e-07   2.423815305569009e-06
-3.578971877645946e-06   7.886777110821519e-07   2.423815305569009e-06
-2.611479907923689e-06   8.312452837179441e-07   4.2555481560383206e-06
-2.611479907923689e-06   8.312452837179441e-07   4.2555481560383206e-06
-2.611479907923689e-06   8.312452837179441e-07   4.2555481560383206e-06
-2.611479907923689e-06   8.312452837179441e-07   4.2555481560383206e-06
-4.64889206264569e-06   7.077901408546465e-07   7.857881457836764e-07
-4.64889206264569e-06   7.077901408546465e-07   7.857881457836764e-07
-4.64889206264569e-06   7.077901408546465e-07   7.857881457836764e-07
-4.64889206264569e-06   7.077901408546465e-07   7.857881457836764e-07
-4.7431712898686265e-06   7.683236770871437e-07   4.3256164869351875e-06
-4.7431712898686265e-06   7.683236770871437e-07   4.3256164869351875e-06
-4.7431712898686265e-06   7.683236770871437e-07   4.3256164869351875e-06
-4.7431712898686265e-06   7.683236770871437e-07   4.3256164869351875e-06
-2.691039978928146e-06   6.367287224934119e-07   9.843546081239954e-07
-2.691039978928146e-06   6.367287224934119e-07   9.843546081239954e-07
-2.691039978928146e-06   6.367287224934119e-07   9.843546081239954e-07
-2.691039978928146e-06   6.367287224934119e-07   9.843546081239954e-07
-3.6341444523712744e-06   7.38227126914314e-07   2.4952963545434603e-06
-3.6341444523712744e-06   7.38227126914314e-07   2.4952963545434603e-06
-3.6341444523712744e-06   7.38227126914314e-07   2.4952963545434603e-06
-3.6341444523712744e-06   7.38227126914314e-07   2.4952963545434603e-06
-2.6910399789281526e-06   7.683236770871437e-07   4.404573459691456e-06
-2.6910399789281526e-06   7.683236770871437e-07   4.404573459691456e-06
-2.6910399789281526e-06   7.683236770871437e-07   4.404573459691456e-06
-2.6910399789281526e-06   7.683236770871437e-07   4.404573459691456e-06
-4.743171289868613e-06   6.367287224934119e-07   9.0539763536774e-07
-4.743171289868613e-06   6.367287224934119e-07   9.0539763536774e-07
-4.743171289868613e-06   6.367287224934119e-07   9.0539763536774e-07
-4.743171289868613e-06   6.367287224934119e-07   9.0539763536774e-07
-4.825805676126653e-06   6.933547790849231e-07   4.440653130260275e-06
-4.825805676126653e-06   6.933547790849231e-07   4.440653130260275e-06
-4.825805676126653e-06   6.933547790849231e-07   4.440653130260275e-06
-4.825805676126653e-06   6.933547790849231e-07   4.440653130260275e-06
-2.769399406265477e-06   5.557174063344089e-07   1.0958917708086212e-06
-2.769399406265477e-06   5.557174063344089e-07   1.0958917708086212e-06
-2.769399406265477e-06   5.557174063344089e-07   1.0958917708086212e-06
-2.769399406265477e-06   5.557174063344089e-07   1.0958917708086212e-06
-3.7304960714116164e-06   6.833312976827892e-07   2.6211512112430855e-06
-3.7304960714116164e-06   6.833312976827892e-07   2.6211512112430855e-06
-3.7304960714116164e-06   6.833312976827892e-07   2.6211512112430855e-06
-3.7304960714116164e-06   6.833312976827892e-07   2.6211512112430855e-06
-4.564458292641588e-06   1.2601583653403165e-06   2.063609157137354e-06
-4.564458292641588e-06   1.2601583653403165e-06   2.063609157137354e-06
-4.564458292641588e-06   1.2601583653403165e-06   2.063609157137354e-06
-4.564458292641588e-06   1.2601583653403165e-06   2.063609157137354e-06
-6.511209215470881e-06   1.0502074571682233e-06   -1.3069462591480414e-06
-6.511209215470881e-06   1.0502074571682233e-06   -1.3069462591480414e-06
-6.511209215470881e-06   1.0502074571682233e-06   -1.3069462591480414e-06
-6.511209215470881e-06   1.0502074571682233e-06   -1.3069462591480414e-06
-6.6908168845371445e-06   1.2609842512281526e-06   2.6859561456908264e-06
-6.6908168845371445e-06   1.2609842512281526e-06   2.6859561456908264e-06
-6.6908168845371445e-06   1.2609842512281526e-06   2.6859561456908264e-06
-6.6908168845371445e-06   1.2609842512281526e-06   2.6859561456908264e-06
-4.64889206264569e-06   1.0301983524985787e-06   -5.787803515571019e-07
-4.64889206264569e-06   1.0301983524985787e-06   -5.787803515571019e-07
-4.64889206264569e-06   1.0301983524985787e-06   -5.787803515571019e-07
-4.64889206264569e-06   1.0301983524985787e-06   -5.787803515571019e-07
-5.392776323700222e-06   1.1268013962757994e-06   6.030649239342241e-07
-5.392776323700222e-06   1.1268013962757994e-06   6.030649239342241e-07
-5.392776323700222e-06   1.1268013962757994e-06   6.030649239342241e-07
-5.392776323700222e-06   1.1268013962757994e-06   6.030649239342241e-07
-4.6488920626456965e-06   1.2609842512281526e-06   2.8244276849286086e-06
-4.6488920626456965e-06   1.2609842512281526e-06   2.8244276849286086e-06
-4.6488920626456965e-06   1.2609842512281526e-06   2.8244276849286086e-06
-4.6488920626456965e-06   1.2609842512281526e-06   2.8244276849286086e-06
-6.690816884537131e-06   1.0301983524985787e-06   -7.172518907948706e-07
-6.690816884537131e-06   1.0301983524985787e-06   -7.172518907948706e-07
-6.690816884537131e-06   1.0301983524985787e-06   -7.172518907948706e-07
-6.690816884537131e-06   1.0301983524985787e-06   -7.172518907948706e-07
-6.845479166478149e-06   1.2376573084457525e-06   3.2061493985711877e-06
-6.845479166478149e-06   1.2376573084457525e-06   3.2061493985711877e-06
-6.845479166478149e-06   1.2376573084457525e-06   3.2061493985711877e-06
-6.845479166478149e-06   1.2376573084457525e-06   3.2061493985711877e-06
-4.743171289868606e-06   9.997175378914712e-07   -1.5493320011214138e-07
-4.743171289868606e-06   9.997175378914712e-07   -1.5493320011214138e-07
-4.743171289868606e-06   9.997175378914712e-07   -1.5493320011214138e-07
-4.743171289868606e-06   9.997175378914712e-07   -1.5493320011214138e-07
-5.589901220228927e-06   1.1305211125032036e-06   1.1778012057215721e-06
-5.589901220228927e-06   1.1305211125032036e-06   1.1778012057215721e-06
-5.589901220228927e-06   1.1305211125032036e-06   1.1778012057215721e-06
-5.589901220228927e-06   1.1305211125032036e-06   1.1778012057215721e-06
-4.743171289868613e-06   1.2376573084457525e-06   3.3489132609037186e-06
-4.743171289868613e-06   1.2376573084457525e-06   3.3489132609037186e-06
-4.743171289868613e-06   1.2376573084457525e-06   3.3489132609037186e-06
-4.743171289868613e-06   1.2376573084457525e-06   3.3489132609037186e-06
-6.845479166478136e-06   9.997175378914712e-07   -2.976970624446587e-07
-6.845479166478136e-06   9.997175378914712e-07   -2.976970624446587e-07
-6.845479166478136e-06   9.997175378914712e-07   -2.976970624446587e-07
-6.845479166478136e-06   9.997175378914712e-07   -2.976970624446587e-07
-7.0231056784793175e-06   1.129065964304923e-06   4.102718808121636e-06
-7.0231056784793175e-06   1.129065964304923e-06   4.102718808121636e-06
-7.0231056784793175e-06   1.129065964304923e-06   4.102718808121636e-06
-7.0231056784793175e-06   1.129065964304923e-06   4.102718808121636e-06
-4.8258056761266326e-06   8.9273582901586e-07   5.823502187072812e-07
-4.8258056761266326e-06   8.9273582901586e-07   5.823502187072812e-07
-4.8258056761266326e-06   8.9273582901586e-07   5.823502187072812e-07
-4.8258056761266326e-06   8.9273582901586e-07   5.823502187072812e-07
-5.621041632538338e-06   1.0834861156244416e-06   1.79329330742807e-06
-5.621041632538338e-06   1.0834861156244416e-06   1.79329330742807e-06
-5.621041632538338e-06   1.0834861156244416e-06   1.79329330742807e-06
-5.621041632538338e-06   1.0834861156244416e-06   1.79329330742807e-06
2.322014608139499e-06   -2.6802768375529034e-07   2.9999801454998083e-06
2.322014608139499e-06   -2.6802768375529034e-07   2.9999801454998083e-06
2.322014608139499e-06   -2.6802768375529034e-07   2.9999801454998083e-06
2.322014608139499e-06   -2.6802768375529034e-07   2.9999801454998083e-06
6.78721994661237e-07   -3.506292549053792e-08   4.0093797799489934e-07
6.78721994661237e-07   -3.506292549053792e-08   4.0093797799489934e-07
6.78721994661237e-07   -3.506292549053792e-08   4.0093797799489934e-07
6.78721994661237e-07   -3.506292549053792e-08   4.0093797799489934e-07
6.124981551369075e-07   -3.581118333929683e-07   2.7724751125087225e-06
6.124981551369075e-07   -3.581118333929683e-07   2.7724751125087225e-06
6.124981551369075e-07   -3.581118333929683e-07   2.7724751125087225e-06
6.124981551369075e-07   -3.581118333929683e-07   2.7724751125087225e-06
2.156208371111882e-06   -1.1756351072164531e-07   5.5295758947686074e-08
2.156208371111882e-06   -1.1756351072164531e-07   5.5295758947686074e-08
2.156208371111882e-06   -1.1756351072164531e-07   5.5295758947686074e-08
2.156208371111882e-06   -1.1756351072164531e-07   5.5295758947686074e-08
1.3605771072111058e-06   -2.0632596821343135e-07   1.4346053399441527e-06
1.3605771072111058e-06   -2.0632596821343135e-07   1.4346053399441527e-06
1.3605771072111058e-06   -2.0632596821343135e-07   1.4346053399441527e-06
1.3605771072111058e-06   -2.0632596821343135e-07   1.4346053399441527e-06
2.156208371111885e-06   -3.581118333929683e-07   2.6281461189059687e-06
2.156208371111885e-06   -3.581118333929683e-07   2.6281461189059687e-06
2.156208371111885e-06   -3.581118333929683e-07   2.6281461189059687e-06
2.156208371111885e-06   -3.581118333929683e-07   2.6281461189059687e-06
6.124981551369058e-07   -1.1756351072164531e-07   1.996247525504636e-07
6.124981551369058e-07   -1.1756351072164531e-07   1.996247525504636e-07
6.124981551369058e-07   -1.1756351072164531e-07   1.996247525504636e-07
6.124981551369058e-07   -1.1756351072164531e-07   1.996247525504636e-07
5.34015940194046e-07   -3.876715723298053e-07   2.5856841854672634e-06
5.34015940194046e-07   -3.876715723298053e-07   2.5856841854672634e-06
5.34015940194046e-07   -3.876715723298053e-07   2.5856841854672634e-06
5.34015940194046e-07   -3.876715723298053e-07   2.5856841854672634e-06
2.0143200526422558e-06   -1.5107236760872399e-07   -2.3448858112417844e-08
2.0143200526422558e-06   -1.5107236760872399e-07   -2.3448858112417844e-08
2.0143200526422558e-06   -1.5107236760872399e-07   -2.3448858112417844e-08
2.0143200526422558e-06   -1.5107236760872399e-07   -2.3448858112417844e-08
1.2854472354152824e-06   -2.425407578445242e-07   1.246220204740694e-06
1.2854472354152824e-06   -2.425407578445242e-07   1.246220204740694e-06
1.2854472354152824e-06   -2.425407578445242e-07   1.246220204740694e-06
1.2854472354152824e-06   -2.425407578445242e-07   1.246220204740694e-06
2.014320052642259e-06   -3.876715723298324e-07   2.443724662634585e-06
2.014320052642259e-06   -3.876715723298324e-07   2.443724662634585e-06
2.014320052642259e-06   -3.876715723298324e-07   2.443724662634585e-06
2.014320052642259e-06   -3.876715723298324e-07   2.443724662634585e-06
5.340159401940435e-07   -1.5107236760872399e-07   1.185106647202418e-07
5.340159401940435e-07   -1.5107236760872399e-07   1.185106647202418e-07
5.340159401940435e-07   -1.5107236760872399e-07   1.185106647202418e-07
5.340159401940435e-07   -1.5107236760872399e-07   1.185106647202418e-07
4.653384996233337e-07   -4.220823216741665e-07   2.357180410217735e-06
4.653384996233337e-07   -4.220823216741665e-07   2.357180410217735e-06
4.653384996233337e-07   -4.220823216741665e-07   2.357180410217735e-06
4.653384996233337e-07   -4.220823216741665e-07   2.357180410217735e-06
1.8460136750344483e-06   -2.0298777389214932e-07   -7.540161080330388e-08
1.8460136750344483e-06   -2.0298777389214932e-07   -7.540161080330388e-08
1.8460136750344483e-06   -2.0298777389214932e-07   -7.540161080330388e-08
1.8460136750344483e-06   -2.0298777389214932e-07   -7.540161080330388e-08
1.1607940506411105e-06   -2.574548643169151e-07   1.0993113507737465e-06
1.1607940506411105e-06   -2.574548643169151e-07   1.0993113507737465e-06
1.1607940506411105e-06   -2.574548643169151e-07   1.0993113507737465e-06
1.1607940506411105e-06   -2.574548643169151e-07   1.0993113507737465e-06
6.787219946612379e-07   1.050516101934137e-07   3.984470869077058e-06
6.787219946612379e-07   1.050516101934137e-07   3.984470869077058e-06
6.787219946612379e-07   1.050516101934137e-07   3.984470869077058e-06
6.787219946612379e-07   1.050516101934137e-07   3.984470869077058e-06
-8.063308491555659e-07   2.147623804265111e-07   1.575209258188913e-06
-8.063308491555659e-07   2.147623804265111e-07   1.575209258188913e-06
-8.063308491555659e-07   2.147623804265111e-07   1.575209258188913e-06
-8.063308491555659e-07   2.147623804265111e-07   1.575209258188913e-06
-8.652197781813237e-07   1.6424655342175618e-08   3.991464928939948e-06
-8.652197781813237e-07   1.6424655342175618e-08   3.991464928939948e-06
-8.652197781813237e-07   1.6424655342175618e-08   3.991464928939948e-06
-8.652197781813237e-07   1.6424655342175618e-08   3.991464928939948e-06
6.124981551369058e-07   1.2428065357918063e-07   1.4638881078007297e-06
6.124981551369058e-07   1.2428065357918063e-07   1.4638881078007297e-06
6.124981551369058e-07   1.2428065357918063e-07   1.4638881078007297e-06
6.124981551369058e-07   1.2428065357918063e-07   1.4638881078007297e-06
-1.0705886152595151e-07   1.0492754311460537e-07   2.6747616685176876e-06
-1.0705886152595151e-07   1.0492754311460537e-07   2.6747616685176876e-06
-1.0705886152595151e-07   1.0492754311460537e-07   2.6747616685176876e-06
-1.0705886152595151e-07   1.0492754311460537e-07   2.6747616685176876e-06
6.124981551369066e-07   1.6424655342175618e-08   3.926751329997748e-06
6.124981551369066e-07   1.6424655342175618e-08   3.926751329997748e-06
6.124981551369066e-07   1.6424655342175618e-08   3.926751329997748e-06
6.124981551369066e-07   1.6424655342175618e-08   3.926751329997748e-06
-8.652197781813237e-07   1.2428065357918063e-07   1.5286017067429463e-06
-8.652197781813237e-07   1.2428065357918063e-07   1.5286017067429463e-06
-8.652197781813237e-07   1.2428065357918063e-07   1.5286017067429463e-06
-8.652197781813237e-07   1.2428065357918063e-07   1.5286017067429463e-06
-9.261277276781598e-07   -5.416822268131897e-08   3.9545946932417774e-06
-9.261277276781598e-07   -5.416822268131897e-08   3.9545946932417774e-06
-9.261277276781598e-07   -5.416822268131897e-08   3.9545946932417774e-06
-9.261277276781598e-07   -5.416822268131897e-08   3.9545946932417774e-06
5.340159401940435e-07   4.963082005069483e-08   1.4587424878156137e-06
5.340159401940435e-07   4.963082005069483e-08   1.4587424878156137e-06
5.340159401940435e-07   4.963082005069483e-08   1.4587424878156137e-06
5.340159401940435e-07   4.963082005069483e-08   1.4587424878156137e-06
-1.707732471143996e-07   4.3104521377622797e-08   2.6373069125335704e-06
-1.707732471143996e-07   4.3104521377622797e-08   2.6373069125335704e-06
-1.707732471143996e-07   4.3104521377622797e-08   2.6373069125335704e-06
-1.707732471143996e-07   4.3104521377622797e-08   2.6373069125335704e-06
5.34015940194046e-07   -5.416822268131897e-08   3.892315267602605e-06
5.34015940194046e-07   -5.416822268131897e-08   3.892315267602605e-06
5.34015940194046e-07   -5.416822268131897e-08   3.892315267602605e-06
5.34015940194046e-07   -5.416822268131897e-08   3.892315267602605e-06
-9.261277276781598e-07   4.963082005069483e-08   1.5210219134548301e-06
-9.261277276781598e-07   4.963082005069483e-08   1.5210219134548301e-06
-9.261277276781598e-07   4.963082005069483e-08   1.5210219134548301e-06
-9.261277276781598e-07   4.963082005069483e-08   1.5210219134548301e-06
-9.864689215358822e-07   -1.2128865569746984e-07   3.995131735762237e-06
-9.864689215358822e-07   -1.2128865569746984e-07   3.995131735762237e-06
-9.864689215358822e-07   -1.2128865569746984e-07   3.995131735762237e-06
-9.864689215358822e-07   -1.2128865569746984e-07   3.995131735762237e-06
4.65338499623332e-07   -2.4167812586145358e-08   1.5171801946301108e-06
4.65338499623332e-07   -2.4167812586145358e-08   1.5171801946301108e-06
4.65338499623332e-07   -2.4167812586145358e-08   1.5171801946301108e-06
4.65338499623332e-07   -2.4167812586145358e-08   1.5171801946301108e-06
-2.2334739489989608e-07   -1.004553730920199e-08   2.6565166536692992e-06
-2.2334739489989608e-07   -1.004553730920199e-08   2.6565166536692992e-06
-2.2334739489989608e-07   -1.004553730920199e-08   2.6565166536692992e-06
-2.2334739489989608e-07   -1.004553730920199e-08   2.6565166536692992e-06
-8.063308491555659e-07   4.477875397171599e-07   4.3925497282095355e-06
-8.063308491555659e-07   4.477875397171599e-07   4.3925497282095355e-06
-8.063308491555659e-07   4.477875397171599e-07   4.3925497282095355e-06
-8.063308491555659e-07   4.477875397171599e-07   4.3925497282095355e-06
-2.2582497159004382e-06   4.285890335868701e-07   1.9611658466232493e-06
-2.2582497159004382e-06   4.285890335868701e-07   1.9611658466232493e-06
-2.2582497159004382e-06   4.285890335868701e-07   1.9611658466232493e-06
-2.2582497159004382e-06   4.285890335868701e-07   1.9611658466232493e-06
-2.315389395948717e-06   3.694001854645285e-07   4.353210877545315e-06
-2.315389395948717e-06   3.694001854645285e-07   4.353210877545315e-06
-2.315389395948717e-06   3.694001854645285e-07   4.353210877545315e-06
-2.315389395948717e-06   3.694001854645285e-07   4.353210877545315e-06
-8.652197781813203e-07   3.472480788742718e-07   1.949552778553838e-06
-8.652197781813203e-07   3.472480788742718e-07   1.949552778553838e-06
-8.652197781813203e-07   3.472480788742718e-07   1.949552778553838e-06
-8.652197781813203e-07   3.472480788742718e-07   1.949552778553838e-06
-1.5648346476479834e-06   3.868518345259914e-07   3.0918153076073984e-06
-1.5648346476479834e-06   3.868518345259914e-07   3.0918153076073984e-06
-1.5648346476479834e-06   3.868518345259914e-07   3.0918153076073984e-06
-1.5648346476479834e-06   3.868518345259914e-07   3.0918153076073984e-06
-8.652197781813237e-07   3.694001854645285e-07   4.366502141499488e-06
-8.652197781813237e-07   3.694001854645285e-07   4.366502141499488e-06
-8.652197781813237e-07   3.694001854645285e-07   4.366502141499488e-06
-8.652197781813237e-07   3.694001854645285e-07   4.366502141499488e-06
-2.315389395948717e-06   3.472480788742989e-07   1.936261514599692e-06
-2.315389395948717e-06   3.472480788742989e-07   1.936261514599692e-06
-2.315389395948717e-06   3.472480788742989e-07   1.936261514599692e-06
-2.315389395948717e-06   3.472480788742989e-07   1.936261514599692e-06
-2.374156559941577e-06   2.9197993177068485e-07   4.37574509700868e-06
-2.374156559941577e-06   2.9197993177068485e-07   4.37574509700868e-06
-2.374156559941577e-06   2.9197993177068485e-07   4.37574509700868e-06
-2.374156559941577e-06   2.9197993177068485e-07   4.37574509700868e-06
-9.261277276781598e-07   2.6638481339584345e-07   1.977720780927902e-06
-9.261277276781598e-07   2.6638481339584345e-07   1.977720780927902e-06
-9.261277276781598e-07   2.6638481339584345e-07   1.977720780927902e-06
-9.261277276781598e-07   2.6638481339584345e-07   1.977720780927902e-06
-1.6152055512355486e-06   3.259408053588915e-07   3.090450225012395e-06
-1.6152055512355486e-06   3.259408053588915e-07   3.090450225012395e-06
-1.6152055512355486e-06   3.259408053588915e-07   3.090450225012395e-06
-1.6152055512355486e-06   3.259408053588915e-07   3.090450225012395e-06
-9.261277276781598e-07   2.9197993177068485e-07   4.391102168033608e-06
-9.261277276781598e-07   2.9197993177068485e-07   4.391102168033608e-06
-9.261277276781598e-07   2.9197993177068485e-07   4.391102168033608e-06
-9.261277276781598e-07   2.9197993177068485e-07   4.391102168033608e-06
-2.374156559941577e-06   2.6638481339587056e-07   1.962363709903008e-06
-2.374156559941577e-06   2.6638481339587056e-07   1.962363709903008e-06
-2.374156559941577e-06   2.6638481339587056e-07   1.962363709903008e-06
-2.374156559941577e-06   2.6638481339587056e-07   1.962363709903008e-06
-2.4318382225336546e-06   2.1775448678419424e-07   4.438145746887541e-06
-2.4318382225336546e-06   2.1775448678419424e-07   4.438145746887541e-06
-2.4318382225336546e-06   2.1775448678419424e-07   4.438145746887541e-06
-2.4318382225336546e-06   2.1775448678419424e-07   4.438145746887541e-06
-9.864689215358788e-07   1.8949839429739787e-07   2.0461505673833908e-06
-9.864689215358788e-07   1.8949839429739787e-07   2.0461505673833908e-06
-9.864689215358788e-07   1.8949839429739787e-07   2.0461505673833908e-06
-9.864689215358788e-07   1.8949839429739787e-07   2.0461505673833908e-06
-1.6690658217871996e-06   2.665225435482269e-07   3.1375975782517277e-06
-1.6690658217871996e-06   2.665225435482269e-07   3.1375975782517277e-06
-1.6690658217871996e-06   2.665225435482269e-07   3.1375975782517277e-06
-1.6690658217871996e-06   2.665225435482269e-07   3.1375975782517277e-06
-2.2582497159004382e-06   7.828640637336562e-07   3.888403040327052e-06
-2.2582497159004382e-06   7.828640637336562e-07   3.888403040327052e-06
-2.2582497159004382e-06   7.828640637336562e-07   3.888403040327052e-06
-2.2582497159004382e-06   7.828640637336562e-07   3.888403040327052e-06
-3.6950016227060227e-06   6.509663685517651e-07   1.41467791187528e-06
-3.6950016227060227e-06   6.509663685517651e-07   1.41467791187528e-06
-3.6950016227060227e-06   6.509663685517651e-07   1.41467791187528e-06
-3.6950016227060227e-06   6.509663685517651e-07   1.41467791187528e-06
-3.7579847848697988e-06   7.077901408546465e-07   3.821080090924035e-06
-3.7579847848697988e-06   7.077901408546465e-07   3.821080090924035e-06
-3.7579847848697988e-06   7.077901408546465e-07   3.821080090924035e-06
-3.7579847848697988e-06   7.077901408546465e-07   3.821080090924035e-06
-2.315389395948717e-06   5.698862049789352e-07   1.4994968042476907e-06
-2.315389395948717e-06   5.698862049789352e-07   1.4994968042476907e-06
-2.315389395948717e-06   5.698862049789352e-07   1.4994968042476907e-06
-2.315389395948717e-06   5.698862049789352e-07   1.4994968042476907e-06
-2.9991200277484245e-06   6.642323593565743e-07   2.5824401646207723e-06
-2.9991200277484245e-06   6.642323593565743e-07   2.5824401646207723e-06
-2.9991200277484245e-06   6.642323593565743e-07   2.5824401646207723e-06
-2.9991200277484245e-06   6.642323593565743e-07   2.5824401646207723e-06
-2.3153893959487274e-06   7.077901408546465e-07   3.903822452449481e-06
-2.3153893959487274e-06   7.077901408546465e-07   3.903822452449481e-06
-2.3153893959487274e-06   7.077901408546465e-07   3.903822452449481e-06
-2.3153893959487274e-06   7.077901408546465e-07   3.903822452449481e-06
-3.757984784869792e-06   5.698862049789081e-07   1.4167544427222585e-06
-3.757984784869792e-06   5.698862049789081e-07   1.4167544427222585e-06
-3.757984784869792e-06   5.698862049789081e-07   1.4167544427222585e-06
-3.757984784869792e-06   5.698862049789081e-07   1.4167544427222585e-06
-3.831732966942916e-06   6.367287224934119e-07   3.9456713010902e-06
-3.831732966942916e-06   6.367287224934119e-07   3.9456713010902e-06
-3.831732966942916e-06   6.367287224934119e-07   3.9456713010902e-06
-3.831732966942916e-06   6.367287224934119e-07   3.9456713010902e-06
-2.3741565599415734e-06   4.948144900682172e-07   1.6015258288764266e-06
-2.3741565599415734e-06   4.948144900682172e-07   1.6015258288764266e-06
-2.3741565599415734e-06   4.948144900682172e-07   1.6015258288764266e-06
-2.3741565599415734e-06   4.948144900682172e-07   1.6015258288764266e-06
-3.037739613030168e-06   6.076291154978315e-07   2.639808808766306e-06
-3.037739613030168e-06   6.076291154978315e-07   2.639808808766306e-06
-3.037739613030168e-06   6.076291154978315e-07   2.639808808766306e-06
-3.037739613030168e-06   6.076291154978315e-07   2.639808808766306e-06
-2.374156559941577e-06   6.367287224934119e-07   4.030819840545306e-06
-2.374156559941577e-06   6.367287224934119e-07   4.030819840545306e-06
-2.374156559941577e-06   6.367287224934119e-07   4.030819840545306e-06
-2.374156559941577e-06   6.367287224934119e-07   4.030819840545306e-06
-3.831732966942909e-06   4.948144900681901e-07   1.5163772894213206e-06
-3.831732966942909e-06   4.948144900681901e-07   1.5163772894213206e-06
-3.831732966942909e-06   4.948144900681901e-07   1.5163772894213206e-06
-3.831732966942909e-06   4.948144900681901e-07   1.5163772894213206e-06
-3.893956092370169e-06   5.55717406334436e-07   4.060589911178918e-06
-3.893956092370169e-06   5.55717406334436e-07   4.060589911178918e-06
-3.893956092370169e-06   5.55717406334436e-07   4.060589911178918e-06
-3.893956092370169e-06   5.55717406334436e-07   4.060589911178918e-06
-2.431838222533651e-06   4.1315464461053704e-07   1.709264451819079e-06
-2.431838222533651e-06   4.1315464461053704e-07   1.709264451819079e-06
-2.431838222533651e-06   4.1315464461053704e-07   1.709264451819079e-06
-2.431838222533651e-06   4.1315464461053704e-07   1.709264451819079e-06
-3.108267049500438e-06   5.49394577010169e-07   2.7549018706572644e-06
-3.108267049500438e-06   5.49394577010169e-07   2.7549018706572644e-06
-3.108267049500438e-06   5.49394577010169e-07   2.7549018706572644e-06
-3.108267049500438e-06   5.49394577010169e-07   2.7549018706572644e-06
-3.6950016227060294e-06   1.0502074571682233e-06   1.8504389501392075e-06
-3.6950016227060294e-06   1.0502074571682233e-06   1.8504389501392075e-06
-3.6950016227060294e-06   1.0502074571682233e-06   1.8504389501392075e-06
-3.6950016227060294e-06   1.0502074571682233e-06   1.8504389501392075e-06
-5.034120466998051e-06   8.231511731689287e-07   -5.176595607470712e-07
-5.034120466998051e-06   8.231511731689287e-07   -5.176595607470712e-07
-5.034120466998051e-06   8.231511731689287e-07   -5.176595607470712e-07
-5.034120466998051e-06   8.231511731689287e-07   -5.176595607470712e-07
-5.1974668628977855e-06   1.0301983524985787e-06   2.3086906576916743e-06
-5.1974668628977855e-06   1.0301983524985787e-06   2.3086906576916743e-06
-5.1974668628977855e-06   1.0301983524985787e-06   2.3086906576916743e-06
-5.1974668628977855e-06   1.0301983524985787e-06   2.3086906576916743e-06
-3.7579847848697852e-06   7.838301260126575e-07   5.7374796869920754e-08
-3.7579847848697852e-06   7.838301260126575e-07   5.7374796869920754e-08
-3.7579847848697852e-06   7.838301260126575e-07   5.7374796869920754e-08
-3.7579847848697852e-06   7.838301260126575e-07   5.7374796869920754e-08
-4.25895992744384e-06   9.018728962438224e-07   8.215077056881677e-07
-4.25895992744384e-06   9.018728962438224e-07   8.215077056881677e-07
-4.25895992744384e-06   9.018728962438224e-07   8.215077056881677e-07
-4.25895992744384e-06   9.018728962438224e-07   8.215077056881677e-07
-3.757984784869792e-06   1.0301983524985787e-06   2.4565115935832433e-06
-3.757984784869792e-06   1.0301983524985787e-06   2.4565115935832433e-06
-3.757984784869792e-06   1.0301983524985787e-06   2.4565115935832433e-06
-3.757984784869792e-06   1.0301983524985787e-06   2.4565115935832433e-06
-5.197466862897799e-06   7.838301260126846e-07   -9.044613902160081e-08
-5.197466862897799e-06   7.838301260126846e-07   -9.044613902160081e-08
-5.197466862897799e-06   7.838301260126846e-07   -9.044613902160081e-08
-5.197466862897799e-06   7.838301260126846e-07   -9.044613902160081e-08
-5.336183876964664e-06   9.997175378914712e-07   2.734431197892826e-06
-5.336183876964664e-06   9.997175378914712e-07   2.734431197892826e-06
-5.336183876964664e-06   9.997175378914712e-07   2.734431197892826e-06
-5.336183876964664e-06   9.997175378914712e-07   2.734431197892826e-06
-3.831732966942902e-06   7.482020916956867e-07   3.7792228224070427e-07
-3.831732966942902e-06   7.482020916956867e-07   3.7792228224070427e-07
-3.831732966942902e-06   7.482020916956867e-07   3.7792228224070427e-07
-3.831732966942902e-06   7.482020916956867e-07   3.7792228224070427e-07
-4.4199914639432865e-06   8.935218738588042e-07   1.2711612412769003e-06
-4.4199914639432865e-06   8.935218738588042e-07   1.2711612412769003e-06
-4.4199914639432865e-06   8.935218738588042e-07   1.2711612412769003e-06
-4.4199914639432865e-06   8.935218738588042e-07   1.2711612412769003e-06
-3.831732966942909e-06   9.997175378914712e-07   2.8853404656103184e-06
-3.831732966942909e-06   9.997175378914712e-07   2.8853404656103184e-06
-3.831732966942909e-06   9.997175378914712e-07   2.8853404656103184e-06
-3.831732966942909e-06   9.997175378914712e-07   2.8853404656103184e-06
-5.336183876964671e-06   7.482020916957139e-07   2.2701301452325259e-07
-5.336183876964671e-06   7.482020916957139e-07   2.2701301452325259e-07
-5.336183876964671e-06   7.482020916957139e-07   2.2701301452325259e-07
-5.336183876964671e-06   7.482020916957139e-07   2.2701301452325259e-07
-5.500071619433621e-06   8.9273582901586e-07   3.4820574750483665e-06
-5.500071619433621e-06   8.9273582901586e-07   3.4820574750483665e-06
-5.500071619433621e-06   8.9273582901586e-07   3.4820574750483665e-06
-5.500071619433621e-06   8.9273582901586e-07   3.4820574750483665e-06
-3.893956092370156e-06   6.467803162167054e-07   9.52771570955429e-07
-3.893956092370156e-06   6.467803162167054e-07   9.52771570955429e-07
-3.893956092370156e-06   6.467803162167054e-07   9.52771570955429e-07
-3.893956092370156e-06   6.467803162167054e-07   9.52771570955429e-07
-4.451301504424226e-06   8.473775558629713e-07   1.7613222472576686e-06
-4.451301504424226e-06   8.473775558629713e-07   1.7613222472576686e-06
-4.451301504424226e-06   8.473775558629713e-07   1.7613222472576686e-06
-4.451301504424226e-06   8.473775558629713e-07   1.7613222472576686e-06
7.388443027155984e-07   -3.506292549053792e-08   2.3355824769421773e-06
7.388443027155984e-07   -3.506292549053792e-08   2.3355824769421773e-06
7.388443027155984e-07   -3.506292549053792e-08   2.3355824769421773e-06
7.388443027155984e-07   -3.506292549053792e-08   2.3355824769421773e-06
-2.8336952891710386e-07   1.9543469444543147e-07   7.701913295159049e-07
-2.8336952891710386e-07   1.9543469444543147e-07   7.701913295159049e-07
-2.8336952891710386e-07   1.9543469444543147e-07   7.701913295159049e-07
-2.8336952891710386e-07   1.9543469444543147e-07   7.701913295159049e-07
-3.344548850269014e-07   -1.1756351072164531e-07   2.2687389378028323e-06
-3.344548850269014e-07   -1.1756351072164531e-07   2.2687389378028323e-06
-3.344548850269014e-07   -1.1756351072164531e-07   2.2687389378028323e-06
-3.344548850269014e-07   -1.1756351072164531e-07   2.2687389378028323e-06
5.868042785297053e-07   1.1818656115054893e-07   5.918569554185004e-07
5.868042785297053e-07   1.1818656115054893e-07   5.918569554185004e-07
5.868042785297053e-07   1.1818656115054893e-07   5.918569554185004e-07
5.868042785297053e-07   1.1818656115054893e-07   5.918569554185004e-07
1.453066331688928e-07   2.600626504295771e-08   1.3829945420177522e-06
1.453066331688928e-07   2.600626504295771e-08   1.3829945420177522e-06
1.453066331688928e-07   2.600626504295771e-08   1.3829945420177522e-06
1.453066331688928e-07   2.600626504295771e-08   1.3829945420177522e-06
5.868042785297053e-07   -1.1756351072164531e-07   2.1272888946795107e-06
5.868042785297053e-07   -1.1756351072164531e-07   2.1272888946795107e-06
5.868042785297053e-07   -1.1756351072164531e-07   2.1272888946795107e-06
5.868042785297053e-07   -1.1756351072164531e-07   2.1272888946795107e-06
-3.344548850269014e-07   1.1818656115054893e-07   7.333069985418169e-07
-3.344548850269014e-07   1.1818656115054893e-07   7.333069985418169e-07
-3.344548850269014e-07   1.1818656115054893e-07   7.333069985418169e-07
-3.344548850269014e-07   1.1818656115054893e-07   7.333069985418169e-07
-3.9826350067169904e-07   -1.5107236760872399e-07   2.1872404091187442e-06
-3.9826350067169904e-07   -1.5107236760872399e-07   2.1872404091187442e-06
-3.9826350067169904e-07   -1.5107236760872399e-07   2.1872404091187442e-06
-3.9826350067169904e-07   -1.5107236760872399e-07   2.1872404091187442e-06
4.5303771790663534e-07   7.85915725703165e-08   6.306066807141013e-07
4.5303771790663534e-07   7.85915725703165e-08   6.306066807141013e-07
4.5303771790663534e-07   7.85915725703165e-08   6.306066807141013e-07
4.5303771790663534e-07   7.85915725703165e-08   6.306066807141013e-07
6.630852045470263e-08   -6.686486926115094e-09   1.3263221788318381e-06
6.630852045470263e-08   -6.686486926115094e-09   1.3263221788318381e-06
6.630852045470263e-08   -6.686486926115094e-09   1.3263221788318381e-06
6.630852045470263e-08   -6.686486926115094e-09   1.3263221788318381e-06
4.5303771790663534e-07   -1.5107236760872399e-07   2.049442045011309e-06
4.5303771790663534e-07   -1.5107236760872399e-07   2.049442045011309e-06
4.5303771790663534e-07   -1.5107236760872399e-07   2.049442045011309e-06
4.5303771790663534e-07   -1.5107236760872399e-07   2.049442045011309e-06
-3.982635006716982e-07   7.85915725703165e-08   7.684050448215256e-07
-3.982635006716982e-07   7.85915725703165e-08   7.684050448215256e-07
-3.982635006716982e-07   7.85915725703165e-08   7.684050448215256e-07
-3.982635006716982e-07   7.85915725703165e-08   7.684050448215256e-07
-4.5277957646479637e-07   -2.0298777389214932e-07   2.1256402131156866e-06
-4.5277957646479637e-07   -2.0298777389214932e-07   2.1256402131156866e-06
-4.5277957646479637e-07   -2.0298777389214932e-07   2.1256402131156866e-06
-4.5277957646479637e-07   -2.0298777389214932e-07   2.1256402131156866e-06
2.8377178865907155e-07   -2.5537152910707055e-09   7.777941694152714e-07
2.8377178865907155e-07   -2.5537152910707055e-09   7.777941694152714e-07
2.8377178865907155e-07   -2.5537152910707055e-09   7.777941694152714e-07
2.8377178865907155e-07   -2.5537152910707055e-09   7.777941694152714e-07
-2.9091686252218015e-08   -3.2362827960292096e-08   1.3171187618689519e-06
-2.9091686252218015e-08   -3.2362827960292096e-08   1.3171187618689519e-06
-2.9091686252218015e-08   -3.2362827960292096e-08   1.3171187618689519e-06
-2.9091686252218015e-08   -3.2362827960292096e-08   1.3171187618689519e-06
-2.8336952891710386e-07   2.147623804265111e-07   3.5823258669578892e-06
-2.8336952891710386e-07   2.147623804265111e-07   3.5823258669578892e-06
-2.8336952891710386e-07   2.147623804265111e-07   3.5823258669578892e-06
-2.8336952891710386e-07   2.147623804265111e-07   3.5823258669578892e-06
-1.1331820174544915e-06   2.6582075988014313e-07   2.196606747067767e-06
-1.1331820174544915e-06   2.6582075988014313e-07   2.196606747067767e-06
-1.1331820174544915e-06   2.6582075988014313e-07   2.196606747067767e-06
-1.1331820174544915e-06   2.6582075988014313e-07   2.196606747067767e-06
-1.1731817269381619e-06   1.2428065357918063e-07   3.567114291850874e-06
-1.1731817269381619e-06   1.2428065357918063e-07   3.567114291850874e-06
-1.1731817269381619e-06   1.2428065357918063e-07   3.567114291850874e-06
-1.1731817269381619e-06   1.2428065357918063e-07   3.567114291850874e-06
-3.344548850269014e-07   1.8113398490883785e-07   2.135124223200986e-06
-3.344548850269014e-07   1.8113398490883785e-07   2.135124223200986e-06
-3.344548850269014e-07   1.8113398490883785e-07   2.135124223200986e-06
-3.344548850269014e-07   1.8113398490883785e-07   2.135124223200986e-06
-7.384181424442556e-07   1.850188558487391e-07   2.806065396332643e-06
-7.384181424442556e-07   1.850188558487391e-07   2.806065396332643e-06
-7.384181424442556e-07   1.850188558487391e-07   2.806065396332643e-06
-7.384181424442556e-07   1.850188558487391e-07   2.806065396332643e-06
-3.344548850268997e-07   1.2428065357918063e-07   3.5330022930530544e-06
-3.344548850268997e-07   1.2428065357918063e-07   3.5330022930530544e-06
-3.344548850268997e-07   1.2428065357918063e-07   3.5330022930530544e-06
-3.344548850268997e-07   1.2428065357918063e-07   3.5330022930530544e-06
-1.1731817269381619e-06   1.8113398490883785e-07   2.1692362219987886e-06
-1.1731817269381619e-06   1.8113398490883785e-07   2.1692362219987886e-06
-1.1731817269381619e-06   1.8113398490883785e-07   2.1692362219987886e-06
-1.1731817269381619e-06   1.8113398490883785e-07   2.1692362219987886e-06
-1.2146504891820323e-06   4.963082005066772e-08   3.5610506401686826e-06
-1.2146504891820323e-06   4.963082005066772e-08   3.5610506401686826e-06
-1.2146504891820323e-06   4.963082005066772e-08   3.5610506401686826e-06
-1.2146504891820323e-06   4.963082005066772e-08   3.5610506401686826e-06
-3.982635006716982e-07   1.0559483330831458e-07   2.1668272513635406e-06
-3.982635006716982e-07   1.0559483330831458e-07   2.1668272513635406e-06
-3.982635006716982e-07   1.0559483330831458e-07   2.1668272513635406e-06
-3.982635006716982e-07   1.0559483330831458e-07   2.1668272513635406e-06
-7.797240152252268e-07   1.2469415974672004e-07   2.791135179756441e-06
-7.797240152252268e-07   1.2469415974672004e-07   2.791135179756441e-06
-7.797240152252268e-07   1.2469415974672004e-07   2.791135179756441e-06
-7.797240152252268e-07   1.2469415974672004e-07   2.791135179756441e-06
-3.982635006716982e-07   4.963082005066772e-08   3.5274722322140822e-06
-3.982635006716982e-07   4.963082005066772e-08   3.5274722322140822e-06
-3.982635006716982e-07   4.963082005066772e-08   3.5274722322140822e-06
-3.982635006716982e-07   4.963082005066772e-08   3.5274722322140822e-06
-1.2146504891820323e-06   1.0559483330831458e-07   2.2004056593181206e-06
-1.2146504891820323e-06   1.0559483330831458e-07   2.2004056593181206e-06
-1.2146504891820323e-06   1.0559483330831458e-07   2.2004056593181206e-06
-1.2146504891820323e-06   1.0559483330831458e-07   2.2004056593181206e-06
-1.255886630848036e-06   -2.4167812586145358e-08   3.6171989449897303e-06
-1.255886630848036e-06   -2.4167812586145358e-08   3.6171989449897303e-06
-1.255886630848036e-06   -2.4167812586145358e-08   3.6171989449897303e-06
-1.255886630848036e-06   -2.4167812586145358e-08   3.6171989449897303e-06
-4.527795764647955e-07   2.6554945930276196e-08   2.248253532574515e-06
-4.527795764647955e-07   2.6554945930276196e-08   2.248253532574515e-06
-4.527795764647955e-07   2.6554945930276196e-08   2.248253532574515e-06
-4.527795764647955e-07   2.6554945930276196e-08   2.248253532574515e-06
-8.20027846632351e-07   6.792815569109628e-08   2.835510056997258e-06
-8.20027846632351e-07   6.792815569109628e-08   2.835510056997258e-06
-8.20027846632351e-07   6.792815569109628e-08   2.835510056997258e-06
-8.20027846632351e-07   6.792815569109628e-08   2.835510056997258e-06
-1.1331820174544915e-06   4.28589033586843e-07   4.010436586742606e-06
-1.1331820174544915e-06   4.28589033586843e-07   4.010436586742606e-06
-1.1331820174544915e-06   4.28589033586843e-07   4.010436586742606e-06
-1.1331820174544915e-06   4.28589033586843e-07   4.010436586742606e-06
-1.965364972226004e-06   3.361872314592369e-07   2.5680239141801452e-06
-1.965364972226004e-06   3.361872314592369e-07   2.5680239141801452e-06
-1.965364972226004e-06   3.361872314592369e-07   2.5680239141801452e-06
-1.965364972226004e-06   3.361872314592369e-07   2.5680239141801452e-06
-2.0001914456986236e-06   3.472480788742718e-07   3.935594406385165e-06
-2.0001914456986236e-06   3.472480788742718e-07   3.935594406385165e-06
-2.0001914456986236e-06   3.472480788742718e-07   3.935594406385165e-06
-2.0001914456986236e-06   3.472480788742718e-07   3.935594406385165e-06
-1.1731817269381619e-06   2.5979648341322554e-07   2.6097158323943654e-06
-1.1731817269381619e-06   2.5979648341322554e-07   2.6097158323943654e-06
-1.1731817269381619e-06   2.5979648341322554e-07   2.6097158323943654e-06
-1.1731817269381619e-06   2.5979648341322554e-07   2.6097158323943654e-06
-1.5697866321836583e-06   3.3416090761909795e-07   3.2261053532800204e-06
-1.5697866321836583e-06   3.3416090761909795e-07   3.2261053532800204e-06
-1.5697866321836583e-06   3.3416090761909795e-07   3.2261053532800204e-06
-1.5697866321836583e-06   3.3416090761909795e-07   3.2261053532800204e-06
-1.1731817269381619e-06   3.472480788742718e-07   3.988065363661786e-06
-1.1731817269381619e-06   3.472480788742718e-07   3.988065363661786e-06
-1.1731817269381619e-06   3.472480788742718e-07   3.988065363661786e-06
-1.1731817269381619e-06   3.472480788742718e-07   3.988065363661786e-06
-2.0001914456986236e-06   2.5979648341322554e-07   2.5572448751177512e-06
-2.0001914456986236e-06   2.5979648341322554e-07   2.5572448751177512e-06
-2.0001914456986236e-06   2.5979648341322554e-07   2.5572448751177512e-06
-2.0001914456986236e-06   2.5979648341322554e-07   2.5572448751177512e-06
-2.037133339569293e-06   2.6638481339587056e-07   3.9673435041633575e-06
-2.037133339569293e-06   2.6638481339587056e-07   3.9673435041633575e-06
-2.037133339569293e-06   2.6638481339587056e-07   3.9673435041633575e-06
-2.037133339569293e-06   2.6638481339587056e-07   3.9673435041633575e-06
-1.2146504891820323e-06   1.823748075984702e-07   2.6469447569963506e-06
-1.2146504891820323e-06   1.823748075984702e-07   2.6469447569963506e-06
-1.2146504891820323e-06   1.823748075984702e-07   2.6469447569963506e-06
-1.2146504891820323e-06   1.823748075984702e-07   2.6469447569963506e-06
-1.5996045226758374e-06   2.7412320050333825e-07   3.233485777076433e-06
-1.5996045226758374e-06   2.7412320050333825e-07   3.233485777076433e-06
-1.5996045226758374e-06   2.7412320050333825e-07   3.233485777076433e-06
-1.5996045226758374e-06   2.7412320050333825e-07   3.233485777076433e-06
-1.2146504891820323e-06   2.6638481339587056e-07   4.017749507641768e-06
-1.2146504891820323e-06   2.6638481339587056e-07   4.017749507641768e-06
-1.2146504891820323e-06   2.6638481339587056e-07   4.017749507641768e-06
-1.2146504891820323e-06   2.6638481339587056e-07   4.017749507641768e-06
-2.037133339569293e-06   1.823748075984702e-07   2.5965387535179267e-06
-2.037133339569293e-06   1.823748075984702e-07   2.5965387535179267e-06
-2.037133339569293e-06   1.823748075984702e-07   2.5965387535179267e-06
-2.037133339569293e-06   1.823748075984702e-07   2.5965387535179267e-06
-2.073335805257704e-06   1.8949839429739787e-07   4.040210260185695e-06
-2.073335805257704e-06   1.8949839429739787e-07   4.040210260185695e-06
-2.073335805257704e-06   1.8949839429739787e-07   4.040210260185695e-06
-2.073335805257704e-06   1.8949839429739787e-07   4.040210260185695e-06
-1.255886630848036e-06   1.1002080814651711e-07   2.725481521193468e-06
-1.255886630848036e-06   1.1002080814651711e-07   2.725481521193468e-06
-1.255886630848036e-06   1.1002080814651711e-07   2.725481521193468e-06
-1.255886630848036e-06   1.1002080814651711e-07   2.725481521193468e-06
-1.6327462282683367e-06   2.1541745610121905e-07   3.2903428614544688e-06
-1.6327462282683367e-06   2.1541745610121905e-07   3.2903428614544688e-06
-1.6327462282683367e-06   2.1541745610121905e-07   3.2903428614544688e-06
-1.6327462282683367e-06   2.1541745610121905e-07   3.2903428614544688e-06
-1.9653649722260107e-06   6.509663685517922e-07   3.4876461878271804e-06
-1.9653649722260107e-06   6.509663685517922e-07   3.4876461878271804e-06
-1.9653649722260107e-06   6.509663685517922e-07   3.4876461878271804e-06
-1.9653649722260107e-06   6.509663685517922e-07   3.4876461878271804e-06
-2.79080537702247e-06   4.657850024080508e-07   2.0008033601468703e-06
-2.79080537702247e-06   4.657850024080508e-07   2.0008033601468703e-06
-2.79080537702247e-06   4.657850024080508e-07   2.0008033601468703e-06
-2.79080537702247e-06   4.657850024080508e-07   2.0008033601468703e-06
-2.8294042465843637e-06   5.698862049789352e-07   3.388299742025202e-06
-2.8294042465843637e-06   5.698862049789352e-07   3.388299742025202e-06
-2.8294042465843637e-06   5.698862049789352e-07   3.388299742025202e-06
-2.8294042465843637e-06   5.698862049789352e-07   3.388299742025202e-06
-2.0001914456986236e-06   3.856696149656257e-07   2.1168083612236124e-06
-2.0001914456986236e-06   3.856696149656257e-07   2.1168083612236124e-06
-2.0001914456986236e-06   3.856696149656257e-07   2.1168083612236124e-06
-2.0001914456986236e-06   3.856696149656257e-07   2.1168083612236124e-06
-2.39130912782624e-06   5.107612442110661e-07   2.6936161872223837e-06
-2.39130912782624e-06   5.107612442110661e-07   2.6936161872223837e-06
-2.39130912782624e-06   5.107612442110661e-07   2.6936161872223837e-06
-2.39130912782624e-06   5.107612442110661e-07   2.6936161872223837e-06
-2.0001914456986236e-06   5.698862049789352e-07   3.4988296960331906e-06
-2.0001914456986236e-06   5.698862049789352e-07   3.4988296960331906e-06
-2.0001914456986236e-06   5.698862049789352e-07   3.4988296960331906e-06
-2.0001914456986236e-06   5.698862049789352e-07   3.4988296960331906e-06
-2.82940424658435e-06   3.856696149656257e-07   2.006278407215624e-06
-2.82940424658435e-06   3.856696149656257e-07   2.006278407215624e-06
-2.82940424658435e-06   3.856696149656257e-07   2.006278407215624e-06
-2.82940424658435e-06   3.856696149656257e-07   2.006278407215624e-06
-2.880751321727034e-06   4.948144900681901e-07   3.4976251175814887e-06
-2.880751321727034e-06   4.948144900681901e-07   3.4976251175814887e-06
-2.880751321727034e-06   4.948144900681901e-07   3.4976251175814887e-06
-2.880751321727034e-06   4.948144900681901e-07   3.4976251175814887e-06
-2.037133339569293e-06   3.1334698080934145e-07   2.2004756528738853e-06
-2.037133339569293e-06   3.1334698080934145e-07   2.2004756528738853e-06
-2.037133339569293e-06   3.1334698080934145e-07   2.2004756528738853e-06
-2.037133339569293e-06   3.1334698080934145e-07   2.2004756528738853e-06
-2.412140324337311e-06   4.5264914499292853e-07   2.7419059956437685e-06
-2.412140324337311e-06   4.5264914499292853e-07   2.7419059956437685e-06
-2.412140324337311e-06   4.5264914499292853e-07   2.7419059956437685e-06
-2.412140324337311e-06   4.5264914499292853e-07   2.7419059956437685e-06
-2.037133339569293e-06   4.948144900681901e-07   3.6065056231367627e-06
-2.037133339569293e-06   4.948144900681901e-07   3.6065056231367627e-06
-2.037133339569293e-06   4.948144900681901e-07   3.6065056231367627e-06
-2.037133339569293e-06   4.948144900681901e-07   3.6065056231367627e-06
-2.8807513217270274e-06   3.1334698080931435e-07   2.091595147318574e-06
-2.8807513217270274e-06   3.1334698080931435e-07   2.091595147318574e-06
-2.8807513217270274e-06   3.1334698080931435e-07   2.091595147318574e-06
-2.8807513217270274e-06   3.1334698080931435e-07   2.091595147318574e-06
-2.9214509297994425e-06   4.1315464461053704e-07   3.6155152942380774e-06
-2.9214509297994425e-06   4.1315464461053704e-07   3.6155152942380774e-06
-2.9214509297994425e-06   4.1315464461053704e-07   3.6155152942380774e-06
-2.9214509297994425e-06   4.1315464461053704e-07   3.6155152942380774e-06
-2.073335805257704e-06   2.3855046815153677e-07   2.306752592543977e-06
-2.073335805257704e-06   2.3855046815153677e-07   2.306752592543977e-06
-2.073335805257704e-06   2.3855046815153677e-07   2.306752592543977e-06
-2.073335805257704e-06   2.3855046815153677e-07   2.306752592543977e-06
-2.4557735894465254e-06   3.961633342631349e-07   2.8495811798583716e-06
-2.4557735894465254e-06   3.961633342631349e-07   2.8495811798583716e-06
-2.4557735894465254e-06   3.961633342631349e-07   2.8495811798583716e-06
-2.4557735894465254e-06   3.961633342631349e-07   2.8495811798583716e-06
-2.79080537702247e-06   8.231511731689016e-07   1.5804336659182072e-06
-2.79080537702247e-06   8.231511731689016e-07   1.5804336659182072e-06
-2.79080537702247e-06   8.231511731689016e-07   1.5804336659182072e-06
-2.79080537702247e-06   8.231511731689016e-07   1.5804336659182072e-06
-3.4906541638614623e-06   5.699114746797907e-07   2.620752020930462e-07
-3.4906541638614623e-06   5.699114746797907e-07   2.620752020930462e-07
-3.4906541638614623e-06   5.699114746797907e-07   2.620752020930462e-07
-3.4906541638614623e-06   5.699114746797907e-07   2.620752020930462e-07
-3.630462662105246e-06   7.838301260126846e-07   1.868759448231058e-06
-3.630462662105246e-06   7.838301260126846e-07   1.868759448231058e-06
-3.630462662105246e-06   7.838301260126846e-07   1.868759448231058e-06
-3.630462662105246e-06   7.838301260126846e-07   1.868759448231058e-06
-2.829404246584357e-06   5.168957127763495e-07   6.938227369713803e-07
-2.829404246584357e-06   5.168957127763495e-07   6.938227369713803e-07
-2.829404246584357e-06   5.168957127763495e-07   6.938227369713803e-07
-2.829404246584357e-06   5.168957127763495e-07   6.938227369713803e-07
-3.073541321073784e-06   6.629490834901986e-07   1.0130858386921172e-06
-3.073541321073784e-06   6.629490834901986e-07   1.0130858386921172e-06
-3.073541321073784e-06   6.629490834901986e-07   1.0130858386921172e-06
-3.073541321073784e-06   6.629490834901986e-07   1.0130858386921172e-06
-2.82940424658435e-06   7.838301260126846e-07   2.02892009617281e-06
-2.82940424658435e-06   7.838301260126846e-07   2.02892009617281e-06
-2.82940424658435e-06   7.838301260126846e-07   2.02892009617281e-06
-2.82940424658435e-06   7.838301260126846e-07   2.02892009617281e-06
-3.630462662105246e-06   5.168957127763495e-07   5.336620890295717e-07
-3.630462662105246e-06   5.168957127763495e-07   5.336620890295717e-07
-3.630462662105246e-06   5.168957127763495e-07   5.336620890295717e-07
-3.630462662105246e-06   5.168957127763495e-07   5.336620890295717e-07
-3.7489869580375595e-06   7.482020916956867e-07   2.1979622063002387e-06
-3.7489869580375595e-06   7.482020916956867e-07   2.1979622063002387e-06
-3.7489869580375595e-06   7.482020916956867e-07   2.1979622063002387e-06
-3.7489869580375595e-06   7.482020916956867e-07   2.1979622063002387e-06
-2.8807513217270274e-06   4.795222515279461e-07   9.121107165499764e-07
-2.8807513217270274e-06   4.795222515279461e-07   9.121107165499764e-07
-2.8807513217270274e-06   4.795222515279461e-07   9.121107165499764e-07
-2.8807513217270274e-06   4.795222515279461e-07   9.121107165499764e-07
-3.1945871513338906e-06   6.440832812463359e-07   1.336433814730469e-06
-3.1945871513338906e-06   6.440832812463359e-07   1.336433814730469e-06
-3.1945871513338906e-06   6.440832812463359e-07   1.336433814730469e-06
-3.1945871513338906e-06   6.440832812463359e-07   1.336433814730469e-06
-2.8807513217270274e-06   7.482020916957139e-07   2.3591701104008723e-06
-2.8807513217270274e-06   7.482020916957139e-07   2.3591701104008723e-06
-2.8807513217270274e-06   7.482020916957139e-07   2.3591701104008723e-06
-2.8807513217270274e-06   7.482020916957139e-07   2.3591701104008723e-06
-3.748986958037573e-06   4.795222515279461e-07   7.509028124493411e-07
-3.748986958037573e-06   4.795222515279461e-07   7.509028124493411e-07
-3.748986958037573e-06   4.795222515279461e-07   7.509028124493411e-07
-3.748986958037573e-06   4.795222515279461e-07   7.509028124493411e-07
-3.8965780824882145e-06   6.467803162167054e-07   2.7898624697972167e-06
-3.8965780824882145e-06   6.467803162167054e-07   2.7898624697972167e-06
-3.8965780824882145e-06   6.467803162167054e-07   2.7898624697972167e-06
-3.8965780824882145e-06   6.467803162167054e-07   2.7898624697972167e-06
-2.921450929799429e-06   3.889509818640947e-07   1.3193481492607958e-06
-2.921450929799429e-06   3.889509818640947e-07   1.3193481492607958e-06
-2.921450929799429e-06   3.889509818640947e-07   1.3193481492607958e-06
-2.921450929799429e-06   3.889509818640947e-07   1.3193481492607958e-06
-3.224896221864437e-06   6.014890583331135e-07   1.6975674568209597e-06
-3.224896221864437e-06   6.014890583331135e-07   1.6975674568209597e-06
-3.224896221864437e-06   6.014890583331135e-07   1.6975674568209597e-06
-3.224896221864437e-06   6.014890583331135e-07   1.6975674568209597e-06
-9.616013811160495e-07   1.9543469444543147e-07   1.7584289099882186e-06
-9.616013811160495e-07   1.9543469444543147e-07   1.7584289099882186e-06
-9.616013811160495e-07   1.9543469444543147e-07   1.7584289099882186e-06
-9.616013811160495e-07   1.9543469444543147e-07   1.7584289099882186e-06
-1.2555977822568959e-06   4.0626657103317383e-07   1.3949340340394645e-06
-1.2555977822568959e-06   4.0626657103317383e-07   1.3949340340394645e-06
-1.2555977822568959e-06   4.0626657103317383e-07   1.3949340340394645e-06
-1.2555977822568959e-06   4.0626657103317383e-07   1.3949340340394645e-06
-1.2981483738399233e-06   1.1818656115054893e-07   1.8330865101738288e-06
-1.2981483738399233e-06   1.1818656115054893e-07   1.8330865101738288e-06
-1.2981483738399233e-06   1.1818656115054893e-07   1.8330865101738288e-06
-1.2981483738399233e-06   1.1818656115054893e-07   1.8330865101738288e-06
-1.1204883026651494e-06   3.0999834333311944e-07   1.4218993222396559e-06
-1.1204883026651494e-06   3.0999834333311944e-07   1.4218993222396559e-06
-1.1204883026651494e-06   3.0999834333311944e-07   1.4218993222396559e-06
-1.1204883026651494e-06   3.0999834333311944e-07   1.4218993222396559e-06
-1.1362856191153943e-06   2.3683291027879513e-07   1.4921274428226578e-06
-1.1362856191153943e-06   2.3683291027879513e-07   1.4921274428226578e-06
-1.1362856191153943e-06   2.3683291027879513e-07   1.4921274428226578e-06
-1.1362856191153943e-06   2.3683291027879513e-07   1.4921274428226578e-06
-1.1204883026651528e-06   1.1818656115054893e-07   1.7179994408642955e-06
-1.1204883026651528e-06   1.1818656115054893e-07   1.7179994408642955e-06
-1.1204883026651528e-06   1.1818656115054893e-07   1.7179994408642955e-06
-1.1204883026651528e-06   1.1818656115054893e-07   1.7179994408642955e-06
-1.2981483738399233e-06   3.0999834333311944e-07   1.5369863915492036e-06
-1.2981483738399233e-06   3.0999834333311944e-07   1.5369863915492036e-06
-1.2981483738399233e-06   3.0999834333311944e-07   1.5369863915492036e-06
-1.2981483738399233e-06   3.0999834333311944e-07   1.5369863915492036e-06
-1.3529805668569632e-06   7.85915725703165e-08   1.8587430741723922e-06
-1.3529805668569632e-06   7.85915725703165e-08   1.8587430741723922e-06
-1.3529805668569632e-06   7.85915725703165e-08   1.8587430741723922e-06
-1.3529805668569632e-06   7.85915725703165e-08   1.8587430741723922e-06
-1.2773895630048334e-06   2.46372151586468e-07   1.632089720342457e-06
-1.2773895630048334e-06   2.46372151586468e-07   1.632089720342457e-06
-1.2773895630048334e-06   2.46372151586468e-07   1.632089720342457e-06
-1.2773895630048334e-06   2.46372151586468e-07   1.632089720342457e-06
-1.2297173307462227e-06   1.9618347235374732e-07   1.5827492074510827e-06
-1.2297173307462227e-06   1.9618347235374732e-07   1.5827492074510827e-06
-1.2297173307462227e-06   1.9618347235374732e-07   1.5827492074510827e-06
-1.2297173307462227e-06   1.9618347235374732e-07   1.5827492074510827e-06
-1.277389563004835e-06   7.859157257028939e-08   1.758074726762656e-06
-1.277389563004835e-06   7.859157257028939e-08   1.758074726762656e-06
-1.277389563004835e-06   7.859157257028939e-08   1.758074726762656e-06
-1.277389563004835e-06   7.859157257028939e-08   1.758074726762656e-06
-1.3529805668569632e-06   2.46372151586468e-07   1.7327580677521697e-06
-1.3529805668569632e-06   2.46372151586468e-07   1.7327580677521697e-06
-1.3529805668569632e-06   2.46372151586468e-07   1.7327580677521697e-06
-1.3529805668569632e-06   2.46372151586468e-07   1.7327580677521697e-06
-1.391601287368243e-06   -2.5537152910436005e-09   1.9862700649738878e-06
-1.391601287368243e-06   -2.5537152910436005e-09   1.9862700649738878e-06
-1.391601287368243e-06   -2.5537152910436005e-09   1.9862700649738878e-06
-1.391601287368243e-06   -2.5537152910436005e-09   1.9862700649738878e-06
-1.4459437733374421e-06   9.149520375286444e-08   2.020411523496172e-06
-1.4459437733374421e-06   9.149520375286444e-08   2.020411523496172e-06
-1.4459437733374421e-06   9.149520375286444e-08   2.020411523496172e-06
-1.4459437733374421e-06   9.149520375286444e-08   2.020411523496172e-06
-1.3063412554324412e-06   1.49975683387478e-07   1.752652372540367e-06
-1.3063412554324412e-06   1.49975683387478e-07   1.752652372540367e-06
-1.3063412554324412e-06   1.49975683387478e-07   1.752652372540367e-06
-1.3063412554324412e-06   1.49975683387478e-07   1.752652372540367e-06
-1.2555977822568959e-06   2.6582075988017023e-07   3.280708425820531e-06
-1.2555977822568959e-06   2.6582075988017023e-07   3.280708425820531e-06
-1.2555977822568959e-06   2.6582075988017023e-07   3.280708425820531e-06
-1.2555977822568959e-06   2.6582075988017023e-07   3.280708425820531e-06
-1.3975306941037136e-06   1.0704853644141754e-07   2.9488902386792486e-06
-1.3975306941037136e-06   1.0704853644141754e-07   2.9488902386792486e-06
-1.3975306941037136e-06   1.0704853644141754e-07   2.9488902386792486e-06
-1.3975306941037136e-06   1.0704853644141754e-07   2.9488902386792486e-06
-1.416196438392267e-06   1.8113398490883785e-07   3.153630035712649e-06
-1.416196438392267e-06   1.8113398490883785e-07   3.153630035712649e-06
-1.416196438392267e-06   1.8113398490883785e-07   3.153630035712649e-06
-1.416196438392267e-06   1.8113398490883785e-07   3.153630035712649e-06
-1.2981483738399233e-06   4.567781970826984e-08   3.03815696057909e-06
-1.2981483738399233e-06   4.567781970826984e-08   3.03815696057909e-06
-1.2981483738399233e-06   4.567781970826984e-08   3.03815696057909e-06
-1.2981483738399233e-06   4.567781970826984e-08   3.03815696057909e-06
-1.3404968015281427e-06   1.30355633981147e-07   3.057930984829052e-06
-1.3404968015281427e-06   1.30355633981147e-07   3.057930984829052e-06
-1.3404968015281427e-06   1.30355633981147e-07   3.057930984829052e-06
-1.3404968015281427e-06   1.30355633981147e-07   3.057930984829052e-06
-1.298148373839925e-06   1.8113398490883785e-07   3.234903734832971e-06
-1.298148373839925e-06   1.8113398490883785e-07   3.234903734832971e-06
-1.298148373839925e-06   1.8113398490883785e-07   3.234903734832971e-06
-1.298148373839925e-06   1.8113398490883785e-07   3.234903734832971e-06
-1.416196438392267e-06   4.567781970826984e-08   2.9568832614587477e-06
-1.416196438392267e-06   4.567781970826984e-08   2.9568832614587477e-06
-1.416196438392267e-06   4.567781970826984e-08   2.9568832614587477e-06
-1.416196438392267e-06   4.567781970826984e-08   2.9568832614587477e-06
-1.4382492809852197e-06   1.0559483330831458e-07   3.1815932080534614e-06
-1.4382492809852197e-06   1.0559483330831458e-07   3.1815932080534614e-06
-1.4382492809852197e-06   1.0559483330831458e-07   3.1815932080534614e-06
-1.4382492809852197e-06   1.0559483330831458e-07   3.1815932080534614e-06
-1.3529805668569632e-06   -2.0358621126613193e-08   3.115050757167322e-06
-1.3529805668569632e-06   -2.0358621126613193e-08   3.115050757167322e-06
-1.3529805668569632e-06   -2.0358621126613193e-08   3.115050757167322e-06
-1.3529805668569632e-06   -2.0358621126613193e-08   3.115050757167322e-06
-1.3622002288328662e-06   8.22761962931349e-08   3.0688359700086795e-06
-1.3622002288328662e-06   8.22761962931349e-08   3.0688359700086795e-06
-1.3622002288328662e-06   8.22761962931349e-08   3.0688359700086795e-06
-1.3622002288328662e-06   8.22761962931349e-08   3.0688359700086795e-06
-1.3529805668569632e-06   1.0559483330831458e-07   3.2571652807143937e-06
-1.3529805668569632e-06   1.0559483330831458e-07   3.2571652807143937e-06
-1.3529805668569632e-06   1.0559483330831458e-07   3.2571652807143937e-06
-1.3529805668569632e-06   1.0559483330831458e-07   3.2571652807143937e-06
-1.4382492809852163e-06   -2.0358621126613193e-08   3.039478684506356e-06
-1.4382492809852163e-06   -2.0358621126613193e-08   3.039478684506356e-06
-1.4382492809852163e-06   -2.0358621126613193e-08   3.039478684506356e-06
-1.4382492809852163e-06   -2.0358621126613193e-08   3.039478684506356e-06
-1.4574212315906202e-06   2.655494593024909e-08   3.2581472122685543e-06
-1.4574212315906202e-06   2.655494593024909e-08   3.2581472122685543e-06
-1.4574212315906202e-06   2.655494593024909e-08   3.2581472122685543e-06
-1.4574212315906202e-06   2.655494593024909e-08   3.2581472122685543e-06
-1.3916012873682396e-06   -1.0398135524295404e-07   3.226769085935141e-06
-1.3916012873682396e-06   -1.0398135524295404e-07   3.226769085935141e-06
-1.3916012873682396e-06   -1.0398135524295404e-07   3.226769085935141e-06
-1.3916012873682396e-06   -1.0398135524295404e-07   3.226769085935141e-06
-1.3915137130327287e-06   2.887320427245963e-08   3.1469103929999867e-06
-1.3915137130327287e-06   2.887320427245963e-08   3.1469103929999867e-06
-1.3915137130327287e-06   2.887320427245963e-08   3.1469103929999867e-06
-1.3915137130327287e-06   2.887320427245963e-08   3.1469103929999867e-06
-1.3975306941037204e-06   3.361872314592098e-07   3.6123033401462538e-06
-1.3975306941037204e-06   3.361872314592098e-07   3.6123033401462538e-06
-1.3975306941037204e-06   3.361872314592098e-07   3.6123033401462538e-06
-1.3975306941037204e-06   3.361872314592098e-07   3.6123033401462538e-06
-1.6057230383092336e-06   3.247732152838795e-08   3.083090153845229e-06
-1.6057230383092336e-06   3.247732152838795e-08   3.083090153845229e-06
-1.6057230383092336e-06   3.247732152838795e-08   3.083090153845229e-06
-1.6057230383092336e-06   3.247732152838795e-08   3.083090153845229e-06
-1.617457352902005e-06   2.5979648341322554e-07   3.428518803532207e-06
-1.617457352902005e-06   2.5979648341322554e-07   3.428518803532207e-06
-1.617457352902005e-06   2.5979648341322554e-07   3.428518803532207e-06
-1.617457352902005e-06   2.5979648341322554e-07   3.428518803532207e-06
-1.416196438392267e-06   -1.618825421342764e-08   3.258674788591989e-06
-1.416196438392267e-06   -1.618825421342764e-08   3.258674788591989e-06
-1.416196438392267e-06   -1.618825421342764e-08   3.258674788591989e-06
-1.416196438392267e-06   -1.618825421342764e-08   3.258674788591989e-06
-1.5080073061044381e-06   1.4626386192891717e-07   3.3142216317602034e-06
-1.5080073061044381e-06   1.4626386192891717e-07   3.3142216317602034e-06
-1.5080073061044381e-06   1.4626386192891717e-07   3.3142216317602034e-06
-1.5080073061044381e-06   1.4626386192891717e-07   3.3142216317602034e-06
-1.416196438392267e-06   2.5979648341322554e-07   3.5941096461082327e-06
-1.416196438392267e-06   2.5979648341322554e-07   3.5941096461082327e-06
-1.416196438392267e-06   2.5979648341322554e-07   3.5941096461082327e-06
-1.416196438392267e-06   2.5979648341322554e-07   3.5941096461082327e-06
-1.617457352902005e-06   -1.618825421342764e-08   3.09308394601598e-06
-1.617457352902005e-06   -1.618825421342764e-08   3.09308394601598e-06
-1.617457352902005e-06   -1.618825421342764e-08   3.09308394601598e-06
-1.617457352902005e-06   -1.618825421342764e-08   3.09308394601598e-06
-1.6324883906959956e-06   1.823748075984702e-07   3.474173028327683e-06
-1.6324883906959956e-06   1.823748075984702e-07   3.474173028327683e-06
-1.6324883906959956e-06   1.823748075984702e-07   3.474173028327683e-06
-1.6324883906959956e-06   1.823748075984702e-07   3.474173028327683e-06
-1.4382492809852163e-06   -7.422398807484579e-08   3.3044004562137293e-06
-1.4382492809852163e-06   -7.422398807484579e-08   3.3044004562137293e-06
-1.4382492809852163e-06   -7.422398807484579e-08   3.3044004562137293e-06
-1.4382492809852163e-06   -7.422398807484579e-08   3.3044004562137293e-06
-1.5165259697796458e-06   9.942611745404612e-08   3.330671540887094e-06
-1.5165259697796458e-06   9.942611745404612e-08   3.330671540887094e-06
-1.5165259697796458e-06   9.942611745404612e-08   3.330671540887094e-06
-1.5165259697796458e-06   9.942611745404612e-08   3.330671540887094e-06
-1.4382492809852163e-06   1.823748075984973e-07   3.6281323057316576e-06
-1.4382492809852163e-06   1.823748075984973e-07   3.6281323057316576e-06
-1.4382492809852163e-06   1.823748075984973e-07   3.6281323057316576e-06
-1.4382492809852163e-06   1.823748075984973e-07   3.6281323057316576e-06
-1.6324883906959956e-06   -7.422398807484579e-08   3.1504411788097174e-06
-1.6324883906959956e-06   -7.422398807484579e-08   3.1504411788097174e-06
-1.6324883906959956e-06   -7.422398807484579e-08   3.1504411788097174e-06
-1.6324883906959956e-06   -7.422398807484579e-08   3.1504411788097174e-06
-1.6452554892576411e-06   1.1002080814654421e-07   3.560623363871589e-06
-1.6452554892576411e-06   1.1002080814654421e-07   3.560623363871589e-06
-1.6452554892576411e-06   1.1002080814654421e-07   3.560623363871589e-06
-1.6452554892576411e-06   1.1002080814654421e-07   3.560623363871589e-06
-1.4574212315906202e-06   -1.3050949503023155e-07   3.391884449665912e-06
-1.4574212315906202e-06   -1.3050949503023155e-07   3.391884449665912e-06
-1.4574212315906202e-06   -1.3050949503023155e-07   3.391884449665912e-06
-1.4574212315906202e-06   -1.3050949503023155e-07   3.391884449665912e-06
-1.5279886281811044e-06   5.170769815474746e-08   3.4001664614056333e-06
-1.5279886281811044e-06   5.170769815474746e-08   3.4001664614056333e-06
-1.5279886281811044e-06   5.170769815474746e-08   3.4001664614056333e-06
-1.5279886281811044e-06   5.170769815474746e-08   3.4001664614056333e-06
-1.6057230383092336e-06   4.657850024080508e-07   2.9739656598407055e-06
-1.6057230383092336e-06   4.657850024080508e-07   2.9739656598407055e-06
-1.6057230383092336e-06   4.657850024080508e-07   2.9739656598407055e-06
-1.6057230383092336e-06   4.657850024080508e-07   2.9739656598407055e-06
-1.8623747157807806e-06   1.5839913728991797e-07   2.3617813449838953e-06
-1.8623747157807806e-06   1.5839913728991797e-07   2.3617813449838953e-06
-1.8623747157807806e-06   1.5839913728991797e-07   2.3617813449838953e-06
-1.8623747157807806e-06   1.5839913728991797e-07   2.3617813449838953e-06
-1.8736279018134841e-06   3.8566961496559857e-07   2.8126001451477564e-06
-1.8736279018134841e-06   3.8566961496559857e-07   2.8126001451477564e-06
-1.8736279018134841e-06   3.8566961496559857e-07   2.8126001451477564e-06
-1.8736279018134841e-06   3.8566961496559857e-07   2.8126001451477564e-06
-1.617457352902005e-06   9.319937414840342e-08   2.561131374785648e-06
-1.617457352902005e-06   9.319937414840342e-08   2.561131374785648e-06
-1.617457352902005e-06   9.319937414840342e-08   2.561131374785648e-06
-1.617457352902005e-06   9.319937414840342e-08   2.561131374785648e-06
-1.7354861865270555e-06   2.7961914773633753e-07   2.6459942333413004e-06
-1.7354861865270555e-06   2.7961914773633753e-07   2.6459942333413004e-06
-1.7354861865270555e-06   2.7961914773633753e-07   2.6459942333413004e-06
-1.7354861865270555e-06   2.7961914773633753e-07   2.6459942333413004e-06
-1.617457352902005e-06   3.856696149656257e-07   2.988082289638095e-06
-1.617457352902005e-06   3.856696149656257e-07   2.988082289638095e-06
-1.617457352902005e-06   3.856696149656257e-07   2.988082289638095e-06
-1.617457352902005e-06   3.856696149656257e-07   2.988082289638095e-06
-1.8736279018134841e-06   9.319937414840342e-08   2.3856492302953178e-06
-1.8736279018134841e-06   9.319937414840342e-08   2.3856492302953178e-06
-1.8736279018134841e-06   9.319937414840342e-08   2.3856492302953178e-06
-1.8736279018134841e-06   9.319937414840342e-08   2.3856492302953178e-06
-1.9005922507441325e-06   3.1334698080931435e-07   2.9121596149727573e-06
-1.9005922507441325e-06   3.1334698080931435e-07   2.9121596149727573e-06
-1.9005922507441325e-06   3.1334698080931435e-07   2.9121596149727573e-06
-1.9005922507441325e-06   3.1334698080931435e-07   2.9121596149727573e-06
-1.6324883906959956e-06   3.676312629117401e-08   2.6312701609367353e-06
-1.6324883906959956e-06   3.676312629117401e-08   2.6312701609367353e-06
-1.6324883906959956e-06   3.676312629117401e-08   2.6312701609367353e-06
-1.6324883906959956e-06   3.676312629117401e-08   2.6312701609367353e-06
-1.737896333083548e-06   2.2754921138991112e-07   2.6924784138567653e-06
-1.737896333083548e-06   2.2754921138991112e-07   2.6924784138567653e-06
-1.737896333083548e-06   2.2754921138991112e-07   2.6924784138567653e-06
-1.737896333083548e-06   2.2754921138991112e-07   2.6924784138567653e-06
-1.6324883906959956e-06   3.1334698080931435e-07   3.078109927683628e-06
-1.6324883906959956e-06   3.1334698080931435e-07   3.078109927683628e-06
-1.6324883906959956e-06   3.1334698080931435e-07   3.078109927683628e-06
-1.6324883906959956e-06   3.1334698080931435e-07   3.078109927683628e-06
-1.9005922507441325e-06   3.6763126291187564e-08   2.465319848225854e-06
-1.9005922507441325e-06   3.6763126291187564e-08   2.465319848225854e-06
-1.9005922507441325e-06   3.6763126291187564e-08   2.465319848225854e-06
-1.9005922507441325e-06   3.6763126291187564e-08   2.465319848225854e-06
-1.918908381041283e-06   2.3855046815153677e-07   3.0341351453206462e-06
-1.918908381041283e-06   2.3855046815153677e-07   3.0341351453206462e-06
-1.918908381041283e-06   2.3855046815153677e-07   3.0341351453206462e-06
-1.918908381041283e-06   2.3855046815153677e-07   3.0341351453206462e-06
-1.6452554892576411e-06   -2.0525934501736055e-08   2.733492833939866e-06
-1.6452554892576411e-06   -2.0525934501736055e-08   2.733492833939866e-06
-1.6452554892576411e-06   -2.0525934501736055e-08   2.733492833939866e-06
-1.6452554892576411e-06   -2.0525934501736055e-08   2.733492833939866e-06
-1.754428411822792e-06   1.8021981127270094e-07   2.7950002574169866e-06
-1.754428411822792e-06   1.8021981127270094e-07   2.7950002574169866e-06
-1.754428411822792e-06   1.8021981127270094e-07   2.7950002574169866e-06
-1.754428411822792e-06   1.8021981127270094e-07   2.7950002574169866e-06
-1.8623747157807806e-06   5.699114746797907e-07   1.2027498018094739e-06
-1.8623747157807806e-06   5.699114746797907e-07   1.2027498018094739e-06
-1.8623747157807806e-06   5.699114746797907e-07   1.2027498018094739e-06
-1.8623747157807806e-06   5.699114746797907e-07   1.2027498018094739e-06
-1.9551210777897933e-06   2.7479325116309755e-07   8.711015976844642e-07
-1.9551210777897933e-06   2.7479325116309755e-07   8.711015976844642e-07
-1.9551210777897933e-06   2.7479325116309755e-07   8.711015976844642e-07
-1.9551210777897933e-06   2.7479325116309755e-07   8.711015976844642e-07
-2.0562304520253507e-06   5.168957127763495e-07   1.326155266069269e-06
-2.0562304520253507e-06   5.168957127763495e-07   1.326155266069269e-06
-2.0562304520253507e-06   5.168957127763495e-07   1.326155266069269e-06
-2.0562304520253507e-06   5.168957127763495e-07   1.326155266069269e-06
-1.8736279018134841e-06   2.2691369805258278e-07   1.1958068912170414e-06
-1.8736279018134841e-06   2.2691369805258278e-07   1.1958068912170414e-06
-1.8736279018134841e-06   2.2691369805258278e-07   1.1958068912170414e-06
-1.8736279018134841e-06   2.2691369805258278e-07   1.1958068912170414e-06
-1.8728146997539467e-06   4.0599735797475244e-07   1.0870013584978546e-06
-1.8728146997539467e-06   4.0599735797475244e-07   1.0870013584978546e-06
-1.8728146997539467e-06   4.0599735797475244e-07   1.0870013584978546e-06
-1.8728146997539467e-06   4.0599735797475244e-07   1.0870013584978546e-06
-1.8736279018134774e-06   5.168957127763495e-07   1.5001444749034991e-06
-1.8736279018134774e-06   5.168957127763495e-07   1.5001444749034991e-06
-1.8736279018134774e-06   5.168957127763495e-07   1.5001444749034991e-06
-1.8736279018134774e-06   5.168957127763495e-07   1.5001444749034991e-06
-2.0562304520253642e-06   2.2691369805258278e-07   1.0218176823827908e-06
-2.0562304520253642e-06   2.2691369805258278e-07   1.0218176823827908e-06
-2.0562304520253642e-06   2.2691369805258278e-07   1.0218176823827908e-06
-2.0562304520253642e-06   2.2691369805258278e-07   1.0218176823827908e-06
-2.144132223329926e-06   4.795222515279732e-07   1.5625880880982483e-06
-2.144132223329926e-06   4.795222515279732e-07   1.5625880880982483e-06
-2.144132223329926e-06   4.795222515279732e-07   1.5625880880982483e-06
-2.144132223329926e-06   4.795222515279732e-07   1.5625880880982483e-06
-1.9005922507441325e-06   1.960437580181062e-07   1.3267752298945002e-06
-1.9005922507441325e-06   1.960437580181062e-07   1.3267752298945002e-06
-1.9005922507441325e-06   1.960437580181062e-07   1.3267752298945002e-06
-1.9005922507441325e-06   1.960437580181062e-07   1.3267752298945002e-06
-1.9478602219894523e-06   3.8074576930826655e-07   1.2947339751960218e-06
-1.9478602219894523e-06   3.8074576930826655e-07   1.2947339751960218e-06
-1.9478602219894523e-06   3.8074576930826655e-07   1.2947339751960218e-06
-1.9478602219894523e-06   3.8074576930826655e-07   1.2947339751960218e-06
-1.9005922507441325e-06   4.795222515279461e-07   1.732675184204136e-06
-1.9005922507441325e-06   4.795222515279461e-07   1.732675184204136e-06
-1.9005922507441325e-06   4.795222515279461e-07   1.732675184204136e-06
-1.9005922507441325e-06   4.795222515279461e-07   1.732675184204136e-06
-2.1441322233299126e-06   1.960437580181062e-07   1.1566881337886058e-06
-2.1441322233299126e-06   1.960437580181062e-07   1.1566881337886058e-06
-2.1441322233299126e-06   1.960437580181062e-07   1.1566881337886058e-06
-2.1441322233299126e-06   1.960437580181062e-07   1.1566881337886058e-06
-2.2678838011306387e-06   3.889509818640947e-07   1.9954539431185246e-06
-2.2678838011306387e-06   3.889509818640947e-07   1.9954539431185246e-06
-2.2678838011306387e-06   3.889509818640947e-07   1.9954539431185246e-06
-2.2678838011306387e-06   3.889509818640947e-07   1.9954539431185246e-06
-1.918908381041276e-06   1.2888554054015736e-07   1.5698675077639187e-06
-1.918908381041276e-06   1.2888554054015736e-07   1.5698675077639187e-06
-1.918908381041276e-06   1.2888554054015736e-07   1.5698675077639187e-06
-1.918908381041276e-06   1.2888554054015736e-07   1.5698675077639187e-06
-1.9739153038833215e-06   3.4676691008540404e-07   1.5308168907732995e-06
-1.9739153038833215e-06   3.4676691008540404e-07   1.5308168907732995e-06
-1.9739153038833215e-06   3.4676691008540404e-07   1.5308168907732995e-06
-1.9739153038833215e-06   3.4676691008540404e-07   1.5308168907732995e-06
-3.0494691901474994e-06   4.0626657103317383e-07   1.5454684272570777e-06
-3.0494691901474994e-06   4.0626657103317383e-07   1.5454684272570777e-06
-3.0494691901474994e-06   4.0626657103317383e-07   1.5454684272570777e-06
-3.0494691901474994e-06   4.0626657103317383e-07   1.5454684272570777e-06
-2.1533021313269153e-06   5.509457759124677e-07   3.125887714885624e-06
-2.1533021313269153e-06   5.509457759124677e-07   3.125887714885624e-06
-2.1533021313269153e-06   5.509457759124677e-07   3.125887714885624e-06
-2.1533021313269153e-06   5.509457759124677e-07   3.125887714885624e-06
-2.158845659216125e-06   3.0999834333311944e-07   1.6669203011643912e-06
-2.158845659216125e-06   3.0999834333311944e-07   1.6669203011643912e-06
-2.158845659216125e-06   3.0999834333311944e-07   1.6669203011643912e-06
-2.158845659216125e-06   3.0999834333311944e-07   1.6669203011643912e-06
-3.4118363124535045e-06   1.7619999223299259e-07   3.8355170672201084e-06
-3.4118363124535045e-06   1.7619999223299259e-07   3.8355170672201084e-06
-3.4118363124535045e-06   1.7619999223299259e-07   3.8355170672201084e-06
-3.4118363124535045e-06   1.7619999223299259e-07   3.8355170672201084e-06
-2.5524000013361863e-06   3.155717317013899e-07   2.3195001716768686e-06
-2.5524000013361863e-06   3.155717317013899e-07   2.3195001716768686e-06
-2.5524000013361863e-06   3.155717317013899e-07   2.3195001716768686e-06
-2.5524000013361863e-06   3.155717317013899e-07   2.3195001716768686e-06
-3.4118363124535113e-06   3.0999834333311944e-07   1.747199311824449e-06
-3.4118363124535113e-06   3.0999834333311944e-07   1.747199311824449e-06
-3.4118363124535113e-06   3.0999834333311944e-07   1.747199311824449e-06
-3.4118363124535113e-06   3.0999834333311944e-07   1.747199311824449e-06
-2.1588456592161214e-06   1.7619999223299259e-07   3.7552380565600337e-06
-2.1588456592161214e-06   1.7619999223299259e-07   3.7552380565600337e-06
-2.1588456592161214e-06   1.7619999223299259e-07   3.7552380565600337e-06
-2.1588456592161214e-06   1.7619999223299259e-07   3.7552380565600337e-06
-2.204978593699461e-06   2.4637215158648156e-07   1.822714903317694e-06
-2.204978593699461e-06   2.4637215158648156e-07   1.822714903317694e-06
-2.204978593699461e-06   2.4637215158648156e-07   1.822714903317694e-06
-2.204978593699461e-06   2.4637215158648156e-07   1.822714903317694e-06
-3.438972012036088e-06   1.097560306703073e-07   3.961340273095106e-06
-3.438972012036088e-06   1.097560306703073e-07   3.961340273095106e-06
-3.438972012036088e-06   1.097560306703073e-07   3.961340273095106e-06
-3.438972012036088e-06   1.097560306703073e-07   3.961340273095106e-06
-2.7503558154003284e-06   1.7986035793702326e-07   2.7715840156754546e-06
-2.7503558154003284e-06   1.7986035793702326e-07   2.7715840156754546e-06
-2.7503558154003284e-06   1.7986035793702326e-07   2.7715840156754546e-06
-2.7503558154003284e-06   1.7986035793702326e-07   2.7715840156754546e-06
-3.438972012036093e-06   2.46372151586468e-07   1.9046845758674145e-06
-3.438972012036093e-06   2.46372151586468e-07   1.9046845758674145e-06
-3.438972012036093e-06   2.46372151586468e-07   1.9046845758674145e-06
-3.438972012036093e-06   2.46372151586468e-07   1.9046845758674145e-06
-2.2049785936994576e-06   1.097560306703073e-07   3.879370600545404e-06
-2.2049785936994576e-06   1.097560306703073e-07   3.879370600545404e-06
-2.2049785936994576e-06   1.097560306703073e-07   3.879370600545404e-06
-2.2049785936994576e-06   1.097560306703073e-07   3.879370600545404e-06
-2.1978776861612144e-06   9.149520375286444e-08   2.0919767232936045e-06
-2.1978776861612144e-06   9.149520375286444e-08   2.0919767232936045e-06
-2.1978776861612144e-06   9.149520375286444e-08   2.0919767232936045e-06
-2.1978776861612144e-06   9.149520375286444e-08   2.0919767232936045e-06
-3.5022839333583877e-06   -1.826631361686096e-07   4.430482139241769e-06
-3.5022839333583877e-06   -1.826631361686096e-07   4.430482139241769e-06
-3.5022839333583877e-06   -1.826631361686096e-07   4.430482139241769e-06
-3.5022839333583877e-06   -1.826631361686096e-07   4.430482139241769e-06
-2.7253039344338923e-06   6.634125978938427e-08   2.9861128367928115e-06
-2.7253039344338923e-06   6.634125978938427e-08   2.9861128367928115e-06
-2.7253039344338923e-06   6.634125978938427e-08   2.9861128367928115e-06
-2.7253039344338923e-06   6.634125978938427e-08   2.9861128367928115e-06
-2.1533021313269187e-06   1.0704853644141754e-07   3.281495488887697e-06
-2.1533021313269187e-06   1.0704853644141754e-07   3.281495488887697e-06
-2.1533021313269187e-06   1.0704853644141754e-07   3.281495488887697e-06
-2.1533021313269187e-06   1.0704853644141754e-07   3.281495488887697e-06
-1.3666941174352993e-06   -7.732582474599776e-07   4.064324775032894e-06
-1.3666941174352993e-06   -7.732582474599776e-07   4.064324775032894e-06
-1.3666941174352993e-06   -7.732582474599776e-07   4.064324775032894e-06
-1.3666941174352993e-06   -7.732582474599776e-07   4.064324775032894e-06
-1.3801405406368102e-06   4.567781970826984e-08   2.7518158545808755e-06
-1.3801405406368102e-06   4.567781970826984e-08   2.7518158545808755e-06
-1.3801405406368102e-06   4.567781970826984e-08   2.7518158545808755e-06
-1.3801405406368102e-06   4.567781970826984e-08   2.7518158545808755e-06
-2.1588456592161214e-06   -6.481138729807245e-07   4.465932734493136e-06
-2.1588456592161214e-06   -6.481138729807245e-07   4.465932734493136e-06
-2.1588456592161214e-06   -6.481138729807245e-07   4.465932734493136e-06
-2.1588456592161214e-06   -6.481138729807245e-07   4.465932734493136e-06
-1.7593786035381836e-06   -3.8543299619106056e-07   3.6425457822894325e-06
-1.7593786035381836e-06   -3.8543299619106056e-07   3.6425457822894325e-06
-1.7593786035381836e-06   -3.8543299619106056e-07   3.6425457822894325e-06
-1.7593786035381836e-06   -3.8543299619106056e-07   3.6425457822894325e-06
-2.158845659216123e-06   4.567781970826984e-08   3.1680908701942233e-06
-2.158845659216123e-06   4.567781970826984e-08   3.1680908701942233e-06
-2.158845659216123e-06   4.567781970826984e-08   3.1680908701942233e-06
-2.158845659216123e-06   4.567781970826984e-08   3.1680908701942233e-06
-1.3801405406368102e-06   -6.481138729807245e-07   4.049657718879731e-06
-1.3801405406368102e-06   -6.481138729807245e-07   4.049657718879731e-06
-1.3801405406368102e-06   -6.481138729807245e-07   4.049657718879731e-06
-1.3801405406368102e-06   -6.481138729807245e-07   4.049657718879731e-06
-1.4007746259543605e-06   -2.0358621126613193e-08   2.8225440310160723e-06
-1.4007746259543605e-06   -2.0358621126613193e-08   2.8225440310160723e-06
-1.4007746259543605e-06   -2.0358621126613193e-08   2.8225440310160723e-06
-1.4007746259543605e-06   -2.0358621126613193e-08   2.8225440310160723e-06
-2.2049785936994576e-06   -6.577978906545723e-07   4.545347538974675e-06
-2.2049785936994576e-06   -6.577978906545723e-07   4.545347538974675e-06
-2.2049785936994576e-06   -6.577978906545723e-07   4.545347538974675e-06
-2.2049785936994576e-06   -6.577978906545723e-07   4.545347538974675e-06
-1.757421868793495e-06   -3.3748574944586165e-07   3.6072323794061783e-06
-1.757421868793495e-06   -3.3748574944586165e-07   3.6072323794061783e-06
-1.757421868793495e-06   -3.3748574944586165e-07   3.6072323794061783e-06
-1.757421868793495e-06   -3.3748574944586165e-07   3.6072323794061783e-06
-2.204978593699461e-06   -2.0358621126613193e-08   3.2050075927328667e-06
-2.204978593699461e-06   -2.0358621126613193e-08   3.2050075927328667e-06
-2.204978593699461e-06   -2.0358621126613193e-08   3.2050075927328667e-06
-2.204978593699461e-06   -2.0358621126613193e-08   3.2050075927328667e-06
-1.400774625954357e-06   -6.577978906545723e-07   4.1628839772579006e-06
-1.400774625954357e-06   -6.577978906545723e-07   4.1628839772579006e-06
-1.400774625954357e-06   -6.577978906545723e-07   4.1628839772579006e-06
-1.400774625954357e-06   -6.577978906545723e-07   4.1628839772579006e-06
-1.4053522612613025e-06   -1.0398135524295404e-07   2.9144441746042622e-06
-1.4053522612613025e-06   -1.0398135524295404e-07   2.9144441746042622e-06
-1.4053522612613025e-06   -1.0398135524295404e-07   2.9144441746042622e-06
-1.4053522612613025e-06   -1.0398135524295404e-07   2.9144441746042622e-06
-2.1978776861612085e-06   -6.497492880795533e-07   4.562780642472703e-06
-2.1978776861612085e-06   -6.497492880795533e-07   4.562780642472703e-06
-2.1978776861612085e-06   -6.497492880795533e-07   4.562780642472703e-06
-2.1978776861612085e-06   -6.497492880795533e-07   4.562780642472703e-06
-1.7817538563363796e-06   -3.6933831202528485e-07   3.700994340465448e-06
-1.7817538563363796e-06   -3.6933831202528485e-07   3.700994340465448e-06
-1.7817538563363796e-06   -3.6933831202528485e-07   3.700994340465448e-06
-1.7817538563363796e-06   -3.6933831202528485e-07   3.700994340465448e-06
-1.3666941174352993e-06   3.2477321528374395e-08   3.069737279671343e-06
-1.3666941174352993e-06   3.2477321528374395e-08   3.069737279671343e-06
-1.3666941174352993e-06   3.2477321528374395e-08   3.069737279671343e-06
-1.3666941174352993e-06   3.2477321528374395e-08   3.069737279671343e-06
-1.0596825444734325e-06   -6.057075654229585e-07   3.198512302436977e-06
-1.0596825444734325e-06   -6.057075654229585e-07   3.198512302436977e-06
-1.0596825444734325e-06   -6.057075654229585e-07   3.198512302436977e-06
-1.0596825444734325e-06   -6.057075654229585e-07   3.198512302436977e-06
-1.0623963441182895e-06   -1.618825421342764e-08   2.7063533982801195e-06
-1.0623963441182895e-06   -1.618825421342764e-08   2.7063533982801195e-06
-1.0623963441182895e-06   -1.618825421342764e-08   2.7063533982801195e-06
-1.0623963441182895e-06   -1.618825421342764e-08   2.7063533982801195e-06
-1.3801405406368102e-06   -5.949448932700876e-07   3.5831810425783248e-06
-1.3801405406368102e-06   -5.949448932700876e-07   3.5831810425783248e-06
-1.3801405406368102e-06   -5.949448932700876e-07   3.5831810425783248e-06
-1.3801405406368102e-06   -5.949448932700876e-07   3.5831810425783248e-06
-1.2115927985304805e-06   -3.028765681860633e-07   3.127027144017365e-06
-1.2115927985304805e-06   -3.028765681860633e-07   3.127027144017365e-06
-1.2115927985304805e-06   -3.028765681860633e-07   3.127027144017365e-06
-1.2115927985304805e-06   -3.028765681860633e-07   3.127027144017365e-06
-1.3801405406368102e-06   -1.618825421342764e-08   3.0536073817140897e-06
-1.3801405406368102e-06   -1.618825421342764e-08   3.0536073817140897e-06
-1.3801405406368102e-06   -1.618825421342764e-08   3.0536073817140897e-06
-1.3801405406368102e-06   -1.618825421342764e-08   3.0536073817140897e-06
-1.0623963441182895e-06   -5.949448932700876e-07   3.2359270591443317e-06
-1.0623963441182895e-06   -5.949448932700876e-07   3.2359270591443317e-06
-1.0623963441182895e-06   -5.949448932700876e-07   3.2359270591443317e-06
-1.0623963441182895e-06   -5.949448932700876e-07   3.2359270591443317e-06
-1.0688295287191227e-06   -7.422398807485934e-08   2.7658702683624515e-06
-1.0688295287191227e-06   -7.422398807485934e-08   2.7658702683624515e-06
-1.0688295287191227e-06   -7.422398807485934e-08   2.7658702683624515e-06
-1.0688295287191227e-06   -7.422398807485934e-08   2.7658702683624515e-06
-1.400774625954357e-06   -6.102165453431626e-07   3.640707631448825e-06
-1.400774625954357e-06   -6.102165453431626e-07   3.640707631448825e-06
-1.400774625954357e-06   -6.102165453431626e-07   3.640707631448825e-06
-1.400774625954357e-06   -6.102165453431626e-07   3.640707631448825e-06
-1.2131576875139966e-06   -3.164519021704879e-07   3.1517539481445714e-06
-1.2131576875139966e-06   -3.164519021704879e-07   3.1517539481445714e-06
-1.2131576875139966e-06   -3.164519021704879e-07   3.1517539481445714e-06
-1.2131576875139966e-06   -3.164519021704879e-07   3.1517539481445714e-06
-1.400774625954357e-06   -7.422398807485934e-08   3.0874658027234457e-06
-1.400774625954357e-06   -7.422398807485934e-08   3.0874658027234457e-06
-1.400774625954357e-06   -7.422398807485934e-08   3.0874658027234457e-06
-1.400774625954357e-06   -7.422398807485934e-08   3.0874658027234457e-06
-1.0688295287191227e-06   -6.102165453431626e-07   3.3191120970878486e-06
-1.0688295287191227e-06   -6.102165453431626e-07   3.3191120970878486e-06
-1.0688295287191227e-06   -6.102165453431626e-07   3.3191120970878486e-06
-1.0688295287191227e-06   -6.102165453431626e-07   3.3191120970878486e-06
-1.0649747994527685e-06   -1.3050949503023155e-07   2.8599155248425635e-06
-1.0649747994527685e-06   -1.3050949503023155e-07   2.8599155248425635e-06
-1.0649747994527685e-06   -1.3050949503023155e-07   2.8599155248425635e-06
-1.0649747994527685e-06   -1.3050949503023155e-07   2.8599155248425635e-06
-1.405352261261306e-06   -6.271191520242246e-07   3.7251770887198436e-06
-1.405352261261306e-06   -6.271191520242246e-07   3.7251770887198436e-06
-1.405352261261306e-06   -6.271191520242246e-07   3.7251770887198436e-06
-1.405352261261306e-06   -6.271191520242246e-07   3.7251770887198436e-06
-1.2159085297413558e-06   -3.3912025912606706e-07   3.2366382004477206e-06
-1.2159085297413558e-06   -3.3912025912606706e-07   3.2366382004477206e-06
-1.2159085297413558e-06   -3.3912025912606706e-07   3.2366382004477206e-06
-1.2159085297413558e-06   -3.3912025912606706e-07   3.2366382004477206e-06
-1.0596825444734325e-06   1.5839913728991797e-07   2.149949057710088e-06
-1.0596825444734325e-06   1.5839913728991797e-07   2.149949057710088e-06
-1.0596825444734325e-06   1.5839913728991797e-07   2.149949057710088e-06
-1.0596825444734325e-06   1.5839913728991797e-07   2.149949057710088e-06
-9.472559243104469e-07   -2.540128495251426e-07   2.089879565892708e-06
-9.472559243104469e-07   -2.540128495251426e-07   2.089879565892708e-06
-9.472559243104469e-07   -2.540128495251426e-07   2.089879565892708e-06
-9.472559243104469e-07   -2.540128495251426e-07   2.089879565892708e-06
-9.40933262614942e-07   9.319937414841697e-08   1.943145884985344e-06
-9.40933262614942e-07   9.319937414841697e-08   1.943145884985344e-06
-9.40933262614942e-07   9.319937414841697e-08   1.943145884985344e-06
-9.40933262614942e-07   9.319937414841697e-08   1.943145884985344e-06
-1.0623963441182895e-06   -2.9222552929232727e-07   2.376839296222025e-06
-1.0623963441182895e-06   -2.9222552929232727e-07   2.376839296222025e-06
-1.0623963441182895e-06   -2.9222552929232727e-07   2.376839296222025e-06
-1.0623963441182895e-06   -2.9222552929232727e-07   2.376839296222025e-06
-9.9587805572985e-07   -5.884185436907488e-08   2.1259452772873475e-06
-9.9587805572985e-07   -5.884185436907488e-08   2.1259452772873475e-06
-9.9587805572985e-07   -5.884185436907488e-08   2.1259452772873475e-06
-9.9587805572985e-07   -5.884185436907488e-08   2.1259452772873475e-06
-1.0623963441182895e-06   9.319937414840342e-08   2.174400827049757e-06
-1.0623963441182895e-06   9.319937414840342e-08   2.174400827049757e-06
-1.0623963441182895e-06   9.319937414840342e-08   2.174400827049757e-06
-1.0623963441182895e-06   9.319937414840342e-08   2.174400827049757e-06
-9.40933262614942e-07   -2.9222552929232727e-07   2.145584354157589e-06
-9.40933262614942e-07   -2.9222552929232727e-07   2.145584354157589e-06
-9.40933262614942e-07   -2.9222552929232727e-07   2.145584354157589e-06
-9.40933262614942e-07   -2.9222552929232727e-07   2.145584354157589e-06
-9.462223443876464e-07   3.6763126291187564e-08   2.0311317155416664e-06
-9.462223443876464e-07   3.6763126291187564e-08   2.0311317155416664e-06
-9.462223443876464e-07   3.6763126291187564e-08   2.0311317155416664e-06
-9.462223443876464e-07   3.6763126291187564e-08   2.0311317155416664e-06
-1.0688295287191227e-06   -3.225160986218209e-07   2.4510445577085978e-06
-1.0688295287191227e-06   -3.225160986218209e-07   2.4510445577085978e-06
-1.0688295287191227e-06   -3.225160986218209e-07   2.4510445577085978e-06
-1.0688295287191227e-06   -3.225160986218209e-07   2.4510445577085978e-06
-9.891475310817795e-07   -9.652582373472317e-08   2.1826470633807246e-06
-9.891475310817795e-07   -9.652582373472317e-08   2.1826470633807246e-06
-9.891475310817795e-07   -9.652582373472317e-08   2.1826470633807246e-06
-9.891475310817795e-07   -9.652582373472317e-08   2.1826470633807246e-06
-1.068829528719116e-06   3.676312629117401e-08   2.246699250489493e-06
-1.068829528719116e-06   3.676312629117401e-08   2.246699250489493e-06
-1.068829528719116e-06   3.676312629117401e-08   2.246699250489493e-06
-1.068829528719116e-06   3.676312629117401e-08   2.246699250489493e-06
-9.462223443876464e-07   -3.225160986218209e-07   2.2354770227607947e-06
-9.462223443876464e-07   -3.225160986218209e-07   2.2354770227607947e-06
-9.462223443876464e-07   -3.225160986218209e-07   2.2354770227607947e-06
-9.462223443876464e-07   -3.225160986218209e-07   2.2354770227607947e-06
-9.460574559221822e-07   -2.0525934501749608e-08   2.141583044898486e-06
-9.460574559221822e-07   -2.0525934501749608e-08   2.141583044898486e-06
-9.460574559221822e-07   -2.0525934501749608e-08   2.141583044898486e-06
-9.460574559221822e-07   -2.0525934501749608e-08   2.141583044898486e-06
-1.0649747994527685e-06   -3.609576780418659e-07   2.5440376635735146e-06
-1.0649747994527685e-06   -3.609576780418659e-07   2.5440376635735146e-06
-1.0649747994527685e-06   -3.609576780418659e-07   2.5440376635735146e-06
-1.0649747994527685e-06   -3.609576780418659e-07   2.5440376635735146e-06
-9.889480341425543e-07   -1.3085451481471255e-07   2.2792644901202195e-06
-9.889480341425543e-07   -1.3085451481471255e-07   2.2792644901202195e-06
-9.889480341425543e-07   -1.3085451481471255e-07   2.2792644901202195e-06
-9.889480341425543e-07   -1.3085451481471255e-07   2.2792644901202195e-06
-9.472559243104469e-07   2.7479325116309755e-07   5.888930524316355e-07
-9.472559243104469e-07   2.7479325116309755e-07   5.888930524316355e-07
-9.472559243104469e-07   2.7479325116309755e-07   5.888930524316355e-07
-9.472559243104469e-07   2.7479325116309755e-07   5.888930524316355e-07
-6.464971455903402e-07   -1.9559864899525148e-08   9.135458139942446e-07
-6.464971455903402e-07   -1.9559864899525148e-08   9.135458139942446e-07
-6.464971455903402e-07   -1.9559864899525148e-08   9.135458139942446e-07
-6.464971455903402e-07   -1.9559864899525148e-08   9.135458139942446e-07
-6.942281648146417e-07   2.2691369805256923e-07   5.985655747197717e-07
-6.942281648146417e-07   2.2691369805256923e-07   5.985655747197717e-07
-6.942281648146417e-07   2.2691369805256923e-07   5.985655747197717e-07
-6.942281648146417e-07   2.2691369805256923e-07   5.985655747197717e-07
-9.40933262614942e-07   -3.09829205929384e-08   1.1644787089075745e-06
-9.40933262614942e-07   -3.09829205929384e-08   1.1644787089075745e-06
-9.40933262614942e-07   -3.09829205929384e-08   1.1644787089075745e-06
-9.40933262614942e-07   -3.09829205929384e-08   1.1644787089075745e-06
-7.791822545148456e-07   1.4347004860437428e-07   7.902219138890566e-07
-7.791822545148456e-07   1.4347004860437428e-07   7.902219138890566e-07
-7.791822545148456e-07   1.4347004860437428e-07   7.902219138890566e-07
-7.791822545148456e-07   1.4347004860437428e-07   7.902219138890566e-07
-9.40933262614942e-07   2.2691369805256923e-07   7.533035459070356e-07
-9.40933262614942e-07   2.2691369805256923e-07   7.533035459070356e-07
-9.40933262614942e-07   2.2691369805256923e-07   7.533035459070356e-07
-9.40933262614942e-07   2.2691369805256923e-07   7.533035459070356e-07
-6.942281648146282e-07   -3.09829205929384e-08   1.00974073772027e-06
-6.942281648146282e-07   -3.09829205929384e-08   1.00974073772027e-06
-6.942281648146282e-07   -3.09829205929384e-08   1.00974073772027e-06
-6.942281648146282e-07   -3.09829205929384e-08   1.00974073772027e-06
-7.352168267524609e-07   1.960437580181062e-07   7.478325440980586e-07
-7.352168267524609e-07   1.960437580181062e-07   7.478325440980586e-07
-7.352168267524609e-07   1.960437580181062e-07   7.478325440980586e-07
-7.352168267524609e-07   1.960437580181062e-07   7.478325440980586e-07
-9.462223443876464e-07   -4.5213830502326526e-08   1.2442629599356293e-06
-9.462223443876464e-07   -4.5213830502326526e-08   1.2442629599356293e-06
-9.462223443876464e-07   -4.5213830502326526e-08   1.2442629599356293e-06
-9.462223443876464e-07   -4.5213830502326526e-08   1.2442629599356293e-06
-8.075239152884121e-07   1.2205531154097142e-07   9.127374262109194e-07
-8.075239152884121e-07   1.2205531154097142e-07   9.127374262109194e-07
-8.075239152884121e-07   1.2205531154097142e-07   9.127374262109194e-07
-8.075239152884121e-07   1.2205531154097142e-07   9.127374262109194e-07
-9.462223443876464e-07   1.960437580181062e-07   8.925870972103562e-07
-9.462223443876464e-07   1.960437580181062e-07   8.925870972103562e-07
-9.462223443876464e-07   1.960437580181062e-07   8.925870972103562e-07
-9.462223443876464e-07   1.960437580181062e-07   8.925870972103562e-07
-7.352168267524609e-07   -4.52138305023333e-08   1.0995084068233656e-06
-7.352168267524609e-07   -4.52138305023333e-08   1.0995084068233656e-06
-7.352168267524609e-07   -4.52138305023333e-08   1.0995084068233656e-06
-7.352168267524609e-07   -4.52138305023333e-08   1.0995084068233656e-06
-8.12041759672033e-07   1.2888554054015736e-07   1.0160728022602108e-06
-8.12041759672033e-07   1.2888554054015736e-07   1.0160728022602108e-06
-8.12041759672033e-07   1.2888554054015736e-07   1.0160728022602108e-06
-8.12041759672033e-07   1.2888554054015736e-07   1.0160728022602108e-06
-9.460574559221822e-07   -6.666572288372948e-08   1.35676305406475e-06
-9.460574559221822e-07   -6.666572288372948e-08   1.35676305406475e-06
-9.460574559221822e-07   -6.666572288372948e-08   1.35676305406475e-06
-9.460574559221822e-07   -6.666572288372948e-08   1.35676305406475e-06
-8.215270537275567e-07   1.0535551931426445e-07   1.0459996384215365e-06
-8.215270537275567e-07   1.0535551931426445e-07   1.0459996384215365e-06
-8.215270537275567e-07   1.0535551931426445e-07   1.0459996384215365e-06
-8.215270537275567e-07   1.0535551931426445e-07   1.0459996384215365e-06
-7.67026312231716e-06   5.509457759124745e-07   3.904831378357956e-06
-7.67026312231716e-06   5.509457759124745e-07   3.904831378357956e-06
-7.67026312231716e-06   5.509457759124745e-07   3.904831378357956e-06
-7.67026312231716e-06   5.509457759124745e-07   3.904831378357956e-06
-1.7320174687931675e-06   -4.505637545754179e-06   1.076795747456463e-05
-1.7320174687931675e-06   -4.505637545754179e-06   1.076795747456463e-05
-1.7320174687931675e-06   -4.505637545754179e-06   1.076795747456463e-05
-1.7320174687931675e-06   -4.505637545754179e-06   1.076795747456463e-05
-2.0816444108326762e-06   1.7619999223299259e-07   2.0813495860414936e-06
-2.0816444108326762e-06   1.7619999223299259e-07   2.0813495860414936e-06
-2.0816444108326762e-06   1.7619999223299259e-07   2.0813495860414936e-06
-2.0816444108326762e-06   1.7619999223299259e-07   2.0813495860414936e-06
-6.99600079583262e-06   -3.616423201390066e-06   1.2547517477215216e-05
-6.99600079583262e-06   -3.616423201390066e-06   1.2547517477215216e-05
-6.99600079583262e-06   -3.616423201390066e-06   1.2547517477215216e-05
-6.99600079583262e-06   -3.616423201390066e-06   1.2547517477215216e-05
-4.645784546020883e-06   -1.7953542221744117e-06   7.537849006666263e-06
-4.645784546020883e-06   -1.7953542221744117e-06   7.537849006666263e-06
-4.645784546020883e-06   -1.7953542221744117e-06   7.537849006666263e-06
-4.645784546020883e-06   -1.7953542221744117e-06   7.537849006666263e-06
-6.996000795832607e-06   1.7619999223299259e-07   4.356923502215325e-06
-6.996000795832607e-06   1.7619999223299259e-07   4.356923502215325e-06
-6.996000795832607e-06   1.7619999223299259e-07   4.356923502215325e-06
-6.996000795832607e-06   1.7619999223299259e-07   4.356923502215325e-06
-2.0816444108326813e-06   -3.616423201390066e-06   1.0271943561041387e-05
-2.0816444108326813e-06   -3.616423201390066e-06   1.0271943561041387e-05
-2.0816444108326813e-06   -3.616423201390066e-06   1.0271943561041387e-05
-2.0816444108326813e-06   -3.616423201390066e-06   1.0271943561041387e-05
-2.1530561791228394e-06   1.0975603067030053e-07   2.291539611228089e-06
-2.1530561791228394e-06   1.0975603067030053e-07   2.291539611228089e-06
-2.1530561791228394e-06   1.0975603067030053e-07   2.291539611228089e-06
-2.1530561791228394e-06   1.0975603067030053e-07   2.291539611228089e-06
-6.606286520005453e-06   -3.2032137861831784e-06   1.1701372069477853e-05
-6.606286520005453e-06   -3.2032137861831784e-06   1.1701372069477853e-05
-6.606286520005453e-06   -3.2032137861831784e-06   1.1701372069477853e-05
-6.606286520005453e-06   -3.2032137861831784e-06   1.1701372069477853e-05
-4.525975467251943e-06   -1.7130447316648837e-06   7.3400855488443656e-06
-4.525975467251943e-06   -1.7130447316648837e-06   7.3400855488443656e-06
-4.525975467251943e-06   -1.7130447316648837e-06   7.3400855488443656e-06
-4.525975467251943e-06   -1.7130447316648837e-06   7.3400855488443656e-06
-6.606286520005442e-06   1.0975603067030053e-07   4.279321501340174e-06
-6.606286520005442e-06   1.0975603067030053e-07   4.279321501340174e-06
-6.606286520005442e-06   1.0975603067030053e-07   4.279321501340174e-06
-6.606286520005442e-06   1.0975603067030053e-07   4.279321501340174e-06
-2.153056179122843e-06   -3.2032137861831784e-06   9.713590179365763e-06
-2.153056179122843e-06   -3.2032137861831784e-06   9.713590179365763e-06
-2.153056179122843e-06   -3.2032137861831784e-06   9.713590179365763e-06
-2.153056179122843e-06   -3.2032137861831784e-06   9.713590179365763e-06
-2.408105193065221e-06   -1.826631361686096e-07   2.8467898550672965e-06
-2.408105193065221e-06   -1.826631361686096e-07   2.8467898550672965e-06
-2.408105193065221e-06   -1.826631361686096e-07   2.8467898550672965e-06
-2.408105193065221e-06   -1.826631361686096e-07   2.8467898550672965e-06
-6.098588996663076e-06   -2.6446857183586705e-06   1.047480974371107e-05
-6.098588996663076e-06   -2.6446857183586705e-06   1.047480974371107e-05
-6.098588996663076e-06   -2.6446857183586705e-06   1.047480974371107e-05
-6.098588996663076e-06   -2.6446857183586705e-06   1.047480974371107e-05
-4.378868527440294e-06   -1.5866947276849918e-06   6.973814367268901e-06
-4.378868527440294e-06   -1.5866947276849918e-06   6.973814367268901e-06
-4.378868527440294e-06   -1.5866947276849918e-06   6.973814367268901e-06
-4.378868527440294e-06   -1.5866947276849918e-06   6.973814367268901e-06
-1.732017468793165e-06   -7.732582474599776e-07   2.3375025158460614e-06
-1.732017468793165e-06   -7.732582474599776e-07   2.3375025158460614e-06
-1.732017468793165e-06   -7.732582474599776e-07   2.3375025158460614e-06
-1.732017468793165e-06   -7.732582474599776e-07   2.3375025158460614e-06
-5.825103523577886e-07   -1.606003447467202e-06   3.753700589900688e-06
-5.825103523577886e-07   -1.606003447467202e-06   3.753700589900688e-06
-5.825103523577886e-07   -1.606003447467202e-06   3.753700589900688e-06
-5.825103523577886e-07   -1.606003447467202e-06   3.753700589900688e-06
-6.793537423215523e-07   -6.481138729807245e-07   1.9558124130327387e-06
-6.793537423215523e-07   -6.481138729807245e-07   1.9558124130327387e-06
-6.793537423215523e-07   -6.481138729807245e-07   1.9558124130327387e-06
-6.793537423215523e-07   -6.481138729807245e-07   1.9558124130327387e-06
-2.0816444108326813e-06   -2.0418336245504915e-06   5.129195378159795e-06
-2.0816444108326813e-06   -2.0418336245504915e-06   5.129195378159795e-06
-2.0816444108326813e-06   -2.0418336245504915e-06   5.129195378159795e-06
-2.0816444108326813e-06   -2.0418336245504915e-06   5.129195378159795e-06
-1.2022943207698293e-06   -1.0381813814190524e-06   3.061420548842834e-06
-1.2022943207698293e-06   -1.0381813814190524e-06   3.061420548842834e-06
-1.2022943207698293e-06   -1.0381813814190524e-06   3.061420548842834e-06
-1.2022943207698293e-06   -1.0381813814190524e-06   3.061420548842834e-06
-2.0816444108326745e-06   -6.481138729807245e-07   2.7920442639745756e-06
-2.0816444108326745e-06   -6.481138729807245e-07   2.7920442639745756e-06
-2.0816444108326745e-06   -6.481138729807245e-07   2.7920442639745756e-06
-2.0816444108326745e-06   -6.481138729807245e-07   2.7920442639745756e-06
-6.793537423215523e-07   -2.0418336245504915e-06   4.292963527217936e-06
-6.793537423215523e-07   -2.0418336245504915e-06   4.292963527217936e-06
-6.793537423215523e-07   -2.0418336245504915e-06   4.292963527217936e-06
-6.793537423215523e-07   -2.0418336245504915e-06   4.292963527217936e-06
-7.645229189743551e-07   -6.577978906545655e-07   2.2026654706237326e-06
-7.645229189743551e-07   -6.577978906545655e-07   2.2026654706237326e-06
-7.645229189743551e-07   -6.577978906545655e-07   2.2026654706237326e-06
-7.645229189743551e-07   -6.577978906545655e-07   2.2026654706237326e-06
-2.153056179122843e-06   -1.915883022377295e-06   5.271738649904829e-06
-2.153056179122843e-06   -1.915883022377295e-06   5.271738649904829e-06
-2.153056179122843e-06   -1.915883022377295e-06   5.271738649904829e-06
-2.153056179122843e-06   -1.915883022377295e-06   5.271738649904829e-06
-1.387945966528873e-06   -1.2417095939840124e-06   3.5920509052122673e-06
-1.387945966528873e-06   -1.2417095939840124e-06   3.5920509052122673e-06
-1.387945966528873e-06   -1.2417095939840124e-06   3.5920509052122673e-06
-1.387945966528873e-06   -1.2417095939840124e-06   3.5920509052122673e-06
-2.1530561791228394e-06   -6.577978906545655e-07   2.957516549657356e-06
-2.1530561791228394e-06   -6.577978906545655e-07   2.957516549657356e-06
-2.1530561791228394e-06   -6.577978906545655e-07   2.957516549657356e-06
-2.1530561791228394e-06   -6.577978906545655e-07   2.957516549657356e-06
-7.645229189743551e-07   -1.915883022377295e-06   4.516887570871192e-06
-7.645229189743551e-07   -1.915883022377295e-06   4.516887570871192e-06
-7.645229189743551e-07   -1.915883022377295e-06   4.516887570871192e-06
-7.645229189743551e-07   -1.915883022377295e-06   4.516887570871192e-06
-9.078544617467156e-07   -6.497492880795533e-07   2.434654917280967e-06
-9.078544617467156e-07   -6.497492880795533e-07   2.434654917280967e-06
-9.078544617467156e-07   -6.497492880795533e-07   2.434654917280967e-06
-9.078544617467156e-07   -6.497492880795533e-07   2.434654917280967e-06
-2.4081051930652194e-06   -1.831296696363159e-06   5.64400124778196e-06
-2.4081051930652194e-06   -1.831296696363159e-06   5.64400124778196e-06
-2.4081051930652194e-06   -1.831296696363159e-06   5.64400124778196e-06
-2.4081051930652194e-06   -1.831296696363159e-06   5.64400124778196e-06
-1.5128830207133713e-06   -1.138303560017958e-06   3.7361684120550954e-06
-1.5128830207133713e-06   -1.138303560017958e-06   3.7361684120550954e-06
-1.5128830207133713e-06   -1.138303560017958e-06   3.7361684120550954e-06
-1.5128830207133713e-06   -1.138303560017958e-06   3.7361684120550954e-06
-5.825103523577886e-07   -6.057075654229585e-07   1.3549538554166163e-06
-5.825103523577886e-07   -6.057075654229585e-07   1.3549538554166163e-06
-5.825103523577886e-07   -6.057075654229585e-07   1.3549538554166163e-06
-5.825103523577886e-07   -6.057075654229585e-07   1.3549538554166163e-06
-3.378802543866819e-07   -5.670278578501724e-07   1.7858785099121393e-06
-3.378802543866819e-07   -5.670278578501724e-07   1.7858785099121393e-06
-3.378802543866819e-07   -5.670278578501724e-07   1.7858785099121393e-06
-3.378802543866819e-07   -5.670278578501724e-07   1.7858785099121393e-06
-3.3963990923189044e-07   -5.949448932700876e-07   1.4242913254487147e-06
-3.3963990923189044e-07   -5.949448932700876e-07   1.4242913254487147e-06
-3.3963990923189044e-07   -5.949448932700876e-07   1.4242913254487147e-06
-3.3963990923189044e-07   -5.949448932700876e-07   1.4242913254487147e-06
-6.793537423215523e-07   -7.033522454077856e-07   2.055525458547411e-06
-6.793537423215523e-07   -7.033522454077856e-07   2.055525458547411e-06
-6.793537423215523e-07   -7.033522454077856e-07   2.055525458547411e-06
-6.793537423215523e-07   -7.033522454077856e-07   2.055525458547411e-06
-4.527563867702021e-07   -5.656526266104637e-07   1.5952434280167484e-06
-4.527563867702021e-07   -5.656526266104637e-07   1.5952434280167484e-06
-4.527563867702021e-07   -5.656526266104637e-07   1.5952434280167484e-06
-4.527563867702021e-07   -5.656526266104637e-07   1.5952434280167484e-06
-6.793537423215489e-07   -5.949448932700876e-07   1.4893357367313294e-06
-6.793537423215489e-07   -5.949448932700876e-07   1.4893357367313294e-06
-6.793537423215489e-07   -5.949448932700876e-07   1.4893357367313294e-06
-6.793537423215489e-07   -5.949448932700876e-07   1.4893357367313294e-06
-3.3963990923189044e-07   -7.033522454077847e-07   1.990481047264793e-06
-3.3963990923189044e-07   -7.033522454077847e-07   1.990481047264793e-06
-3.3963990923189044e-07   -7.033522454077847e-07   1.990481047264793e-06
-3.3963990923189044e-07   -7.033522454077847e-07   1.990481047264793e-06
-3.5548349252485133e-07   -6.102165453431626e-07   1.5328090655682423e-06
-3.5548349252485133e-07   -6.102165453431626e-07   1.5328090655682423e-06
-3.5548349252485133e-07   -6.102165453431626e-07   1.5328090655682423e-06
-3.5548349252485133e-07   -6.102165453431626e-07   1.5328090655682423e-06
-7.645229189743551e-07   -8.563499774205164e-07   2.3622215022304593e-06
-7.645229189743551e-07   -8.563499774205164e-07   2.3622215022304593e-06
-7.645229189743551e-07   -8.563499774205164e-07   2.3622215022304593e-06
-7.645229189743551e-07   -8.563499774205164e-07   2.3622215022304593e-06
-4.989908199008751e-07   -6.175412717267881e-07   1.7763827803584299e-06
-4.989908199008751e-07   -6.175412717267881e-07   1.7763827803584299e-06
-4.989908199008751e-07   -6.175412717267881e-07   1.7763827803584299e-06
-4.989908199008751e-07   -6.175412717267881e-07   1.7763827803584299e-06
-7.645229189743551e-07   -6.102165453431626e-07   1.6804891248146502e-06
-7.645229189743551e-07   -6.102165453431626e-07   1.6804891248146502e-06
-7.645229189743551e-07   -6.102165453431626e-07   1.6804891248146502e-06
-7.645229189743551e-07   -6.102165453431626e-07   1.6804891248146502e-06
-3.5548349252485133e-07   -8.563499774205164e-07   2.2145414429840582e-06
-3.5548349252485133e-07   -8.563499774205164e-07   2.2145414429840582e-06
-3.5548349252485133e-07   -8.563499774205164e-07   2.2145414429840582e-06
-3.5548349252485133e-07   -8.563499774205164e-07   2.2145414429840582e-06
-3.8845667474827984e-07   -6.271191520242246e-07   1.7011123710186616e-06
-3.8845667474827984e-07   -6.271191520242246e-07   1.7011123710186616e-06
-3.8845667474827984e-07   -6.271191520242246e-07   1.7011123710186616e-06
-3.8845667474827984e-07   -6.271191520242246e-07   1.7011123710186616e-06
-9.078544617467156e-07   -9.994520723765639e-07   2.790175101560759e-06
-9.078544617467156e-07   -9.994520723765639e-07   2.790175101560759e-06
-9.078544617467156e-07   -9.994520723765639e-07   2.790175101560759e-06
-9.078544617467156e-07   -9.994520723765639e-07   2.790175101560759e-06
-5.553074316124658e-07   -6.603217136494004e-07   1.999118502767385e-06
-5.553074316124658e-07   -6.603217136494004e-07   1.999118502767385e-06
-5.553074316124658e-07   -6.603217136494004e-07   1.999118502767385e-06
-5.553074316124658e-07   -6.603217136494004e-07   1.999118502767385e-06
-3.378802543866819e-07   -2.540128495251426e-07   5.169761355050474e-07
-3.378802543866819e-07   -2.540128495251426e-07   5.169761355050474e-07
-3.378802543866819e-07   -2.540128495251426e-07   5.169761355050474e-07
-3.378802543866819e-07   -2.540128495251426e-07   5.169761355050474e-07
-2.7993152970806786e-07   -3.755543252819744e-08   7.434317935009073e-07
-2.7993152970806786e-07   -3.755543252819744e-08   7.434317935009073e-07
-2.7993152970806786e-07   -3.755543252819744e-08   7.434317935009073e-07
-2.7993152970806786e-07   -3.755543252819744e-08   7.434317935009073e-07
-2.39211248071074e-07   -2.9222552929232727e-07   6.823714673446683e-07
-2.39211248071074e-07   -2.9222552929232727e-07   6.823714673446683e-07
-2.39211248071074e-07   -2.9222552929232727e-07   6.823714673446683e-07
-2.39211248071074e-07   -2.9222552929232727e-07   6.823714673446683e-07
-3.3963990923189044e-07   -9.694568792856167e-08   7.325846644610873e-07
-3.3963990923189044e-07   -9.694568792856167e-08   7.325846644610873e-07
-3.3963990923189044e-07   -9.694568792856167e-08   7.325846644610873e-07
-3.3963990923189044e-07   -9.694568792856167e-08   7.325846644610873e-07
-2.7959767274435293e-07   -1.6014551977718578e-07   6.704341694243391e-07
-2.7959767274435293e-07   -1.6014551977718578e-07   6.704341694243391e-07
-2.7959767274435293e-07   -1.6014551977718578e-07   6.704341694243391e-07
-2.7959767274435293e-07   -1.6014551977718578e-07   6.704341694243391e-07
-3.3963990923189044e-07   -2.9222552929232727e-07   5.652035625264057e-07
-3.3963990923189044e-07   -2.9222552929232727e-07   5.652035625264057e-07
-3.3963990923189044e-07   -2.9222552929232727e-07   5.652035625264057e-07
-3.3963990923189044e-07   -2.9222552929232727e-07   5.652035625264057e-07
-2.3921124807106724e-07   -9.694568792856167e-08   8.497525692793533e-07
-2.3921124807106724e-07   -9.694568792856167e-08   8.497525692793533e-07
-2.3921124807106724e-07   -9.694568792856167e-08   8.497525692793533e-07
-2.3921124807106724e-07   -9.694568792856167e-08   8.497525692793533e-07
-2.2232141368351582e-07   -3.225160986218209e-07   7.509722834750767e-07
-2.2232141368351582e-07   -3.225160986218209e-07   7.509722834750767e-07
-2.2232141368351582e-07   -3.225160986218209e-07   7.509722834750767e-07
-2.2232141368351582e-07   -3.225160986218209e-07   7.509722834750767e-07
-3.5548349252485133e-07   -1.7879816981169168e-07   8.86678324257886e-07
-3.5548349252485133e-07   -1.7879816981169168e-07   8.86678324257886e-07
-3.5548349252485133e-07   -1.7879816981169168e-07   8.86678324257886e-07
-3.5548349252485133e-07   -1.7879816981169168e-07   8.86678324257886e-07
-2.652467968724604e-07   -1.9626872590332176e-07   7.467661651588629e-07
-2.652467968724604e-07   -1.9626872590332176e-07   7.467661651588629e-07
-2.652467968724604e-07   -1.9626872590332176e-07   7.467661651588629e-07
-2.652467968724604e-07   -1.9626872590332176e-07   7.467661651588629e-07
-3.5548349252485133e-07   -3.225160986218209e-07   6.647415261889957e-07
-3.5548349252485133e-07   -3.225160986218209e-07   6.647415261889957e-07
-3.5548349252485133e-07   -3.225160986218209e-07   6.647415261889957e-07
-3.5548349252485133e-07   -3.225160986218209e-07   6.647415261889957e-07
-2.2232141368351582e-07   -1.7879816981169168e-07   9.729090815439602e-07
-2.2232141368351582e-07   -1.7879816981169168e-07   9.729090815439602e-07
-2.2232141368351582e-07   -1.7879816981169168e-07   9.729090815439602e-07
-2.2232141368351582e-07   -1.7879816981169168e-07   9.729090815439602e-07
-1.9720127591217493e-07   -3.6095767804187267e-07   8.356034911025242e-07
-1.9720127591217493e-07   -3.6095767804187267e-07   8.356034911025242e-07
-1.9720127591217493e-07   -3.6095767804187267e-07   8.356034911025242e-07
-1.9720127591217493e-07   -3.6095767804187267e-07   8.356034911025242e-07
-3.8845667474827984e-07   -3.3151642631887085e-07   1.136697738128875e-06
-3.8845667474827984e-07   -3.3151642631887085e-07   1.136697738128875e-06
-3.8845667474827984e-07   -3.3151642631887085e-07   1.136697738128875e-06
-3.8845667474827984e-07   -3.3151642631887085e-07   1.136697738128875e-06
-2.5969184644086677e-07   -2.4560341139737493e-07   8.705418819969664e-07
-2.5969184644086677e-07   -2.4560341139737493e-07   8.705418819969664e-07
-2.5969184644086677e-07   -2.4560341139737493e-07   8.705418819969664e-07
-2.5969184644086677e-07   -2.4560341139737493e-07   8.705418819969664e-07
-2.7993152970806786e-07   -1.9559864899525148e-08   -3.528712965576616e-07
-2.7993152970806786e-07   -1.9559864899525148e-08   -3.528712965576616e-07
-2.7993152970806786e-07   -1.9559864899525148e-08   -3.528712965576616e-07
-2.7993152970806786e-07   -1.9559864899525148e-08   -3.528712965576616e-07
-8.274669131388599e-08   2.7747016145713432e-08   4.154229393113691e-09
-8.274669131388599e-08   2.7747016145713432e-08   4.154229393113691e-09
-8.274669131388599e-08   2.7747016145713432e-08   4.154229393113691e-09
-8.274669131388599e-08   2.7747016145713432e-08   4.154229393113691e-09
-4.389022455521805e-08   -3.09829205929384e-08   -2.5426713443248215e-07
-4.389022455521805e-08   -3.09829205929384e-08   -2.5426713443248215e-07
-4.389022455521805e-08   -3.09829205929384e-08   -2.5426713443248215e-07
-4.389022455521805e-08   -3.09829205929384e-08   -2.5426713443248215e-07
-2.3921124807106724e-07   4.3128818528486504e-08   2.6800861287743817e-08
-2.3921124807106724e-07   4.3128818528486504e-08   2.6800861287743817e-08
-2.3921124807106724e-07   4.3128818528486504e-08   2.6800861287743817e-08
-2.3921124807106724e-07   4.3128818528486504e-08   2.6800861287743817e-08
-1.4737792754385755e-07   1.6529437947555137e-08   -1.1029504457577048e-07
-1.4737792754385755e-07   1.6529437947555137e-08   -1.1029504457577048e-07
-1.4737792754385755e-07   1.6529437947555137e-08   -1.1029504457577048e-07
-1.4737792754385755e-07   1.6529437947555137e-08   -1.1029504457577048e-07
-2.3921124807106724e-07   -3.09829205929384e-08   -2.98734177905363e-07
-2.3921124807106724e-07   -3.09829205929384e-08   -2.98734177905363e-07
-2.3921124807106724e-07   -3.09829205929384e-08   -2.98734177905363e-07
-2.3921124807106724e-07   -3.09829205929384e-08   -2.98734177905363e-07
-4.389022455521805e-08   4.3128818528486504e-08   7.126790476059757e-08
-4.389022455521805e-08   4.3128818528486504e-08   7.126790476059757e-08
-4.389022455521805e-08   4.3128818528486504e-08   7.126790476059757e-08
-4.389022455521805e-08   4.3128818528486504e-08   7.126790476059757e-08
-2.92474555376376e-08   -4.52138305023333e-08   -1.9904253464154238e-07
-2.92474555376376e-08   -4.52138305023333e-08   -1.9904253464154238e-07
-2.92474555376376e-08   -4.52138305023333e-08   -1.9904253464154238e-07
-2.92474555376376e-08   -4.52138305023333e-08   -1.9904253464154238e-07
-2.2232141368351582e-07   2.34515773452615e-08   8.154815089300095e-08
-2.2232141368351582e-07   2.34515773452615e-08   8.154815089300095e-08
-2.2232141368351582e-07   2.34515773452615e-08   8.154815089300095e-08
-2.2232141368351582e-07   2.34515773452615e-08   8.154815089300095e-08
-1.2152801249162723e-07   9.696495748028115e-09   -7.818780213505766e-08
-1.2152801249162723e-07   9.696495748028115e-09   -7.818780213505766e-08
-1.2152801249162723e-07   9.696495748028115e-09   -7.818780213505766e-08
-1.2152801249162723e-07   9.696495748028115e-09   -7.818780213505766e-08
-2.2232141368351582e-07   -4.52138305023333e-08   -2.4024177935009214e-07
-2.2232141368351582e-07   -4.52138305023333e-08   -2.4024177935009214e-07
-2.2232141368351582e-07   -4.52138305023333e-08   -2.4024177935009214e-07
-2.2232141368351582e-07   -4.52138305023333e-08   -2.4024177935009214e-07
-2.92474555376376e-08   2.34515773452615e-08   1.2274739560156765e-07
-2.92474555376376e-08   2.34515773452615e-08   1.2274739560156765e-07
-2.92474555376376e-08   2.34515773452615e-08   1.2274739560156765e-07
-2.92474555376376e-08   2.34515773452615e-08   1.2274739560156765e-07
-1.4791397508239542e-08   -6.66657228837227e-08   -1.1081492708419878e-07
-1.4791397508239542e-08   -6.66657228837227e-08   -1.1081492708419878e-07
-1.4791397508239542e-08   -6.66657228837227e-08   -1.1081492708419878e-07
-1.4791397508239542e-08   -6.66657228837227e-08   -1.1081492708419878e-07
-1.9720127591216815e-07   -5.670480887134311e-09   1.566043917243714e-07
-1.9720127591216815e-07   -5.670480887134311e-09   1.566043917243714e-07
-1.9720127591216815e-07   -5.670480887134311e-09   1.566043917243714e-07
-1.9720127591216815e-07   -5.670480887134311e-09   1.566043917243714e-07
-9.944631798610945e-08   -1.1676431653295316e-09   -9.02224078552018e-09
-9.944631798610945e-08   -1.1676431653295316e-09   -9.02224078552018e-09
-9.944631798610945e-08   -1.1676431653295316e-09   -9.02224078552018e-09
-9.944631798610945e-08   -1.1676431653295316e-09   -9.02224078552018e-09
              </DataArray>   
             <DataArray type="Float64" NumberOfComponents="3" Name="Stress" format="ascii">   
-0.40914155263522817   -0.10228538815880704   -0.10228538815880704
-0.40914155263522817   -0.10228538815880704   -0.10228538815880704
-0.40914155263522817   -0.10228538815880704   -0.10228538815880704
-0.40914155263522817   -0.10228538815880704   -0.10228538815880704
-0.23636122434021342   -0.008342731897106546   -0.005073982425247377
-0.23636122434021342   -0.008342731897106546   -0.005073982425247377
-0.23636122434021342   -0.008342731897106546   -0.005073982425247377
-0.23636122434021342   -0.008342731897106546   -0.005073982425247377
-0.25402187083565647   -0.06350546770891412   -0.06350546770891412
-0.25402187083565647   -0.06350546770891412   -0.06350546770891412
-0.25402187083565647   -0.06350546770891412   -0.06350546770891412
-0.25402187083565647   -0.06350546770891412   -0.06350546770891412
-0.3940015462396788   -0.03302892073662761   -0.012842596875895465
-0.3940015462396788   -0.03302892073662761   -0.012842596875895465
-0.3940015462396788   -0.03302892073662761   -0.012842596875895465
-0.3940015462396788   -0.03302892073662761   -0.012842596875895465
-0.30880865992255624   -0.05102624813810939   -0.0008993486651839577
-0.30880865992255624   -0.05102624813810939   -0.0008993486651839577
-0.30880865992255624   -0.05102624813810939   -0.0008993486651839577
-0.30880865992255624   -0.05102624813810939   -0.0008993486651839577
-0.42758582524130534   -0.10689645631032633   -0.10689645631032633
-0.42758582524130534   -0.10689645631032633   -0.10689645631032633
-0.42758582524130534   -0.10689645631032633   -0.10689645631032633
-0.42758582524130534   -0.10689645631032633   -0.10689645631032633
-0.2284713218731165   0.0023283378256986117   -0.0015865284308269612
-0.2284713218731165   0.0023283378256986117   -0.0015865284308269612
-0.2284713218731165   0.0023283378256986117   -0.0015865284308269612
-0.2284713218731165   0.0023283378256986117   -0.0015865284308269612
-0.2542134463134458   -0.06355336157836144   -0.06355336157836144
-0.2542134463134458   -0.06355336157836144   -0.06355336157836144
-0.2542134463134458   -0.06355336157836144   -0.06355336157836144
-0.2542134463134458   -0.06355336157836144   -0.06355336157836144
-0.40665378009742537   -0.033180887173713425   -0.018746442713412734
-0.40665378009742537   -0.033180887173713425   -0.018746442713412734
-0.40665378009742537   -0.033180887173713425   -0.018746442713412734
-0.40665378009742537   -0.033180887173713425   -0.018746442713412734
-0.31976344916706795   -0.04785259490027785   -0.01691628993687462
-0.31976344916706795   -0.04785259490027785   -0.01691628993687462
-0.31976344916706795   -0.04785259490027785   -0.01691628993687462
-0.31976344916706795   -0.04785259490027785   -0.01691628993687462
-0.4402981268000009   -0.11007453170000023   -0.11007453170000023
-0.4402981268000009   -0.11007453170000023   -0.11007453170000023
-0.4402981268000009   -0.11007453170000023   -0.11007453170000023
-0.4402981268000009   -0.11007453170000023   -0.11007453170000023
-0.22731783857048254   0.006591543988313301   0.0007797715697780705
-0.22731783857048254   0.006591543988313301   0.0007797715697780705
-0.22731783857048254   0.006591543988313301   0.0007797715697780705
-0.22731783857048254   0.006591543988313301   0.0007797715697780705
-0.2534882173687796   -0.0633720543421949   -0.0633720543421949
-0.2534882173687796   -0.0633720543421949   -0.0633720543421949
-0.2534882173687796   -0.0633720543421949   -0.0633720543421949
-0.2534882173687796   -0.0633720543421949   -0.0633720543421949
-0.4294341556755463   -0.028723932364364727   -0.011525496967876636
-0.4294341556755463   -0.028723932364364727   -0.011525496967876636
-0.4294341556755463   -0.028723932364364727   -0.011525496967876636
-0.4294341556755463   -0.028723932364364727   -0.011525496967876636
-0.32768694153334893   -0.04694769477467898   -0.03046773851231257
-0.32768694153334893   -0.04694769477467898   -0.03046773851231257
-0.32768694153334893   -0.04694769477467898   -0.03046773851231257
-0.32768694153334893   -0.04694769477467898   -0.03046773851231257
-0.25964209052860343   -0.06491052263215086   -0.06491052263215086
-0.25964209052860343   -0.06491052263215086   -0.06491052263215086
-0.25964209052860343   -0.06491052263215086   -0.06491052263215086
-0.25964209052860343   -0.06491052263215086   -0.06491052263215086
-0.10902540777446923   -0.007816466976686597   -0.002488641360709174
-0.10902540777446923   -0.007816466976686597   -0.002488641360709174
-0.10902540777446923   -0.007816466976686597   -0.002488641360709174
-0.10902540777446923   -0.007816466976686597   -0.002488641360709174
-0.11379609149419269   -0.028449022873548172   -0.028449022873548172
-0.11379609149419269   -0.028449022873548172   -0.028449022873548172
-0.11379609149419269   -0.028449022873548172   -0.028449022873548172
-0.11379609149419269   -0.028449022873548172   -0.028449022873548172
-0.23603012044188765   -0.0280941401523528   -0.00895804329663144
-0.23603012044188765   -0.0280941401523528   -0.00895804329663144
-0.23603012044188765   -0.0280941401523528   -0.00895804329663144
-0.23603012044188765   -0.0280941401523528   -0.00895804329663144
-0.1744397555413464   -0.03323798299186356   0.001275114836421759
-0.1744397555413464   -0.03323798299186356   0.001275114836421759
-0.1744397555413464   -0.03323798299186356   0.001275114836421759
-0.1744397555413464   -0.03323798299186356   0.001275114836421759
-0.2540218708356563   -0.06350546770891408   -0.06350546770891408
-0.2540218708356563   -0.06350546770891408   -0.06350546770891408
-0.2540218708356563   -0.06350546770891408   -0.06350546770891408
-0.2540218708356563   -0.06350546770891408   -0.06350546770891408
-0.10238530812761279   0.0003813376558242376   -0.00022546657002110726
-0.10238530812761279   0.0003813376558242376   -0.00022546657002110726
-0.10238530812761279   0.0003813376558242376   -0.00022546657002110726
-0.10238530812761279   0.0003813376558242376   -0.00022546657002110726
-0.11074351436110999   -0.027685878590277498   -0.027685878590277498
-0.11074351436110999   -0.027685878590277498   -0.027685878590277498
-0.11074351436110999   -0.027685878590277498   -0.027685878590277498
-0.11074351436110999   -0.027685878590277498   -0.027685878590277498
-0.2349278160604048   -0.022779230881744675   -0.007899341009773277
-0.2349278160604048   -0.022779230881744675   -0.007899341009773277
-0.2349278160604048   -0.022779230881744675   -0.007899341009773277
-0.2349278160604048   -0.022779230881744675   -0.007899341009773277
-0.1715017422824007   -0.027875973464103056   -0.008910621255176984
-0.1715017422824007   -0.027875973464103056   -0.008910621255176984
-0.1715017422824007   -0.027875973464103056   -0.008910621255176984
-0.1715017422824007   -0.027875973464103056   -0.008910621255176984
-0.2542134463134458   -0.06355336157836144   -0.06355336157836144
-0.2542134463134458   -0.06355336157836144   -0.06355336157836144
-0.2542134463134458   -0.06355336157836144   -0.06355336157836144
-0.2542134463134458   -0.06355336157836144   -0.06355336157836144
-0.09783300225979126   0.0067131339546171445   0.0024676693714223014
-0.09783300225979126   0.0067131339546171445   0.0024676693714223014
-0.09783300225979126   0.0067131339546171445   0.0024676693714223014
-0.09783300225979126   0.0067131339546171445   0.0024676693714223014
-0.10787720792813328   -0.02696930198203332   -0.02696930198203332
-0.10787720792813328   -0.02696930198203332   -0.02696930198203332
-0.10787720792813328   -0.02696930198203332   -0.02696930198203332
-0.10787720792813328   -0.02696930198203332   -0.02696930198203332
-0.23264312835923637   -0.0174292237092013   -0.005089439927475611
-0.23264312835923637   -0.0174292237092013   -0.005089439927475611
-0.23264312835923637   -0.0174292237092013   -0.005089439927475611
-0.23264312835923637   -0.0174292237092013   -0.005089439927475611
-0.17180032247208923   -0.024522737536249846   -0.01977490278064372
-0.17180032247208923   -0.024522737536249846   -0.01977490278064372
-0.17180032247208923   -0.024522737536249846   -0.01977490278064372
-0.17180032247208923   -0.024522737536249846   -0.01977490278064372
-0.11884931789665583   -0.029712329474163957   -0.029712329474163957
-0.11884931789665583   -0.029712329474163957   -0.029712329474163957
-0.11884931789665583   -0.029712329474163957   -0.029712329474163957
-0.11884931789665583   -0.029712329474163957   -0.029712329474163957
0.01248614684295325   0.0005432421070421544   0.00012552096069200647
0.01248614684295325   0.0005432421070421544   0.00012552096069200647
0.01248614684295325   0.0005432421070421544   0.00012552096069200647
0.01248614684295325   0.0005432421070421544   0.00012552096069200647
0.017193627874367564   0.004298406968591891   0.004298406968591891
0.017193627874367564   0.004298406968591891   0.004298406968591891
0.017193627874367564   0.004298406968591891   0.004298406968591891
0.017193627874367564   0.004298406968591891   0.004298406968591891
-0.10695173232667664   -0.01847136419475233   -0.004204885714763754
-0.10695173232667664   -0.01847136419475233   -0.004204885714763754
-0.10695173232667664   -0.01847136419475233   -0.004204885714763754
-0.10695173232667664   -0.01847136419475233   -0.004204885714763754
-0.04660182903575432   -0.011787817418467395   0.00750397478984388
-0.04660182903575432   -0.011787817418467395   0.00750397478984388
-0.04660182903575432   -0.011787817418467395   0.00750397478984388
-0.04660182903575432   -0.011787817418467395   0.00750397478984388
-0.1137960914941929   -0.028449022873548224   -0.028449022873548224
-0.1137960914941929   -0.028449022873548224   -0.028449022873548224
-0.1137960914941929   -0.028449022873548224   -0.028449022873548224
-0.1137960914941929   -0.028449022873548224   -0.028449022873548224
0.017577583585169497   0.007815662190673587   0.0027009303005197066
0.017577583585169497   0.007815662190673587   0.0027009303005197066
0.017577583585169497   0.007815662190673587   0.0027009303005197066
0.017577583585169497   0.007815662190673587   0.0027009303005197066
0.020000748194623   0.00500018704865575   0.00500018704865575
0.020000748194623   0.00500018704865575   0.00500018704865575
0.020000748194623   0.00500018704865575   0.00500018704865575
0.020000748194623   0.00500018704865575   0.00500018704865575
-0.10268484828980695   -0.012263987242013302   -0.002814439582027449
-0.10268484828980695   -0.012263987242013302   -0.002814439582027449
-0.10268484828980695   -0.012263987242013302   -0.002814439582027449
-0.10268484828980695   -0.012263987242013302   -0.002814439582027449
-0.04419604221353026   -0.007212215049596822   -0.002728473594022668
-0.04419604221353026   -0.007212215049596822   -0.002728473594022668
-0.04419604221353026   -0.007212215049596822   -0.002728473594022668
-0.04419604221353026   -0.007212215049596822   -0.002728473594022668
-0.11074351436111017   -0.027685878590277543   -0.027685878590277543
-0.11074351436111017   -0.027685878590277543   -0.027685878590277543
-0.11074351436111017   -0.027685878590277543   -0.027685878590277543
-0.11074351436111017   -0.027685878590277543   -0.027685878590277543
0.021730245401025885   0.01409290953201996   0.0045549505973058015
0.021730245401025885   0.01409290953201996   0.0045549505973058015
0.021730245401025885   0.01409290953201996   0.0045549505973058015
0.021730245401025885   0.01409290953201996   0.0045549505973058015
0.02360352773220813   0.0059008819330520325   0.0059008819330520325
0.02360352773220813   0.0059008819330520325   0.0059008819330520325
0.02360352773220813   0.0059008819330520325   0.0059008819330520325
0.02360352773220813   0.0059008819330520325   0.0059008819330520325
-0.09804981103823655   -0.004902750282827728   0.00010113076824426817
-0.09804981103823655   -0.004902750282827728   0.00010113076824426817
-0.09804981103823655   -0.004902750282827728   0.00010113076824426817
-0.09804981103823655   -0.004902750282827728   0.00010113076824426817
-0.04234683386013998   -0.0028004220961878913   -0.01286877728948281
-0.04234683386013998   -0.0028004220961878913   -0.01286877728948281
-0.04234683386013998   -0.0028004220961878913   -0.01286877728948281
-0.04234683386013998   -0.0028004220961878913   -0.01286877728948281
0.013724882477118268   0.003431220619279567   0.003431220619279567
0.013724882477118268   0.003431220619279567   0.003431220619279567
0.013724882477118268   0.003431220619279567   0.003431220619279567
0.013724882477118268   0.003431220619279567   0.003431220619279567
0.14592236126602395   0.01345552703775882   0.004802276180452189
0.14592236126602395   0.01345552703775882   0.004802276180452189
0.14592236126602395   0.01345552703775882   0.004802276180452189
0.14592236126602395   0.01345552703775882   0.004802276180452189
0.15901660495327738   0.039754151238319345   0.039754151238319345
0.15901660495327738   0.039754151238319345   0.039754151238319345
0.15901660495327738   0.039754151238319345   0.039754151238319345
0.15901660495327738   0.039754151238319345   0.039754151238319345
0.01304673340408222   -0.010222206888127036   -0.0019154515261160378
0.01304673340408222   -0.010222206888127036   -0.0019154515261160378
0.01304673340408222   -0.010222206888127036   -0.0019154515261160378
0.01304673340408222   -0.010222206888127036   -0.0019154515261160378
0.08278484037936146   0.010337672197711407   0.014918182980705675
0.08278484037936146   0.010337672197711407   0.014918182980705675
0.08278484037936146   0.010337672197711407   0.014918182980705675
0.08278484037936146   0.010337672197711407   0.014918182980705675
0.017193627874367623   0.004298406968591906   0.004298406968591906
0.017193627874367623   0.004298406968591906   0.004298406968591906
0.017193627874367623   0.004298406968591906   0.004298406968591906
0.017193627874367623   0.004298406968591906   0.004298406968591906
0.14828939311090378   0.0186532200095124   0.007219023255259582
0.14828939311090378   0.0186532200095124   0.007219023255259582
0.14828939311090378   0.0186532200095124   0.007219023255259582
0.14828939311090378   0.0186532200095124   0.007219023255259582
0.1589016182727629   0.03972540456819072   0.03972540456819072
0.1589016182727629   0.03972540456819072   0.03972540456819072
0.1589016182727629   0.03972540456819072   0.03972540456819072
0.1589016182727629   0.03972540456819072   0.03972540456819072
0.01722265781035923   -0.004130742109525381   0.0002406642855178596
0.01722265781035923   -0.004130742109525381   0.0002406642855178596
0.01722265781035923   -0.004130742109525381   0.0002406642855178596
0.01722265781035923   -0.004130742109525381   0.0002406642855178596
0.08275043261143422   0.013782219590256524   0.0037556396358709374
0.08275043261143422   0.013782219590256524   0.0037556396358709374
0.08275043261143422   0.013782219590256524   0.0037556396358709374
0.08275043261143422   0.013782219590256524   0.0037556396358709374
0.020000748194623035   0.005000187048655759   0.005000187048655759
0.020000748194623035   0.005000187048655759   0.005000187048655759
0.020000748194623035   0.005000187048655759   0.005000187048655759
0.020000748194623035   0.005000187048655759   0.005000187048655759
0.14960966097336995   0.024080608494880654   0.00891041414453735
0.14960966097336995   0.024080608494880654   0.00891041414453735
0.14960966097336995   0.024080608494880654   0.00891041414453735
0.14960966097336995   0.024080608494880654   0.00891041414453735
0.16252297141251443   0.04063074285312861   0.04063074285312861
0.16252297141251443   0.04063074285312861   0.04063074285312861
0.16252297141251443   0.04063074285312861   0.04063074285312861
0.16252297141251443   0.04063074285312861   0.04063074285312861
0.022553435164636565   0.0038752453205184185   0.002676055707727629
0.022553435164636565   0.0038752453205184185   0.002676055707727629
0.022553435164636565   0.0038752453205184185   0.002676055707727629
0.022553435164636565   0.0038752453205184185   0.002676055707727629
0.08458507849492526   0.018838215759400936   -0.00659119240083391
0.08458507849492526   0.018838215759400936   -0.00659119240083391
0.08458507849492526   0.018838215759400936   -0.00659119240083391
0.08458507849492526   0.018838215759400936   -0.00659119240083391
0.1580786673582025   0.039519666839550625   0.039519666839550625
0.1580786673582025   0.039519666839550625   0.039519666839550625
0.1580786673582025   0.039519666839550625   0.039519666839550625
0.1580786673582025   0.039519666839550625   0.039519666839550625
0.3312902911642841   0.025433954264904395   0.009405733864452065
0.3312902911642841   0.025433954264904395   0.009405733864452065
0.3312902911642841   0.025433954264904395   0.009405733864452065
0.3312902911642841   0.025433954264904395   0.009405733864452065
0.33928767298267265   0.08482191824566816   0.08482191824566816
0.33928767298267265   0.08482191824566816   0.08482191824566816
0.33928767298267265   0.08482191824566816   0.08482191824566816
0.33928767298267265   0.08482191824566816   0.08482191824566816
0.14148981670060012   -0.007791917205468289   -0.00033372158127802434
0.14148981670060012   -0.007791917205468289   -0.00033372158127802434
0.14148981670060012   -0.007791917205468289   -0.00033372158127802434
0.14148981670060012   -0.007791917205468289   -0.00033372158127802434
0.23580853624110681   0.03357132497727846   0.026397090461286434
0.23580853624110681   0.03357132497727846   0.026397090461286434
0.23580853624110681   0.03357132497727846   0.026397090461286434
0.23580853624110681   0.03357132497727846   0.026397090461286434
0.1590166049532772   0.0397541512383193   0.0397541512383193
0.1590166049532772   0.0397541512383193   0.0397541512383193
0.1590166049532772   0.0397541512383193   0.0397541512383193
0.1590166049532772   0.0397541512383193   0.0397541512383193
0.31468851932041286   0.030203484392297753   0.016444583787739657
0.31468851932041286   0.030203484392297753   0.016444583787739657
0.31468851932041286   0.030203484392297753   0.016444583787739657
0.31468851932041286   0.030203484392297753   0.016444583787739657
0.3298269068855434   0.08245672672138585   0.08245672672138585
0.3298269068855434   0.08245672672138585   0.08245672672138585
0.3298269068855434   0.08245672672138585   0.08245672672138585
0.3298269068855434   0.08245672672138585   0.08245672672138585
0.14251945980367658   -0.0039953131674669755   0.0015353299584182876
0.14251945980367658   -0.0039953131674669755   0.0015353299584182876
0.14251945980367658   -0.0039953131674669755   0.0015353299584182876
0.14251945980367658   -0.0039953131674669755   0.0015353299584182876
0.22944757861193046   0.03471634601630001   0.012623645406006453
0.22944757861193046   0.03471634601630001   0.012623645406006453
0.22944757861193046   0.03471634601630001   0.012623645406006453
0.22944757861193046   0.03471634601630001   0.012623645406006453
0.1589016182727629   0.03972540456819072   0.03972540456819072
0.1589016182727629   0.03972540456819072   0.03972540456819072
0.1589016182727629   0.03972540456819072   0.03972540456819072
0.1589016182727629   0.03972540456819072   0.03972540456819072
0.30517582525218045   0.030467085821451783   0.011190959454508181
0.30517582525218045   0.030467085821451783   0.011190959454508181
0.30517582525218045   0.030467085821451783   0.011190959454508181
0.30517582525218045   0.030467085821451783   0.011190959454508181
0.31534684445392747   0.07883671111348187   0.07883671111348187
0.31534684445392747   0.07883671111348187   0.07883671111348187
0.31534684445392747   0.07883671111348187   0.07883671111348187
0.31534684445392747   0.07883671111348187   0.07883671111348187
0.1483678431906615   0.005533263089979258   0.004952581507015389
0.1483678431906615   0.005533263089979258   0.004952581507015389
0.1483678431906615   0.005533263089979258   0.004952581507015389
0.1483678431906615   0.005533263089979258   0.004952581507015389
0.22028882293690533   0.037850425147859246   -0.0034653515983840283
0.22028882293690533   0.037850425147859246   -0.0034653515983840283
0.22028882293690533   0.037850425147859246   -0.0034653515983840283
0.22028882293690533   0.037850425147859246   -0.0034653515983840283
-0.31847801310222107   -0.02289345248403583   0.004289203402114333
-0.31847801310222107   -0.02289345248403583   0.004289203402114333
-0.31847801310222107   -0.02289345248403583   0.004289203402114333
-0.31847801310222107   -0.02289345248403583   0.004289203402114333
-0.2034092948784146   -0.005359595832505889   -0.0015622313651319636
-0.2034092948784146   -0.005359595832505889   -0.0015622313651319636
-0.2034092948784146   -0.005359595832505889   -0.0015622313651319636
-0.2034092948784146   -0.005359595832505889   -0.0015622313651319636
-0.20422421399498483   0.008436935720973081   0.004709353167414214
-0.20422421399498483   0.008436935720973081   0.004709353167414214
-0.20422421399498483   0.008436935720973081   0.004709353167414214
-0.20422421399498483   0.008436935720973081   0.004709353167414214
-0.3229351964131925   -0.022383583752576035   -0.004135070708090036
-0.3229351964131925   -0.022383583752576035   -0.004135070708090036
-0.3229351964131925   -0.022383583752576035   -0.004135070708090036
-0.3229351964131925   -0.022383583752576035   -0.004135070708090036
-0.2520120025133672   -0.008818013513302038   -0.001360519080088371
-0.2520120025133672   -0.008818013513302038   -0.001360519080088371
-0.2520120025133672   -0.008818013513302038   -0.001360519080088371
-0.2520120025133672   -0.008818013513302038   -0.001360519080088371
-0.3202681842935931   -0.015292039787304323   0.0021084459246354104
-0.3202681842935931   -0.015292039787304323   0.0021084459246354104
-0.3202681842935931   -0.015292039787304323   0.0021084459246354104
-0.3202681842935931   -0.015292039787304323   0.0021084459246354104
-0.20719622977389318   0.00104038809639323   -0.00275417810254399
-0.20719622977389318   0.00104038809639323   -0.00275417810254399
-0.20719622977389318   0.00104038809639323   -0.00275417810254399
-0.20719622977389318   0.00104038809639323   -0.00275417810254399
-0.20412312861442639   0.012122937704919906   0.005242030196755197
-0.20412312861442639   0.012122937704919906   0.005242030196755197
-0.20412312861442639   0.012122937704919906   0.005242030196755197
-0.20412312861442639   0.012122937704919906   0.005242030196755197
-0.3244092259430332   -0.019588199423644984   -0.005424096046890897
-0.3244092259430332   -0.019588199423644984   -0.005424096046890897
-0.3244092259430332   -0.019588199423644984   -0.005424096046890897
-0.3244092259430332   -0.019588199423644984   -0.005424096046890897
-0.2586577096660932   -0.005763456940185473   -0.0026277557827649872
-0.2586577096660932   -0.005763456940185473   -0.0026277557827649872
-0.2586577096660932   -0.005763456940185473   -0.0026277557827649872
-0.2586577096660932   -0.005763456940185473   -0.0026277557827649872
-0.3182282748242062   -0.008806671293056519   0.014699131416652897
-0.3182282748242062   -0.008806671293056519   0.014699131416652897
-0.3182282748242062   -0.008806671293056519   0.014699131416652897
-0.3182282748242062   -0.008806671293056519   0.014699131416652897
-0.20781541609486495   0.0038300732127195414   -0.004926542713235581
-0.20781541609486495   0.0038300732127195414   -0.004926542713235581
-0.20781541609486495   0.0038300732127195414   -0.004926542713235581
-0.20781541609486495   0.0038300732127195414   -0.004926542713235581
-0.20002286815666953   0.021299495733293237   0.009180356001536633
-0.20002286815666953   0.021299495733293237   0.009180356001536633
-0.20002286815666953   0.021299495733293237   0.009180356001536633
-0.20002286815666953   0.021299495733293237   0.009180356001536633
-0.3147205160775382   -0.015505067727684414   -0.008707866136772172
-0.3147205160775382   -0.015505067727684414   -0.008707866136772172
-0.3147205160775382   -0.015505067727684414   -0.008707866136772172
-0.3147205160775382   -0.015505067727684414   -0.008707866136772172
-0.24822745658958287   0.00263707942964469   0.0056179966556019895
-0.24822745658958287   0.00263707942964469   0.0056179966556019895
-0.24822745658958287   0.00263707942964469   0.0056179966556019895
-0.24822745658958287   0.00263707942964469   0.0056179966556019895
-0.20826293502305068   -0.0278368747820206   -0.003353153138797693
-0.20826293502305068   -0.0278368747820206   -0.003353153138797693
-0.20826293502305068   -0.0278368747820206   -0.003353153138797693
-0.20826293502305068   -0.0278368747820206   -0.003353153138797693
-0.0968235443574523   -0.002589679709646401   0.0009232917227310136
-0.0968235443574523   -0.002589679709646401   0.0009232917227310136
-0.0968235443574523   -0.002589679709646401   0.0009232917227310136
-0.0968235443574523   -0.002589679709646401   0.0009232917227310136
-0.09786523345981062   0.0016581075863550832   0.001638308414830935
-0.09786523345981062   0.0016581075863550832   0.001638308414830935
-0.09786523345981062   0.0016581075863550832   0.001638308414830935
-0.09786523345981062   0.0016581075863550832   0.001638308414830935
-0.21217700578574866   -0.02031151307111181   -0.006306156994319911
-0.21217700578574866   -0.02031151307111181   -0.006306156994319911
-0.21217700578574866   -0.02031151307111181   -0.006306156994319911
-0.21217700578574866   -0.02031151307111181   -0.006306156994319911
-0.15381049904384975   -0.01269817958397087   -0.0037049654843507446
-0.15381049904384975   -0.01269817958397087   -0.0037049654843507446
-0.15381049904384975   -0.01269817958397087   -0.0037049654843507446
-0.15381049904384975   -0.01269817958397087   -0.0037049654843507446
-0.2119078683657336   -0.022110398059056034   -0.0031615849063014387
-0.2119078683657336   -0.022110398059056034   -0.0031615849063014387
-0.2119078683657336   -0.022110398059056034   -0.0031615849063014387
-0.2119078683657336   -0.022110398059056034   -0.0031615849063014387
-0.09776367935614073   0.0038276840979838593   -2.3497578449476614e-05
-0.09776367935614073   0.0038276840979838593   -2.3497578449476614e-05
-0.09776367935614073   0.0038276840979838593   -2.3497578449476614e-05
-0.09776367935614073   0.0038276840979838593   -2.3497578449476614e-05
-0.09718725216355327   0.006767005747818206   0.0020912782411896154
-0.09718725216355327   0.006767005747818206   0.0020912782411896154
-0.09718725216355327   0.006767005747818206   0.0020912782411896154
-0.09718725216355327   0.006767005747818206   0.0020912782411896154
-0.21190730386434167   -0.014709531506657414   -0.006846376841243909
-0.21190730386434167   -0.014709531506657414   -0.006846376841243909
-0.21190730386434167   -0.014709531506657414   -0.006846376841243909
-0.21190730386434167   -0.014709531506657414   -0.006846376841243909
-0.15320002793060983   -0.006993783825159531   -0.001774747367308399
-0.15320002793060983   -0.006993783825159531   -0.001774747367308399
-0.15320002793060983   -0.006993783825159531   -0.001774747367308399
-0.15320002793060983   -0.006993783825159531   -0.001774747367308399
-0.21102034937792857   -0.016535080438718375   -0.0005860554771175003
-0.21102034937792857   -0.016535080438718375   -0.0005860554771175003
-0.21102034937792857   -0.016535080438718375   -0.0005860554771175003
-0.21102034937792857   -0.016535080438718375   -0.0005860554771175003
-0.09738158922453684   0.009285172105308763   -0.0013985734212178663
-0.09738158922453684   0.009285172105308763   -0.0013985734212178663
-0.09738158922453684   0.009285172105308763   -0.0013985734212178663
-0.09738158922453684   0.009285172105308763   -0.0013985734212178663
-0.09526507848171596   0.011866666373979883   0.004011960610909908
-0.09526507848171596   0.011866666373979883   0.004011960610909908
-0.09526507848171596   0.011866666373979883   0.004011960610909908
-0.09526507848171596   0.011866666373979883   0.004011960610909908
-0.2092919463548467   -0.008231396540232602   -0.007634142715822308
-0.2092919463548467   -0.008231396540232602   -0.007634142715822308
-0.2092919463548467   -0.008231396540232602   -0.007634142715822308
-0.2092919463548467   -0.008231396540232602   -0.007634142715822308
-0.15222317654670156   -0.0015892357823723072   0.0007482438838042407
-0.15222317654670156   -0.0015892357823723072   0.0007482438838042407
-0.15222317654670156   -0.0015892357823723072   0.0007482438838042407
-0.15222317654670156   -0.0015892357823723072   0.0007482438838042407
-0.10196122914012255   -0.02320191638480403   -0.004152895515463349
-0.10196122914012255   -0.02320191638480403   -0.004152895515463349
-0.10196122914012255   -0.02320191638480403   -0.004152895515463349
-0.10196122914012255   -0.02320191638480403   -0.004152895515463349
0.008859877952318122   0.001996135024990441   0.003969718067141264
0.008859877952318122   0.001996135024990441   0.003969718067141264
0.008859877952318122   0.001996135024990441   0.003969718067141264
0.008859877952318122   0.001996135024990441   0.003969718067141264
0.008691643390370499   0.005572794230586715   0.00037253069488434433
0.008691643390370499   0.005572794230586715   0.00037253069488434433
0.008691643390370499   0.005572794230586715   0.00037253069488434433
0.008691643390370499   0.005572794230586715   0.00037253069488434433
-0.10210748712767832   -0.015249409540640548   -0.002665442797512973
-0.10210748712767832   -0.015249409540640548   -0.002665442797512973
-0.10210748712767832   -0.015249409540640548   -0.002665442797512973
-0.10210748712767832   -0.015249409540640548   -0.002665442797512973
-0.047085851401325   -0.00781261411762276   -0.0015823397402897742
-0.047085851401325   -0.00781261411762276   -0.0015823397402897742
-0.047085851401325   -0.00781261411762276   -0.0015823397402897742
-0.047085851401325   -0.00781261411762276   -0.0015823397402897742
-0.10282299436175503   -0.017585930967102235   -0.003906457541434875
-0.10282299436175503   -0.017585930967102235   -0.003906457541434875
-0.10282299436175503   -0.017585930967102235   -0.003906457541434875
-0.10282299436175503   -0.017585930967102235   -0.003906457541434875
0.009779101510806382   0.008281266543407557   0.0031013489842428507
0.009779101510806382   0.008281266543407557   0.0031013489842428507
0.009779101510806382   0.008281266543407557   0.0031013489842428507
0.009779101510806382   0.008281266543407557   0.0031013489842428507
0.009801815798274051   0.011159127451051682   0.0018144697952162362
0.009801815798274051   0.011159127451051682   0.0018144697952162362
0.009801815798274051   0.011159127451051682   0.0018144697952162362
0.009801815798274051   0.011159127451051682   0.0018144697952162362
-0.10145172356246733   -0.009114524805209863   -0.00334954820035354
-0.10145172356246733   -0.009114524805209863   -0.00334954820035354
-0.10145172356246733   -0.009114524805209863   -0.00334954820035354
-0.10145172356246733   -0.009114524805209863   -0.00334954820035354
-0.046053178394423466   -0.0018969105381246416   0.0004768471724366369
-0.046053178394423466   -0.0018969105381246416   0.0004768471724366369
-0.046053178394423466   -0.0018969105381246416   0.0004768471724366369
-0.046053178394423466   -0.0018969105381246416   0.0004768471724366369
-0.10175225624461331   -0.011923273499856415   -0.0020434629164368667
-0.10175225624461331   -0.011923273499856415   -0.0020434629164368667
-0.10175225624461331   -0.011923273499856415   -0.0020434629164368667
-0.10175225624461331   -0.011923273499856415   -0.0020434629164368667
0.010505695352730722   0.014371223018009088   0.0021217720005421836
0.010505695352730722   0.014371223018009088   0.0021217720005421836
0.010505695352730722   0.014371223018009088   0.0021217720005421836
0.010505695352730722   0.014371223018009088   0.0021217720005421836
0.01035650889941067   0.01734438732205065   0.00293049885498892
0.01035650889941067   0.01734438732205065   0.00293049885498892
0.01035650889941067   0.01734438732205065   0.00293049885498892
0.01035650889941067   0.01734438732205065   0.00293049885498892
-0.0998083592396784   -0.0025806791330123466   -0.004257097671910452
-0.0998083592396784   -0.0025806791330123466   -0.004257097671910452
-0.0998083592396784   -0.0025806791330123466   -0.004257097671910452
-0.0998083592396784   -0.0025806791330123466   -0.004257097671910452
-0.044593213590990895   0.004288386826791115   0.002731923976265496
-0.044593213590990895   0.004288386826791115   0.002731923976265496
-0.044593213590990895   0.004288386826791115   0.002731923976265496
-0.044593213590990895   0.004288386826791115   0.002731923976265496
0.003193631126312118   -0.017103125361544708   -0.005262255676353616
0.003193631126312118   -0.017103125361544708   -0.005262255676353616
0.003193631126312118   -0.017103125361544708   -0.005262255676353616
0.003193631126312118   -0.017103125361544708   -0.005262255676353616
0.11805881147842184   0.007955218396276605   0.007393353996296866
0.11805881147842184   0.007955218396276605   0.007393353996296866
0.11805881147842184   0.007955218396276605   0.007393353996296866
0.11805881147842184   0.007955218396276605   0.007393353996296866
0.11818969056500665   0.010940002266479629   -0.0012473629140071357
0.11818969056500665   0.010940002266479629   -0.0012473629140071357
0.11818969056500665   0.010940002266479629   -0.0012473629140071357
0.11818969056500665   0.010940002266479629   -0.0012473629140071357
0.005674352740172473   -0.01006209528769432   0.000920966962175182
0.005674352740172473   -0.01006209528769432   0.000920966962175182
0.005674352740172473   -0.01006209528769432   0.000920966962175182
0.005674352740172473   -0.01006209528769432   0.000920966962175182
0.060503938250450355   -0.0016039074576250866   2.3241193759538162e-05
0.060503938250450355   -0.0016039074576250866   2.3241193759538162e-05
0.060503938250450355   -0.0016039074576250866   2.3241193759538162e-05
0.060503938250450355   -0.0016039074576250866   2.3241193759538162e-05
0.004217814306315553   -0.012408053751181581   -0.0040157667436220915
0.004217814306315553   -0.012408053751181581   -0.0040157667436220915
0.004217814306315553   -0.012408053751181581   -0.0040157667436220915
0.004217814306315553   -0.012408053751181581   -0.0040157667436220915
0.120334253329013   0.01397398506011633   0.006441468112387893
0.120334253329013   0.01397398506011633   0.006441468112387893
0.120334253329013   0.01397398506011633   0.006441468112387893
0.120334253329013   0.01397398506011633   0.006441468112387893
0.11951526089767534   0.01648578772185062   0.00103071035508151
0.11951526089767534   0.01648578772185062   0.00103071035508151
0.11951526089767534   0.01648578772185062   0.00103071035508151
0.11951526089767534   0.01648578772185062   0.00103071035508151
0.006261104781344394   -0.004559545140041091   -0.0001704126983392768
0.006261104781344394   -0.004559545140041091   -0.0001704126983392768
0.006261104781344394   -0.004559545140041091   -0.0001704126983392768
0.006261104781344394   -0.004559545140041091   -0.0001704126983392768
0.06169047903081219   0.003684176709378608   0.0025566099775016383
0.06169047903081219   0.003684176709378608   0.0025566099775016383
0.06169047903081219   0.003684176709378608   0.0025566099775016383
0.06169047903081219   0.003684176709378608   0.0025566099775016383
0.005165360688354924   -0.00719339170974613   -0.003015286593581584
0.005165360688354924   -0.00719339170974613   -0.003015286593581584
0.005165360688354924   -0.00719339170974613   -0.003015286593581584
0.005165360688354924   -0.00719339170974613   -0.003015286593581584
0.12111209803351243   0.019620727334403232   0.005879956421714308
0.12111209803351243   0.019620727334403232   0.005879956421714308
0.12111209803351243   0.019620727334403232   0.005879956421714308
0.12111209803351243   0.019620727334403232   0.005879956421714308
0.11790801510608163   0.02287681543925273   0.0023293263599541113
0.11790801510608163   0.02287681543925273   0.0023293263599541113
0.11790801510608163   0.02287681543925273   0.0023293263599541113
0.11790801510608163   0.02287681543925273   0.0023293263599541113
0.006517931129877794   0.0021933523141711756   -0.0011113549847959836
0.006517931129877794   0.0021933523141711756   -0.0011113549847959836
0.006517931129877794   0.0021933523141711756   -0.0011113549847959836
0.006517931129877794   0.0021933523141711756   -0.0011113549847959836
0.06297317981936415   0.009717598736110358   0.004921802017684119
0.06297317981936415   0.009717598736110358   0.004921802017684119
0.06297317981936415   0.009717598736110358   0.004921802017684119
0.06297317981936415   0.009717598736110358   0.004921802017684119
0.1083827321606893   -0.02302922428993561   -0.010002599906153629
0.1083827321606893   -0.02302922428993561   -0.010002599906153629
0.1083827321606893   -0.02302922428993561   -0.010002599906153629
0.1083827321606893   -0.02302922428993561   -0.010002599906153629
0.22480817087397897   0.014868417622549228   0.007522750310234506
0.22480817087397897   0.014868417622549228   0.007522750310234506
0.22480817087397897   0.014868417622549228   0.007522750310234506
0.22480817087397897   0.014868417622549228   0.007522750310234506
0.2277623329372258   0.006512500657629469   -0.015084148502414699
0.2277623329372258   0.006512500657629469   -0.015084148502414699
0.2277623329372258   0.006512500657629469   -0.015084148502414699
0.2277623329372258   0.006512500657629469   -0.015084148502414699
0.11632753060581551   -0.004228512155003756   0.004610351711519526
0.11632753060581551   -0.004228512155003756   0.004610351711519526
0.11632753060581551   -0.004228512155003756   0.004610351711519526
0.11632753060581551   -0.004228512155003756   0.004610351711519526
0.16083627164852687   -0.003169776645796145   -0.004294284652856806
0.16083627164852687   -0.003169776645796145   -0.004294284652856806
0.16083627164852687   -0.003169776645796145   -0.004294284652856806
0.16083627164852687   -0.003169776645796145   -0.004294284652856806
0.11189222643885885   -0.015003022664345066   -0.0067916586139208784
0.11189222643885885   -0.015003022664345066   -0.0067916586139208784
0.11189222643885885   -0.015003022664345066   -0.0067916586139208784
0.11189222643885885   -0.015003022664345066   -0.0067916586139208784
0.2343375893558247   0.019426963418613573   0.00487767082959701
0.2343375893558247   0.019426963418613573   0.00487767082959701
0.2343375893558247   0.019426963418613573   0.00487767082959701
0.2343375893558247   0.019426963418613573   0.00487767082959701
0.2308615886374843   0.012597652877239308   -0.0038419686518577495
0.2308615886374843   0.012597652877239308   -0.0038419686518577495
0.2308615886374843   0.012597652877239308   -0.0038419686518577495
0.2308615886374843   0.012597652877239308   -0.0038419686518577495
0.1162303878655018   -0.0014448042429982873   0.0025369371590626827
0.1162303878655018   -0.0014448042429982873   0.0025369371590626827
0.1162303878655018   -0.0014448042429982873   0.0025369371590626827
0.1162303878655018   -0.0014448042429982873   0.0025369371590626827
0.1699031931863926   0.004279136971011725   0.002860796431035033
0.1699031931863926   0.004279136971011725   0.002860796431035033
0.1699031931863926   0.004279136971011725   0.002860796431035033
0.1699031931863926   0.004279136971011725   0.002860796431035033
0.11261498173893222   -0.011400211929546579   -0.005584685787235585
0.11261498173893222   -0.011400211929546579   -0.005584685787235585
0.11261498173893222   -0.011400211929546579   -0.005584685787235585
0.11261498173893222   -0.011400211929546579   -0.005584685787235585
0.23423290025002214   0.02230896604975663   0.0033032762383159373
0.23423290025002214   0.02230896604975663   0.0033032762383159373
0.23423290025002214   0.02230896604975663   0.0033032762383159373
0.23423290025002214   0.02230896604975663   0.0033032762383159373
0.23114438355471523   0.019954485053679017   -0.00571784903853953
0.23114438355471523   0.019954485053679017   -0.00571784903853953
0.23114438355471523   0.019954485053679017   -0.00571784903853953
0.23114438355471523   0.019954485053679017   -0.00571784903853953
0.11414005363196457   0.004837443628414989   0.0015288908002070896
0.11414005363196457   0.004837443628414989   0.0015288908002070896
0.11414005363196457   0.004837443628414989   0.0015288908002070896
0.11414005363196457   0.004837443628414989   0.0015288908002070896
0.1660227527496767   0.007733244895654487   0.0023361598033643655
0.1660227527496767   0.007733244895654487   0.0023361598033643655
0.1660227527496767   0.007733244895654487   0.0023361598033643655
0.1660227527496767   0.007733244895654487   0.0023361598033643655
-0.24633215140498652   -0.01093673943331313   0.013474907157403737
-0.24633215140498652   -0.01093673943331313   0.013474907157403737
-0.24633215140498652   -0.01093673943331313   0.013474907157403737
-0.24633215140498652   -0.01093673943331313   0.013474907157403737
-0.16482226929400876   -0.006774785129075306   -0.00350578947069298
-0.16482226929400876   -0.006774785129075306   -0.00350578947069298
-0.16482226929400876   -0.006774785129075306   -0.00350578947069298
-0.16482226929400876   -0.006774785129075306   -0.00350578947069298
-0.1584391330812715   0.01358686154956849   0.011221092470711583
-0.1584391330812715   0.01358686154956849   0.011221092470711583
-0.1584391330812715   0.01358686154956849   0.011221092470711583
-0.1584391330812715   0.01358686154956849   0.011221092470711583
-0.2473101443010667   -0.017837802396096065   -0.005444266844696323
-0.2473101443010667   -0.017837802396096065   -0.005444266844696323
-0.2473101443010667   -0.017837802396096065   -0.005444266844696323
-0.2473101443010667   -0.017837802396096065   -0.005444266844696323
-0.1960162144663509   -0.003020326709683708   -0.0007189809606609199
-0.1960162144663509   -0.003020326709683708   -0.0007189809606609199
-0.1960162144663509   -0.003020326709683708   -0.0007189809606609199
-0.1960162144663509   -0.003020326709683708   -0.0007189809606609199
-0.24005807308708546   -0.0019879063165948972   0.014966193145708614
-0.24005807308708546   -0.0019879063165948972   0.014966193145708614
-0.24005807308708546   -0.0019879063165948972   0.014966193145708614
-0.24005807308708546   -0.0019879063165948972   0.014966193145708614
-0.1645569380566218   -0.0011287682913017627   -0.004652302565169686
-0.1645569380566218   -0.0011287682913017627   -0.004652302565169686
-0.1645569380566218   -0.0011287682913017627   -0.004652302565169686
-0.1645569380566218   -0.0011287682913017627   -0.004652302565169686
-0.1576214011474373   0.016921590359943617   0.010337028075457173
-0.1576214011474373   0.016921590359943617   0.010337028075457173
-0.1576214011474373   0.016921590359943617   0.010337028075457173
-0.1576214011474373   0.016921590359943617   0.010337028075457173
-0.24309757781217572   -0.014796009201909426   -0.0073974511052521605
-0.24309757781217572   -0.014796009201909426   -0.0073974511052521605
-0.24309757781217572   -0.014796009201909426   -0.0073974511052521605
-0.24309757781217572   -0.014796009201909426   -0.0073974511052521605
-0.19611722149086655   0.00089267300988876   0.0020850968078860027
-0.19611722149086655   0.00089267300988876   0.0020850968078860027
-0.19611722149086655   0.00089267300988876   0.0020850968078860027
-0.19611722149086655   0.00089267300988876   0.0020850968078860027
-0.23636661872343379   0.0011645068808020763   0.01029682825574596
-0.23636661872343379   0.0011645068808020763   0.01029682825574596
-0.23636661872343379   0.0011645068808020763   0.01029682825574596
-0.23636661872343379   0.0011645068808020763   0.01029682825574596
-0.16398072372785127   0.001332710785560221   -0.005870705252228384
-0.16398072372785127   0.001332710785560221   -0.005870705252228384
-0.16398072372785127   0.001332710785560221   -0.005870705252228384
-0.16398072372785127   0.001332710785560221   -0.005870705252228384
-0.15761882722087436   0.01929812016125678   0.008206384451269984
-0.15761882722087436   0.01929812016125678   0.008206384451269984
-0.15761882722087436   0.01929812016125678   0.008206384451269984
-0.15761882722087436   0.01929812016125678   0.008206384451269984
-0.23773324917899868   -0.01146636837743062   -0.0093834976989157
-0.23773324917899868   -0.01146636837743062   -0.0093834976989157
-0.23773324917899868   -0.01146636837743062   -0.0093834976989157
-0.23773324917899868   -0.01146636837743062   -0.0093834976989157
-0.1902130812732027   0.004443352241251574   0.004645006412681965
-0.1902130812732027   0.004443352241251574   0.004645006412681965
-0.1902130812732027   0.004443352241251574   0.004645006412681965
-0.1902130812732027   0.004443352241251574   0.004645006412681965
-0.16507852775051957   -0.015614756757725418   0.004052889875403191
-0.16507852775051957   -0.015614756757725418   0.004052889875403191
-0.16507852775051957   -0.015614756757725418   0.004052889875403191
-0.16507852775051957   -0.015614756757725418   0.004052889875403191
-0.08451156273589774   -0.0033447388438991397   0.00010658695798197032
-0.08451156273589774   -0.0033447388438991397   0.00010658695798197032
-0.08451156273589774   -0.0033447388438991397   0.00010658695798197032
-0.08451156273589774   -0.0033447388438991397   0.00010658695798197032
-0.08189917226987578   0.00821927650766862   0.006069957383709371
-0.08189917226987578   0.00821927650766862   0.006069957383709371
-0.08189917226987578   0.00821927650766862   0.006069957383709371
-0.08189917226987578   0.00821927650766862   0.006069957383709371
-0.1676387994537471   -0.015396866137727021   -0.005793511704370986
-0.1676387994537471   -0.015396866137727021   -0.005793511704370986
-0.1676387994537471   -0.015396866137727021   -0.005793511704370986
-0.1676387994537471   -0.015396866137727021   -0.005793511704370986
-0.12437927370697699   -0.006107911074922095   -0.002690520085349136
-0.12437927370697699   -0.006107911074922095   -0.002690520085349136
-0.12437927370697699   -0.006107911074922095   -0.002690520085349136
-0.12437927370697699   -0.006107911074922095   -0.002690520085349136
-0.1643724405065144   -0.008717571031323304   0.0038589879253883644
-0.1643724405065144   -0.008717571031323304   0.0038589879253883644
-0.1643724405065144   -0.008717571031323304   0.0038589879253883644
-0.1643724405065144   -0.008717571031323304   0.0038589879253883644
-0.08451704446908823   0.0021884681492849193   -0.0009885952539682476
-0.08451704446908823   0.0021884681492849193   -0.0009885952539682476
-0.08451704446908823   0.0021884681492849193   -0.0009885952539682476
-0.08451704446908823   0.0021884681492849193   -0.0009885952539682476
-0.08149073137656354   0.013787676457000866   0.005223090489269364
-0.08149073137656354   0.013787676457000866   0.005223090489269364
-0.08149073137656354   0.013787676457000866   0.005223090489269364
-0.08149073137656354   0.013787676457000866   0.005223090489269364
-0.1664906481694538   -0.010228604787671743   -0.006859011887010089
-0.1664906481694538   -0.010228604787671743   -0.006859011887010089
-0.1664906481694538   -0.010228604787671743   -0.006859011887010089
-0.1664906481694538   -0.010228604787671743   -0.006859011887010089
-0.12285846790183891   -0.0005256716623953999   -0.00010263489537934087
-0.12285846790183891   -0.0005256716623953999   -0.00010263489537934087
-0.12285846790183891   -0.0005256716623953999   -0.00010263489537934087
-0.12285846790183891   -0.0005256716623953999   -0.00010263489537934087
-0.16316132467789352   -0.00306605012041254   0.0026250509035322944
-0.16316132467789352   -0.00306605012041254   0.0026250509035322944
-0.16316132467789352   -0.00306605012041254   0.0026250509035322944
-0.16316132467789352   -0.00306605012041254   0.0026250509035322944
-0.0842930813530635   0.007152095304802188   -0.002153078241030759
-0.0842930813530635   0.007152095304802188   -0.002153078241030759
-0.0842930813530635   0.007152095304802188   -0.002153078241030759
-0.0842930813530635   0.007152095304802188   -0.002153078241030759
-0.08132135172920378   0.019667540478560227   0.003889947752498941
-0.08132135172920378   0.019667540478560227   0.003889947752498941
-0.08132135172920378   0.019667540478560227   0.003889947752498941
-0.08132135172920378   0.019667540478560227   0.003889947752498941
-0.16551550379281765   -0.004612229020713544   -0.007366649226476507
-0.16551550379281765   -0.004612229020713544   -0.007366649226476507
-0.16551550379281765   -0.004612229020713544   -0.007366649226476507
-0.16551550379281765   -0.004612229020713544   -0.007366649226476507
-0.12275993142763299   0.004645867916734074   0.0018999326423967816
-0.12275993142763299   0.004645867916734074   0.0018999326423967816
-0.12275993142763299   0.004645867916734074   0.0018999326423967816
-0.12275993142763299   0.004645867916734074   0.0018999326423967816
-0.08756099363266873   -0.01814920348282476   -0.0003361028869478949
-0.08756099363266873   -0.01814920348282476   -0.0003361028869478949
-0.08756099363266873   -0.01814920348282476   -0.0003361028869478949
-0.08756099363266873   -0.01814920348282476   -0.0003361028869478949
-0.004860738545766187   0.0005189022870041922   0.0037266896695291162
-0.004860738545766187   0.0005189022870041922   0.0037266896695291162
-0.004860738545766187   0.0005189022870041922   0.0037266896695291162
-0.004860738545766187   0.0005189022870041922   0.0037266896695291162
-0.005038507207646239   0.005057956050935963   0.001802405240337496
-0.005038507207646239   0.005057956050935963   0.001802405240337496
-0.005038507207646239   0.005057956050935963   0.001802405240337496
-0.005038507207646239   0.005057956050935963   0.001802405240337496
-0.08747338676378025   -0.011470840416108508   -0.0021109981620365016
-0.08747338676378025   -0.011470840416108508   -0.0021109981620365016
-0.08747338676378025   -0.011470840416108508   -0.0021109981620365016
-0.08747338676378025   -0.011470840416108508   -0.0021109981620365016
-0.04638399281325547   -0.005801744597172968   -0.0015421600742437196
-0.04638399281325547   -0.005801744597172968   -0.0015421600742437196
-0.04638399281325547   -0.005801744597172968   -0.0015421600742437196
-0.04638399281325547   -0.005801744597172968   -0.0015421600742437196
-0.08737755507639608   -0.011992392165938507   -0.0011102879752850174
-0.08737755507639608   -0.011992392165938507   -0.0011102879752850174
-0.08737755507639608   -0.011992392165938507   -0.0011102879752850174
-0.08737755507639608   -0.011992392165938507   -0.0011102879752850174
-0.004653786126856577   0.006060060568939898   0.002723906126281867
-0.004653786126856577   0.006060060568939898   0.002723906126281867
-0.004653786126856577   0.006060060568939898   0.002723906126281867
-0.004653786126856577   0.006060060568939898   0.002723906126281867
-0.004488320848086435   0.011110820435930814   0.0008137752909689385
-0.004488320848086435   0.011110820435930814   0.0008137752909689385
-0.004488320848086435   0.011110820435930814   0.0008137752909689385
-0.004488320848086435   0.011110820435930814   0.0008137752909689385
-0.08710034811939732   -0.005911972628343014   -0.0031253441395556504
-0.08710034811939732   -0.005911972628343014   -0.0031253441395556504
-0.08710034811939732   -0.005911972628343014   -0.0031253441395556504
-0.08710034811939732   -0.005911972628343014   -0.0031253441395556504
-0.04579006049968733   -0.00022635247398041002   0.0005566997958215466
-0.04579006049968733   -0.00022635247398041002   0.0005566997958215466
-0.04579006049968733   -0.00022635247398041002   0.0005566997958215466
-0.04579006049968733   -0.00022635247398041002   0.0005566997958215466
-0.08697363875369121   -0.006024793492714633   -0.0023789764466535177
-0.08697363875369121   -0.006024793492714633   -0.0023789764466535177
-0.08697363875369121   -0.006024793492714633   -0.0023789764466535177
-0.08697363875369121   -0.006024793492714633   -0.0023789764466535177
-0.004219468650742767   0.011619202863352204   0.001649653850265891
-0.004219468650742767   0.011619202863352204   0.001649653850265891
-0.004219468650742767   0.011619202863352204   0.001649653850265891
-0.004219468650742767   0.011619202863352204   0.001649653850265891
-0.00425222221016031   0.01733453810848541   -0.00023714849394070947
-0.00425222221016031   0.01733453810848541   -0.00023714849394070947
-0.00425222221016031   0.01733453810848541   -0.00023714849394070947
-0.00425222221016031   0.01733453810848541   -0.00023714849394070947
-0.08691885344586572   -0.00026780719308209687   -0.004162213159168057
-0.08691885344586572   -0.00026780719308209687   -0.004162213159168057
-0.08691885344586572   -0.00026780719308209687   -0.004162213159168057
-0.08691885344586572   -0.00026780719308209687   -0.004162213159168057
-0.04529486202170315   0.005355201060687457   0.002484061011841567
-0.04529486202170315   0.005355201060687457   0.002484061011841567
-0.04529486202170315   0.005355201060687457   0.002484061011841567
-0.04529486202170315   0.005355201060687457   0.002484061011841567
-0.01060447971535527   -0.0201256111833505   -0.004347502708061555
-0.01060447971535527   -0.0201256111833505   -0.004347502708061555
-0.01060447971535527   -0.0201256111833505   -0.004347502708061555
-0.01060447971535527   -0.0201256111833505   -0.004347502708061555
0.07422596200782508   0.004995504365965195   0.007106747369524059
0.07422596200782508   0.004995504365965195   0.007106747369524059
0.07422596200782508   0.004995504365965195   0.007106747369524059
0.07422596200782508   0.004995504365965195   0.007106747369524059
0.07175286212295504   0.0023725388391841627   -0.0029843717862149816
0.07175286212295504   0.0023725388391841627   -0.0029843717862149816
0.07175286212295504   0.0023725388391841627   -0.0029843717862149816
0.07175286212295504   0.0023725388391841627   -0.0029843717862149816
-0.007511306911141602   -0.00716369397104713   0.0016600567448437683
-0.007511306911141602   -0.00716369397104713   0.0016600567448437683
-0.007511306911141602   -0.00716369397104713   0.0016600567448437683
-0.007511306911141602   -0.00716369397104713   0.0016600567448437683
0.03149745227242397   -0.004888553793826881   -0.0009087832854326808
0.03149745227242397   -0.004888553793826881   -0.0009087832854326808
0.03149745227242397   -0.004888553793826881   -0.0009087832854326808
0.03149745227242397   -0.004888553793826881   -0.0009087832854326808
-0.010426167143990974   -0.014568316945876741   -0.005509621444573481
-0.010426167143990974   -0.014568316945876741   -0.005509621444573481
-0.010426167143990974   -0.014568316945876741   -0.005509621444573481
-0.010426167143990974   -0.014568316945876741   -0.005509621444573481
0.07521545484204978   0.010324894300259058   0.00637623634818333
0.07521545484204978   0.010324894300259058   0.00637623634818333
0.07521545484204978   0.010324894300259058   0.00637623634818333
0.07521545484204978   0.010324894300259058   0.00637623634818333
0.07316861975006198   0.00801953048988038   -0.004182549517449504
0.07316861975006198   0.00801953048988038   -0.004182549517449504
0.07316861975006198   0.00801953048988038   -0.004182549517449504
0.07316861975006198   0.00801953048988038   -0.004182549517449504
-0.007195204152965271   -0.002177859337305425   0.0005680385398110638
-0.007195204152965271   -0.002177859337305425   0.0005680385398110638
-0.007195204152965271   -0.002177859337305425   0.0005680385398110638
-0.007195204152965271   -0.002177859337305425   0.0005680385398110638
0.031985293402024155   0.0001929014609089875   0.0011909944666760207
0.031985293402024155   0.0001929014609089875   0.0011909944666760207
0.031985293402024155   0.0001929014609089875   0.0011909944666760207
0.031985293402024155   0.0001929014609089875   0.0011909944666760207
-0.010034515334475955   -0.009121551637122395   -0.0066848250679254475
-0.010034515334475955   -0.009121551637122395   -0.0066848250679254475
-0.010034515334475955   -0.009121551637122395   -0.0066848250679254475
-0.010034515334475955   -0.009121551637122395   -0.0066848250679254475
0.07660606094236991   0.015561352800494465   0.005462834133475335
0.07660606094236991   0.015561352800494465   0.005462834133475335
0.07660606094236991   0.015561352800494465   0.005462834133475335
0.07660606094236991   0.015561352800494465   0.005462834133475335
0.07411057528577636   0.015047138982674348   -0.004435065798178681
0.07411057528577636   0.015047138982674348   -0.004435065798178681
0.07411057528577636   0.015047138982674348   -0.004435065798178681
0.07411057528577636   0.015047138982674348   -0.004435065798178681
-0.0070570962720413865   0.0035956096265030582   -0.0005225903213636625
-0.0070570962720413865   0.0035956096265030582   -0.0005225903213636625
-0.0070570962720413865   0.0035956096265030582   -0.0005225903213636625
-0.0070570962720413865   0.0035956096265030582   -0.0005225903213636625
0.03333820764631595   0.005801116310806985   0.0036598543049486823
0.03333820764631595   0.005801116310806985   0.0036598543049486823
0.03333820764631595   0.005801116310806985   0.0036598543049486823
0.03333820764631595   0.005801116310806985   0.0036598543049486823
0.06605967445832557   -0.020109724104191564   -0.008619461907816022
0.06605967445832557   -0.020109724104191564   -0.008619461907816022
0.06605967445832557   -0.020109724104191564   -0.008619461907816022
0.06605967445832557   -0.020109724104191564   -0.008619461907816022
0.14722686689632344   0.01096800188901402   0.008148473931869564
0.14722686689632344   0.01096800188901402   0.008148473931869564
0.14722686689632344   0.01096800188901402   0.008148473931869564
0.14722686689632344   0.01096800188901402   0.008148473931869564
0.14613398554245857   -0.0014858807980155653   -0.011482946440182586
0.14613398554245857   -0.0014858807980155653   -0.011482946440182586
0.14613398554245857   -0.0014858807980155653   -0.011482946440182586
0.14613398554245857   -0.0014858807980155653   -0.011482946440182586
0.07271674308728682   -0.0013318590313293973   0.005539430905957489
0.07271674308728682   -0.0013318590313293973   0.005539430905957489
0.07271674308728682   -0.0013318590313293973   0.005539430905957489
0.07271674308728682   -0.0013318590313293973   0.005539430905957489
0.10277726806697936   -0.004119219172378456   -0.0035202667062378262
0.10277726806697936   -0.004119219172378456   -0.0035202667062378262
0.10277726806697936   -0.004119219172378456   -0.0035202667062378262
0.10277726806697936   -0.004119219172378456   -0.0035202667062378262
0.06629573518487103   -0.0172803625908222   -0.010617105046628208
0.06629573518487103   -0.0172803625908222   -0.010617105046628208
0.06629573518487103   -0.0172803625908222   -0.010617105046628208
0.06629573518487103   -0.0172803625908222   -0.010617105046628208
0.15301079687845917   0.014918426195061788   0.006496803246743007
0.15301079687845917   0.014918426195061788   0.006496803246743007
0.15301079687845917   0.014918426195061788   0.006496803246743007
0.15301079687845917   0.014918426195061788   0.006496803246743007
0.1501620922489021   0.0017349843195491287   -0.015495824411600537
0.1501620922489021   0.0017349843195491287   -0.015495824411600537
0.1501620922489021   0.0017349843195491287   -0.015495824411600537
0.1501620922489021   0.0017349843195491287   -0.015495824411600537
0.07346505872663579   0.001131664658543155   0.004187511196757351
0.07346505872663579   0.001131664658543155   0.004187511196757351
0.07346505872663579   0.001131664658543155   0.004187511196757351
0.07346505872663579   0.001131664658543155   0.004187511196757351
0.10780746243436438   -0.000600787931888616   -0.0009900954042098668
0.10780746243436438   -0.000600787931888616   -0.0009900954042098668
0.10780746243436438   -0.000600787931888616   -0.0009900954042098668
0.10780746243436438   -0.000600787931888616   -0.0009900954042098668
0.06726111564514534   -0.01407179502442714   -0.011628744527725133
0.06726111564514534   -0.01407179502442714   -0.011628744527725133
0.06726111564514534   -0.01407179502442714   -0.011628744527725133
0.06726111564514534   -0.01407179502442714   -0.011628744527725133
0.157379360626808   0.01795176929893503   0.0043737324985445025
0.157379360626808   0.01795176929893503   0.0043737324985445025
0.157379360626808   0.01795176929893503   0.0043737324985445025
0.157379360626808   0.01795176929893503   0.0043737324985445025
0.1565338934153477   0.010073718497225126   -0.014683574639125348
0.1565338934153477   0.010073718497225126   -0.014683574639125348
0.1565338934153477   0.010073718497225126   -0.014683574639125348
0.1565338934153477   0.010073718497225126   -0.014683574639125348
0.07389632762847141   0.006443514989479237   0.0030973199084925913
0.07389632762847141   0.006443514989479237   0.0030973199084925913
0.07389632762847141   0.006443514989479237   0.0030973199084925913
0.07389632762847141   0.006443514989479237   0.0030973199084925913
0.10899519399779102   0.0033669939662919176   0.001864992821659743
0.10899519399779102   0.0033669939662919176   0.001864992821659743
0.10899519399779102   0.0033669939662919176   0.001864992821659743
0.10899519399779102   0.0033669939662919176   0.001864992821659743
-0.17271663562150028   -0.00525427231911227   0.011991140906613712
-0.17271663562150028   -0.00525427231911227   0.011991140906613712
-0.17271663562150028   -0.00525427231911227   0.011991140906613712
-0.17271663562150028   -0.00525427231911227   0.011991140906613712
-0.12241371201495364   -0.008580448731818052   -0.004433175378633185
-0.12241371201495364   -0.008580448731818052   -0.004433175378633185
-0.12241371201495364   -0.008580448731818052   -0.004433175378633185
-0.12241371201495364   -0.008580448731818052   -0.004433175378633185
-0.11496418982758272   0.011754581830439008   0.010171699814495092
-0.11496418982758272   0.011754581830439008   0.010171699814495092
-0.11496418982758272   0.011754581830439008   0.010171699814495092
-0.11496418982758272   0.011754581830439008   0.010171699814495092
-0.1727119638202163   -0.014307138780069693   -0.006504995113307453
-0.1727119638202163   -0.014307138780069693   -0.006504995113307453
-0.1727119638202163   -0.014307138780069693   -0.006504995113307453
-0.1727119638202163   -0.014307138780069693   -0.006504995113307453
-0.1398189157188221   -0.002137059989924239   -0.0006318272712612059
-0.1398189157188221   -0.002137059989924239   -0.0006318272712612059
-0.1398189157188221   -0.002137059989924239   -0.0006318272712612059
-0.1398189157188221   -0.002137059989924239   -0.0006318272712612059
-0.16591772278765057   0.0018011246078472598   0.01135794666160421
-0.16591772278765057   0.0018011246078472598   0.01135794666160421
-0.16591772278765057   0.0018011246078472598   0.01135794666160421
-0.16591772278765057   0.0018011246078472598   0.01135794666160421
-0.12119814173417913   -0.0037933924315084605   -0.005450085456538464
-0.12119814173417913   -0.0037933924315084605   -0.005450085456538464
-0.12119814173417913   -0.0037933924315084605   -0.005450085456538464
-0.12119814173417913   -0.0037933924315084605   -0.005450085456538464
-0.11386688502429457   0.014241574913154642   0.008559776682187034
-0.11386688502429457   0.014241574913154642   0.008559776682187034
-0.11386688502429457   0.014241574913154642   0.008559776682187034
-0.11386688502429457   0.014241574913154642   0.008559776682187034
-0.16842162897676866   -0.011526400584798237   -0.008173571839284792
-0.16842162897676866   -0.011526400584798237   -0.008173571839284792
-0.16842162897676866   -0.011526400584798237   -0.008173571839284792
-0.16842162897676866   -0.011526400584798237   -0.008173571839284792
-0.13869615683322756   0.0011226192062205476   0.0012531807718318272
-0.13869615683322756   0.0011226192062205476   0.0012531807718318272
-0.13869615683322756   0.0011226192062205476   0.0012531807718318272
-0.13869615683322756   0.0011226192062205476   0.0012531807718318272
-0.1617130876594061   0.0047741049018674205   0.009068629260862424
-0.1617130876594061   0.0047741049018674205   0.009068629260862424
-0.1617130876594061   0.0047741049018674205   0.009068629260862424
-0.1617130876594061   0.0047741049018674205   0.009068629260862424
-0.12007583790254903   -0.0015593421344026462   -0.006684070661526455
-0.12007583790254903   -0.0015593421344026462   -0.006684070661526455
-0.12007583790254903   -0.0015593421344026462   -0.006684070661526455
-0.12007583790254903   -0.0015593421344026462   -0.006684070661526455
-0.11326606499614814   0.016775942569086093   0.00736087285081732
-0.11326606499614814   0.016775942569086093   0.00736087285081732
-0.11326606499614814   0.016775942569086093   0.00736087285081732
-0.11326606499614814   0.016775942569086093   0.00736087285081732
-0.16273328990632607   -0.007799435420129488   -0.009755741917965053
-0.16273328990632607   -0.007799435420129488   -0.009755741917965053
-0.16273328990632607   -0.007799435420129488   -0.009755741917965053
-0.16273328990632607   -0.007799435420129488   -0.009755741917965053
-0.1333880285873345   0.004225612289748314   0.003834664228111219
-0.1333880285873345   0.004225612289748314   0.003834664228111219
-0.1333880285873345   0.004225612289748314   0.003834664228111219
-0.1333880285873345   0.004225612289748314   0.003834664228111219
-0.12080390862384585   -0.009681205703389815   0.0047165985484767005
-0.12080390862384585   -0.009681205703389815   0.0047165985484767005
-0.12080390862384585   -0.009681205703389815   0.0047165985484767005
-0.12080390862384585   -0.009681205703389815   0.0047165985484767005
-0.0714882725413227   -0.00555011187729771   -0.0007215404387790267
-0.0714882725413227   -0.00555011187729771   -0.0007215404387790267
-0.0714882725413227   -0.00555011187729771   -0.0007215404387790267
-0.0714882725413227   -0.00555011187729771   -0.0007215404387790267
-0.06782073591332469   0.006821030134882211   0.005477906118252756
-0.06782073591332469   0.006821030134882211   0.005477906118252756
-0.06782073591332469   0.006821030134882211   0.005477906118252756
-0.06782073591332469   0.006821030134882211   0.005477906118252756
-0.12269384494032824   -0.011624068084540792   -0.00509792583425275
-0.12269384494032824   -0.011624068084540792   -0.00509792583425275
-0.12269384494032824   -0.011624068084540792   -0.00509792583425275
-0.12269384494032824   -0.011624068084540792   -0.00509792583425275
-0.09536051879419809   -0.004551877093820082   -0.002085644220623368
-0.09536051879419809   -0.004551877093820082   -0.002085644220623368
-0.09536051879419809   -0.004551877093820082   -0.002085644220623368
-0.09536051879419809   -0.004551877093820082   -0.002085644220623368
-0.11933981939665729   -0.003807284187935571   0.003855417987496449
-0.11933981939665729   -0.003807284187935571   0.003855417987496449
-0.11933981939665729   -0.003807284187935571   0.003855417987496449
-0.11933981939665729   -0.003807284187935571   0.003855417987496449
-0.07074218602914442   -0.0005631783338718443   -0.001745135992091848
-0.07074218602914442   -0.0005631783338718443   -0.001745135992091848
-0.07074218602914442   -0.0005631783338718443   -0.001745135992091848
-0.07074218602914442   -0.0005631783338718443   -0.001745135992091848
-0.0669637521972   0.011943177810720337   0.004473005132696483
-0.0669637521972   0.011943177810720337   0.004473005132696483
-0.0669637521972   0.011943177810720337   0.004473005132696483
-0.0669637521972   0.011943177810720337   0.004473005132696483
-0.12099816123979971   -0.006836348842352596   -0.006018680639831405
-0.12099816123979971   -0.006836348842352596   -0.006018680639831405
-0.12099816123979971   -0.006836348842352596   -0.006018680639831405
-0.12099816123979971   -0.006836348842352596   -0.006018680639831405
-0.09351901119873965   0.0004275300998480688   5.717450733396315e-05
-0.09351901119873965   0.0004275300998480688   5.717450733396315e-05
-0.09351901119873965   0.0004275300998480688   5.717450733396315e-05
-0.09351901119873965   0.0004275300998480688   5.717450733396315e-05
-0.11739122133711136   0.0016658474687086047   0.0035138225625491806
-0.11739122133711136   0.0016658474687086047   0.0035138225625491806
-0.11739122133711136   0.0016658474687086047   0.0035138225625491806
-0.11739122133711136   0.0016658474687086047   0.0035138225625491806
-0.07003367982196247   0.003977993777585011   -0.0029114489579805964
-0.07003367982196247   0.003977993777585011   -0.0029114489579805964
-0.07003367982196247   0.003977993777585011   -0.0029114489579805964
-0.07003367982196247   0.003977993777585011   -0.0029114489579805964
-0.06613405226498943   0.017444846701325126   0.003537277855888645
-0.06613405226498943   0.017444846701325126   0.003537277855888645
-0.06613405226498943   0.017444846701325126   0.003537277855888645
-0.06613405226498943   0.017444846701325126   0.003537277855888645
-0.11974616598252398   -0.0016311847177798875   -0.00663250479419689
-0.11974616598252398   -0.0016311847177798875   -0.00663250479419689
-0.11974616598252398   -0.0016311847177798875   -0.00663250479419689
-0.11974616598252398   -0.0016311847177798875   -0.00663250479419689
-0.09278330537437501   0.005171706749509425   0.0021197731024057836
-0.09278330537437501   0.005171706749509425   0.0021197731024057836
-0.09278330537437501   0.005171706749509425   0.0021197731024057836
-0.09278330537437501   0.005171706749509425   0.0021197731024057836
-0.07292005804895475   -0.01377034626532217   0.0003397664110858685
-0.07292005804895475   -0.01377034626532217   0.0003397664110858685
-0.07292005804895475   -0.01377034626532217   0.0003397664110858685
-0.07292005804895475   -0.01377034626532217   0.0003397664110858685
-0.0209505033444837   -0.0019390128467826001   0.002940778693285447
-0.0209505033444837   -0.0019390128467826001   0.002940778693285447
-0.0209505033444837   -0.0019390128467826001   0.002940778693285447
-0.0209505033444837   -0.0019390128467826001   0.002940778693285447
-0.02050197602893083   0.0025464309441330666   0.0010039479043219626
-0.02050197602893083   0.0025464309441330666   0.0010039479043219626
-0.02050197602893083   0.0025464309441330666   0.0010039479043219626
-0.02050197602893083   0.0025464309441330666   0.0010039479043219626
-0.07212687429549146   -0.007910431036287944   -0.0013213246214109214
-0.07212687429549146   -0.007910431036287944   -0.0013213246214109214
-0.07212687429549146   -0.007910431036287944   -0.0013213246214109214
-0.07212687429549146   -0.007910431036287944   -0.0013213246214109214
-0.046711393717269366   -0.005033174273743234   -0.001499940188980125
-0.046711393717269366   -0.005033174273743234   -0.001499940188980125
-0.046711393717269366   -0.005033174273743234   -0.001499940188980125
-0.046711393717269366   -0.005033174273743234   -0.001499940188980125
-0.07199970446576669   -0.008060904688261126   -0.0005350018208131503
-0.07199970446576669   -0.008060904688261126   -0.0005350018208131503
-0.07199970446576669   -0.008060904688261126   -0.0005350018208131503
-0.07199970446576669   -0.008060904688261126   -0.0005350018208131503
-0.020195192244493343   0.0031308582102689505   0.0019534395603735153
-0.020195192244493343   0.0031308582102689505   0.0019534395603735153
-0.020195192244493343   0.0031308582102689505   0.0019534395603735153
-0.020195192244493343   0.0031308582102689505   0.0019534395603735153
-0.019463281015758317   0.008281779820040233   0.00020635099872158558
-0.019463281015758317   0.008281779820040233   0.00020635099872158558
-0.019463281015758317   0.008281779820040233   0.00020635099872158558
-0.019463281015758317   0.008281779820040233   0.00020635099872158558
-0.07126651250369238   -0.0028002108073484975   -0.002297407781696679
-0.07126651250369238   -0.0028002108073484975   -0.002297407781696679
-0.07126651250369238   -0.0028002108073484975   -0.002297407781696679
-0.07126651250369238   -0.0028002108073484975   -0.002297407781696679
-0.04559971290679791   9.737769357759038e-05   0.0005296228720705481
-0.04559971290679791   9.737769357759038e-05   0.0005296228720705481
-0.04559971290679791   9.737769357759038e-05   0.0005296228720705481
-0.04559971290679791   9.737769357759038e-05   0.0005296228720705481
-0.07099435287540677   -0.0023442240342976483   -0.0013925964133193764
-0.07099435287540677   -0.0023442240342976483   -0.0013925964133193764
-0.07099435287540677   -0.0023442240342976483   -0.0013925964133193764
-0.07099435287540677   -0.0023442240342976483   -0.0013925964133193764
-0.01933449853307553   0.008226735157957805   0.0009053080742179695
-0.01933449853307553   0.008226735157957805   0.0009053080742179695
-0.01933449853307553   0.008226735157957805   0.0009053080742179695
-0.01933449853307553   0.008226735157957805   0.0009053080742179695
-0.01852427861235587   0.014100542356779619   -0.0007150402433712467
-0.01852427861235587   0.014100542356779619   -0.0007150402433712467
-0.01852427861235587   0.014100542356779619   -0.0007150402433712467
-0.01852427861235587   0.014100542356779619   -0.0007150402433712467
-0.07052404371307591   0.0023644065070849703   -0.00333223919030339
-0.07052404371307591   0.0023644065070849703   -0.00333223919030339
-0.07052404371307591   0.0023644065070849703   -0.00333223919030339
-0.07052404371307591   0.0023644065070849703   -0.00333223919030339
-0.04458622550925217   0.005253000126894842   0.002485140637986256
-0.04458622550925217   0.005253000126894842   0.002485140637986256
-0.04458622550925217   0.005253000126894842   0.002485140637986256
-0.04458622550925217   0.005253000126894842   0.002485140637986256
-0.025355390734266684   -0.017122208230700348   -0.0039004628717118905
-0.025355390734266684   -0.017122208230700348   -0.0039004628717118905
-0.025355390734266684   -0.017122208230700348   -0.0039004628717118905
-0.025355390734266684   -0.017122208230700348   -0.0039004628717118905
0.02860456321605479   0.00208148786033663   0.0063588053928581925
0.02860456321605479   0.00208148786033663   0.0063588053928581925
0.02860456321605479   0.00208148786033663   0.0063588053928581925
0.02860456321605479   0.00208148786033663   0.0063588053928581925
0.026239336988982658   -0.0015036585848734632   -0.0037904102244121574
0.026239336988982658   -0.0015036585848734632   -0.0037904102244121574
0.026239336988982658   -0.0015036585848734632   -0.0037904102244121574
0.026239336988982658   -0.0015036585848734632   -0.0037904102244121574
-0.021492975461157304   -0.0038539209599872896   0.0024493026473097887
-0.021492975461157304   -0.0038539209599872896   0.0024493026473097887
-0.021492975461157304   -0.0038539209599872896   0.0024493026473097887
-0.021492975461157304   -0.0038539209599872896   0.0024493026473097887
0.0018261201244808892   -0.004954383610103509   -0.0010805193144450133
0.0018261201244808892   -0.004954383610103509   -0.0010805193144450133
0.0018261201244808892   -0.004954383610103509   -0.0010805193144450133
0.0018261201244808892   -0.004954383610103509   -0.0010805193144450133
-0.024555277748447138   -0.011873104531085246   -0.004843025218041275
-0.024555277748447138   -0.011873104531085246   -0.004843025218041275
-0.024555277748447138   -0.011873104531085246   -0.004843025218041275
-0.024555277748447138   -0.011873104531085246   -0.004843025218041275
0.029816594015046622   0.0070304797249982846   0.005561736596035652
0.029816594015046622   0.0070304797249982846   0.005561736596035652
0.029816594015046622   0.0070304797249982846   0.005561736596035652
0.029816594015046622   0.0070304797249982846   0.005561736596035652
0.028197070028503888   0.003925524891781939   -0.004307314496221274
0.028197070028503888   0.003925524891781939   -0.004307314496221274
0.028197070028503888   0.003925524891781939   -0.004307314496221274
0.028197070028503888   0.003925524891781939   -0.004307314496221274
-0.020745755695282572   0.0007155018274820854   0.0013602555936582965
-0.020745755695282572   0.0007155018274820854   0.0013602555936582965
-0.020745755695282572   0.0007155018274820854   0.0013602555936582965
-0.020745755695282572   0.0007155018274820854   0.0013602555936582965
0.0028832419479206508   -0.00026960852056469363   0.0009947785979443316
0.0028832419479206508   -0.00026960852056469363   0.0009947785979443316
0.0028832419479206508   -0.00026960852056469363   0.0009947785979443316
0.0028832419479206508   -0.00026960852056469363   0.0009947785979443316
-0.023701763312492588   -0.006778029175129171   -0.005926251489780349
-0.023701763312492588   -0.006778029175129171   -0.005926251489780349
-0.023701763312492588   -0.006778029175129171   -0.005926251489780349
-0.023701763312492588   -0.006778029175129171   -0.005926251489780349
0.031600698514297906   0.011866676762977183   0.004769676061553313
0.031600698514297906   0.011866676762977183   0.004769676061553313
0.031600698514297906   0.011866676762977183   0.004769676061553313
0.031600698514297906   0.011866676762977183   0.004769676061553313
0.029783616194065214   0.010068213654937323   -0.005000282645297029
0.029783616194065214   0.010068213654937323   -0.005000282645297029
0.029783616194065214   0.010068213654937323   -0.005000282645297029
0.029783616194065214   0.010068213654937323   -0.005000282645297029
-0.019949761649795276   0.005934315422440735   0.000323771503770606
-0.019949761649795276   0.005934315422440735   0.000323771503770606
-0.019949761649795276   0.005934315422440735   0.000323771503770606
-0.019949761649795276   0.005934315422440735   0.000323771503770606
0.004463137049897189   0.004763518560382047   0.003123100597980159
0.004463137049897189   0.004763518560382047   0.003123100597980159
0.004463137049897189   0.004763518560382047   0.003123100597980159
0.004463137049897189   0.004763518560382047   0.003123100597980159
0.021894835022167835   -0.017291474012866122   -0.007816873703373604
0.021894835022167835   -0.017291474012866122   -0.007816873703373604
0.021894835022167835   -0.017291474012866122   -0.007816873703373604
0.021894835022167835   -0.017291474012866122   -0.007816873703373604
0.07161614465866091   0.0072551150340711985   0.008438697821276453
0.07161614465866091   0.0072551150340711985   0.008438697821276453
0.07161614465866091   0.0072551150340711985   0.008438697821276453
0.07161614465866091   0.0072551150340711985   0.008438697821276453
0.07077548698605275   -0.004890705123297079   -0.010313543452646842
0.07077548698605275   -0.004890705123297079   -0.010313543452646842
0.07077548698605275   -0.004890705123297079   -0.010313543452646842
0.07077548698605275   -0.004890705123297079   -0.010313543452646842
0.02889304357234253   0.0016452168462211905   0.006329247261292557
0.02889304357234253   0.0016452168462211905   0.006329247261292557
0.02889304357234253   0.0016452168462211905   0.006329247261292557
0.02889304357234253   0.0016452168462211905   0.006329247261292557
0.045755430222127115   -0.0037750100485700374   -0.0026087671096807173
0.045755430222127115   -0.0037750100485700374   -0.0026087671096807173
0.045755430222127115   -0.0037750100485700374   -0.0026087671096807173
0.045755430222127115   -0.0037750100485700374   -0.0026087671096807173
0.022632687692528415   -0.014268349458153248   -0.009058965833403359
0.022632687692528415   -0.014268349458153248   -0.009058965833403359
0.022632687692528415   -0.014268349458153248   -0.009058965833403359
0.022632687692528415   -0.014268349458153248   -0.009058965833403359
0.07756071857873939   0.011547736893950077   0.007174172493540128
0.07756071857873939   0.011547736893950077   0.007174172493540128
0.07756071857873939   0.011547736893950077   0.007174172493540128
0.07756071857873939   0.011547736893950077   0.007174172493540128
0.07511420470317685   -0.0018638004905892165   -0.01243896052544366
0.07511420470317685   -0.0018638004905892165   -0.01243896052544366
0.07511420470317685   -0.0018638004905892165   -0.01243896052544366
0.07511420470317685   -0.0018638004905892165   -0.01243896052544366
0.0300416485787262   0.0038670429857500404   0.004974060160921919
0.0300416485787262   0.0038670429857500404   0.004974060160921919
0.0300416485787262   0.0038670429857500404   0.004974060160921919
0.0300416485787262   0.0038670429857500404   0.004974060160921919
0.050020651430095146   -0.0006906888009287791   -0.00019408233538787886
0.050020651430095146   -0.0006906888009287791   -0.00019408233538787886
0.050020651430095146   -0.0006906888009287791   -0.00019408233538787886
0.050020651430095146   -0.0006906888009287791   -0.00019408233538787886
0.023812281626759343   -0.011747949436180334   -0.010557782176981736
0.023812281626759343   -0.011747949436180334   -0.010557782176981736
0.023812281626759343   -0.011747949436180334   -0.010557782176981736
0.023812281626759343   -0.011747949436180334   -0.010557782176981736
0.08189663299197074   0.014304253268168386   0.005305127159769106
0.08189663299197074   0.014304253268168386   0.005305127159769106
0.08189663299197074   0.014304253268168386   0.005305127159769106
0.08189663299197074   0.014304253268168386   0.005305127159769106
0.08184276911711116   0.004738074346742359   -0.013376324793833494
0.08184276911711116   0.004738074346742359   -0.013376324793833494
0.08184276911711116   0.004738074346742359   -0.013376324793833494
0.08184276911711116   0.004738074346742359   -0.013376324793833494
0.031212945328261167   0.008246488840724398   0.003968087839895409
0.031212945328261167   0.008246488840724398   0.003968087839895409
0.031212945328261167   0.008246488840724398   0.003968087839895409
0.031212945328261167   0.008246488840724398   0.003968087839895409
0.05233705212781238   0.002654054890081902   0.001933656948646785
0.05233705212781238   0.002654054890081902   0.001933656948646785
0.05233705212781238   0.002654054890081902   0.001933656948646785
0.05233705212781238   0.002654054890081902   0.001933656948646785
-0.10056717606778076   -0.0012160712791855384   0.010542175937356485
-0.10056717606778076   -0.0012160712791855384   0.010542175937356485
-0.10056717606778076   -0.0012160712791855384   0.010542175937356485
-0.10056717606778076   -0.0012160712791855384   0.010542175937356485
-0.0804778840168479   -0.010554510329374354   -0.005058403942794417
-0.0804778840168479   -0.010554510329374354   -0.005058403942794417
-0.0804778840168479   -0.010554510329374354   -0.005058403942794417
-0.0804778840168479   -0.010554510329374354   -0.005058403942794417
-0.07276399750976492   0.008777109331703864   0.008968279135108944
-0.07276399750976492   0.008777109331703864   0.008968279135108944
-0.07276399750976492   0.008777109331703864   0.008968279135108944
-0.07276399750976492   0.008777109331703864   0.008968279135108944
-0.1002431669300278   -0.010996847523073176   -0.006948236412533365
-0.1002431669300278   -0.010996847523073176   -0.006948236412533365
-0.1002431669300278   -0.010996847523073176   -0.006948236412533365
-0.1002431669300278   -0.010996847523073176   -0.006948236412533365
-0.08522071685356022   -0.0022414660803287715   -0.0015740569342004677
-0.08522071685356022   -0.0022414660803287715   -0.0015740569342004677
-0.08522071685356022   -0.0022414660803287715   -0.0015740569342004677
-0.08522071685356022   -0.0022414660803287715   -0.0015740569342004677
-0.09368453152554511   0.004807471099072865   0.010040621987734137
-0.09368453152554511   0.004807471099072865   0.010040621987734137
-0.09368453152554511   0.004807471099072865   0.010040621987734137
-0.09368453152554511   0.004807471099072865   0.010040621987734137
-0.0788484880495995   -0.0065530644257939755   -0.006123999806565677
-0.0788484880495995   -0.0065530644257939755   -0.006123999806565677
-0.0788484880495995   -0.0065530644257939755   -0.006123999806565677
-0.0788484880495995   -0.0065530644257939755   -0.006123999806565677
-0.071067795344985   0.011089596844724834   0.007552581676546925
-0.071067795344985   0.011089596844724834   0.007552581676546925
-0.071067795344985   0.011089596844724834   0.007552581676546925
-0.071067795344985   0.011089596844724834   0.007552581676546925
-0.09553039914969266   -0.00837155917310956   -0.008627061280023
-0.09553039914969266   -0.00837155917310956   -0.008627061280023
-0.09553039914969266   -0.00837155917310956   -0.008627061280023
-0.09553039914969266   -0.00837155917310956   -0.008627061280023
-0.08275396900975175   0.0007616198729148826   0.00037337058157681235
-0.08275396900975175   0.0007616198729148826   0.00037337058157681235
-0.08275396900975175   0.0007616198729148826   0.00037337058157681235
-0.08275396900975175   0.0007616198729148826   0.00037337058157681235
-0.08899423819736837   0.00760852400053045   0.008073660307958384
-0.08899423819736837   0.00760852400053045   0.008073660307958384
-0.08899423819736837   0.00760852400053045   0.008073660307958384
-0.08899423819736837   0.00760852400053045   0.008073660307958384
-0.07716211851638556   -0.004448648547991368   -0.0073807887877391405
-0.07716211851638556   -0.004448648547991368   -0.0073807887877391405
-0.07716211851638556   -0.004448648547991368   -0.0073807887877391405
-0.07716211851638556   -0.004448648547991368   -0.0073807887877391405
-0.06972713652717022   0.014054636716021526   0.006508465383634143
-0.06972713652717022   0.014054636716021526   0.006508465383634143
-0.06972713652717022   0.014054636716021526   0.006508465383634143
-0.06972713652717022   0.014054636716021526   0.006508465383634143
-0.08921443510222189   -0.004151658338781837   -0.009962648705320548
-0.08921443510222189   -0.004151658338781837   -0.009962648705320548
-0.08921443510222189   -0.004151658338781837   -0.009962648705320548
-0.08921443510222189   -0.004151658338781837   -0.009962648705320548
-0.07785634375023946   0.0037711471658507184   0.0027501090977292975
-0.07785634375023946   0.0037711471658507184   0.0027501090977292975
-0.07785634375023946   0.0037711471658507184   0.0027501090977292975
-0.07785634375023946   0.0037711471658507184   0.0027501090977292975
-0.07743436032228122   -0.005561733754666921   0.005166437955331529
-0.07743436032228122   -0.005561733754666921   0.005166437955331529
-0.07743436032228122   -0.005561733754666921   0.005166437955331529
-0.07743436032228122   -0.005561733754666921   0.005166437955331529
-0.05866156077900098   -0.007977547265520532   -0.0014861670533582328
-0.05866156077900098   -0.007977547265520532   -0.0014861670533582328
-0.05866156077900098   -0.007977547265520532   -0.0014861670533582328
-0.05866156077900098   -0.007977547265520532   -0.0014861670533582328
-0.05444121932134201   0.003964188252336148   0.004590730231143786
-0.05444121932134201   0.003964188252336148   0.004590730231143786
-0.05444121932134201   0.003964188252336148   0.004590730231143786
-0.05444121932134201   0.003964188252336148   0.004590730231143786
-0.07876774507377603   -0.008056562720780938   -0.0042167866324613595
-0.07876774507377603   -0.008056562720780938   -0.0042167866324613595
-0.07876774507377603   -0.008056562720780938   -0.0042167866324613595
-0.07876774507377603   -0.008056562720780938   -0.0042167866324613595
-0.0671849298564652   -0.004031464676114236   -0.0019178220852266777
-0.0671849298564652   -0.004031464676114236   -0.0019178220852266777
-0.0671849298564652   -0.004031464676114236   -0.0019178220852266777
-0.0671849298564652   -0.004031464676114236   -0.0019178220852266777
-0.07549160926820421   -0.00028547487361854987   0.004392804548234409
-0.07549160926820421   -0.00028547487361854987   0.004392804548234409
-0.07549160926820421   -0.00028547487361854987   0.004392804548234409
-0.07549160926820421   -0.00028547487361854987   0.004392804548234409
-0.05733554515991374   -0.003425089627826552   -0.0024916210815517127
-0.05733554515991374   -0.003425089627826552   -0.0024916210815517127
-0.05733554515991374   -0.003425089627826552   -0.0024916210815517127
-0.05733554515991374   -0.003425089627826552   -0.0024916210815517127
-0.05299052634386579   0.008700500611612642   0.0036579317340608725
-0.05299052634386579   0.008700500611612642   0.0036579317340608725
-0.05299052634386579   0.008700500611612642   0.0036579317340608725
-0.05299052634386579   0.008700500611612642   0.0036579317340608725
-0.07651935544695256   -0.0035567179897396206   -0.005058903998825323
-0.07651935544695256   -0.0035567179897396206   -0.005058903998825323
-0.07651935544695256   -0.0035567179897396206   -0.005058903998825323
-0.07651935544695256   -0.0035567179897396206   -0.005058903998825323
-0.06503305543192252   0.0004811696148302514   0.00010233759847095951
-0.06503305543192252   0.0004811696148302514   0.00010233759847095951
-0.06503305543192252   0.0004811696148302514   0.00010233759847095951
-0.06503305543192252   0.0004811696148302514   0.00010233759847095951
-0.07304859425486676   0.004754114564143747   0.003984069407719278
-0.07304859425486676   0.004754114564143747   0.003984069407719278
-0.07304859425486676   0.004754114564143747   0.003984069407719278
-0.07304859425486676   0.004754114564143747   0.003984069407719278
-0.05602080004186341   0.0008301555518169623   -0.0036230916961315467
-0.05602080004186341   0.0008301555518169623   -0.0036230916961315467
-0.05602080004186341   0.0008301555518169623   -0.0036230916961315467
-0.05602080004186341   0.0008301555518169623   -0.0036230916961315467
-0.05154241065425171   0.013889904719502971   0.002769187063945147
-0.05154241065425171   0.013889904719502971   0.002769187063945147
-0.05154241065425171   0.013889904719502971   0.002769187063945147
-0.05154241065425171   0.013889904719502971   0.002769187063945147
-0.07470193650754557   0.001406770728460992   -0.005717668530680668
-0.07470193650754557   0.001406770728460992   -0.005717668530680668
-0.07470193650754557   0.001406770728460992   -0.005717668530680668
-0.07470193650754557   0.001406770728460992   -0.005717668530680668
-0.06349411158714172   0.004963155699736561   0.002099401073766891
-0.06349411158714172   0.004963155699736561   0.002099401073766891
-0.06349411158714172   0.004963155699736561   0.002099401073766891
-0.06349411158714172   0.004963155699736561   0.002099401073766891
-0.05853505642569393   -0.00984193142679219   0.0010107388744477336
-0.05853505642569393   -0.00984193142679219   0.0010107388744477336
-0.05853505642569393   -0.00984193142679219   0.0010107388744477336
-0.05853505642569393   -0.00984193142679219   0.0010107388744477336
-0.03700325374084317   -0.004467153201311979   0.0020948437797625417
-0.03700325374084317   -0.004467153201311979   0.0020948437797625417
-0.03700325374084317   -0.004467153201311979   0.0020948437797625417
-0.03700325374084317   -0.004467153201311979   0.0020948437797625417
-0.035965694216346454   -0.0003633557067946611   0.00025287194691048405
-0.035965694216346454   -0.0003633557067946611   0.00025287194691048405
-0.035965694216346454   -0.0003633557067946611   0.00025287194691048405
-0.035965694216346454   -0.0003633557067946611   0.00025287194691048405
-0.05711958514065996   -0.004378873450436691   -0.0004580371626731663
-0.05711958514065996   -0.004378873450436691   -0.0004580371626731663
-0.05711958514065996   -0.004378873450436691   -0.0004580371626731663
-0.05711958514065996   -0.004378873450436691   -0.0004580371626731663
-0.047234719380391546   -0.004533866256176734   -0.0014132872675105927
-0.047234719380391546   -0.004533866256176734   -0.0014132872675105927
-0.047234719380391546   -0.004533866256176734   -0.0014132872675105927
-0.047234719380391546   -0.004533866256176734   -0.0014132872675105927
-0.057031574012374346   -0.004588730874765655   0.000191875903083406
-0.057031574012374346   -0.004588730874765655   0.000191875903083406
-0.057031574012374346   -0.004588730874765655   0.000191875903083406
-0.057031574012374346   -0.004588730874765655   0.000191875903083406
-0.03567259398509151   0.00022761307707408734   0.0011274043193161016
-0.03567259398509151   0.00022761307707408734   0.0011274043193161016
-0.03567259398509151   0.00022761307707408734   0.0011274043193161016
-0.03567259398509151   0.00022761307707408734   0.0011274043193161016
-0.034374362010653636   0.0049333204589751285   -0.0005219019431173082
-0.034374362010653636   0.0049333204589751285   -0.0005219019431173082
-0.034374362010653636   0.0049333204589751285   -0.0005219019431173082
-0.034374362010653636   0.0049333204589751285   -0.0005219019431173082
-0.05566427748556931   0.0003850218818940007   -0.0013953452447388118
-0.05566427748556931   0.0003850218818940007   -0.0013953452447388118
-0.05566427748556931   0.0003850218818940007   -0.0013953452447388118
-0.05566427748556931   0.0003850218818940007   -0.0013953452447388118
-0.04554775802095156   0.00020368055040753024   0.0005576148128673668
-0.04554775802095156   0.00020368055040753024   0.0005576148128673668
-0.04554775802095156   0.00020368055040753024   0.0005576148128673668
-0.04554775802095156   0.00020368055040753024   0.0005576148128673668
-0.055454608264271336   0.0006910467880033079   -0.0006530240443587097
-0.055454608264271336   0.0006910467880033079   -0.0006530240443587097
-0.055454608264271336   0.0006910467880033079   -0.0006530240443587097
-0.055454608264271336   0.0006910467880033079   -0.0006530240443587097
-0.03423847101919429   0.004972855765623021   0.00011801770753126425
-0.03423847101919429   0.004972855765623021   0.00011801770753126425
-0.03423847101919429   0.004972855765623021   0.00011801770753126425
-0.03423847101919429   0.004972855765623021   0.00011801770753126425
-0.03286897125506762   0.01028383555874259   -0.0013901663900235867
-0.03286897125506762   0.01028383555874259   -0.0013901663900235867
-0.03286897125506762   0.01028383555874259   -0.0013901663900235867
-0.03286897125506762   0.01028383555874259   -0.0013901663900235867
-0.05431989345488792   0.005183849391139313   -0.002412171610871979
-0.05431989345488792   0.005183849391139313   -0.002412171610871979
-0.05431989345488792   0.005183849391139313   -0.002412171610871979
-0.05431989345488792   0.005183849391139313   -0.002412171610871979
-0.04396174141382801   0.004959003916250412   0.002447891190423438
-0.04396174141382801   0.004959003916250412   0.002447891190423438
-0.04396174141382801   0.004959003916250412   0.002447891190423438
-0.04396174141382801   0.004959003916250412   0.002447891190423438
-0.03986324204334444   -0.013515237047438448   -0.0031570138866179667
-0.03986324204334444   -0.013515237047438448   -0.0031570138866179667
-0.03986324204334444   -0.013515237047438448   -0.0031570138866179667
-0.03986324204334444   -0.013515237047438448   -0.0031570138866179667
-0.016306580952394463   -0.0007479718259303463   0.0054643638291041055
-0.016306580952394463   -0.0007479718259303463   0.0054643638291041055
-0.016306580952394463   -0.0007479718259303463   0.0054643638291041055
-0.016306580952394463   -0.0007479718259303463   0.0054643638291041055
-0.01806988628344019   -0.004518375072632761   -0.004296057093634682
-0.01806988628344019   -0.004518375072632761   -0.004296057093634682
-0.01806988628344019   -0.004518375072632761   -0.004296057093634682
-0.01806988628344019   -0.004518375072632761   -0.004296057093634682
-0.03540237215282874   -0.0005019368166031203   0.0032080633743072004
-0.03540237215282874   -0.0005019368166031203   0.0032080633743072004
-0.03540237215282874   -0.0005019368166031203   0.0032080633743072004
-0.03540237215282874   -0.0005019368166031203   0.0032080633743072004
-0.027365205759772117   -0.004616241284272709   -0.0010246798777562528
-0.027365205759772117   -0.004616241284272709   -0.0010246798777562528
-0.027365205759772117   -0.004616241284272709   -0.0010246798777562528
-0.027365205759772117   -0.004616241284272709   -0.0010246798777562528
-0.03845924163541034   -0.008543899079450596   -0.004034321775753699
-0.03845924163541034   -0.008543899079450596   -0.004034321775753699
-0.03845924163541034   -0.008543899079450596   -0.004034321775753699
-0.03845924163541034   -0.008543899079450596   -0.004034321775753699
-0.014588345694263817   0.003948258296809418   0.004645012482804976
-0.014588345694263817   0.003948258296809418   0.004645012482804976
-0.014588345694263817   0.003948258296809418   0.004645012482804976
-0.014588345694263817   0.003948258296809418   0.004645012482804976
-0.01566629919282552   0.000490785844931425   -0.004842780821552053
-0.01566629919282552   0.000490785844931425   -0.004842780821552053
-0.01566629919282552   0.000490785844931425   -0.004842780821552053
-0.01566629919282552   0.000490785844931425   -0.004842780821552053
-0.03407111017446514   0.0037712493589778804   0.002156428337822135
-0.03407111017446514   0.0037712493589778804   0.002156428337822135
-0.03407111017446514   0.0037712493589778804   0.002156428337822135
-0.03407111017446514   0.0037712493589778804   0.002156428337822135
-0.025536954579752445   -0.00017715507079861157   0.0009931955928129824
-0.025536954579752445   -0.00017715507079861157   0.0009931955928129824
-0.025536954579752445   -0.00017715507079861157   0.0009931955928129824
-0.025536954579752445   -0.00017715507079861157   0.0009931955928129824
-0.03702975562729221   -0.0038220493259321954   -0.0050435002414034626
-0.03702975562729221   -0.0038220493259321954   -0.0050435002414034626
-0.03702975562729221   -0.0038220493259321954   -0.0050435002414034626
-0.03702975562729221   -0.0038220493259321954   -0.0050435002414034626
-0.012311518078898988   0.00848022019094031   0.003941690402071976
-0.012311518078898988   0.00848022019094031   0.003941690402071976
-0.012311518078898988   0.00848022019094031   0.003941690402071976
-0.012311518078898988   0.00848022019094031   0.003941690402071976
-0.01363978078836318   0.006042923191310588   -0.005443170513312223
-0.01363978078836318   0.006042923191310588   -0.005443170513312223
-0.01363978078836318   0.006042923191310588   -0.005443170513312223
-0.01363978078836318   0.006042923191310588   -0.005443170513312223
-0.03270732038742317   0.008560205688483697   0.001141717818457527
-0.03270732038742317   0.008560205688483697   0.001141717818457527
-0.03270732038742317   0.008560205688483697   0.001141717818457527
-0.03270732038742317   0.008560205688483697   0.001141717818457527
-0.023682251136213358   0.0043901096854209384   0.002990633422744097
-0.023682251136213358   0.0043901096854209384   0.002990633422744097
-0.023682251136213358   0.0043901096854209384   0.002990633422744097
-0.023682251136213358   0.0043901096854209384   0.002990633422744097
-0.02153713769345918   -0.0144587994508651   -0.006977592251284949
-0.02153713769345918   -0.0144587994508651   -0.006977592251284949
-0.02153713769345918   -0.0144587994508651   -0.006977592251284949
-0.02153713769345918   -0.0144587994508651   -0.006977592251284949
-0.00197346442853589   0.0036677345337935794   0.00853240636622512
-0.00197346442853589   0.0036677345337935794   0.00853240636622512
-0.00197346442853589   0.0036677345337935794   0.00853240636622512
-0.00197346442853589   0.0036677345337935794   0.00853240636622512
-0.0021120601540106677   -0.007680465188460814   -0.009294059185764264
-0.0021120601540106677   -0.007680465188460814   -0.009294059185764264
-0.0021120601540106677   -0.007680465188460814   -0.009294059185764264
-0.0021120601540106677   -0.007680465188460814   -0.009294059185764264
-0.013993940428506272   0.004574009007778388   0.0069912881006234905
-0.013993940428506272   0.004574009007778388   0.0069912881006234905
-0.013993940428506272   0.004574009007778388   0.0069912881006234905
-0.013993940428506272   0.004574009007778388   0.0069912881006234905
-0.009787845735734404   -0.003269075460956498   -0.0014747128100366567
-0.009787845735734404   -0.003269075460956498   -0.0014747128100366567
-0.009787845735734404   -0.003269075460956498   -0.0014747128100366567
-0.009787845735734404   -0.003269075460956498   -0.0014747128100366567
-0.02012081079811821   -0.011031012023384234   -0.008038042716273817
-0.02012081079811821   -0.011031012023384234   -0.008038042716273817
-0.02012081079811821   -0.011031012023384234   -0.008038042716273817
-0.02012081079811821   -0.011031012023384234   -0.008038042716273817
0.004465831657199953   0.008375577284299732   0.007539357397527818
0.004465831657199953   0.008375577284299732   0.007539357397527818
0.004465831657199953   0.008375577284299732   0.007539357397527818
0.004465831657199953   0.008375577284299732   0.007539357397527818
0.0026127089525786675   -0.004831825347666952   -0.011091341880015516
0.0026127089525786675   -0.004831825347666952   -0.011091341880015516
0.0026127089525786675   -0.004831825347666952   -0.011091341880015516
0.0026127089525786675   -0.004831825347666952   -0.011091341880015516
-0.012340620837709695   0.006642909170170489   0.005633487628788015
-0.012340620837709695   0.006642909170170489   0.005633487628788015
-0.012340620837709695   0.006642909170170489   0.005633487628788015
-0.012340620837709695   0.006642909170170489   0.005633487628788015
-0.0060279252702602135   -0.00031002029288237064   0.0006809209115507338
-0.0060279252702602135   -0.00031002029288237064   0.0006809209115507338
-0.0060279252702602135   -0.00031002029288237064   0.0006809209115507338
-0.0060279252702602135   -0.00031002029288237064   0.0006809209115507338
-0.018400971818357467   -0.008684470622255953   -0.009340887482024388
-0.018400971818357467   -0.008684470622255953   -0.009340887482024388
-0.018400971818357467   -0.008684470622255953   -0.009340887482024388
-0.018400971818357467   -0.008684470622255953   -0.009340887482024388
0.009129484832786361   0.010951979344320052   0.005708732829035947
0.009129484832786361   0.010951979344320052   0.005708732829035947
0.009129484832786361   0.010951979344320052   0.005708732829035947
0.009129484832786361   0.010951979344320052   0.005708732829035947
0.0093494264388223   0.000694931806206969   -0.011926178443252866
0.0093494264388223   0.000694931806206969   -0.011926178443252866
0.0093494264388223   0.000694931806206969   -0.011926178443252866
0.0093494264388223   0.000694931806206969   -0.011926178443252866
-0.010805725022409547   0.010186022110487263   0.004584009397279255
-0.010805725022409547   0.010186022110487263   0.004584009397279255
-0.010805725022409547   0.010186022110487263   0.004584009397279255
-0.010805725022409547   0.010186022110487263   0.004584009397279255
-0.002436997750034049   0.0027477629004945517   0.0028322278734788796
-0.002436997750034049   0.0027477629004945517   0.0028322278734788796
-0.002436997750034049   0.0027477629004945517   0.0028322278734788796
-0.002436997750034049   0.0027477629004945517   0.0028322278734788796
-0.03010964016624426   0.002485819706534221   0.009775002386144822
-0.03010964016624426   0.002485819706534221   0.009775002386144822
-0.03010964016624426   0.002485819706534221   0.009775002386144822
-0.03010964016624426   0.002485819706534221   0.009775002386144822
-0.03963422718912339   -0.012548608297078667   -0.00558102031623604
-0.03963422718912339   -0.012548608297078667   -0.00558102031623604
-0.03963422718912339   -0.012548608297078667   -0.00558102031623604
-0.03963422718912339   -0.012548608297078667   -0.00558102031623604
-0.03164719095608761   0.005703877397154208   0.007959412214663354
-0.03164719095608761   0.005703877397154208   0.007959412214663354
-0.03164719095608761   0.005703877397154208   0.007959412214663354
-0.03164719095608761   0.005703877397154208   0.007959412214663354
-0.02934731963360756   -0.0077433259644271455   -0.007274692381145471
-0.02934731963360756   -0.0077433259644271455   -0.007274692381145471
-0.02934731963360756   -0.0077433259644271455   -0.007274692381145471
-0.02934731963360756   -0.0077433259644271455   -0.007274692381145471
-0.031981296704887356   -0.002438539624294814   -0.0028493772520944384
-0.031981296704887356   -0.002438539624294814   -0.0028493772520944384
-0.031981296704887356   -0.002438539624294814   -0.0028493772520944384
-0.031981296704887356   -0.002438539624294814   -0.0028493772520944384
-0.022994472313332123   0.007659818611611291   0.00908639964419328
-0.022994472313332123   0.007659818611611291   0.00908639964419328
-0.022994472313332123   0.007659818611611291   0.00908639964419328
-0.022994472313332123   0.007659818611611291   0.00908639964419328
-0.03757532394938724   -0.009274552851908981   -0.006702822502771136
-0.03757532394938724   -0.009274552851908981   -0.006702822502771136
-0.03757532394938724   -0.009274552851908981   -0.006702822502771136
-0.03757532394938724   -0.009274552851908981   -0.006702822502771136
-0.02937249181561795   0.007918538557070696   0.006665520036803567
-0.02937249181561795   0.007918538557070696   0.006665520036803567
-0.02937249181561795   0.007918538557070696   0.006665520036803567
-0.02937249181561795   0.007918538557070696   0.006665520036803567
-0.024150981956153797   -0.005240467560521201   -0.008996823084902676
-0.024150981956153797   -0.005240467560521201   -0.008996823084902676
-0.024150981956153797   -0.005240467560521201   -0.008996823084902676
-0.024150981956153797   -0.005240467560521201   -0.008996823084902676
-0.028154646697709756   0.00036385720306219877   -0.0007590820966304436
-0.028154646697709756   0.00036385720306219877   -0.0007590820966304436
-0.028154646697709756   0.00036385720306219877   -0.0007590820966304436
-0.028154646697709756   0.00036385720306219877   -0.0007590820966304436
-0.01778988678126712   0.010346327168651547   0.0072218580603569844
-0.01778988678126712   0.010346327168651547   0.0072218580603569844
-0.01778988678126712   0.010346327168651547   0.0072218580603569844
-0.01778988678126712   0.010346327168651547   0.0072218580603569844
-0.03534141130084856   -0.007276080482445985   -0.007984458349831832
-0.03534141130084856   -0.007276080482445985   -0.007984458349831832
-0.03534141130084856   -0.007276080482445985   -0.007984458349831832
-0.03534141130084856   -0.007276080482445985   -0.007984458349831832
-0.027318724294503754   0.011370351580284377   0.005751690082292371
-0.027318724294503754   0.011370351580284377   0.005751690082292371
-0.027318724294503754   0.011370351580284377   0.005751690082292371
-0.027318724294503754   0.011370351580284377   0.005751690082292371
-0.01720129217263335   -0.0004896671800900464   -0.010114952314105372
-0.01720129217263335   -0.0004896671800900464   -0.010114952314105372
-0.01720129217263335   -0.0004896671800900464   -0.010114952314105372
-0.01720129217263335   -0.0004896671800900464   -0.010114952314105372
-0.02363298584300962   0.003338983502724204   0.001446191575622903
-0.02363298584300962   0.003338983502724204   0.001446191575622903
-0.02363298584300962   0.003338983502724204   0.001446191575622903
-0.02363298584300962   0.003338983502724204   0.001446191575622903
-0.035231425732899814   -0.0018478425933894462   0.005732221261192183
-0.035231425732899814   -0.0018478425933894462   0.005732221261192183
-0.035231425732899814   -0.0018478425933894462   0.005732221261192183
-0.035231425732899814   -0.0018478425933894462   0.005732221261192183
-0.046304969600171275   -0.010253070525849579   -0.002174948883174793
-0.046304969600171275   -0.010253070525849579   -0.002174948883174793
-0.046304969600171275   -0.010253070525849579   -0.002174948883174793
-0.046304969600171275   -0.010253070525849579   -0.002174948883174793
-0.04163916892256566   0.000953410406416679   0.0037045028523163687
-0.04163916892256566   0.000953410406416679   0.0037045028523163687
-0.04163916892256566   0.000953410406416679   0.0037045028523163687
-0.04163916892256566   0.000953410406416679   0.0037045028523163687
-0.03591279329498058   -0.004448091837212496   -0.0032166302454343402
-0.03591279329498058   -0.004448091837212496   -0.0032166302454343402
-0.03591279329498058   -0.004448091837212496   -0.0032166302454343402
-0.03591279329498058   -0.004448091837212496   -0.0032166302454343402
-0.03984215351575   -0.0035769818126636143   -0.0019155234390515084
-0.03984215351575   -0.0035769818126636143   -0.0019155234390515084
-0.03984215351575   -0.0035769818126636143   -0.0019155234390515084
-0.03984215351575   -0.0035769818126636143   -0.0019155234390515084
-0.03278409477911793   0.0029827323033133728   0.0049960381933521055
-0.03278409477911793   0.0029827323033133728   0.0049960381933521055
-0.03278409477911793   0.0029827323033133728   0.0049960381933521055
-0.03278409477911793   0.0029827323033133728   0.0049960381933521055
-0.04443215907137164   -0.006141705367052713   -0.0031653321182443664
-0.04443215907137164   -0.006141705367052713   -0.0031653321182443664
-0.04443215907137164   -0.006141705367052713   -0.0031653321182443664
-0.04443215907137164   -0.006141705367052713   -0.0031653321182443664
-0.03962372401714916   0.005397230531771013   0.0028152071789206198
-0.03962372401714916   0.005397230531771013   0.0028152071789206198
-0.03962372401714916   0.005397230531771013   0.0028152071789206198
-0.03962372401714916   0.005397230531771013   0.0028152071789206198
-0.03313416725315768   -0.00022053166723341538   -0.004003786926590016
-0.03313416725315768   -0.00022053166723341538   -0.004003786926590016
-0.03313416725315768   -0.00022053166723341538   -0.004003786926590016
-0.03313416725315768   -0.00022053166723341538   -0.004003786926590016
-0.03739497274196599   0.0005203353752472745   -2.3487860109864395e-06
-0.03739497274196599   0.0005203353752472745   -2.3487860109864395e-06
-0.03739497274196599   0.0005203353752472745   -2.3487860109864395e-06
-0.03739497274196599   0.0005203353752472745   -2.3487860109864395e-06
-0.0298491432258384   0.007691054635669536   0.004509746907102473
-0.0298491432258384   0.007691054635669536   0.004509746907102473
-0.0298491432258384   0.007691054635669536   0.004509746907102473
-0.0298491432258384   0.007691054635669536   0.004509746907102473
-0.04254986197657053   -0.00215546970323431   -0.004262782383181641
-0.04254986197657053   -0.00215546970323431   -0.004262782383181641
-0.04254986197657053   -0.00215546970323431   -0.004262782383181641
-0.04254986197657053   -0.00215546970323431   -0.004262782383181641
-0.03759400050131733   0.01036576985017253   0.0019693910716487824
-0.03759400050131733   0.01036576985017253   0.0019693910716487824
-0.03759400050131733   0.01036576985017253   0.0019693910716487824
-0.03759400050131733   0.01036576985017253   0.0019693910716487824
-0.03078106466770611   0.004522927269399254   -0.004712587472834293
-0.03078106466770611   0.004522927269399254   -0.004712587472834293
-0.03078106466770611   0.004522927269399254   -0.004712587472834293
-0.03078106466770611   0.004522927269399254   -0.004712587472834293
-0.035076233016197396   0.004807948976539854   0.0019649168016168074
-0.035076233016197396   0.004807948976539854   0.0019649168016168074
-0.035076233016197396   0.004807948976539854   0.0019649168016168074
-0.035076233016197396   0.004807948976539854   0.0019649168016168074
-0.04470035542417094   -0.006088776666446284   0.0016838281374226254
-0.04470035542417094   -0.006088776666446284   0.0016838281374226254
-0.04470035542417094   -0.006088776666446284   0.0016838281374226254
-0.04470035542417094   -0.006088776666446284   0.0016838281374226254
-0.05282315990265827   -0.006763971904547535   0.0012826664492612324
-0.05282315990265827   -0.006763971904547535   0.0012826664492612324
-0.05282315990265827   -0.006763971904547535   0.0012826664492612324
-0.05282315990265827   -0.006763971904547535   0.0012826664492612324
-0.05126030298235613   -0.0032167048665599856   -0.0005064764015896509
-0.05126030298235613   -0.0032167048665599856   -0.0005064764015896509
-0.05126030298235613   -0.0032167048665599856   -0.0005064764015896509
-0.05126030298235613   -0.0032167048665599856   -0.0005064764015896509
-0.04263402041256748   -0.0007718327089933849   0.0004554885177171092
-0.04263402041256748   -0.0007718327089933849   0.0004554885177171092
-0.04263402041256748   -0.0007718327089933849   0.0004554885177171092
-0.04263402041256748   -0.0007718327089933849   0.0004554885177171092
-0.047926975495979136   -0.003973280600138882   -0.0013000595701834466
-0.047926975495979136   -0.003973280600138882   -0.0013000595701834466
-0.047926975495979136   -0.003973280600138882   -0.0013000595701834466
-0.047926975495979136   -0.003973280600138882   -0.0013000595701834466
-0.0426349581697287   -0.001212122682610904   0.0008910897055283296
-0.0426349581697287   -0.001212122682610904   0.0008910897055283296
-0.0426349581697287   -0.001212122682610904   0.0008910897055283296
-0.0426349581697287   -0.001212122682610904   0.0008910897055283296
-0.0509392142273293   -0.002456263895076894   0.0003385264020613829
-0.0509392142273293   -0.002456263895076894   0.0003385264020613829
-0.0509392142273293   -0.002456263895076894   0.0003385264020613829
-0.0509392142273293   -0.002456263895076894   0.0003385264020613829
-0.049127163279270934   0.0017184451469943111   -0.0012653431255356413
-0.049127163279270934   0.0017184451469943111   -0.0012653431255356413
-0.049127163279270934   0.0017184451469943111   -0.0012653431255356413
-0.049127163279270934   0.0017184451469943111   -0.0012653431255356413
-0.040624883168929454   0.003651814846779005   -0.00044517289498958567
-0.040624883168929454   0.003651814846779005   -0.00044517289498958567
-0.040624883168929454   0.003651814846779005   -0.00044517289498958567
-0.040624883168929454   0.003651814846779005   -0.00044517289498958567
-0.045687938905456235   0.0004154397732558284   0.0006017636187581801
-0.045687938905456235   0.0004154397732558284   0.0006017636187581801
-0.045687938905456235   0.0004154397732558284   0.0006017636187581801
-0.045687938905456235   0.0004154397732558284   0.0006017636187581801
-0.0405146840575877   0.003704614265114734   5.3023243383245114e-05
-0.0405146840575877   0.003704614265114734   5.3023243383245114e-05
-0.0405146840575877   0.003704614265114734   5.3023243383245114e-05
-0.0405146840575877   0.003704614265114734   5.3023243383245114e-05
-0.04895570954797484   0.0019472985712963155   -0.000636927893357649
-0.04895570954797484   0.0019472985712963155   -0.000636927893357649
-0.04895570954797484   0.0019472985712963155   -0.000636927893357649
-0.04895570954797484   0.0019472985712963155   -0.000636927893357649
-0.04708289072632941   0.006692288314188894   -0.0021069797241825856
-0.04708289072632941   0.006692288314188894   -0.0021069797241825856
-0.04708289072632941   0.006692288314188894   -0.0021069797241825856
-0.04708289072632941   0.006692288314188894   -0.0021069797241825856
-0.038732183429208984   0.008093665846187937   -0.0014494195638248813
-0.038732183429208984   0.008093665846187937   -0.0014494195638248813
-0.038732183429208984   0.008093665846187937   -0.0014494195638248813
-0.038732183429208984   0.008093665846187937   -0.0014494195638248813
-0.043565282925830305   0.004814357305842832   0.0024130534379485247
-0.043565282925830305   0.004814357305842832   0.0024130534379485247
-0.043565282925830305   0.004814357305842832   0.0024130534379485247
-0.043565282925830305   0.004814357305842832   0.0024130534379485247
-0.05419394402207846   -0.009904468680137928   -0.0024307573722498026
-0.05419394402207846   -0.009904468680137928   -0.0024307573722498026
-0.05419394402207846   -0.009904468680137928   -0.0024307573722498026
-0.05419394402207846   -0.009904468680137928   -0.0024307573722498026
-0.0600568533146566   -0.003335714752241859   0.0045555708293887436
-0.0600568533146566   -0.003335714752241859   0.0045555708293887436
-0.0600568533146566   -0.003335714752241859   0.0045555708293887436
-0.0600568533146566   -0.003335714752241859   0.0045555708293887436
-0.061205910295555034   -0.007268165265498134   -0.004819540727441566
-0.061205910295555034   -0.007268165265498134   -0.004819540727441566
-0.061205910295555034   -0.007268165265498134   -0.004819540727441566
-0.061205910295555034   -0.007268165265498134   -0.004819540727441566
-0.04914902573093971   0.0028857644370149683   0.003947440551917444
-0.04914902573093971   0.0028857644370149683   0.003947440551917444
-0.04914902573093971   0.0028857644370149683   0.003947440551917444
-0.04914902573093971   0.0028857644370149683   0.003947440551917444
-0.055891495669696666   -0.004139044733332188   -0.0008287982503957948
-0.055891495669696666   -0.004139044733332188   -0.0008287982503957948
-0.055891495669696666   -0.004139044733332188   -0.0008287982503957948
-0.055891495669696666   -0.004139044733332188   -0.0008287982503957948
-0.0521970392985788   -0.005153212908722718   -0.0032536499405407173
-0.0521970392985788   -0.005153212908722718   -0.0032536499405407173
-0.0521970392985788   -0.005153212908722718   -0.0032536499405407173
-0.0521970392985788   -0.005153212908722718   -0.0032536499405407173
-0.05782289674590167   0.0011058120622531135   0.0037215496930739674
-0.05782289674590167   0.0011058120622531135   0.0037215496930739674
-0.05782289674590167   0.0011058120622531135   0.0037215496930739674
-0.05782289674590167   0.0011058120622531135   0.0037215496930739674
-0.05832703448211642   -0.00259343391348155   -0.005411063716823737
-0.05832703448211642   -0.00259343391348155   -0.005411063716823737
-0.05832703448211642   -0.00259343391348155   -0.005411063716823737
-0.05832703448211642   -0.00259343391348155   -0.005411063716823737
-0.047256148626741074   0.006868152485760905   0.0029400227983465872
-0.047256148626741074   0.006868152485760905   0.0029400227983465872
-0.047256148626741074   0.006868152485760905   0.0029400227983465872
-0.047256148626741074   0.006868152485760905   0.0029400227983465872
-0.0532889547509513   0.0001074259335823273   0.0011440040343621317
-0.0532889547509513   0.0001074259335823273   0.0011440040343621317
-0.0532889547509513   0.0001074259335823273   0.0011440040343621317
-0.0532889547509513   0.0001074259335823273   0.0011440040343621317
-0.05020716895824964   -0.0007305277833594753   -0.004216398590076305
-0.05020716895824964   -0.0007305277833594753   -0.004216398590076305
-0.05020716895824964   -0.0007305277833594753   -0.004216398590076305
-0.05020716895824964   -0.0007305277833594753   -0.004216398590076305
-0.055037655645518546   0.005343604860727468   0.0030987916919568686
-0.055037655645518546   0.005343604860727468   0.0030987916919568686
-0.055037655645518546   0.005343604860727468   0.0030987916919568686
-0.055037655645518546   0.005343604860727468   0.0030987916919568686
-0.05582003080428142   0.002518863338731278   -0.0059522835134463185
-0.05582003080428142   0.002518863338731278   -0.0059522835134463185
-0.05582003080428142   0.002518863338731278   -0.0059522835134463185
-0.05582003080428142   0.002518863338731278   -0.0059522835134463185
-0.04535895791592551   0.011260008269360714   0.001944964372665098
-0.04535895791592551   0.011260008269360714   0.001944964372665098
-0.04535895791592551   0.011260008269360714   0.001944964372665098
-0.04535895791592551   0.011260008269360714   0.001944964372665098
-0.05115667748164232   0.004266170572351848   0.003011253725138845
-0.05115667748164232   0.004266170572351848   0.003011253725138845
-0.05115667748164232   0.004266170572351848   0.003011253725138845
-0.05115667748164232   0.004266170572351848   0.003011253725138845
-0.06388113266369949   -0.011667157100081593   -0.006234383567987148
-0.06388113266369949   -0.011667157100081593   -0.006234383567987148
-0.06388113266369949   -0.011667157100081593   -0.006234383567987148
-0.06388113266369949   -0.011667157100081593   -0.006234383567987148
-0.07329269906189707   0.00028629513845243246   0.008443356559612935
-0.07329269906189707   0.00028629513845243246   0.008443356559612935
-0.07329269906189707   0.00028629513845243246   0.008443356559612935
-0.07329269906189707   0.00028629513845243246   0.008443356559612935
-0.0727032665889763   -0.010245347957254845   -0.008396170564072646
-0.0727032665889763   -0.010245347957254845   -0.008396170564072646
-0.0727032665889763   -0.010245347957254845   -0.008396170564072646
-0.0727032665889763   -0.010245347957254845   -0.008396170564072646
-0.055789896734836045   0.007430213929044582   0.007562147881610141
-0.055789896734836045   0.007430213929044582   0.007562147881610141
-0.055789896734836045   0.007430213929044582   0.007562147881610141
-0.055789896734836045   0.007430213929044582   0.007562147881610141
-0.06369913607708946   -0.002710076751027883   -0.00020192583656489238
-0.06369913607708946   -0.002710076751027883   -0.00020192583656489238
-0.06369913607708946   -0.002710076751027883   -0.00020192583656489238
-0.06369913607708946   -0.002710076751027883   -0.00020192583656489238
-0.061779418597837976   -0.007810328122569811   -0.007144919381785797
-0.061779418597837976   -0.007810328122569811   -0.007144919381785797
-0.061779418597837976   -0.007810328122569811   -0.007144919381785797
-0.061779418597837976   -0.007810328122569811   -0.007144919381785797
-0.06636093551366949   0.005348003306664308   0.007722133548542218
-0.06636093551366949   0.005348003306664308   0.007722133548542218
-0.06636093551366949   0.005348003306664308   0.007722133548542218
-0.06636093551366949   0.005348003306664308   0.007722133548542218
-0.06756026767113626   -0.007537409695075336   -0.010048459864014534
-0.06756026767113626   -0.007537409695075336   -0.010048459864014534
-0.06756026767113626   -0.007537409695075336   -0.010048459864014534
-0.06756026767113626   -0.007537409695075336   -0.010048459864014534
-0.05361644187088904   0.009338989308504766   0.006209476117326824
-0.05361644187088904   0.009338989308504766   0.006209476117326824
-0.05361644187088904   0.009338989308504766   0.006209476117326824
-0.05361644187088904   0.009338989308504766   0.006209476117326824
-0.06039903321677282   0.00014684388941546035   0.0016645354457356064
-0.06039903321677282   0.00014684388941546035   0.0016645354457356064
-0.06039903321677282   0.00014684388941546035   0.0016645354457356064
-0.06039903321677282   0.00014684388941546035   0.0016645354457356064
-0.05950340389794489   -0.005578011591269209   -0.00830833311817911
-0.05950340389794489   -0.005578011591269209   -0.00830833311817911
-0.05950340389794489   -0.005578011591269209   -0.00830833311817911
-0.05950340389794489   -0.005578011591269209   -0.00830833311817911
-0.06130120109350363   0.007751695755276121   0.005957767573798171
-0.06130120109350363   0.007751695755276121   0.005957767573798171
-0.06130120109350363   0.007751695755276121   0.005957767573798171
-0.06130120109350363   0.007751695755276121   0.005957767573798171
-0.06068197956899548   -0.0029112727732527517   -0.011026210474834887
-0.06068197956899548   -0.0029112727732527517   -0.011026210474834887
-0.06068197956899548   -0.0029112727732527517   -0.011026210474834887
-0.06068197956899548   -0.0029112727732527517   -0.011026210474834887
-0.05169496584660697   0.01207774661171952   0.005114158001937501
-0.05169496584660697   0.01207774661171952   0.005114158001937501
-0.05169496584660697   0.01207774661171952   0.005114158001937501
-0.05169496584660697   0.01207774661171952   0.005114158001937501
-0.05551712628420644   0.002952986859726484   0.003871933617349046
-0.05551712628420644   0.002952986859726484   0.003871933617349046
-0.05551712628420644   0.002952986859726484   0.003871933617349046
-0.05551712628420644   0.002952986859726484   0.003871933617349046
0.0391435839416672   0.006164154893421746   0.009204984505479259
0.0391435839416672   0.006164154893421746   0.009204984505479259
0.0391435839416672   0.006164154893421746   0.009204984505479259
0.0391435839416672   0.006164154893421746   0.009204984505479259
0.00014400270898043085   -0.014623401666899193   -0.005934583517718264
0.00014400270898043085   -0.014623401666899193   -0.005934583517718264
0.00014400270898043085   -0.014623401666899193   -0.005934583517718264
0.00014400270898043085   -0.014623401666899193   -0.005934583517718264
0.00839511952380665   0.0026739734171220457   0.007069365369190112
0.00839511952380665   0.0026739734171220457   0.007069365369190112
0.00839511952380665   0.0026739734171220457   0.007069365369190112
0.00839511952380665   0.0026739734171220457   0.007069365369190112
0.04034778235132948   -0.0045710505201260535   -0.007504446715374393
0.04034778235132948   -0.0045710505201260535   -0.007504446715374393
0.04034778235132948   -0.0045710505201260535   -0.007504446715374393
0.04034778235132948   -0.0045710505201260535   -0.007504446715374393
0.02008590801091099   -0.0026303836969920344   -0.004492072748866333
0.02008590801091099   -0.0026303836969920344   -0.004492072748866333
0.02008590801091099   -0.0026303836969920344   -0.004492072748866333
0.02008590801091099   -0.0026303836969920344   -0.004492072748866333
0.04653168623629814   0.010546848436375742   0.008297173752967102
0.04653168623629814   0.010546848436375742   0.008297173752967102
0.04653168623629814   0.010546848436375742   0.008297173752967102
0.04653168623629814   0.010546848436375742   0.008297173752967102
0.0026191487729845   -0.012035992405233242   -0.0071005225625653525
0.0026191487729845   -0.012035992405233242   -0.0071005225625653525
0.0026191487729845   -0.012035992405233242   -0.0071005225625653525
0.0026191487729845   -0.012035992405233242   -0.0071005225625653525
0.011194817239322636   0.0048013334964845285   0.0058663830046495405
0.011194817239322636   0.0048013334964845285   0.0058663830046495405
0.011194817239322636   0.0048013334964845285   0.0058663830046495405
0.011194817239322636   0.0048013334964845285   0.0058663830046495405
0.0460167799231495   -0.0021752356221240252   -0.00930612612552872
0.0460167799231495   -0.0021752356221240252   -0.00930612612552872
0.0460167799231495   -0.0021752356221240252   -0.00930612612552872
0.0460167799231495   -0.0021752356221240252   -0.00930612612552872
0.02523497932401246   -1.1678155989103788e-05   -0.00220423773658169
0.02523497932401246   -1.1678155989103788e-05   -0.00220423773658169
0.02523497932401246   -1.1678155989103788e-05   -0.00220423773658169
0.02523497932401246   -1.1678155989103788e-05   -0.00220423773658169
0.052240150581902664   0.013136851561077701   0.006498639985035379
0.052240150581902664   0.013136851561077701   0.006498639985035379
0.052240150581902664   0.013136851561077701   0.006498639985035379
0.052240150581902664   0.013136851561077701   0.006498639985035379
0.00535813810744594   -0.010124062159840727   -0.008391616998408678
0.00535813810744594   -0.010124062159840727   -0.008391616998408678
0.00535813810744594   -0.010124062159840727   -0.008391616998408678
0.00535813810744594   -0.010124062159840727   -0.008391616998408678
0.013899214735133858   0.008767917974015873   0.005072466548657024
0.013899214735133858   0.008767917974015873   0.005072466548657024
0.013899214735133858   0.008767917974015873   0.005072466548657024
0.013899214735133858   0.008767917974015873   0.005072466548657024
0.05357587552180963   0.003168261906677978   -0.010236258408241498
0.05357587552180963   0.003168261906677978   -0.010236258408241498
0.05357587552180963   0.003168261906677978   -0.010236258408241498
0.05357587552180963   0.003168261906677978   -0.010236258408241498
0.02939480469587498   0.002969471063947982   -7.99980698441222e-05
0.02939480469587498   0.002969471063947982   -7.99980698441222e-05
0.02939480469587498   0.002969471063947982   -7.99980698441222e-05
0.02939480469587498   0.002969471063947982   -7.99980698441222e-05
0.005922460815399915   0.0019118886694963425   0.006422416677983624
0.005922460815399915   0.0019118886694963425   0.006422416677983624
0.005922460815399915   0.0019118886694963425   0.006422416677983624
0.005922460815399915   0.0019118886694963425   0.006422416677983624
-0.03458547487062504   -0.012495030952162884   -0.002737810909269568
-0.03458547487062504   -0.012495030952162884   -0.002737810909269568
-0.03458547487062504   -0.012495030952162884   -0.002737810909269568
-0.03458547487062504   -0.012495030952162884   -0.002737810909269568
-0.029500687160229064   -0.001953166894977721   0.0028458883309880195
-0.029500687160229064   -0.001953166894977721   0.0028458883309880195
-0.029500687160229064   -0.001953166894977721   0.0028458883309880195
-0.029500687160229064   -0.001953166894977721   0.0028458883309880195
0.005828786615464346   -0.0010128161269647687   -0.0020755096284345957
0.005828786615464346   -0.0010128161269647687   -0.0020755096284345957
0.005828786615464346   -0.0010128161269647687   -0.0020755096284345957
0.005828786615464346   -0.0010128161269647687   -0.0020755096284345957
-0.01339245562290951   -0.0030686759354933944   -0.0021142970902453366
-0.01339245562290951   -0.0030686759354933944   -0.0021142970902453366
-0.01339245562290951   -0.0030686759354933944   -0.0021142970902453366
-0.01339245562290951   -0.0030686759354933944   -0.0021142970902453366
0.008841875776259854   0.006284660029865078   0.0056924600187130935
0.008841875776259854   0.006284660029865078   0.0056924600187130935
0.008841875776259854   0.006284660029865078   0.0056924600187130935
0.008841875776259854   0.006284660029865078   0.0056924600187130935
-0.032208325606144034   -0.008945192336927029   -0.003700278456637514
-0.032208325606144034   -0.008945192336927029   -0.003700278456637514
-0.032208325606144034   -0.008945192336927029   -0.003700278456637514
-0.032208325606144034   -0.008945192336927029   -0.003700278456637514
-0.026963571955359637   0.002214260472206158   0.001999578472809808
-0.026963571955359637   0.002214260472206158   0.001999578472809808
-0.026963571955359637   0.002214260472206158   0.001999578472809808
-0.026963571955359637   0.002214260472206158   0.001999578472809808
0.009074388988135836   0.0028898760697404257   -0.002824300824540352
0.009074388988135836   0.0028898760697404257   -0.002824300824540352
0.009074388988135836   0.0028898760697404257   -0.002824300824540352
0.009074388988135836   0.0028898760697404257   -0.002824300824540352
-0.010694415052492873   0.0005679164263857058   -0.00029755921700121883
-0.010694415052492873   0.0005679164263857058   -0.00029755921700121883
-0.010694415052492873   0.0005679164263857058   -0.00029755921700121883
-0.010694415052492873   0.0005679164263857058   -0.00029755921700121883
0.01221977636997958   0.010674597394663166   0.005117914759755626
0.01221977636997958   0.010674597394663166   0.005117914759755626
0.01221977636997958   0.010674597394663166   0.005117914759755626
0.01221977636997958   0.010674597394663166   0.005117914759755626
-0.029811553966527227   -0.005273055482040424   -0.004753015628781538
-0.029811553966527227   -0.005273055482040424   -0.004753015628781538
-0.029811553966527227   -0.005273055482040424   -0.004753015628781538
-0.029811553966527227   -0.005273055482040424   -0.004753015628781538
-0.02440409144656955   0.006979513063423445   0.0011933682761501065
-0.02440409144656955   0.006979513063423445   0.0011933682761501065
-0.02440409144656955   0.006979513063423445   0.0011933682761501065
-0.02440409144656955   0.006979513063423445   0.0011933682761501065
0.011887569981304897   0.007369232454330776   -0.003587071700802682
0.011887569981304897   0.007369232454330776   -0.003587071700802682
0.011887569981304897   0.007369232454330776   -0.003587071700802682
0.011887569981304897   0.007369232454330776   -0.003587071700802682
-0.0076554876765642516   0.004637286507419083   0.0016594299416082651
-0.0076554876765642516   0.004637286507419083   0.0016594299416082651
-0.0076554876765642516   0.004637286507419083   0.0016594299416082651
-0.0076554876765642516   0.004637286507419083   0.0016594299416082651
-0.03152078890699797   -0.002284927836605225   0.0023755157933086444
-0.03152078890699797   -0.002284927836605225   0.0023755157933086444
-0.03152078890699797   -0.002284927836605225   0.0023755157933086444
-0.03152078890699797   -0.002284927836605225   0.0023755157933086444
-0.06864473683260963   -0.009180034655267557   0.0004970953972771829
-0.06864473683260963   -0.009180034655267557   0.0004970953972771829
-0.06864473683260963   -0.009180034655267557   0.0004970953972771829
-0.06864473683260963   -0.009180034655267557   0.0004970953972771829
-0.06648133831722725   -0.005887113504183984   -0.0012735975535799488
-0.06648133831722725   -0.005887113504183984   -0.0012735975535799488
-0.06648133831722725   -0.005887113504183984   -0.0012735975535799488
-0.06648133831722725   -0.005887113504183984   -0.0012735975535799488
-0.028911704821622183   0.002451403198401341   0.0013862299306438477
-0.028911704821622183   0.002451403198401341   0.0013862299306438477
-0.028911704821622183   0.002451403198401341   0.0013862299306438477
-0.028911704821622183   0.002451403198401341   0.0013862299306438477
-0.04895887549787562   -0.0034365328961058293   -0.0012701767384492007
-0.04895887549787562   -0.0034365328961058293   -0.0012701767384492007
-0.04895887549787562   -0.0034365328961058293   -0.0012701767384492007
-0.04895887549787562   -0.0034365328961058293   -0.0012701767384492007
-0.028917669819529673   0.002201584444977556   0.0016062236945301768
-0.028917669819529673   0.002201584444977556   0.0016062236945301768
-0.028917669819529673   0.002201584444977556   0.0016062236945301768
-0.028917669819529673   0.002201584444977556   0.0016062236945301768
-0.06620572396837397   -0.005367645399815791   -0.00041499391368234224
-0.06620572396837397   -0.005367645399815791   -0.00041499391368234224
-0.06620572396837397   -0.005367645399815791   -0.00041499391368234224
-0.06620572396837397   -0.005367645399815791   -0.00041499391368234224
-0.06379967141726077   -0.0012943444534083263   -0.002001181147591102
-0.06379967141726077   -0.0012943444534083263   -0.002001181147591102
-0.06379967141726077   -0.0012943444534083263   -0.002001181147591102
-0.06379967141726077   -0.0012943444534083263   -0.002001181147591102
-0.026402368011341482   0.006474922612831955   0.0005449360522747941
-0.026402368011341482   0.006474922612831955   0.0005449360522747941
-0.026402368011341482   0.006474922612831955   0.0005449360522747941
-0.026402368011341482   0.006474922612831955   0.0005449360522747941
-0.04617984018914411   0.0005784915671243479   0.0005740040476460359
-0.04617984018914411   0.0005784915671243479   0.0005740040476460359
-0.04617984018914411   0.0005784915671243479   0.0005740040476460359
-0.04617984018914411   0.0005784915671243479   0.0005740040476460359
-0.026300346934752767   0.006759791235184635   0.0007701728128657014
-0.026300346934752767   0.006759791235184635   0.0007701728128657014
-0.026300346934752767   0.006759791235184635   0.0007701728128657014
-0.026300346934752767   0.006759791235184635   0.0007701728128657014
-0.06368043070688642   -0.0013579512887980285   -0.0013413707603301822
-0.06368043070688642   -0.0013579512887980285   -0.0013413707603301822
-0.06368043070688642   -0.0013579512887980285   -0.0013413707603301822
-0.06368043070688642   -0.0013579512887980285   -0.0013413707603301822
-0.06122295936776052   0.0033223198509664555   -0.0028153736013807554
-0.06122295936776052   0.0033223198509664555   -0.0028153736013807554
-0.06122295936776052   0.0033223198509664555   -0.0028153736013807554
-0.06122295936776052   0.0033223198509664555   -0.0028153736013807554
-0.024024467502510357   0.010509990249533011   -0.0004389891896634775
-0.024024467502510357   0.010509990249533011   -0.0004389891896634775
-0.024024467502510357   0.010509990249533011   -0.0004389891896634775
-0.024024467502510357   0.010509990249533011   -0.0004389891896634775
-0.043559518190125913   0.004587727544788457   0.0022981868595158047
-0.043559518190125913   0.004587727544788457   0.0022981868595158047
-0.043559518190125913   0.004587727544788457   0.0022981868595158047
-0.043559518190125913   0.004587727544788457   0.0022981868595158047
-0.06851887815792597   -0.006291635886407116   -0.0017620099981643222
-0.06851887815792597   -0.006291635886407116   -0.0017620099981643222
-0.06851887815792597   -0.006291635886407116   -0.0017620099981643222
-0.06851887815792597   -0.006291635886407116   -0.0017620099981643222
-0.10278154509308846   -0.006049601968710903   0.0036390182231938704
-0.10278154509308846   -0.006049601968710903   0.0036390182231938704
-0.10278154509308846   -0.006049601968710903   0.0036390182231938704
-0.10278154509308846   -0.006049601968710903   0.0036390182231938704
-0.10316726753662157   -0.009778381091058405   -0.005355045282767562
-0.10316726753662157   -0.009778381091058405   -0.005355045282767562
-0.10316726753662157   -0.009778381091058405   -0.005355045282767562
-0.10316726753662157   -0.009778381091058405   -0.005355045282767562
-0.06294677989803911   0.005866156102442894   0.004645924935733282
-0.06294677989803911   0.005866156102442894   0.004645924935733282
-0.06294677989803911   0.005866156102442894   0.004645924935733282
-0.06294677989803911   0.005866156102442894   0.004645924935733282
-0.08386481604335932   -0.003688086555769859   -0.0005657583361321911
-0.08386481604335932   -0.003688086555769859   -0.0005657583361321911
-0.08386481604335932   -0.003688086555769859   -0.0005657583361321911
-0.08386481604335932   -0.003688086555769859   -0.0005657583361321911
-0.0659036335898157   -0.0017575689410714236   -0.002514618479634705
-0.0659036335898157   -0.0017575689410714236   -0.002514618479634705
-0.0659036335898157   -0.0017575689410714236   -0.002514618479634705
-0.0659036335898157   -0.0017575689410714236   -0.002514618479634705
-0.09997747768596547   -0.0019217198886649616   0.00273724276812036
-0.09997747768596547   -0.0019217198886649616   0.00273724276812036
-0.09997747768596547   -0.0019217198886649616   0.00273724276812036
-0.09997747768596547   -0.0019217198886649616   0.00273724276812036
-0.09973243089968921   -0.0054077212901300735   -0.005963063808160175
-0.09973243089968921   -0.0054077212901300735   -0.005963063808160175
-0.09973243089968921   -0.0054077212901300735   -0.005963063808160175
-0.09973243089968921   -0.0054077212901300735   -0.005963063808160175
-0.06049665019203024   0.00951602550300301   0.0037035550221501626
-0.06049665019203024   0.00951602550300301   0.0037035550221501626
-0.06049665019203024   0.00951602550300301   0.0037035550221501626
-0.06049665019203024   0.00951602550300301   0.0037035550221501626
-0.08044628623238673   0.00036934629208918573   0.0013487192816181923
-0.08044628623238673   0.00036934629208918573   0.0013487192816181923
-0.08044628623238673   0.00036934629208918573   0.0013487192816181923
-0.08044628623238673   0.00036934629208918573   0.0013487192816181923
-0.06335170367634047   0.0023749162807434414   -0.0034306031771413475
-0.06335170367634047   0.0023749162807434414   -0.0034306031771413475
-0.06335170367634047   0.0023749162807434414   -0.0034306031771413475
-0.06335170367634047   0.0023749162807434414   -0.0034306031771413475
-0.0966177197888601   0.0019930455586483686   0.0022097248972068294
-0.0966177197888601   0.0019930455586483686   0.0022097248972068294
-0.0966177197888601   0.0019930455586483686   0.0022097248972068294
-0.0966177197888601   0.0019930455586483686   0.0022097248972068294
-0.09667062717536977   -0.000677732473221023   -0.0064320700808031695
-0.09667062717536977   -0.000677732473221023   -0.0064320700808031695
-0.09667062717536977   -0.000677732473221023   -0.0064320700808031695
-0.09667062717536977   -0.000677732473221023   -0.0064320700808031695
-0.05807484402882778   0.013496821759340182   0.0027507011849091864
-0.05807484402882778   0.013496821759340182   0.0027507011849091864
-0.05807484402882778   0.013496821759340182   0.0027507011849091864
-0.05807484402882778   0.013496821759340182   0.0027507011849091864
-0.07801253872601563   0.004105832272095888   0.003050149706627675
-0.07801253872601563   0.004105832272095888   0.003050149706627675
-0.07801253872601563   0.004105832272095888   0.003050149706627675
-0.07801253872601563   0.004105832272095888   0.003050149706627675
-0.10519651813729514   -0.008900191484883213   -0.005585257481667237
-0.10519651813729514   -0.008900191484883213   -0.005585257481667237
-0.10519651813729514   -0.008900191484883213   -0.005585257481667237
-0.10519651813729514   -0.008900191484883213   -0.005585257481667237
-0.14207109686128436   -0.002994805536373926   0.008228224473811475
-0.14207109686128436   -0.002994805536373926   0.008228224473811475
-0.14207109686128436   -0.002994805536373926   0.008228224473811475
-0.14207109686128436   -0.002994805536373926   0.008228224473811475
-0.14060663585111735   -0.01256343899553879   -0.007589377625029266
-0.14060663585111735   -0.01256343899553879   -0.007589377625029266
-0.14060663585111735   -0.01256343899553879   -0.007589377625029266
-0.14060663585111735   -0.01256343899553879   -0.007589377625029266
-0.09651233069492321   0.010032063615080647   0.008109194219585232
-0.09651233069492321   0.010032063615080647   0.008109194219585232
-0.09651233069492321   0.010032063615080647   0.008109194219585232
-0.09651233069492321   0.010032063615080647   0.008109194219585232
-0.11583773260075438   -0.002111941016220263   0.0011282117415818485
-0.11583773260075438   -0.002111941016220263   0.0011282117415818485
-0.11583773260075438   -0.002111941016220263   0.0011282117415818485
-0.11583773260075438   -0.002111941016220263   0.0011282117415818485
-0.10233933297720325   -0.004659044675914076   -0.006334708900819788
-0.10233933297720325   -0.004659044675914076   -0.006334708900819788
-0.10233933297720325   -0.004659044675914076   -0.006334708900819788
-0.10233933297720325   -0.004659044675914076   -0.006334708900819788
-0.13456121659754802   0.0023460862667448786   0.007728193380531219
-0.13456121659754802   0.0023460862667448786   0.007728193380531219
-0.13456121659754802   0.0023460862667448786   0.007728193380531219
-0.13456121659754802   0.0023460862667448786   0.007728193380531219
-0.13498560945811203   -0.009990853971605256   -0.009070572696000298
-0.13498560945811203   -0.009990853971605256   -0.009070572696000298
-0.13498560945811203   -0.009990853971605256   -0.009070572696000298
-0.13498560945811203   -0.009990853971605256   -0.009070572696000298
-0.09377113450160435   0.011727367924506338   0.0067083289676267525
-0.09377113450160435   0.011727367924506338   0.0067083289676267525
-0.09377113450160435   0.011727367924506338   0.0067083289676267525
-0.09377113450160435   0.011727367924506338   0.0067083289676267525
-0.11291436187186431   0.0006152773208103184   0.0026514801030858917
-0.11291436187186431   0.0006152773208103184   0.0026514801030858917
-0.11291436187186431   0.0006152773208103184   0.0026514801030858917
-0.11291436187186431   0.0006152773208103184   0.0026514801030858917
-0.0994375308922201   -0.0025386506095131196   -0.007357634451431557
-0.0994375308922201   -0.0025386506095131196   -0.007357634451431557
-0.0994375308922201   -0.0025386506095131196   -0.007357634451431557
-0.0994375308922201   -0.0025386506095131196   -0.007357634451431557
-0.1290589546930317   0.00453542293687933   0.006036424220915264
-0.1290589546930317   0.00453542293687933   0.006036424220915264
-0.1290589546930317   0.00453542293687933   0.006036424220915264
-0.1290589546930317   0.00453542293687933   0.006036424220915264
-0.12793563453626347   -0.006226156645584466   -0.010164689594925919
-0.12793563453626347   -0.006226156645584466   -0.010164689594925919
-0.12793563453626347   -0.006226156645584466   -0.010164689594925919
-0.12793563453626347   -0.006226156645584466   -0.010164689594925919
-0.09140292793354532   0.013645516248797958   0.005583177406299707
-0.09140292793354532   0.013645516248797958   0.005583177406299707
-0.09140292793354532   0.013645516248797958   0.005583177406299707
-0.09140292793354532   0.013645516248797958   0.005583177406299707
-0.10675632444028203   0.003123899246883447   0.00485327704865263
-0.10675632444028203   0.003123899246883447   0.00485327704865263
-0.10675632444028203   0.003123899246883447   0.00485327704865263
-0.10675632444028203   0.003123899246883447   0.00485327704865263
0.10793341429905157   0.009902890948228386   0.008907467967840817
0.10793341429905157   0.009902890948228386   0.008907467967840817
0.10793341429905157   0.009902890948228386   0.008907467967840817
0.10793341429905157   0.009902890948228386   0.008907467967840817
0.038983626926324025   -0.017021226113691484   -0.005839664751349502
0.038983626926324025   -0.017021226113691484   -0.005839664751349502
0.038983626926324025   -0.017021226113691484   -0.005839664751349502
0.038983626926324025   -0.017021226113691484   -0.005839664751349502
0.04739173929157202   -0.00038900100267363446   0.006361843931645165
0.04739173929157202   -0.00038900100267363446   0.006361843931645165
0.04739173929157202   -0.00038900100267363446   0.006361843931645165
0.04739173929157202   -0.00038900100267363446   0.006361843931645165
0.10945699117320457   -0.0016742760907446138   -0.00748789860296643
0.10945699117320457   -0.0016742760907446138   -0.00748789860296643
0.10945699117320457   -0.0016742760907446138   -0.00748789860296643
0.10945699117320457   -0.0016742760907446138   -0.00748789860296643
0.07127884457731397   -0.002867375781957172   -0.006665477025090419
0.07127884457731397   -0.002867375781957172   -0.006665477025090419
0.07127884457731397   -0.002867375781957172   -0.006665477025090419
0.07127884457731397   -0.002867375781957172   -0.006665477025090419
0.11553987550409357   0.013515589038040211   0.007736657922692847
0.11553987550409357   0.013515589038040211   0.007736657922692847
0.11553987550409357   0.013515589038040211   0.007736657922692847
0.11553987550409357   0.013515589038040211   0.007736657922692847
0.04176107235009873   -0.015126648742042736   -0.007053843036351208
0.04176107235009873   -0.015126648742042736   -0.007053843036351208
0.04176107235009873   -0.015126648742042736   -0.007053843036351208
0.04176107235009873   -0.015126648742042736   -0.007053843036351208
0.05051514633906162   0.0016279562213562014   0.00521146667596796
0.05051514633906162   0.0016279562213562014   0.00521146667596796
0.05051514633906162   0.0016279562213562014   0.00521146667596796
0.05051514633906162   0.0016279562213562014   0.00521146667596796
0.1154259856103148   0.0006021860556814692   -0.009331636950620888
0.1154259856103148   0.0006021860556814692   -0.009331636950620888
0.1154259856103148   0.0006021860556814692   -0.009331636950620888
0.1154259856103148   0.0006021860556814692   -0.009331636950620888
0.07760979578266596   -0.0004358107111841836   -0.0040989824689171145
0.07760979578266596   -0.0004358107111841836   -0.0040989824689171145
0.07760979578266596   -0.0004358107111841836   -0.0040989824689171145
0.07760979578266596   -0.0004358107111841836   -0.0040989824689171145
0.12155140302267321   0.01597703454687924   0.005920601619971568
0.12155140302267321   0.01597703454687924   0.005920601619971568
0.12155140302267321   0.01597703454687924   0.005920601619971568
0.12155140302267321   0.01597703454687924   0.005920601619971568
0.04485127312148422   -0.013285348075060705   -0.008194595115501182
0.04485127312148422   -0.013285348075060705   -0.008194595115501182
0.04485127312148422   -0.013285348075060705   -0.008194595115501182
0.04485127312148422   -0.013285348075060705   -0.008194595115501182
0.0536388245891409   0.006131218695596045   0.004515576469017572
0.0536388245891409   0.006131218695596045   0.004515576469017572
0.0536388245891409   0.006131218695596045   0.004515576469017572
0.0536388245891409   0.006131218695596045   0.004515576469017572
0.12331444031798383   0.0065262255110271825   -0.0100333593525779
0.12331444031798383   0.0065262255110271825   -0.0100333593525779
0.12331444031798383   0.0065262255110271825   -0.0100333593525779
0.12331444031798383   0.0065262255110271825   -0.0100333593525779
0.08125926774751363   0.002572044312204761   -0.0019367375206643736
0.08125926774751363   0.002572044312204761   -0.0019367375206643736
0.08125926774751363   0.002572044312204761   -0.0019367375206643736
0.08125926774751363   0.002572044312204761   -0.0019367375206643736
0.046153928576391466   0.0056654461634599515   0.007325171221835771
0.046153928576391466   0.0056654461634599515   0.007325171221835771
0.046153928576391466   0.0056654461634599515   0.007325171221835771
0.046153928576391466   0.0056654461634599515   0.007325171221835771
-0.02351324791106235   -0.015919670287868858   -0.00309537880414568
-0.02351324791106235   -0.015919670287868858   -0.00309537880414568
-0.02351324791106235   -0.015919670287868858   -0.00309537880414568
-0.02351324791106235   -0.015919670287868858   -0.00309537880414568
-0.01786487112845496   -0.004911856816816499   0.002122944666233725
-0.01786487112845496   -0.004911856816816499   0.002122944666233725
-0.01786487112845496   -0.004911856816816499   0.002122944666233725
-0.01786487112845496   -0.004911856816816499   0.002122944666233725
0.04619536629984353   0.0008200413535303145   -0.000829063383201243
0.04619536629984353   0.0008200413535303145   -0.000829063383201243
0.04619536629984353   0.0008200413535303145   -0.000829063383201243
0.04619536629984353   0.0008200413535303145   -0.000829063383201243
0.012128913781931329   -0.003164171431422884   -0.0027648824020820462
0.012128913781931329   -0.003164171431422884   -0.0027648824020820462
0.012128913781931329   -0.003164171431422884   -0.0027648824020820462
0.012128913781931329   -0.003164171431422884   -0.0027648824020820462
0.04939112707295073   0.009423925214492503   0.0065458566213730425
0.04939112707295073   0.009423925214492503   0.0065458566213730425
0.04939112707295073   0.009423925214492503   0.0065458566213730425
0.04939112707295073   0.009423925214492503   0.0065458566213730425
-0.020770674584935315   -0.013225783361151766   -0.004092146071832798
-0.020770674584935315   -0.013225783361151766   -0.004092146071832798
-0.020770674584935315   -0.013225783361151766   -0.004092146071832798
-0.020770674584935315   -0.013225783361151766   -0.004092146071832798
-0.01496886590578243   -0.0010901920353865772   0.0013186135437428985
-0.01496886590578243   -0.0010901920353865772   0.0013186135437428985
-0.01496886590578243   -0.0010901920353865772   0.0013186135437428985
-0.01496886590578243   -0.0010901920353865772   0.0013186135437428985
0.04966873883860083   0.004211971154386179   -0.0016045857593650053
0.04966873883860083   0.004211971154386179   -0.0016045857593650053
0.04966873883860083   0.004211971154386179   -0.0016045857593650053
0.04966873883860083   0.004211971154386179   -0.0016045857593650053
0.014901081655542759   -0.00016492741328165243   -0.0010886768538030576
0.014901081655542759   -0.00016492741328165243   -0.0010886768538030576
0.014901081655542759   -0.00016492741328165243   -0.0010886768538030576
0.014901081655542759   -0.00016492741328165243   -0.0010886768538030576
0.052997353690966725   0.013407850922155117   0.005842608734694551
0.052997353690966725   0.013407850922155117   0.005842608734694551
0.052997353690966725   0.013407850922155117   0.005842608734694551
0.052997353690966725   0.013407850922155117   0.005842608734694551
-0.018009809646812435   -0.009998400691818515   -0.004977896504975209
-0.018009809646812435   -0.009998400691818515   -0.004977896504975209
-0.018009809646812435   -0.009998400691818515   -0.004977896504975209
-0.018009809646812435   -0.009998400691818515   -0.004977896504975209
-0.012097379395055443   0.0033943156204202336   0.0005232935060049495
-0.012097379395055443   0.0033943156204202336   0.0005232935060049495
-0.012097379395055443   0.0033943156204202336   0.0005232935060049495
-0.012097379395055443   0.0033943156204202336   0.0005232935060049495
0.05270828741521649   0.008300193280612211   -0.002306083985620145
0.05270828741521649   0.008300193280612211   -0.002306083985620145
0.05270828741521649   0.008300193280612211   -0.002306083985620145
0.05270828741521649   0.008300193280612211   -0.002306083985620145
0.018444782699318558   0.00356108779823318   0.000883074397658553
0.018444782699318558   0.00356108779823318   0.000883074397658553
0.018444782699318558   0.00356108779823318   0.000883074397658553
0.018444782699318558   0.00356108779823318   0.000883074397658553
-0.018809213467653116   0.0013238963027289493   0.0031812268223031836
-0.018809213467653116   0.0013238963027289493   0.0031812268223031836
-0.018809213467653116   0.0013238963027289493   0.0031812268223031836
-0.018809213467653116   0.0013238963027289493   0.0031812268223031836
-0.0847932759230399   -0.014184558919583201   -0.0004905847037453628
-0.0847932759230399   -0.014184558919583201   -0.0004905847037453628
-0.0847932759230399   -0.014184558919583201   -0.0004905847037453628
-0.0847932759230399   -0.014184558919583201   -0.0004905847037453628
-0.08141563811978118   -0.008719630242895782   -0.001965003977682768
-0.08141563811978118   -0.008719630242895782   -0.001965003977682768
-0.08141563811978118   -0.008719630242895782   -0.001965003977682768
-0.08141563811978118   -0.008719630242895782   -0.001965003977682768
-0.016359929637370697   0.002680480330560001   0.0020553149742785176
-0.016359929637370697   0.002680480330560001   0.0020553149742785176
-0.016359929637370697   0.002680480330560001   0.0020553149742785176
-0.016359929637370697   0.002680480330560001   0.0020553149742785176
-0.05042591021937218   -0.004294662706370429   -0.0017432981859622932
-0.05042591021937218   -0.004294662706370429   -0.0017432981859622932
-0.05042591021937218   -0.004294662706370429   -0.0017432981859622932
-0.05042591021937218   -0.004294662706370429   -0.0017432981859622932
-0.015761508745772167   0.005291480316674007   0.0024364194461571633
-0.015761508745772167   0.005291480316674007   0.0024364194461571633
-0.015761508745772167   0.005291480316674007   0.0024364194461571633
-0.015761508745772167   0.005291480316674007   0.0024364194461571633
-0.08180380297033095   -0.011120374187961024   -0.0015050842853663454
-0.08180380297033095   -0.011120374187961024   -0.0015050842853663454
-0.08180380297033095   -0.011120374187961024   -0.0015050842853663454
-0.08180380297033095   -0.011120374187961024   -0.0015050842853663454
-0.07821298070054929   -0.004525802470307724   -0.0026480766742157918
-0.07821298070054929   -0.004525802470307724   -0.0026480766742157918
-0.07821298070054929   -0.004525802470307724   -0.0026480766742157918
-0.07821298070054929   -0.004525802470307724   -0.0026480766742157918
-0.01354746116789754   0.006114826594979718   0.001220618602801054
-0.01354746116789754   0.006114826594979718   0.001220618602801054
-0.01354746116789754   0.006114826594979718   0.001220618602801054
-0.01354746116789754   0.006114826594979718   0.001220618602801054
-0.04718721576393147   -0.0007931850663249218   -1.6802892977268308e-05
-0.04718721576393147   -0.0007931850663249218   -1.6802892977268308e-05
-0.04718721576393147   -0.0007931850663249218   -1.6802892977268308e-05
-0.04718721576393147   -0.0007931850663249218   -1.6802892977268308e-05
-0.012818857101177104   0.00939860890890538   0.0015798566224775505
-0.012818857101177104   0.00939860890890538   0.0015798566224775505
-0.012818857101177104   0.00939860890890538   0.0015798566224775505
-0.012818857101177104   0.00939860890890538   0.0015798566224775505
-0.07874975792795183   -0.007617757944915489   -0.002240007336620692
-0.07874975792795183   -0.007617757944915489   -0.002240007336620692
-0.07874975792795183   -0.007617757944915489   -0.002240007336620692
-0.07874975792795183   -0.007617757944915489   -0.002240007336620692
-0.07522499858629403   -0.00033130931768901063   -0.0034449559419899023
-0.07522499858629403   -0.00033130931768901063   -0.0034449559419899023
-0.07522499858629403   -0.00033130931768901063   -0.0034449559419899023
-0.07522499858629403   -0.00033130931768901063   -0.0034449559419899023
-0.010885848548650729   0.0096072395878566   0.0003680237705921556
-0.010885848548650729   0.0096072395878566   0.0003680237705921556
-0.010885848548650729   0.0096072395878566   0.0003680237705921556
-0.010885848548650729   0.0096072395878566   0.0003680237705921556
-0.04422565991003481   0.00269868877382293   0.0016191713566038515
-0.04422565991003481   0.00269868877382293   0.0016191713566038515
-0.04422565991003481   0.00269868877382293   0.0016191713566038515
-0.04422565991003481   0.00269868877382293   0.0016191713566038515
-0.08266445435927128   -0.0029668288562360104   -0.0010642069482488352
-0.08266445435927128   -0.0029668288562360104   -0.0010642069482488352
-0.08266445435927128   -0.0029668288562360104   -0.0010642069482488352
-0.08266445435927128   -0.0029668288562360104   -0.0010642069482488352
-0.1452588943993416   -0.011723897971908526   0.0024231601242253042
-0.1452588943993416   -0.011723897971908526   0.0024231601242253042
-0.1452588943993416   -0.011723897971908526   0.0024231601242253042
-0.1452588943993416   -0.011723897971908526   0.0024231601242253042
-0.14391372777611106   -0.01242908129609567   -0.005863314178887601
-0.14391372777611106   -0.01242908129609567   -0.005863314178887601
-0.14391372777611106   -0.01242908129609567   -0.005863314178887601
-0.14391372777611106   -0.01242908129609567   -0.005863314178887601
-0.07712289698932262   0.005748890470666814   0.005030180961048094
-0.07712289698932262   0.005748890470666814   0.005030180961048094
-0.07712289698932262   0.005748890470666814   0.005030180961048094
-0.07712289698932262   0.005748890470666814   0.005030180961048094
-0.11146562027179302   -0.004720224768293407   -0.0006254626912035148
-0.11146562027179302   -0.004720224768293407   -0.0006254626912035148
-0.11146562027179302   -0.004720224768293407   -0.0006254626912035148
-0.11146562027179302   -0.004720224768293407   -0.0006254626912035148
-0.07935801056883408   0.0013128547399739606   -0.0017093512058164156
-0.07935801056883408   0.0013128547399739606   -0.0017093512058164156
-0.07935801056883408   0.0013128547399739606   -0.0017093512058164156
-0.07935801056883408   0.0013128547399739606   -0.0017093512058164156
-0.1416195896980441   -0.007934021066847334   0.0011123159821988388
-0.1416195896980441   -0.007934021066847334   0.0011123159821988388
-0.1416195896980441   -0.007934021066847334   0.0011123159821988388
-0.1416195896980441   -0.007934021066847334   0.0011123159821988388
-0.13967013660260397   -0.008357053948996497   -0.006488355827273647
-0.13967013660260397   -0.008357053948996497   -0.006488355827273647
-0.13967013660260397   -0.008357053948996497   -0.006488355827273647
-0.13967013660260397   -0.008357053948996497   -0.006488355827273647
-0.07417021517160369   0.008995200323528468   0.0040447481766769065
-0.07417021517160369   0.008995200323528468   0.0040447481766769065
-0.07417021517160369   0.008995200323528468   0.0040447481766769065
-0.07417021517160369   0.008995200323528468   0.0040447481766769065
-0.10708662743406727   -0.0008647682932086242   0.0011276712687584636
-0.10708662743406727   -0.0008647682932086242   0.0011276712687584636
-0.10708662743406727   -0.0008647682932086242   0.0011276712687584636
-0.10708662743406727   -0.0008647682932086242   0.0011276712687584636
-0.07626996369744256   0.005107410809743929   -0.0025662049387329237
-0.07626996369744256   0.005107410809743929   -0.0025662049387329237
-0.07626996369744256   0.005107410809743929   -0.0025662049387329237
-0.07626996369744256   0.005107410809743929   -0.0025662049387329237
-0.1374097987890312   -0.004308675147479362   0.0007649544390729568
-0.1374097987890312   -0.004308675147479362   0.0007649544390729568
-0.1374097987890312   -0.004308675147479362   0.0007649544390729568
-0.1374097987890312   -0.004308675147479362   0.0007649544390729568
-0.1358817883214328   -0.003982340542052224   -0.006838166029447826
-0.1358817883214328   -0.003982340542052224   -0.006838166029447826
-0.1358817883214328   -0.003982340542052224   -0.006838166029447826
-0.1358817883214328   -0.003982340542052224   -0.006838166029447826
-0.07131133634312833   0.012517347822352521   0.003274698133797707
-0.07131133634312833   0.012517347822352521   0.003274698133797707
-0.07131133634312833   0.012517347822352521   0.003274698133797707
-0.07131133634312833   0.012517347822352521   0.003274698133797707
-0.1042961833277552   0.002394298296761608   0.002626634125936611
-0.1042961833277552   0.002394298296761608   0.002626634125936611
-0.1042961833277552   0.002394298296761608   0.002626634125936611
-0.1042961833277552   0.002394298296761608   0.002626634125936611
-0.14567110298404004   -0.00636067317493474   -0.0050011075962407385
-0.14567110298404004   -0.00636067317493474   -0.0050011075962407385
-0.14567110298404004   -0.00636067317493474   -0.0050011075962407385
-0.14567110298404004   -0.00636067317493474   -0.0050011075962407385
-0.2087844394343553   -0.007695729536887812   0.008596753360060633
-0.2087844394343553   -0.007695729536887812   0.008596753360060633
-0.2087844394343553   -0.007695729536887812   0.008596753360060633
-0.2087844394343553   -0.007695729536887812   0.008596753360060633
-0.20552951377502557   -0.014756366047072157   -0.006815771011076416
-0.20552951377502557   -0.014756366047072157   -0.006815771011076416
-0.20552951377502557   -0.014756366047072157   -0.006815771011076416
-0.20552951377502557   -0.014756366047072157   -0.006815771011076416
-0.1362313760973053   0.011288266283358453   0.008831096635685966
-0.1362313760973053   0.011288266283358453   0.008831096635685966
-0.1362313760973053   0.011288266283358453   0.008831096635685966
-0.1362313760973053   0.011288266283358453   0.008831096635685966
-0.16629106979810307   -0.0020385937307609795   0.002176854175808228
-0.16629106979810307   -0.0020385937307609795   0.002176854175808228
-0.16629106979810307   -0.0020385937307609795   0.002176854175808228
-0.16629106979810307   -0.0020385937307609795   0.002176854175808228
-0.1417197837586837   -0.0017465007659642796   -0.005576174621882764
-0.1417197837586837   -0.0017465007659642796   -0.005576174621882764
-0.1417197837586837   -0.0017465007659642796   -0.005576174621882764
-0.1417197837586837   -0.0017465007659642796   -0.005576174621882764
-0.19991026890486507   -0.0015907617889681543   0.008114849081620357
-0.19991026890486507   -0.0015907617889681543   0.008114849081620357
-0.19991026890486507   -0.0015907617889681543   0.008114849081620357
-0.19991026890486507   -0.0015907617889681543   0.008114849081620357
-0.1989120923625189   -0.012254926298296918   -0.008062184285471119
-0.1989120923625189   -0.012254926298296918   -0.008062184285471119
-0.1989120923625189   -0.012254926298296918   -0.008062184285471119
-0.1989120923625189   -0.012254926298296918   -0.008062184285471119
-0.1327274682328554   0.012825322986555589   0.0070426090859171606
-0.1327274682328554   0.012825322986555589   0.0070426090859171606
-0.1327274682328554   0.012825322986555589   0.0070426090859171606
-0.1327274682328554   0.012825322986555589   0.0070426090859171606
-0.16324672997572967   0.0007082502849494691   0.0035705979192325807
-0.16324672997572967   0.0007082502849494691   0.0035705979192325807
-0.16324672997572967   0.0007082502849494691   0.0035705979192325807
-0.16324672997572967   0.0007082502849494691   0.0035705979192325807
-0.1379248971707914   0.00027592256141779556   -0.006395135178625062
-0.1379248971707914   0.00027592256141779556   -0.006395135178625062
-0.1379248971707914   0.00027592256141779556   -0.006395135178625062
-0.1379248971707914   0.00027592256141779556   -0.006395135178625062
-0.19357576034108886   0.00043337721033438574   0.005931172313044623
-0.19357576034108886   0.00043337721033438574   0.005931172313044623
-0.19357576034108886   0.00043337721033438574   0.005931172313044623
-0.19357576034108886   0.00043337721033438574   0.005931172313044623
-0.19156544294808597   -0.009352097748816289   -0.009242377567234714
-0.19156544294808597   -0.009352097748816289   -0.009242377567234714
-0.19156544294808597   -0.009352097748816289   -0.009242377567234714
-0.19156544294808597   -0.009352097748816289   -0.009242377567234714
-0.12970286701603334   0.014088353443606724   0.0059857465118897495
-0.12970286701603334   0.014088353443606724   0.0059857465118897495
-0.12970286701603334   0.014088353443606724   0.0059857465118897495
-0.12970286701603334   0.014088353443606724   0.0059857465118897495
-0.1556685704100962   0.0029461420654018355   0.005783833738737511
-0.1556685704100962   0.0029461420654018355   0.005783833738737511
-0.1556685704100962   0.0029461420654018355   0.005783833738737511
-0.1556685704100962   0.0029461420654018355   0.005783833738737511
0.17602880884470376   0.013320840885575358   0.008825488326597304
0.17602880884470376   0.013320840885575358   0.008825488326597304
0.17602880884470376   0.013320840885575358   0.008825488326597304
0.17602880884470376   0.013320840885575358   0.008825488326597304
0.07681675765540891   -0.019787528466331673   -0.004269935551789086
0.07681675765540891   -0.019787528466331673   -0.004269935551789086
0.07681675765540891   -0.019787528466331673   -0.004269935551789086
0.07681675765540891   -0.019787528466331673   -0.004269935551789086
0.08494548769531864   -0.003882923479886426   0.005980367929210433
0.08494548769531864   -0.003882923479886426   0.005980367929210433
0.08494548769531864   -0.003882923479886426   0.005980367929210433
0.08494548769531864   -0.003882923479886426   0.005980367929210433
0.1775658020772803   0.0006233391692710595   -0.006544085678441829
0.1775658020772803   0.0006233391692710595   -0.006544085678441829
0.1775658020772803   0.0006233391692710595   -0.006544085678441829
0.1775658020772803   0.0006233391692710595   -0.006544085678441829
0.12133596692096059   -0.0032966465582787187   -0.00915137102164578
0.12133596692096059   -0.0032966465582787187   -0.00915137102164578
0.12133596692096059   -0.0032966465582787187   -0.00915137102164578
0.12133596692096059   -0.0032966465582787187   -0.00915137102164578
0.18344289989662393   0.016094528243368204   0.00737021434417829
0.18344289989662393   0.016094528243368204   0.00737021434417829
0.18344289989662393   0.016094528243368204   0.00737021434417829
0.18344289989662393   0.016094528243368204   0.00737021434417829
0.07964146746502804   -0.018781034964930606   -0.005641621737197905
0.07964146746502804   -0.018781034964930606   -0.005641621737197905
0.07964146746502804   -0.018781034964930606   -0.005641621737197905
0.07964146746502804   -0.018781034964930606   -0.005641621737197905
0.08796753268695229   -0.002063147273938815   0.0048001493246401915
0.08796753268695229   -0.002063147273938815   0.0048001493246401915
0.08796753268695229   -0.002063147273938815   0.0048001493246401915
0.08796753268695229   -0.002063147273938815   0.0048001493246401915
0.18308120728005656   0.0026144316716707958   -0.008076415787255653
0.18308120728005656   0.0026144316716707958   -0.008076415787255653
0.18308120728005656   0.0026144316716707958   -0.008076415787255653
0.18308120728005656   0.0026144316716707958   -0.008076415787255653
0.12841980371760608   -0.0012030097642905333   -0.006284336643223747
0.12841980371760608   -0.0012030097642905333   -0.006284336643223747
0.12841980371760608   -0.0012030097642905333   -0.006284336643223747
0.12841980371760608   -0.0012030097642905333   -0.006284336643223747
0.188910066727238   0.018251493577712278   0.0054308195426099465
0.188910066727238   0.018251493577712278   0.0054308195426099465
0.188910066727238   0.018251493577712278   0.0054308195426099465
0.188910066727238   0.018251493577712278   0.0054308195426099465
0.08263132035584672   -0.017207562063905727   -0.006736497540920761
0.08263132035584672   -0.017207562063905727   -0.006736497540920761
0.08263132035584672   -0.017207562063905727   -0.006736497540920761
0.08263132035584672   -0.017207562063905727   -0.006736497540920761
0.09072623744599854   0.002857031541696319   0.004208873672753088
0.09072623744599854   0.002857031541696319   0.004208873672753088
0.09072623744599854   0.002857031541696319   0.004208873672753088
0.09072623744599854   0.002857031541696319   0.004208873672753088
0.189942749974903   0.00847263436968812   -0.008422518648261317
0.189942749974903   0.00847263436968812   -0.008422518648261317
0.189942749974903   0.00847263436968812   -0.008422518648261317
0.189942749974903   0.00847263436968812   -0.008422518648261317
0.1307581374609061   0.0016751077835760152   -0.004354281576053207
0.1307581374609061   0.0016751077835760152   -0.004354281576053207
0.1307581374609061   0.0016751077835760152   -0.004354281576053207
0.1307581374609061   0.0016751077835760152   -0.004354281576053207
0.08491191999373048   0.008056757157180065   0.008361590516306099
0.08491191999373048   0.008056757157180065   0.008361590516306099
0.08491191999373048   0.008056757157180065   0.008361590516306099
0.08491191999373048   0.008056757157180065   0.008361590516306099
-0.012158087423158803   -0.023999250665365644   -0.0024882800737531423
-0.012158087423158803   -0.023999250665365644   -0.0024882800737531423
-0.012158087423158803   -0.023999250665365644   -0.0024882800737531423
-0.012158087423158803   -0.023999250665365644   -0.0024882800737531423
-0.005326068966404806   -0.008930452931882464   0.001939900455983203
-0.005326068966404806   -0.008930452931882464   0.001939900455983203
-0.005326068966404806   -0.008930452931882464   0.001939900455983203
-0.005326068966404806   -0.008930452931882464   0.001939900455983203
0.08403553478127575   -0.0029863714062841537   0.0005340512853936885
0.08403553478127575   -0.0029863714062841537   0.0005340512853936885
0.08403553478127575   -0.0029863714062841537   0.0005340512853936885
0.08403553478127575   -0.0029863714062841537   0.0005340512853936885
0.0368309995856842   -0.006270327922996588   -0.004181695328469067
0.0368309995856842   -0.006270327922996588   -0.004181695328469067
0.0368309995856842   -0.006270327922996588   -0.004181695328469067
0.0368309995856842   -0.006270327922996588   -0.004181695328469067
0.08818612450945965   0.01087010948008299   0.007430519039946024
0.08818612450945965   0.01087010948008299   0.007430519039946024
0.08818612450945965   0.01087010948008299   0.007430519039946024
0.08818612450945965   0.01087010948008299   0.007430519039946024
-0.009157325956043127   -0.022467601079704035   -0.0036792363443868352
-0.009157325956043127   -0.022467601079704035   -0.0036792363443868352
-0.009157325956043127   -0.022467601079704035   -0.0036792363443868352
-0.009157325956043127   -0.022467601079704035   -0.0036792363443868352
-0.002253540057932342   -0.005625291637383151   0.0011313791783215195
-0.002253540057932342   -0.005625291637383151   0.0011313791783215195
-0.002253540057932342   -0.005625291637383151   0.0011313791783215195
-0.002253540057932342   -0.005625291637383151   0.0011313791783215195
0.08722946925957445   -0.0004879172507377865   -0.00046539783545005917
0.08722946925957445   -0.0004879172507377865   -0.00046539783545005917
0.08722946925957445   -0.0004879172507377865   -0.00046539783545005917
0.08722946925957445   -0.0004879172507377865   -0.00046539783545005917
0.03943668916441567   -0.004226286890973771   -0.0026769502769361762
0.03943668916441567   -0.004226286890973771   -0.0026769502769361762
0.03943668916441567   -0.004226286890973771   -0.0026769502769361762
0.03943668916441567   -0.004226286890973771   -0.0026769502769361762
0.09160330264472298   0.014252476196163426   0.006663375643391395
0.09160330264472298   0.014252476196163426   0.006663375643391395
0.09160330264472298   0.014252476196163426   0.006663375643391395
0.09160330264472298   0.014252476196163426   0.006663375643391395
-0.00642214585210315   -0.020160457493305355   -0.005176483936610313
-0.00642214585210315   -0.020160457493305355   -0.005176483936610313
-0.00642214585210315   -0.020160457493305355   -0.005176483936610313
-0.00642214585210315   -0.020160457493305355   -0.005176483936610313
0.000168385802347377   -0.0016823809377015547   0.0003209465356801461
0.000168385802347377   -0.0016823809377015547   0.0003209465356801461
0.000168385802347377   -0.0016823809377015547   0.0003209465356801461
0.000168385802347377   -0.0016823809377015547   0.0003209465356801461
0.0895915859831108   0.002746316585580044   -0.00135366868557079
0.0895915859831108   0.002746316585580044   -0.00135366868557079
0.0895915859831108   0.002746316585580044   -0.00135366868557079
0.0895915859831108   0.002746316585580044   -0.00135366868557079
0.04280763646879919   -0.0011401660079977459   -0.00101612697570508
0.04280763646879919   -0.0011401660079977459   -0.00101612697570508
0.04280763646879919   -0.0011401660079977459   -0.00101612697570508
0.04280763646879919   -0.0011401660079977459   -0.00101612697570508
-0.00549414084997978   0.002616521217609689   0.004215680909166639
-0.00549414084997978   0.002616521217609689   0.004215680909166639
-0.00549414084997978   0.002616521217609689   0.004215680909166639
-0.00549414084997978   0.002616521217609689   0.004215680909166639
-0.10037102469087572   -0.0297225829556914   -0.0018934038945737641
-0.10037102469087572   -0.0297225829556914   -0.0018934038945737641
-0.10037102469087572   -0.0297225829556914   -0.0018934038945737641
-0.10037102469087572   -0.0297225829556914   -0.0018934038945737641
-0.09366894177938143   -0.013623069073872139   -0.002153419905871458
-0.09366894177938143   -0.013623069073872139   -0.002153419905871458
-0.09366894177938143   -0.013623069073872139   -0.002153419905871458
-0.09366894177938143   -0.013623069073872139   -0.002153419905871458
-0.005224923333121583   -0.00848585598900889   0.0020010316795257494
-0.005224923333121583   -0.00848585598900889   0.0020010316795257494
-0.005224923333121583   -0.00848585598900889   0.0020010316795257494
-0.005224923333121583   -0.00848585598900889   0.0020010316795257494
-0.051387553007358804   -0.011637769741420837   -0.0036861816857072863
-0.051387553007358804   -0.011637769741420837   -0.0036861816857072863
-0.051387553007358804   -0.011637769741420837   -0.0036861816857072863
-0.051387553007358804   -0.011637769741420837   -0.0036861816857072863
-0.002073134751204656   0.005818000027464837   0.0034561185726366545
-0.002073134751204656   0.005818000027464837   0.0034561185726366545
-0.002073134751204656   0.005818000027464837   0.0034561185726366545
-0.002073134751204656   0.005818000027464837   0.0034561185726366545
-0.09658348250455281   -0.027689677233600336   -0.002659515372000234
-0.09658348250455281   -0.027689677233600336   -0.002659515372000234
-0.09658348250455281   -0.027689677233600336   -0.002659515372000234
-0.09658348250455281   -0.027689677233600336   -0.002659515372000234
-0.08984234825264723   -0.009964602336853607   -0.0028816389716082164
-0.08984234825264723   -0.009964602336853607   -0.0028816389716082164
-0.08984234825264723   -0.009964602336853607   -0.0028816389716082164
-0.08984234825264723   -0.009964602336853607   -0.0028816389716082164
-0.0023779035711244717   -0.006071581977966572   0.0009558519529442927
-0.0023779035711244717   -0.006071581977966572   0.0009558519529442927
-0.0023779035711244717   -0.006071581977966572   0.0009558519529442927
-0.0023779035711244717   -0.006071581977966572   0.0009558519529442927
-0.04767252290658939   -0.00898204637484407   -0.001984984850096093
-0.04767252290658939   -0.00898204637484407   -0.001984984850096093
-0.04767252290658939   -0.00898204637484407   -0.001984984850096093
-0.04767252290658939   -0.00898204637484407   -0.001984984850096093
0.0010513640017412215   0.009330491230172468   0.0027001166091337194
0.0010513640017412215   0.009330491230172468   0.0027001166091337194
0.0010513640017412215   0.009330491230172468   0.0027001166091337194
0.0010513640017412215   0.009330491230172468   0.0027001166091337194
-0.09323472573486832   -0.025329785454346783   -0.004478343265220581
-0.09323472573486832   -0.025329785454346783   -0.004478343265220581
-0.09323472573486832   -0.025329785454346783   -0.004478343265220581
-0.09323472573486832   -0.025329785454346783   -0.004478343265220581
-0.08712941409114605   -0.006451620490433525   -0.003682711078363144
-0.08712941409114605   -0.006451620490433525   -0.003682711078363144
-0.08712941409114605   -0.006451620490433525   -0.003682711078363144
-0.08712941409114605   -0.006451620490433525   -0.003682711078363144
-0.0005313122376380554   -0.004078082405744024   -0.0007818421962050269
-0.0005313122376380554   -0.004078082405744024   -0.0007818421962050269
-0.0005313122376380554   -0.004078082405744024   -0.0007818421962050269
-0.0005313122376380554   -0.004078082405744024   -0.0007818421962050269
-0.04495738936662317   -0.006471785266447339   -0.0008735037572640166
-0.04495738936662317   -0.006471785266447339   -0.0008735037572640166
-0.04495738936662317   -0.006471785266447339   -0.0008735037572640166
-0.04495738936662317   -0.006471785266447339   -0.0008735037572640166
-0.09445641059316563   -0.0020471804232177846   4.264061503053002e-06
-0.09445641059316563   -0.0020471804232177846   4.264061503053002e-06
-0.09445641059316563   -0.0020471804232177846   4.264061503053002e-06
-0.09445641059316563   -0.0020471804232177846   4.264061503053002e-06
-0.18936281778240913   -0.031955150021304446   -0.0014183749959593983
-0.18936281778240913   -0.031955150021304446   -0.0014183749959593983
-0.18936281778240913   -0.031955150021304446   -0.0014183749959593983
-0.18936281778240913   -0.031955150021304446   -0.0014183749959593983
-0.18237884897285814   -0.017541194122363716   -0.006164290020569035
-0.18237884897285814   -0.017541194122363716   -0.006164290020569035
-0.18237884897285814   -0.017541194122363716   -0.006164290020569035
-0.18237884897285814   -0.017541194122363716   -0.006164290020569035
-0.0914792595445949   -0.008881286276359715   0.0040532084705487345
-0.0914792595445949   -0.008881286276359715   0.0040532084705487345
-0.0914792595445949   -0.008881286276359715   0.0040532084705487345
-0.0914792595445949   -0.008881286276359715   0.0040532084705487345
-0.13825475216769445   -0.01420037378820151   -0.00257066975174328
-0.13825475216769445   -0.01420037378820151   -0.00257066975174328
-0.13825475216769445   -0.01420037378820151   -0.00257066975174328
-0.13825475216769445   -0.01420037378820151   -0.00257066975174328
-0.09022427530864349   0.002009956074485191   -0.0005631127005391381
-0.09022427530864349   0.002009956074485191   -0.0005631127005391381
-0.09022427530864349   0.002009956074485191   -0.0005631127005391381
-0.09022427530864349   0.002009956074485191   -0.0005631127005391381
-0.1836447835776276   -0.028443386842025103   -0.0015917703247531959
-0.1836447835776276   -0.028443386842025103   -0.0015917703247531959
-0.1836447835776276   -0.028443386842025103   -0.0015917703247531959
-0.1836447835776276   -0.028443386842025103   -0.0015917703247531959
-0.1768494252099393   -0.013769750730037689   -0.0071007970528182765
-0.1768494252099393   -0.013769750730037689   -0.0071007970528182765
-0.1768494252099393   -0.013769750730037689   -0.0071007970528182765
-0.1768494252099393   -0.013769750730037689   -0.0071007970528182765
-0.08780731509521715   -0.006087274231581711   0.0034161987102706223
-0.08780731509521715   -0.006087274231581711   0.0034161987102706223
-0.08780731509521715   -0.006087274231581711   0.0034161987102706223
-0.08780731509521715   -0.006087274231581711   0.0034161987102706223
-0.13247447547131286   -0.01057776806822858   -0.0007098039323452272
-0.13247447547131286   -0.01057776806822858   -0.0007098039323452272
-0.13247447547131286   -0.01057776806822858   -0.0007098039323452272
-0.13247447547131286   -0.01057776806822858   -0.0007098039323452272
-0.08639961400093117   0.005511547426959387   -0.0011441174768410112
-0.08639961400093117   0.005511547426959387   -0.0011441174768410112
-0.08639961400093117   0.005511547426959387   -0.0011441174768410112
-0.08639961400093117   0.005511547426959387   -0.0011441174768410112
-0.1784702244990895   -0.025581670583442843   -0.0033928736451627056
-0.1784702244990895   -0.025581670583442843   -0.0033928736451627056
-0.1784702244990895   -0.025581670583442843   -0.0033928736451627056
-0.1784702244990895   -0.025581670583442843   -0.0033928736451627056
-0.17246593080509492   -0.00983897717055119   -0.0073523323687542455
-0.17246593080509492   -0.00983897717055119   -0.0073523323687542455
-0.17246593080509492   -0.00983897717055119   -0.0073523323687542455
-0.17246593080509492   -0.00983897717055119   -0.0073523323687542455
-0.08571892217133685   -0.004310538756754227   0.0012286667870042255
-0.08571892217133685   -0.004310538756754227   0.0012286667870042255
-0.08571892217133685   -0.004310538756754227   0.0012286667870042255
-0.08571892217133685   -0.004310538756754227   0.0012286667870042255
-0.12955774130618286   -0.008389546222341771   -7.238948089735575e-05
-0.12955774130618286   -0.008389546222341771   -7.238948089735575e-05
-0.12955774130618286   -0.008389546222341771   -7.238948089735575e-05
-0.12955774130618286   -0.008389546222341771   -7.238948089735575e-05
-0.18460859023316067   -0.0054169898523877946   -0.004185397418633885
-0.18460859023316067   -0.0054169898523877946   -0.004185397418633885
-0.18460859023316067   -0.0054169898523877946   -0.004185397418633885
-0.18460859023316067   -0.0054169898523877946   -0.004185397418633885
-0.27859728860140376   -0.022538878455553937   0.009503448356330935
-0.27859728860140376   -0.022538878455553937   0.009503448356330935
-0.27859728860140376   -0.022538878455553937   0.009503448356330935
-0.27859728860140376   -0.022538878455553937   0.009503448356330935
-0.2702450914645343   -0.018449939942651636   -0.005846219127127829
-0.2702450914645343   -0.018449939942651636   -0.005846219127127829
-0.2702450914645343   -0.018449939942651636   -0.005846219127127829
-0.2702450914645343   -0.018449939942651636   -0.005846219127127829
-0.17475789568519484   0.005421369056365239   0.008977913239017213
-0.17475789568519484   0.005421369056365239   0.008977913239017213
-0.17475789568519484   0.005421369056365239   0.008977913239017213
-0.17475789568519484   0.005421369056365239   0.008977913239017213
-0.21678367429576087   -0.006795509492465846   0.001605946322799194
-0.21678367429576087   -0.006795509492465846   0.001605946322799194
-0.21678367429576087   -0.006795509492465846   0.001605946322799194
-0.21678367429576087   -0.006795509492465846   0.001605946322799194
-0.17854434674061867   0.00012738185934306305   -0.004660354841077609
-0.17854434674061867   0.00012738185934306305   -0.004660354841077609
-0.17854434674061867   0.00012738185934306305   -0.004660354841077609
-0.17854434674061867   0.00012738185934306305   -0.004660354841077609
-0.2658521178893957   -0.012549430225913483   0.010218139031824489
-0.2658521178893957   -0.012549430225913483   0.010218139031824489
-0.2658521178893957   -0.012549430225913483   0.010218139031824489
-0.2658521178893957   -0.012549430225913483   0.010218139031824489
-0.2612147231413528   -0.01567315384781507   -0.006962520177446377
-0.2612147231413528   -0.01567315384781507   -0.006962520177446377
-0.2612147231413528   -0.01567315384781507   -0.006962520177446377
-0.2612147231413528   -0.01567315384781507   -0.006962520177446377
-0.16933659343125992   0.008112555031346244   0.008581056079194606
-0.16933659343125992   0.008112555031346244   0.008581056079194606
-0.16933659343125992   0.008112555031346244   0.008581056079194606
-0.16933659343125992   0.008112555031346244   0.008581056079194606
-0.21195886179701234   -0.002733802903495383   0.0044749906758283775
-0.21195886179701234   -0.002733802903495383   0.0044749906758283775
-0.21195886179701234   -0.002733802903495383   0.0044749906758283775
-0.21195886179701234   -0.002733802903495383   0.0044749906758283775
-0.17323064404754301   0.0023006980102166646   -0.005077339981089821
-0.17323064404754301   0.0023006980102166646   -0.005077339981089821
-0.17323064404754301   0.0023006980102166646   -0.005077339981089821
-0.17323064404754301   0.0023006980102166646   -0.005077339981089821
-0.2571638946234413   -0.009704518925059084   0.007322987489357058
-0.2571638946234413   -0.009704518925059084   0.007322987489357058
-0.2571638946234413   -0.009704518925059084   0.007322987489357058
-0.2571638946234413   -0.009704518925059084   0.007322987489357058
-0.25182193315055723   -0.013222454816521557   -0.008449228654220133
-0.25182193315055723   -0.013222454816521557   -0.008449228654220133
-0.25182193315055723   -0.013222454816521557   -0.008449228654220133
-0.25182193315055723   -0.013222454816521557   -0.008449228654220133
-0.1655108839371444   0.0110571635137775   0.006526761286670485
-0.1655108839371444   0.0110571635137775   0.006526761286670485
-0.1655108839371444   0.0110571635137775   0.006526761286670485
-0.1655108839371444   0.0110571635137775   0.006526761286670485
-0.20157467751345062   0.0006750325778281524   0.0075157948517391646
-0.20157467751345062   0.0006750325778281524   0.0075157948517391646
-0.20157467751345062   0.0006750325778281524   0.0075157948517391646
-0.20157467751345062   0.0006750325778281524   0.0075157948517391646
0.23638395930245454   0.014582160999982326   0.008011310132735275
0.23638395930245454   0.014582160999982326   0.008011310132735275
0.23638395930245454   0.014582160999982326   0.008011310132735275
0.23638395930245454   0.014582160999982326   0.008011310132735275
0.11159946531956927   -0.020245181594044225   0.0012240531288316252
0.11159946531956927   -0.020245181594044225   0.0012240531288316252
0.11159946531956927   -0.020245181594044225   0.0012240531288316252
0.11159946531956927   -0.020245181594044225   0.0012240531288316252
0.11725353520432215   -0.008932616603521088   0.00598840233055558
0.11725353520432215   -0.008932616603521088   0.00598840233055558
0.11725353520432215   -0.008932616603521088   0.00598840233055558
0.11725353520432215   -0.008932616603521088   0.00598840233055558
0.2373222080896797   0.0031273658347429987   -0.0022618111043994915
0.2373222080896797   0.0031273658347429987   -0.0022618111043994915
0.2373222080896797   0.0031273658347429987   -0.0022618111043994915
0.2373222080896797   0.0031273658347429987   -0.0022618111043994915
0.16556004193883522   -0.004026802403310591   -0.010624443328937125
0.16556004193883522   -0.004026802403310591   -0.010624443328937125
0.16556004193883522   -0.004026802403310591   -0.010624443328937125
0.16556004193883522   -0.004026802403310591   -0.010624443328937125
0.24161106691287393   0.01600264920111761   0.006307199645197277
0.24161106691287393   0.01600264920111761   0.006307199645197277
0.24161106691287393   0.01600264920111761   0.006307199645197277
0.24161106691287393   0.01600264920111761   0.006307199645197277
0.11395590339162681   -0.020816672959396744   0.001384299622954624
0.11395590339162681   -0.020816672959396744   0.001384299622954624
0.11395590339162681   -0.020816672959396744   0.001384299622954624
0.11395590339162681   -0.020816672959396744   0.001384299622954624
0.11927185218832133   -0.00762919140535133   0.004514823919376611
0.11927185218832133   -0.00762919140535133   0.004514823919376611
0.11927185218832133   -0.00762919140535133   0.004514823919376611
0.11927185218832133   -0.00762919140535133   0.004514823919376611
0.2410891147297934   0.0045757315678693206   -0.001146439514669667
0.2410891147297934   0.0045757315678693206   -0.001146439514669667
0.2410891147297934   0.0045757315678693206   -0.001146439514669667
0.2410891147297934   0.0045757315678693206   -0.001146439514669667
0.17199504403473923   -0.0031031840107533515   -0.007368510612346765
0.17199504403473923   -0.0031031840107533515   -0.007368510612346765
0.17199504403473923   -0.0031031840107533515   -0.007368510612346765
0.17199504403473923   -0.0031031840107533515   -0.007368510612346765
0.24475580642570655   0.017430987304002853   0.004331763228762331
0.24475580642570655   0.017430987304002853   0.004331763228762331
0.24475580642570655   0.017430987304002853   0.004331763228762331
0.24475580642570655   0.017430987304002853   0.004331763228762331
0.11629357149205664   -0.019796036141836452   0.0017902651745382546
0.11629357149205664   -0.019796036141836452   0.0017902651745382546
0.11629357149205664   -0.019796036141836452   0.0017902651745382546
0.11629357149205664   -0.019796036141836452   0.0017902651745382546
0.12229976941568746   -0.0025455386205577805   0.0041295969597170724
0.12229976941568746   -0.0025455386205577805   0.0041295969597170724
0.12229976941568746   -0.0025455386205577805   0.0041295969597170724
0.12229976941568746   -0.0025455386205577805   0.0041295969597170724
0.24509521402866985   0.008100449921036862   -0.000684631631116768
0.24509521402866985   0.008100449921036862   -0.000684631631116768
0.24509521402866985   0.008100449921036862   -0.000684631631116768
0.24509521402866985   0.008100449921036862   -0.000684631631116768
0.1724390626541756   -0.00119833744844541   -0.005659597776630762
0.1724390626541756   -0.00119833744844541   -0.005659597776630762
0.1724390626541756   -0.00119833744844541   -0.005659597776630762
0.1724390626541756   -0.00119833744844541   -0.005659597776630762
0.11801916819301646   0.004291111377520591   0.008786274524502782
0.11801916819301646   0.004291111377520591   0.008786274524502782
0.11801916819301646   0.004291111377520591   0.008786274524502782
0.11801916819301646   0.004291111377520591   0.008786274524502782
0.0035588318469841644   -0.03877062912526209   0.003448754789948211
0.0035588318469841644   -0.03877062912526209   0.003448754789948211
0.0035588318469841644   -0.03877062912526209   0.003448754789948211
0.0035588318469841644   -0.03877062912526209   0.003448754789948211
0.010710918217236302   -0.017063573686134818   0.003472656450172141
0.010710918217236302   -0.017063573686134818   0.003472656450172141
0.010710918217236302   -0.017063573686134818   0.003472656450172141
0.010710918217236302   -0.017063573686134818   0.003472656450172141
0.11514001171490428   -0.016244192038969034   0.002732360318913666
0.11514001171490428   -0.016244192038969034   0.002732360318913666
0.11514001171490428   -0.016244192038969034   0.002732360318913666
0.11514001171490428   -0.016244192038969034   0.002732360318913666
0.05991222429130255   -0.01656101824492735   -0.006403319345751127
0.05991222429130255   -0.01656101824492735   -0.006403319345751127
0.05991222429130255   -0.01656101824492735   -0.006403319345751127
0.05991222429130255   -0.01656101824492735   -0.006403319345751127
0.1204598653830073   0.005674309817564344   0.007413126802896939
0.1204598653830073   0.005674309817564344   0.007413126802896939
0.1204598653830073   0.005674309817564344   0.007413126802896939
0.1204598653830073   0.005674309817564344   0.007413126802896939
0.006801190622029794   -0.037571949469771417   0.004432394257776207
0.006801190622029794   -0.037571949469771417   0.004432394257776207
0.006801190622029794   -0.037571949469771417   0.004432394257776207
0.006801190622029794   -0.037571949469771417   0.004432394257776207
0.013509514728477712   -0.01465551894601614   0.0024165482192549117
0.013509514728477712   -0.01465551894601614   0.0024165482192549117
0.013509514728477712   -0.01465551894601614   0.0024165482192549117
0.013509514728477712   -0.01465551894601614   0.0024165482192549117
0.11756937960542635   -0.014914216548369616   0.0032874861479199532
0.11756937960542635   -0.014914216548369616   0.0032874861479199532
0.11756937960542635   -0.014914216548369616   0.0032874861479199532
0.11756937960542635   -0.014914216548369616   0.0032874861479199532
0.06221200812848244   -0.015585410972796766   -0.0032100141926746425
0.06221200812848244   -0.015585410972796766   -0.0032100141926746425
0.06221200812848244   -0.015585410972796766   -0.0032100141926746425
0.06221200812848244   -0.015585410972796766   -0.0032100141926746425
0.12275470055755378   0.007975152873321322   0.006324721486866157
0.12275470055755378   0.007975152873321322   0.006324721486866157
0.12275470055755378   0.007975152873321322   0.006324721486866157
0.12275470055755378   0.007975152873321322   0.006324721486866157
0.009673994443104447   -0.03619508770095284   0.0047785155473257625
0.009673994443104447   -0.03619508770095284   0.0047785155473257625
0.009673994443104447   -0.03619508770095284   0.0047785155473257625
0.009673994443104447   -0.03619508770095284   0.0047785155473257625
0.01785669210195412   -0.011028805648921553   0.0015056140230779015
0.01785669210195412   -0.011028805648921553   0.0015056140230779015
0.01785669210195412   -0.011028805648921553   0.0015056140230779015
0.01785669210195412   -0.011028805648921553   0.0015056140230779015
0.12018690235448314   -0.01292367961854388   0.003943402651682068
0.12018690235448314   -0.01292367961854388   0.003943402651682068
0.12018690235448314   -0.01292367961854388   0.003943402651682068
0.12018690235448314   -0.01292367961854388   0.003943402651682068
0.0665327898815497   -0.013313153884776288   0.0005382347757005908
0.0665327898815497   -0.013313153884776288   0.0005382347757005908
0.0665327898815497   -0.013313153884776288   0.0005382347757005908
0.0665327898815497   -0.013313153884776288   0.0005382347757005908
0.010546199211538362   -0.006031220749002004   0.005646183236459115
0.010546199211538362   -0.006031220749002004   0.005646183236459115
0.010546199211538362   -0.006031220749002004   0.005646183236459115
0.010546199211538362   -0.006031220749002004   0.005646183236459115
-0.10495488969562347   -0.06543348501875151   0.005388387330706422
-0.10495488969562347   -0.06543348501875151   0.005388387330706422
-0.10495488969562347   -0.06543348501875151   0.005388387330706422
-0.10495488969562347   -0.06543348501875151   0.005388387330706422
-0.09385632957079804   -0.02660576377951547   3.2898964676959797e-05
-0.09385632957079804   -0.02660576377951547   3.2898964676959797e-05
-0.09385632957079804   -0.02660576377951547   3.2898964676959797e-05
-0.09385632957079804   -0.02660576377951547   3.2898964676959797e-05
0.004974050679507669   -0.044800982755092644   0.0025257278304867993
0.004974050679507669   -0.044800982755092644   0.0025257278304867993
0.004974050679507669   -0.044800982755092644   0.0025257278304867993
0.004974050679507669   -0.044800982755092644   0.0025257278304867993
-0.047015892463121836   -0.03594735477391395   -0.007661383677689806
-0.047015892463121836   -0.03594735477391395   -0.007661383677689806
-0.047015892463121836   -0.03594735477391395   -0.007661383677689806
-0.047015892463121836   -0.03594735477391395   -0.007661383677689806
0.013478077239496277   -0.004247072196103803   0.004491950071440996
0.013478077239496277   -0.004247072196103803   0.004491950071440996
0.013478077239496277   -0.004247072196103803   0.004491950071440996
0.013478077239496277   -0.004247072196103803   0.004491950071440996
-0.10025558830744871   -0.06505490651516627   0.006485748017075035
-0.10025558830744871   -0.06505490651516627   0.006485748017075035
-0.10025558830744871   -0.06505490651516627   0.006485748017075035
-0.10025558830744871   -0.06505490651516627   0.006485748017075035
-0.08956260234078639   -0.023794971771866333   -0.0004763982469002462
-0.08956260234078639   -0.023794971771866333   -0.0004763982469002462
-0.08956260234078639   -0.023794971771866333   -0.0004763982469002462
-0.08956260234078639   -0.023794971771866333   -0.0004763982469002462
0.007945562074292391   -0.043528660366558634   0.003469926368871284
0.007945562074292391   -0.043528660366558634   0.003469926368871284
0.007945562074292391   -0.043528660366558634   0.003469926368871284
0.007945562074292391   -0.043528660366558634   0.003469926368871284
-0.042611332685231686   -0.03444299885433506   -0.0026910184561874557
-0.042611332685231686   -0.03444299885433506   -0.0026910184561874557
-0.042611332685231686   -0.03444299885433506   -0.0026910184561874557
-0.042611332685231686   -0.03444299885433506   -0.0026910184561874557
0.016161694603739424   -0.00195870583639296   0.002980634485940778
0.016161694603739424   -0.00195870583639296   0.002980634485940778
0.016161694603739424   -0.00195870583639296   0.002980634485940778
0.016161694603739424   -0.00195870583639296   0.002980634485940778
-0.09593735451828406   -0.06352354595008111   0.007378415043827698
-0.09593735451828406   -0.06352354595008111   0.007378415043827698
-0.09593735451828406   -0.06352354595008111   0.007378415043827698
-0.09593735451828406   -0.06352354595008111   0.007378415043827698
-0.0824616621646247   -0.020582644420792544   -0.0013743023444610057
-0.0824616621646247   -0.020582644420792544   -0.0013743023444610057
-0.0824616621646247   -0.020582644420792544   -0.0013743023444610057
-0.0824616621646247   -0.020582644420792544   -0.0013743023444610057
0.012567214162798674   -0.040472298627563366   0.004501717305942502
0.012567214162798674   -0.040472298627563366   0.004501717305942502
0.012567214162798674   -0.040472298627563366   0.004501717305942502
0.012567214162798674   -0.040472298627563366   0.004501717305942502
-0.03695850717748188   -0.031493472961575   0.002343936457423014
-0.03695850717748188   -0.031493472961575   0.002343936457423014
-0.03695850717748188   -0.031493472961575   0.002343936457423014
-0.03695850717748188   -0.031493472961575   0.002343936457423014
-0.09484918735081899   -0.012226721773832678   0.002710135809809326
-0.09484918735081899   -0.012226721773832678   0.002710135809809326
-0.09484918735081899   -0.012226721773832678   0.002710135809809326
-0.09484918735081899   -0.012226721773832678   0.002710135809809326
-0.22805142580601484   -0.10019569356197659   -0.0035045290115396782
-0.22805142580601484   -0.10019569356197659   -0.0035045290115396782
-0.22805142580601484   -0.10019569356197659   -0.0035045290115396782
-0.22805142580601484   -0.10019569356197659   -0.0035045290115396782
-0.20995872870447735   -0.03460117420590299   -0.006066762017292844
-0.20995872870447735   -0.03460117420590299   -0.006066762017292844
-0.20995872870447735   -0.03460117420590299   -0.006066762017292844
-0.20995872870447735   -0.03460117420590299   -0.006066762017292844
-0.10445583093421366   -0.08178772309887933   0.0022173514669626415
-0.10445583093421366   -0.08178772309887933   0.0022173514669626415
-0.10445583093421366   -0.08178772309887933   0.0022173514669626415
-0.10445583093421366   -0.08178772309887933   0.0022173514669626415
-0.1591949941285377   -0.05937463320504972   -0.0081744830004516
-0.1591949941285377   -0.05937463320504972   -0.0081744830004516
-0.1591949941285377   -0.05937463320504972   -0.0081744830004516
-0.1591949941285377   -0.05937463320504972   -0.0081744830004516
-0.08982444053256662   -0.008869706743998812   0.0024562871203173096
-0.08982444053256662   -0.008869706743998812   0.0024562871203173096
-0.08982444053256662   -0.008869706743998812   0.0024562871203173096
-0.08982444053256662   -0.008869706743998812   0.0024562871203173096
-0.22382791694356038   -0.10675698839821925   -0.003256889020390244
-0.22382791694356038   -0.10675698839821925   -0.003256889020390244
-0.22382791694356038   -0.10675698839821925   -0.003256889020390244
-0.22382791694356038   -0.10675698839821925   -0.003256889020390244
-0.2040968158746213   -0.0312782437631954   -0.006249148168386003
-0.2040968158746213   -0.0312782437631954   -0.006249148168386003
-0.2040968158746213   -0.0312782437631954   -0.006249148168386003
-0.2040968158746213   -0.0312782437631954   -0.006249148168386003
-0.10019218137018426   -0.08077389656109686   0.0033546313953417145
-0.10019218137018426   -0.08077389656109686   0.0033546313953417145
-0.10019218137018426   -0.08077389656109686   0.0033546313953417145
-0.10019218137018426   -0.08077389656109686   0.0033546313953417145
-0.15281684075886343   -0.057326526452635945   -0.005117267083418281
-0.15281684075886343   -0.057326526452635945   -0.005117267083418281
-0.15281684075886343   -0.057326526452635945   -0.005117267083418281
-0.15281684075886343   -0.057326526452635945   -0.005117267083418281
-0.08577994592502901   -0.006197214772996263   0.0008391268330173868
-0.08577994592502901   -0.006197214772996263   0.0008391268330173868
-0.08577994592502901   -0.006197214772996263   0.0008391268330173868
-0.08577994592502901   -0.006197214772996263   0.0008391268330173868
-0.21827718039469024   -0.10562305462620937   -0.0028061599057148806
-0.21827718039469024   -0.10562305462620937   -0.0028061599057148806
-0.21827718039469024   -0.10562305462620937   -0.0028061599057148806
-0.21827718039469024   -0.10562305462620937   -0.0028061599057148806
-0.1948181553419323   -0.02779723321633617   -0.007105572340310021
-0.1948181553419323   -0.02779723321633617   -0.007105572340310021
-0.1948181553419323   -0.02779723321633617   -0.007105572340310021
-0.1948181553419323   -0.02779723321633617   -0.007105572340310021
-0.09094610461926034   -0.07121711104339906   0.006837952004968749
-0.09094610461926034   -0.07121711104339906   0.006837952004968749
-0.09094610461926034   -0.07121711104339906   0.006837952004968749
-0.09094610461926034   -0.07121711104339906   0.006837952004968749
-0.14589666129997572   -0.05115485799503523   -0.0020815298349645406
-0.14589666129997572   -0.05115485799503523   -0.0020815298349645406
-0.14589666129997572   -0.05115485799503523   -0.0020815298349645406
-0.14589666129997572   -0.05115485799503523   -0.0020815298349645406
-0.20975567139083356   -0.010929612320188787   -0.0012918381774211507
-0.20975567139083356   -0.010929612320188787   -0.0012918381774211507
-0.20975567139083356   -0.010929612320188787   -0.0012918381774211507
-0.20975567139083356   -0.010929612320188787   -0.0012918381774211507
-0.36421307180618256   -0.0720813984797315   0.0038060794075250592
-0.36421307180618256   -0.0720813984797315   0.0038060794075250592
-0.36421307180618256   -0.0720813984797315   0.0038060794075250592
-0.36421307180618256   -0.0720813984797315   0.0038060794075250592
-0.3507344379874472   -0.032971628351918796   -0.00701053150015063
-0.3507344379874472   -0.032971628351918796   -0.00701053150015063
-0.3507344379874472   -0.032971628351918796   -0.00701053150015063
-0.3507344379874472   -0.032971628351918796   -0.00701053150015063
-0.20698768638258172   -0.038800068499383236   0.012987343885665532
-0.20698768638258172   -0.038800068499383236   0.012987343885665532
-0.20698768638258172   -0.038800068499383236   0.012987343885665532
-0.20698768638258172   -0.038800068499383236   0.012987343885665532
-0.27159813750036604   -0.041318158916557726   0.0031098611801485543
-0.27159813750036604   -0.041318158916557726   0.0031098611801485543
-0.27159813750036604   -0.041318158916557726   0.0031098611801485543
-0.27159813750036604   -0.041318158916557726   0.0031098611801485543
-0.202193704592938   -0.0018582820884066962   1.5466422908401445e-05
-0.202193704592938   -0.0018582820884066962   1.5466422908401445e-05
-0.202193704592938   -0.0018582820884066962   1.5466422908401445e-05
-0.202193704592938   -0.0018582820884066962   1.5466422908401445e-05
-0.35663961303057995   -0.071024608016386   0.0015165729486498886
-0.35663961303057995   -0.071024608016386   0.0015165729486498886
-0.35663961303057995   -0.071024608016386   0.0015165729486498886
-0.35663961303057995   -0.071024608016386   0.0015165729486498886
-0.3438323595829241   -0.030287931319963733   -0.00892560952569113
-0.3438323595829241   -0.030287931319963733   -0.00892560952569113
-0.3438323595829241   -0.030287931319963733   -0.00892560952569113
-0.3438323595829241   -0.030287931319963733   -0.00892560952569113
-0.20097368275145996   -0.03714756817787214   0.015235841862099267
-0.20097368275145996   -0.03714756817787214   0.015235841862099267
-0.20097368275145996   -0.03714756817787214   0.015235841862099267
-0.20097368275145996   -0.03714756817787214   0.015235841862099267
-0.26839420638038874   -0.03422135212626082   0.003169860905923111
-0.26839420638038874   -0.03422135212626082   0.003169860905923111
-0.26839420638038874   -0.03422135212626082   0.003169860905923111
-0.26839420638038874   -0.03422135212626082   0.003169860905923111
-0.19685671724447779   0.000522449413908185   -0.001849348194770152
-0.19685671724447779   0.000522449413908185   -0.001849348194770152
-0.19685671724447779   0.000522449413908185   -0.001849348194770152
-0.19685671724447779   0.000522449413908185   -0.001849348194770152
-0.3482040521520418   -0.06821267597388142   0.00714067228263475
-0.3482040521520418   -0.06821267597388142   0.00714067228263475
-0.3482040521520418   -0.06821267597388142   0.00714067228263475
-0.3482040521520418   -0.06821267597388142   0.00714067228263475
-0.32944650368293504   -0.025076915416896568   -0.010208013620909187
-0.32944650368293504   -0.025076915416896568   -0.010208013620909187
-0.32944650368293504   -0.025076915416896568   -0.010208013620909187
-0.32944650368293504   -0.025076915416896568   -0.010208013620909187
-0.19149346939554107   -0.03496214087003835   0.01668276504534931
-0.19149346939554107   -0.03496214087003835   0.01668276504534931
-0.19149346939554107   -0.03496214087003835   0.01668276504534931
-0.19149346939554107   -0.03496214087003835   0.01668276504534931
-0.25365723771013804   -0.02630082881824053   0.00724285058973291
-0.25365723771013804   -0.02630082881824053   0.00724285058973291
-0.25365723771013804   -0.02630082881824053   0.00724285058973291
-0.25365723771013804   -0.02630082881824053   0.00724285058973291
0.25903887986515706   0.009676146568808839   0.0033912793975091546
0.25903887986515706   0.009676146568808839   0.0033912793975091546
0.25903887986515706   0.009676146568808839   0.0033912793975091546
0.25903887986515706   0.009676146568808839   0.0033912793975091546
0.13046829754142775   -0.007614500970554472   0.00201107229076352
0.13046829754142775   -0.007614500970554472   0.00201107229076352
0.13046829754142775   -0.007614500970554472   0.00201107229076352
0.13046829754142775   -0.007614500970554472   0.00201107229076352
0.12593568703465585   -0.01778073895546907   0.004584185999563974
0.12593568703465585   -0.01778073895546907   0.004584185999563974
0.12593568703465585   -0.01778073895546907   0.004584185999563974
0.12593568703465585   -0.01778073895546907   0.004584185999563974
0.2572310919632733   0.014408648685013504   0.001278783060162117
0.2572310919632733   0.014408648685013504   0.001278783060162117
0.2572310919632733   0.014408648685013504   0.001278783060162117
0.2572310919632733   0.014408648685013504   0.001278783060162117
0.1828849363493353   -0.002286698590221901   -0.006859085443294492
0.1828849363493353   -0.002286698590221901   -0.006859085443294492
0.1828849363493353   -0.002286698590221901   -0.006859085443294492
0.1828849363493353   -0.002286698590221901   -0.006859085443294492
0.2561695278112327   0.007854261830773292   0.002525349154198976
0.2561695278112327   0.007854261830773292   0.002525349154198976
0.2561695278112327   0.007854261830773292   0.002525349154198976
0.2561695278112327   0.007854261830773292   0.002525349154198976
0.12665820978700854   -0.011565393500916857   0.0019814543067751163
0.12665820978700854   -0.011565393500916857   0.0019814543067751163
0.12665820978700854   -0.011565393500916857   0.0019814543067751163
0.12665820978700854   -0.011565393500916857   0.0019814543067751163
0.12295178025549228   -0.01807613073597454   0.003731583440412155
0.12295178025549228   -0.01807613073597454   0.003731583440412155
0.12295178025549228   -0.01807613073597454   0.003731583440412155
0.12295178025549228   -0.01807613073597454   0.003731583440412155
0.25457961838191534   0.013920206101649756   0.0025277045679704263
0.25457961838191534   0.013920206101649756   0.0025277045679704263
0.25457961838191534   0.013920206101649756   0.0025277045679704263
0.25457961838191534   0.013920206101649756   0.0025277045679704263
0.18276485743475349   -0.003131869976966028   -0.007662410022998084
0.18276485743475349   -0.003131869976966028   -0.007662410022998084
0.18276485743475349   -0.003131869976966028   -0.007662410022998084
0.18276485743475349   -0.003131869976966028   -0.007662410022998084
0.2528954380821537   0.007309738312864413   0.0007172708579455053
0.2528954380821537   0.007309738312864413   0.0007172708579455053
0.2528954380821537   0.007309738312864413   0.0007172708579455053
0.2528954380821537   0.007309738312864413   0.0007172708579455053
0.12398705226339297   -0.012114571239050497   0.0029463839829915565
0.12398705226339297   -0.012114571239050497   0.0029463839829915565
0.12398705226339297   -0.012114571239050497   0.0029463839829915565
0.12398705226339297   -0.012114571239050497   0.0029463839829915565
0.11985847278417794   -0.016164043197262737   0.00322964402187716
0.11985847278417794   -0.016164043197262737   0.00322964402187716
0.11985847278417794   -0.016164043197262737   0.00322964402187716
0.11985847278417794   -0.016164043197262737   0.00322964402187716
0.2505565859346359   0.014458772701698448   0.00388651786992935
0.2505565859346359   0.014458772701698448   0.00388651786992935
0.2505565859346359   0.014458772701698448   0.00388651786992935
0.2505565859346359   0.014458772701698448   0.00388651786992935
0.1763041347736349   -0.00300657597517698   -0.010097530680214427
0.1763041347736349   -0.00300657597517698   -0.010097530680214427
0.1763041347736349   -0.00300657597517698   -0.010097530680214427
0.1763041347736349   -0.00300657597517698   -0.010097530680214427
0.13031582862239496   -0.012818446152633778   0.0064526728776789465
0.13031582862239496   -0.012818446152633778   0.0064526728776789465
0.13031582862239496   -0.012818446152633778   0.0064526728776789465
0.13031582862239496   -0.012818446152633778   0.0064526728776789465
0.021002571658852814   -0.015434231386438008   0.0008497923832849412
0.021002571658852814   -0.015434231386438008   0.0008497923832849412
0.021002571658852814   -0.015434231386438008   0.0008497923832849412
0.021002571658852814   -0.015434231386438008   0.0008497923832849412
0.01313792161013487   -0.03600764834393697   0.005917168898843375
0.01313792161013487   -0.03600764834393697   0.005917168898843375
0.01313792161013487   -0.03600764834393697   0.005917168898843375
0.01313792161013487   -0.03600764834393697   0.005917168898843375
0.13078453840054077   0.006208736014018794   0.004838967859500783
0.13078453840054077   0.006208736014018794   0.004838967859500783
0.13078453840054077   0.006208736014018794   0.004838967859500783
0.13078453840054077   0.006208736014018794   0.004838967859500783
0.07265536207984724   -0.014580621402088757   -0.00036656725480985544
0.07265536207984724   -0.014580621402088757   -0.00036656725480985544
0.07265536207984724   -0.014580621402088757   -0.00036656725480985544
0.07265536207984724   -0.014580621402088757   -0.00036656725480985544
0.1270104937761453   -0.013317559616829193   0.005495040368371833
0.1270104937761453   -0.013317559616829193   0.005495040368371833
0.1270104937761453   -0.013317559616829193   0.005495040368371833
0.1270104937761453   -0.013317559616829193   0.005495040368371833
0.015948663412853805   -0.017444655534765454   0.0014078851032665238
0.015948663412853805   -0.017444655534765454   0.0014078851032665238
0.015948663412853805   -0.017444655534765454   0.0014078851032665238
0.015948663412853805   -0.017444655534765454   0.0014078851032665238
0.009543468553157238   -0.036122758375850245   0.005270688062785931
0.009543468553157238   -0.036122758375850245   0.005270688062785931
0.009543468553157238   -0.036122758375850245   0.005270688062785931
0.009543468553157238   -0.036122758375850245   0.005270688062785931
0.12804134111284882   0.005443414765911436   0.005659842225308832
0.12804134111284882   0.005443414765911436   0.005659842225308832
0.12804134111284882   0.005443414765911436   0.005659842225308832
0.12804134111284882   0.005443414765911436   0.005659842225308832
0.06770610534017275   -0.015469443279024307   -0.0032681280571495077
0.06770610534017275   -0.015469443279024307   -0.0032681280571495077
0.06770610534017275   -0.015469443279024307   -0.0032681280571495077
0.06770610534017275   -0.015469443279024307   -0.0032681280571495077
0.12407997979552045   -0.013341919715850688   0.004638370120428174
0.12407997979552045   -0.013341919715850688   0.004638370120428174
0.12407997979552045   -0.013341919715850688   0.004638370120428174
0.12407997979552045   -0.013341919715850688   0.004638370120428174
0.012449353219811976   -0.018392900544763183   0.002070253564972564
0.012449353219811976   -0.018392900544763183   0.002070253564972564
0.012449353219811976   -0.018392900544763183   0.002070253564972564
0.012449353219811976   -0.018392900544763183   0.002070253564972564
0.0055408236703941415   -0.03583687093656587   0.004023524745661094
0.0055408236703941415   -0.03583687093656587   0.004023524745661094
0.0055408236703941415   -0.03583687093656587   0.004023524745661094
0.0055408236703941415   -0.03583687093656587   0.004023524745661094
0.12492732408129524   0.0057104205965161445   0.00669943671368534
0.12492732408129524   0.0057104205965161445   0.00669943671368534
0.12492732408129524   0.0057104205965161445   0.00669943671368534
0.12492732408129524   0.0057104205965161445   0.00669943671368534
0.06481858707628804   -0.01512843509482274   -0.005677288044298283
0.06481858707628804   -0.01512843509482274   -0.005677288044298283
0.06481858707628804   -0.01512843509482274   -0.005677288044298283
0.06481858707628804   -0.01512843509482274   -0.005677288044298283
0.016846879871602632   -0.041019490132773645   0.005656592193369689
0.016846879871602632   -0.041019490132773645   0.005656592193369689
0.016846879871602632   -0.041019490132773645   0.005656592193369689
0.016846879871602632   -0.041019490132773645   0.005656592193369689
-0.08454322331015417   -0.023324101065063378   -0.0003670250643270298
-0.08454322331015417   -0.023324101065063378   -0.0003670250643270298
-0.08454322331015417   -0.023324101065063378   -0.0003670250643270298
-0.08454322331015417   -0.023324101065063378   -0.0003670250643270298
-0.0987664495933501   -0.0646996603174784   0.006772840291415727
-0.0987664495933501   -0.0646996603174784   0.006772840291415727
-0.0987664495933501   -0.0646996603174784   0.006772840291415727
-0.0987664495933501   -0.0646996603174784   0.006772840291415727
0.01936845198605388   -0.0021230352429260162   0.003185207677427457
0.01936845198605388   -0.0021230352429260162   0.003185207677427457
0.01936845198605388   -0.0021230352429260162   0.003185207677427457
0.01936845198605388   -0.0021230352429260162   0.003185207677427457
-0.03636659373382036   -0.032314174831451235   0.001314074114025881
-0.03636659373382036   -0.032314174831451235   0.001314074114025881
-0.03636659373382036   -0.032314174831451235   0.001314074114025881
-0.03636659373382036   -0.032314174831451235   0.001314074114025881
0.011363799324124265   -0.04318366397274667   0.00422257309760005
0.011363799324124265   -0.04318366397274667   0.00422257309760005
0.011363799324124265   -0.04318366397274667   0.00422257309760005
0.011363799324124265   -0.04318366397274667   0.00422257309760005
-0.09215079793524304   -0.025028032591480443   0.00017947085595223372
-0.09215079793524304   -0.025028032591480443   0.00017947085595223372
-0.09215079793524304   -0.025028032591480443   0.00017947085595223372
-0.09215079793524304   -0.025028032591480443   0.00017947085595223372
-0.10370053397700754   -0.06540658001390837   0.005726424183414847
-0.10370053397700754   -0.06540658001390837   0.005726424183414847
-0.10370053397700754   -0.06540658001390837   0.005726424183414847
-0.10370053397700754   -0.06540658001390837   0.005726424183414847
0.01598360286012738   -0.002962669064906531   0.004311270286692928
0.01598360286012738   -0.002962669064906531   0.004311270286692928
0.01598360286012738   -0.002962669064906531   0.004311270286692928
0.01598360286012738   -0.002962669064906531   0.004311270286692928
-0.04257047732517069   -0.03408798093416345   -0.002781665631667457
-0.04257047732517069   -0.03408798093416345   -0.002781665631667457
-0.04257047732517069   -0.03408798093416345   -0.002781665631667457
-0.04257047732517069   -0.03408798093416345   -0.002781665631667457
0.007535140724107252   -0.0437362265016927   0.002842517043378446
0.007535140724107252   -0.0437362265016927   0.002842517043378446
0.007535140724107252   -0.0437362265016927   0.002842517043378446
0.007535140724107252   -0.0437362265016927   0.002842517043378446
-0.09696550020001297   -0.026346450936147934   0.0003414639906262826
-0.09696550020001297   -0.026346450936147934   0.0003414639906262826
-0.09696550020001297   -0.026346450936147934   0.0003414639906262826
-0.09696550020001297   -0.026346450936147934   0.0003414639906262826
-0.10913315931707068   -0.06481658763532128   0.004480645747022338
-0.10913315931707068   -0.06481658763532128   0.004480645747022338
-0.10913315931707068   -0.06481658763532128   0.004480645747022338
-0.10913315931707068   -0.06481658763532128   0.004480645747022338
0.012237549427934147   -0.003363491932295321   0.005033774529090571
0.012237549427934147   -0.003363491932295321   0.005033774529090571
0.012237549427934147   -0.003363491932295321   0.005033774529090571
0.012237549427934147   -0.003363491932295321   0.005033774529090571
-0.047668582330564035   -0.034682770619231265   -0.007004415616006135
-0.047668582330564035   -0.034682770619231265   -0.007004415616006135
-0.047668582330564035   -0.034682770619231265   -0.007004415616006135
-0.047668582330564035   -0.034682770619231265   -0.007004415616006135
-0.0926773424061082   -0.07107692950126605   0.006715207892106383
-0.0926773424061082   -0.07107692950126605   0.006715207892106383
-0.0926773424061082   -0.07107692950126605   0.006715207892106383
-0.0926773424061082   -0.07107692950126605   0.006715207892106383
-0.20233210847496075   -0.028844469735863104   -0.0043637549111247495
-0.20233210847496075   -0.028844469735863104   -0.0043637549111247495
-0.20233210847496075   -0.028844469735863104   -0.0043637549111247495
-0.20233210847496075   -0.028844469735863104   -0.0043637549111247495
-0.22736959534070217   -0.10779140741123533   -0.0048873056883288885
-0.22736959534070217   -0.10779140741123533   -0.0048873056883288885
-0.22736959534070217   -0.10779140741123533   -0.0048873056883288885
-0.22736959534070217   -0.10779140741123533   -0.0048873056883288885
-0.08757045612675639   -0.004699334398716808   0.00275248170562184
-0.08757045612675639   -0.004699334398716808   0.00275248170562184
-0.08757045612675639   -0.004699334398716808   0.00275248170562184
-0.08757045612675639   -0.004699334398716808   0.00275248170562184
-0.15091262279830084   -0.05067451421491803   -0.0034984630745891615
-0.15091262279830084   -0.05067451421491803   -0.0034984630745891615
-0.15091262279830084   -0.05067451421491803   -0.0034984630745891615
-0.15091262279830084   -0.05067451421491803   -0.0034984630745891615
-0.10292125627121688   -0.08138704095229332   0.0026861875368959023
-0.10292125627121688   -0.08138704095229332   0.0026861875368959023
-0.10292125627121688   -0.08138704095229332   0.0026861875368959023
-0.10292125627121688   -0.08138704095229332   0.0026861875368959023
-0.21178501324818733   -0.030869918909604763   -0.0038858837273870184
-0.21178501324818733   -0.030869918909604763   -0.0038858837273870184
-0.21178501324818733   -0.030869918909604763   -0.0038858837273870184
-0.21178501324818733   -0.030869918909604763   -0.0038858837273870184
-0.23331973626409944   -0.10919906756241571   -0.005643668717337333
-0.23331973626409944   -0.10919906756241571   -0.005643668717337333
-0.23331973626409944   -0.10919906756241571   -0.005643668717337333
-0.23331973626409944   -0.10919906756241571   -0.005643668717337333
-0.09221139966274637   -0.006172867739946836   0.003938383480758291
-0.09221139966274637   -0.006172867739946836   0.003938383480758291
-0.09221139966274637   -0.006172867739946836   0.003938383480758291
-0.09221139966274637   -0.006172867739946836   0.003938383480758291
-0.15827613932021267   -0.05652318192897797   -0.005720092415286343
-0.15827613932021267   -0.05652318192897797   -0.005720092415286343
-0.15827613932021267   -0.05652318192897797   -0.005720092415286343
-0.15827613932021267   -0.05652318192897797   -0.005720092415286343
-0.10810938963118401   -0.08281095942720042   0.0010865253258236438
-0.10810938963118401   -0.08281095942720042   0.0010865253258236438
-0.10810938963118401   -0.08281095942720042   0.0010865253258236438
-0.10810938963118401   -0.08281095942720042   0.0010865253258236438
-0.21771017097434806   -0.03284940055384872   -0.003945509277149428
-0.21771017097434806   -0.03284940055384872   -0.003945509277149428
-0.21771017097434806   -0.03284940055384872   -0.003945509277149428
-0.21771017097434806   -0.03284940055384872   -0.003945509277149428
-0.23829500438960666   -0.10332448349411805   -0.006350010478279891
-0.23829500438960666   -0.10332448349411805   -0.006350010478279891
-0.23829500438960666   -0.10332448349411805   -0.006350010478279891
-0.23829500438960666   -0.10332448349411805   -0.006350010478279891
-0.09797520785740273   -0.008295831030281064   0.0037496464403217987
-0.09797520785740273   -0.008295831030281064   0.0037496464403217987
-0.09797520785740273   -0.008295831030281064   0.0037496464403217987
-0.09797520785740273   -0.008295831030281064   0.0037496464403217987
-0.1652571619760896   -0.05837547580239698   -0.008005920142781557
-0.1652571619760896   -0.05837547580239698   -0.008005920142781557
-0.1652571619760896   -0.05837547580239698   -0.008005920142781557
-0.1652571619760896   -0.05837547580239698   -0.008005920142781557
-0.20017137758894213   -0.03709599130097336   0.014691421084075326
-0.20017137758894213   -0.03709599130097336   0.014691421084075326
-0.20017137758894213   -0.03709599130097336   0.014691421084075326
-0.20017137758894213   -0.03709599130097336   0.014691421084075326
-0.34401401530993525   -0.02475670260712338   -0.005188245476520456
-0.34401401530993525   -0.02475670260712338   -0.005188245476520456
-0.34401401530993525   -0.02475670260712338   -0.005188245476520456
-0.34401401530993525   -0.02475670260712338   -0.005188245476520456
-0.3637118809863219   -0.07195610077476633   0.003931377112490225
-0.3637118809863219   -0.07195610077476633   0.003931377112490225
-0.3637118809863219   -0.07195610077476633   0.003931377112490225
-0.3637118809863219   -0.07195610077476633   0.003931377112490225
-0.20370010363769686   0.0037810045099666307   0.001887740905493887
-0.20370010363769686   0.0037810045099666307   0.001887740905493887
-0.20370010363769686   0.0037810045099666307   0.001887740905493887
-0.20370010363769686   0.0037810045099666307   0.001887740905493887
-0.2646823374476349   -0.02521091515854295   0.005117243555414444
-0.2646823374476349   -0.02521091515854295   0.005117243555414444
-0.2646823374476349   -0.02521091515854295   0.005117243555414444
-0.2646823374476349   -0.02521091515854295   0.005117243555414444
-0.21013203300977484   -0.03943715574245088   0.012946254297520443
-0.21013203300977484   -0.03943715574245088   0.012946254297520443
-0.21013203300977484   -0.03943715574245088   0.012946254297520443
-0.21013203300977484   -0.03943715574245088   0.012946254297520443
-0.35658157559691683   -0.028039564505021385   -0.004333632210226188
-0.35658157559691683   -0.028039564505021385   -0.004333632210226188
-0.35658157559691683   -0.028039564505021385   -0.004333632210226188
-0.35658157559691683   -0.028039564505021385   -0.004333632210226188
-0.371516160459373   -0.07474374487358428   -0.00220256390854838
-0.371516160459373   -0.07474374487358428   -0.00220256390854838
-0.371516160459373   -0.07474374487358428   -0.00220256390854838
-0.371516160459373   -0.07474374487358428   -0.00220256390854838
-0.20930947980604486   0.002021116056296275   0.0031874299542216863
-0.20930947980604486   0.002021116056296275   0.0031874299542216863
-0.20930947980604486   0.002021116056296275   0.0031874299542216863
-0.20930947980604486   0.002021116056296275   0.0031874299542216863
-0.27921544083402183   -0.032990855361287416   0.0019117116687776825
-0.27921544083402183   -0.032990855361287416   0.0019117116687776825
-0.27921544083402183   -0.032990855361287416   0.0019117116687776825
-0.27921544083402183   -0.032990855361287416   0.0019117116687776825
-0.21650857470392465   -0.04121591719713427   0.010428988718253263
-0.21650857470392465   -0.04121591719713427   0.010428988718253263
-0.21650857470392465   -0.04121591719713427   0.010428988718253263
-0.21650857470392465   -0.04121591719713427   0.010428988718253263
-0.3627376090543881   -0.02992725511304814   -0.0031262966441571033
-0.3627376090543881   -0.02992725511304814   -0.0031262966441571033
-0.3627376090543881   -0.02992725511304814   -0.0031262966441571033
-0.3627376090543881   -0.02992725511304814   -0.0031262966441571033
-0.3777511744485131   -0.07559945654799924   -0.0002461082914830687
-0.3777511744485131   -0.07559945654799924   -0.0002461082914830687
-0.3777511744485131   -0.07559945654799924   -0.0002461082914830687
-0.3777511744485131   -0.07559945654799924   -0.0002461082914830687
-0.21729901456781311   -0.0061676224819653975   0.0014730776185343242
-0.21729901456781311   -0.0061676224819653975   0.0014730776185343242
-0.21729901456781311   -0.0061676224819653975   0.0014730776185343242
-0.21729901456781311   -0.0061676224819653975   0.0014730776185343242
-0.28171271937180237   -0.03951985264347832   0.0029494782175737144
-0.28171271937180237   -0.03951985264347832   0.0029494782175737144
-0.28171271937180237   -0.03951985264347832   0.0029494782175737144
-0.28171271937180237   -0.03951985264347832   0.0029494782175737144
0.2318250298567196   0.011372707515334288   -0.004409617595084521
0.2318250298567196   0.011372707515334288   -0.004409617595084521
0.2318250298567196   0.011372707515334288   -0.004409617595084521
0.2318250298567196   0.011372707515334288   -0.004409617595084521
0.11526284658782507   -0.0032124112787494203   0.0019118652267873168
0.11526284658782507   -0.0032124112787494203   0.0019118652267873168
0.11526284658782507   -0.0032124112787494203   0.0019118652267873168
0.11526284658782507   -0.0032124112787494203   0.0019118652267873168
0.10866293883979077   -0.01638141500292295   -0.004103382256037576
0.10866293883979077   -0.01638141500292295   -0.004103382256037576
0.10866293883979077   -0.01638141500292295   -0.004103382256037576
0.10866293883979077   -0.01638141500292295   -0.004103382256037576
0.22934390579742508   0.01636099770108628   0.0022367085265940848
0.22934390579742508   0.01636099770108628   0.0022367085265940848
0.22934390579742508   0.01636099770108628   0.0022367085265940848
0.22934390579742508   0.01636099770108628   0.0022367085265940848
0.16230275833043661   0.00041573128562145956   -0.006246708595202537
0.16230275833043661   0.00041573128562145956   -0.006246708595202537
0.16230275833043661   0.00041573128562145956   -0.006246708595202537
0.16230275833043661   0.00041573128562145956   -0.006246708595202537
0.22611996432198295   0.007021888595681062   -0.004543889745209702
0.22611996432198295   0.007021888595681062   -0.004543889745209702
0.22611996432198295   0.007021888595681062   -0.004543889745209702
0.22611996432198295   0.007021888595681062   -0.004543889745209702
0.11172894077749289   -0.007200245435257607   0.0020454578648068343
0.11172894077749289   -0.007200245435257607   0.0020454578648068343
0.11172894077749289   -0.007200245435257607   0.0020454578648068343
0.11172894077749289   -0.007200245435257607   0.0020454578648068343
0.10507834748842858   -0.017176955084576256   -0.0034568304696728502
0.10507834748842858   -0.017176955084576256   -0.0034568304696728502
0.10507834748842858   -0.017176955084576256   -0.0034568304696728502
0.10507834748842858   -0.017176955084576256   -0.0034568304696728502
0.2244267737548755   0.015184583685402231   0.0034332317967739265
0.2244267737548755   0.015184583685402231   0.0034332317967739265
0.2244267737548755   0.015184583685402231   0.0034332317967739265
0.2244267737548755   0.015184583685402231   0.0034332317967739265
0.1606851879424178   -0.0013883796309391693   -0.007215336024050077
0.1606851879424178   -0.0013883796309391693   -0.007215336024050077
0.1606851879424178   -0.0013883796309391693   -0.007215336024050077
0.1606851879424178   -0.0013883796309391693   -0.007215336024050077
0.22116528619113782   0.00599489523549809   -0.003684517572010354
0.22116528619113782   0.00599489523549809   -0.003684517572010354
0.22116528619113782   0.00599489523549809   -0.003684517572010354
0.22116528619113782   0.00599489523549809   -0.003684517572010354
0.10809586290678665   -0.008231238780051733   0.0026850303175929603
0.10809586290678665   -0.008231238780051733   0.0026850303175929603
0.10809586290678665   -0.008231238780051733   0.0026850303175929603
0.10809586290678665   -0.008231238780051733   0.0026850303175929603
0.10165485252162465   -0.01658156864416674   -0.002413455446385264
0.10165485252162465   -0.01658156864416674   -0.002413455446385264
0.10165485252162465   -0.01658156864416674   -0.002413455446385264
0.10165485252162465   -0.01658156864416674   -0.002413455446385264
0.21838337099559524   0.014669710279563906   0.004622126873660766
0.21838337099559524   0.014669710279563906   0.004622126873660766
0.21838337099559524   0.014669710279563906   0.004622126873660766
0.21838337099559524   0.014669710279563906   0.004622126873660766
0.1533137063933832   -0.0023560570378741603   -0.0093223176769274
0.1533137063933832   -0.0023560570378741603   -0.0093223176769274
0.1533137063933832   -0.0023560570378741603   -0.0093223176769274
0.1533137063933832   -0.0023560570378741603   -0.0093223176769274
0.1165909533262759   0.0038179033320400336   0.0015220843082520488
0.1165909533262759   0.0038179033320400336   0.0015220843082520488
0.1165909533262759   0.0038179033320400336   0.0015220843082520488
0.1165909533262759   0.0038179033320400336   0.0015220843082520488
0.00859001489143018   -0.0074739583719893215   -0.0005548297383582024
0.00859001489143018   -0.0074739583719893215   -0.0005548297383582024
0.00859001489143018   -0.0074739583719893215   -0.0005548297383582024
0.00859001489143018   -0.0074739583719893215   -0.0005548297383582024
0.002363380666273161   -0.0212515927211704   -0.004041518082177563
0.002363380666273161   -0.0212515927211704   -0.004041518082177563
0.002363380666273161   -0.0212515927211704   -0.004041518082177563
0.002363380666273161   -0.0212515927211704   -0.004041518082177563
0.1165946442191946   0.013627518857705544   0.005546210780352216
0.1165946442191946   0.013627518857705544   0.005546210780352216
0.1165946442191946   0.013627518857705544   0.005546210780352216
0.1165946442191946   0.013627518857705544   0.005546210780352216
0.059919902006516146   -0.0025783208521795845   -0.002172422020973735
0.059919902006516146   -0.0025783208521795845   -0.002172422020973735
0.059919902006516146   -0.0025783208521795845   -0.002172422020973735
0.059919902006516146   -0.0025783208521795845   -0.002172422020973735
0.11363514416052752   0.0022385912192171026   0.00213763812550561
0.11363514416052752   0.0022385912192171026   0.00213763812550561
0.11363514416052752   0.0022385912192171026   0.00213763812550561
0.11363514416052752   0.0022385912192171026   0.00213763812550561
0.005453323607925998   -0.009732222199696144   -0.00011117389538763708
0.005453323607925998   -0.009732222199696144   -0.00011117389538763708
0.005453323607925998   -0.009732222199696144   -0.00011117389538763708
0.005453323607925998   -0.009732222199696144   -0.00011117389538763708
-0.0010944961958416126   -0.022102171128325323   -0.0029322499371845327
-0.0010944961958416126   -0.022102171128325323   -0.0029322499371845327
-0.0010944961958416126   -0.022102171128325323   -0.0029322499371845327
-0.0010944961958416126   -0.022102171128325323   -0.0029322499371845327
0.11280873351750502   0.011930565909393608   0.006087578681739505
0.11280873351750502   0.011930565909393608   0.006087578681739505
0.11280873351750502   0.011930565909393608   0.006087578681739505
0.11280873351750502   0.011930565909393608   0.006087578681739505
0.05585089069014457   -0.0041806911663250235   -0.003071901157702634
0.05585089069014457   -0.0041806911663250235   -0.003071901157702634
0.05585089069014457   -0.0041806911663250235   -0.003071901157702634
0.05585089069014457   -0.0041806911663250235   -0.003071901157702634
0.11002652340931002   0.0012749179918113973   0.0028321760583474367
0.11002652340931002   0.0012749179918113973   0.0028321760583474367
0.11002652340931002   0.0012749179918113973   0.0028321760583474367
0.11002652340931002   0.0012749179918113973   0.0028321760583474367
0.0016822777891141452   -0.011451959333982235   0.0003014081932511694
0.0016822777891141452   -0.011451959333982235   0.0003014081932511694
0.0016822777891141452   -0.011451959333982235   0.0003014081932511694
0.0016822777891141452   -0.011451959333982235   0.0003014081932511694
-0.004777874896666855   -0.02198940513717443   -0.002094492976805452
-0.004777874896666855   -0.02198940513717443   -0.002094492976805452
-0.004777874896666855   -0.02198940513717443   -0.002094492976805452
-0.004777874896666855   -0.02198940513717443   -0.002094492976805452
0.10898494530775148   0.010955287738571885   0.006700152101510648
0.10898494530775148   0.010955287738571885   0.006700152101510648
0.10898494530775148   0.010955287738571885   0.006700152101510648
0.10898494530775148   0.010955287738571885   0.006700152101510648
0.052829936125366864   -0.004675978550381876   -0.0037849345692998904
0.052829936125366864   -0.004675978550381876   -0.0037849345692998904
0.052829936125366864   -0.004675978550381876   -0.0037849345692998904
0.052829936125366864   -0.004675978550381876   -0.0037849345692998904
0.00949365638684221   -0.004287863532881422   0.0007772828995940416
0.00949365638684221   -0.004287863532881422   0.0007772828995940416
0.00949365638684221   -0.004287863532881422   0.0007772828995940416
0.00949365638684221   -0.004287863532881422   0.0007772828995940416
-0.0948249131956693   -0.010783519486035325   -0.0029332429129350877
-0.0948249131956693   -0.010783519486035325   -0.0029332429129350877
-0.0948249131956693   -0.010783519486035325   -0.0029332429129350877
-0.0948249131956693   -0.010783519486035325   -0.0029332429129350877
-0.10175051848035319   -0.027929795467462222   -0.004729622978846507
-0.10175051848035319   -0.027929795467462222   -0.004729622978846507
-0.10175051848035319   -0.027929795467462222   -0.004729622978846507
-0.10175051848035319   -0.027929795467462222   -0.004729622978846507
0.010129680933998415   0.010242079492270826   0.003296311043007474
0.010129680933998415   0.010242079492270826   0.003296311043007474
0.010129680933998415   0.010242079492270826   0.003296311043007474
0.010129680933998415   0.010242079492270826   0.003296311043007474
-0.04433375891629477   -0.007807431615519325   -0.0020937907831047303
-0.04433375891629477   -0.007807431615519325   -0.0020937907831047303
-0.04433375891629477   -0.007807431615519325   -0.0020937907831047303
-0.04433375891629477   -0.007807431615519325   -0.0020937907831047303
0.006878146572166104   -0.004834995096638174   0.00211571382275444
0.006878146572166104   -0.004834995096638174   0.00211571382275444
0.006878146572166104   -0.004834995096638174   0.00211571382275444
0.006878146572166104   -0.004834995096638174   0.00211571382275444
-0.09823360900523397   -0.012587345765266397   -0.002487525305446242
-0.09823360900523397   -0.012587345765266397   -0.002487525305446242
-0.09823360900523397   -0.012587345765266397   -0.002487525305446242
-0.09823360900523397   -0.012587345765266397   -0.002487525305446242
-0.1057838806604502   -0.028840341313040894   -0.0033096074334012897
-0.1057838806604502   -0.028840341313040894   -0.0033096074334012897
-0.1057838806604502   -0.028840341313040894   -0.0033096074334012897
-0.1057838806604502   -0.028840341313040894   -0.0033096074334012897
0.006340104786354849   0.008438297554362576   0.003700286291109877
0.006340104786354849   0.008438297554362576   0.003700286291109877
0.006340104786354849   0.008438297554362576   0.003700286291109877
0.006340104786354849   0.008438297554362576   0.003700286291109877
-0.04769249047604854   -0.00882635331046309   -0.002491646230127993
-0.04769249047604854   -0.00882635331046309   -0.002491646230127993
-0.04769249047604854   -0.00882635331046309   -0.002491646230127993
-0.04769249047604854   -0.00882635331046309   -0.002491646230127993
0.003301908723537124   -0.0058097843694053354   0.0027573879007891638
0.003301908723537124   -0.0058097843694053354   0.0027573879007891638
0.003301908723537124   -0.0058097843694053354   0.0027573879007891638
0.003301908723537124   -0.0058097843694053354   0.0027573879007891638
-0.10267813991696685   -0.014524714708607354   -0.0020965303204180698
-0.10267813991696685   -0.014524714708607354   -0.0020965303204180698
-0.10267813991696685   -0.014524714708607354   -0.0020965303204180698
-0.10267813991696685   -0.014524714708607354   -0.0020965303204180698
-0.11023488531643492   -0.029451414954242663   -0.002933405836277051
-0.11023488531643492   -0.029451414954242663   -0.002933405836277051
-0.11023488531643492   -0.029451414954242663   -0.002933405836277051
-0.11023488531643492   -0.029451414954242663   -0.002933405836277051
0.002237700298062561   0.006909244414858246   0.0040847334448089485
0.002237700298062561   0.006909244414858246   0.0040847334448089485
0.002237700298062561   0.006909244414858246   0.0040847334448089485
0.002237700298062561   0.006909244414858246   0.0040847334448089485
-0.05202820324674679   -0.010043370851942648   -0.003480611867365476
-0.05202820324674679   -0.010043370851942648   -0.003480611867365476
-0.05202820324674679   -0.010043370851942648   -0.003480611867365476
-0.05202820324674679   -0.010043370851942648   -0.003480611867365476
-0.09295141669761962   -0.0058045303165968   0.0014552504078732924
-0.09295141669761962   -0.0058045303165968   0.0014552504078732924
-0.09295141669761962   -0.0058045303165968   0.0014552504078732924
-0.09295141669761962   -0.0058045303165968   0.0014552504078732924
-0.19662404301955502   -0.012668404481343168   -0.004987520346044098
-0.19662404301955502   -0.012668404481343168   -0.004987520346044098
-0.19662404301955502   -0.012668404481343168   -0.004987520346044098
-0.19662404301955502   -0.012668404481343168   -0.004987520346044098
-0.20442010758758564   -0.029606513738856713   -0.004933763534248445
-0.20442010758758564   -0.029606513738856713   -0.004933763534248445
-0.20442010758758564   -0.029606513738856713   -0.004933763534248445
-0.20442010758758564   -0.029606513738856713   -0.004933763534248445
-0.09338558051286913   0.008044953225232236   0.001120318165878459
-0.09338558051286913   0.008044953225232236   0.001120318165878459
-0.09338558051286913   0.008044953225232236   0.001120318165878459
-0.09338558051286913   0.008044953225232236   0.001120318165878459
-0.14567653911323641   -0.00955460614632888   -0.0016327934300097782
-0.14567653911323641   -0.00955460614632888   -0.0016327934300097782
-0.14567653911323641   -0.00955460614632888   -0.0016327934300097782
-0.14567653911323641   -0.00955460614632888   -0.0016327934300097782
-0.09583195603265521   -0.006262876635487251   0.00319627042766844
-0.09583195603265521   -0.006262876635487251   0.00319627042766844
-0.09583195603265521   -0.006262876635487251   0.00319627042766844
-0.09583195603265521   -0.006262876635487251   0.00319627042766844
-0.2014824419799405   -0.014807393790278298   -0.005044555444602812
-0.2014824419799405   -0.014807393790278298   -0.005044555444602812
-0.2014824419799405   -0.014807393790278298   -0.005044555444602812
-0.2014824419799405   -0.014807393790278298   -0.005044555444602812
-0.2099416640593   -0.031224211809318135   -0.003588072469552228
-0.2099416640593   -0.031224211809318135   -0.003588072469552228
-0.2099416640593   -0.031224211809318135   -0.003588072469552228
-0.2099416640593   -0.031224211809318135   -0.003588072469552228
-0.09787876896340987   0.006062248235656322   0.0013133615031031207
-0.09787876896340987   0.006062248235656322   0.0013133615031031207
-0.09787876896340987   0.006062248235656322   0.0013133615031031207
-0.09787876896340987   0.006062248235656322   0.0013133615031031207
-0.14901347292087286   -0.010355241155116941   -0.0015759850351485735
-0.14901347292087286   -0.010355241155116941   -0.0015759850351485735
-0.14901347292087286   -0.010355241155116941   -0.0015759850351485735
-0.14901347292087286   -0.010355241155116941   -0.0015759850351485735
-0.10025832609176051   -0.00789530408541672   0.0033731281824230207
-0.10025832609176051   -0.00789530408541672   0.0033731281824230207
-0.10025832609176051   -0.00789530408541672   0.0033731281824230207
-0.10025832609176051   -0.00789530408541672   0.0033731281824230207
-0.20722710122717367   -0.016931653784470924   -0.004307816333769317
-0.20722710122717367   -0.016931653784470924   -0.004307816333769317
-0.20722710122717367   -0.016931653784470924   -0.004307816333769317
-0.20722710122717367   -0.016931653784470924   -0.004307816333769317
-0.21614130959664885   -0.033428491712877706   -0.0037475552334152867
-0.21614130959664885   -0.033428491712877706   -0.0037475552334152867
-0.21614130959664885   -0.033428491712877706   -0.0037475552334152867
-0.21614130959664885   -0.033428491712877706   -0.0037475552334152867
-0.10274520627475359   0.0035571458901166274   0.0015064285277694295
-0.10274520627475359   0.0035571458901166274   0.0015064285277694295
-0.10274520627475359   0.0035571458901166274   0.0015064285277694295
-0.10274520627475359   0.0035571458901166274   0.0015064285277694295
-0.15539248503113265   -0.012727670277943177   -0.002723263014969453
-0.15539248503113265   -0.012727670277943177   -0.002723263014969453
-0.15539248503113265   -0.012727670277943177   -0.002723263014969453
-0.15539248503113265   -0.012727670277943177   -0.002723263014969453
-0.1903933672041952   0.008087139132675935   0.005410315116736085
-0.1903933672041952   0.008087139132675935   0.005410315116736085
-0.1903933672041952   0.008087139132675935   0.005410315116736085
-0.1903933672041952   0.008087139132675935   0.005410315116736085
-0.29444306540118537   -0.014597979571146478   -0.003430469990102339
-0.29444306540118537   -0.014597979571146478   -0.003430469990102339
-0.29444306540118537   -0.014597979571146478   -0.003430469990102339
-0.29444306540118537   -0.014597979571146478   -0.003430469990102339
-0.3007545254283455   -0.014921280651061433   0.0054307368910098824
-0.3007545254283455   -0.014921280651061433   0.0054307368910098824
-0.3007545254283455   -0.014921280651061433   0.0054307368910098824
-0.3007545254283455   -0.014921280651061433   0.0054307368910098824
-0.19640740562367232   0.006611453764215607   -0.0010882212177557998
-0.19640740562367232   0.006611453764215607   -0.0010882212177557998
-0.19640740562367232   0.006611453764215607   -0.0010882212177557998
-0.19640740562367232   0.006611453764215607   -0.0010882212177557998
-0.23400660405979662   -4.481935127213267e-05   0.006055805478378598
-0.23400660405979662   -4.481935127213267e-05   0.006055805478378598
-0.23400660405979662   -4.481935127213267e-05   0.006055805478378598
-0.23400660405979662   -4.481935127213267e-05   0.006055805478378598
-0.19479434132535497   0.006585266332454492   0.0070032877055913045
-0.19479434132535497   0.006585266332454492   0.0070032877055913045
-0.19479434132535497   0.006585266332454492   0.0070032877055913045
-0.19479434132535497   0.006585266332454492   0.0070032877055913045
-0.3022337133399902   -0.014761216832626538   -0.002125266485648661
-0.3022337133399902   -0.014761216832626538   -0.002125266485648661
-0.3022337133399902   -0.014761216832626538   -0.002125266485648661
-0.3022337133399902   -0.014761216832626538   -0.002125266485648661
-0.3086168459101312   -0.016983747739309146   0.007470477080273277
-0.3086168459101312   -0.016983747739309146   0.007470477080273277
-0.3086168459101312   -0.016983747739309146   0.007470477080273277
-0.3086168459101312   -0.016983747739309146   0.007470477080273277
-0.2021766858096401   0.005195443684928932   -0.0011828367155012828
-0.2021766858096401   0.005195443684928932   -0.0011828367155012828
-0.2021766858096401   0.005195443684928932   -0.0011828367155012828
-0.2021766858096401   0.005195443684928932   -0.0011828367155012828
-0.2446248404334153   -0.002406620530178198   0.003700775463883234
-0.2446248404334153   -0.002406620530178198   0.003700775463883234
-0.2446248404334153   -0.002406620530178198   0.003700775463883234
-0.2446248404334153   -0.002406620530178198   0.003700775463883234
-0.20069580493304212   0.004491472758780006   0.006925538593637606
-0.20069580493304212   0.004491472758780006   0.006925538593637606
-0.20069580493304212   0.004491472758780006   0.006925538593637606
-0.20069580493304212   0.004491472758780006   0.006925538593637606
-0.31037765531252515   -0.01655970533895693   -0.0017576123320455772
-0.31037765531252515   -0.01655970533895693   -0.0017576123320455772
-0.31037765531252515   -0.01655970533895693   -0.0017576123320455772
-0.31037765531252515   -0.01655970533895693   -0.0017576123320455772
-0.31991754218030005   -0.025730531226578802   0.0062770615079542486
-0.31991754218030005   -0.025730531226578802   0.0062770615079542486
-0.31991754218030005   -0.025730531226578802   0.0062770615079542486
-0.31991754218030005   -0.025730531226578802   0.0062770615079542486
-0.20883489944195716   0.0004992075391632694   -0.0011432037119991217
-0.20883489944195716   0.0004992075391632694   -0.0011432037119991217
-0.20883489944195716   0.0004992075391632694   -0.0011432037119991217
-0.20883489944195716   0.0004992075391632694   -0.0011432037119991217
-0.24839614805033658   -0.0055115472196749955   0.0018216572561688057
-0.24839614805033658   -0.0055115472196749955   0.0018216572561688057
-0.24839614805033658   -0.0055115472196749955   0.0018216572561688057
-0.24839614805033658   -0.0055115472196749955   0.0018216572561688057
0.19319989844125648   0.010770591197508351   -0.006110174245355232
0.19319989844125648   0.010770591197508351   -0.006110174245355232
0.19319989844125648   0.010770591197508351   -0.006110174245355232
0.19319989844125648   0.010770591197508351   -0.006110174245355232
0.09457059138507874   -0.0009378019333352054   0.0019952309376297522
0.09457059138507874   -0.0009378019333352054   0.0019952309376297522
0.09457059138507874   -0.0009378019333352054   0.0019952309376297522
0.09457059138507874   -0.0009378019333352054   0.0019952309376297522
0.08727495321225712   -0.013654979958105624   -0.00577422718419747
0.08727495321225712   -0.013654979958105624   -0.00577422718419747
0.08727495321225712   -0.013654979958105624   -0.00577422718419747
0.08727495321225712   -0.013654979958105624   -0.00577422718419747
0.18997681875327593   0.015226295630461049   0.002530284624128444
0.18997681875327593   0.015226295630461049   0.002530284624128444
0.18997681875327593   0.015226295630461049   0.002530284624128444
0.18997681875327593   0.015226295630461049   0.002530284624128444
0.13395239023312835   0.0011444728548271558   -0.004430514004541773
0.13395239023312835   0.0011444728548271558   -0.004430514004541773
0.13395239023312835   0.0011444728548271558   -0.004430514004541773
0.13395239023312835   0.0011444728548271558   -0.004430514004541773
0.1864605127651199   0.006143322876723862   -0.005968272562912859
0.1864605127651199   0.006143322876723862   -0.005968272562912859
0.1864605127651199   0.006143322876723862   -0.005968272562912859
0.1864605127651199   0.006143322876723862   -0.005968272562912859
0.0906568468497537   -0.004706419555027878   0.0021866806002060653
0.0906568468497537   -0.004706419555027878   0.0021866806002060653
0.0906568468497537   -0.004706419555027878   0.0021866806002060653
0.0906568468497537   -0.004706419555027878   0.0021866806002060653
0.08363419913920961   -0.01467423528358895   -0.00506828843251609
0.08363419913920961   -0.01467423528358895   -0.00506828843251609
0.08363419913920961   -0.01467423528358895   -0.00506828843251609
0.08363419913920961   -0.01467423528358895   -0.00506828843251609
0.18455731407372056   0.013784854130344339   0.0035783058800927803
0.18455731407372056   0.013784854130344339   0.0035783058800927803
0.18455731407372056   0.013784854130344339   0.0035783058800927803
0.18455731407372056   0.013784854130344339   0.0035783058800927803
0.13140880265616509   -0.0007819315425664879   -0.00556645463060015
0.13140880265616509   -0.0007819315425664879   -0.00556645463060015
0.13140880265616509   -0.0007819315425664879   -0.00556645463060015
0.13140880265616509   -0.0007819315425664879   -0.00556645463060015
0.18110078374450908   0.004874034164043582   -0.004793525799660567
0.18110078374450908   0.004874034164043582   -0.004793525799660567
0.18110078374450908   0.004874034164043582   -0.004793525799660567
0.18110078374450908   0.004874034164043582   -0.004793525799660567
0.0869556553687401   -0.005898489416967484   0.0027632468485141344
0.0869556553687401   -0.005898489416967484   0.0027632468485141344
0.0869556553687401   -0.005898489416967484   0.0027632468485141344
0.0869556553687401   -0.005898489416967484   0.0027632468485141344
0.08034879595342141   -0.014692976215642663   -0.004156730560198272
0.08034879595342141   -0.014692976215642663   -0.004156730560198272
0.08034879595342141   -0.014692976215642663   -0.004156730560198272
0.08034879595342141   -0.014692976215642663   -0.004156730560198272
0.17844870806563848   0.012737135112122638   0.004565314766727842
0.17844870806563848   0.012737135112122638   0.004565314766727842
0.17844870806563848   0.012737135112122638   0.004565314766727842
0.17844870806563848   0.012737135112122638   0.004565314766727842
0.124494804675738   -0.0020168000378446536   -0.007439361305166738
0.124494804675738   -0.0020168000378446536   -0.007439361305166738
0.124494804675738   -0.0020168000378446536   -0.007439361305166738
0.124494804675738   -0.0020168000378446536   -0.007439361305166738
0.09662700141645772   0.010426917260771426   0.0009125619004180172
0.09662700141645772   0.010426917260771426   0.0009125619004180172
0.09662700141645772   0.010426917260771426   0.0009125619004180172
0.09662700141645772   0.010426917260771426   0.0009125619004180172
0.0015376083688827362   -0.003770971594808028   -0.0006192100013419351
0.0015376083688827362   -0.003770971594808028   -0.0006192100013419351
0.0015376083688827362   -0.003770971594808028   -0.0006192100013419351
0.0015376083688827362   -0.003770971594808028   -0.0006192100013419351
-0.003972037950383924   -0.012405780686192951   -0.004053604769561749
-0.003972037950383924   -0.012405780686192951   -0.004053604769561749
-0.003972037950383924   -0.012405780686192951   -0.004053604769561749
-0.003972037950383924   -0.012405780686192951   -0.004053604769561749
0.09496235186417004   0.013955535580954036   0.005052250536305862
0.09496235186417004   0.013955535580954036   0.005052250536305862
0.09496235186417004   0.013955535580954036   0.005052250536305862
0.09496235186417004   0.013955535580954036   0.005052250536305862
0.046543661446750956   0.0019997161950307415   -0.0004398466667704191
0.046543661446750956   0.0019997161950307415   -0.0004398466667704191
0.046543661446750956   0.0019997161950307415   -0.0004398466667704191
0.046543661446750956   0.0019997161950307415   -0.0004398466667704191
0.09305062367139619   0.008082751352293428   0.0013663938010977025
0.09305062367139619   0.008082751352293428   0.0013663938010977025
0.09305062367139619   0.008082751352293428   0.0013663938010977025
0.09305062367139619   0.008082751352293428   0.0013663938010977025
-0.002020143813036619   -0.006492830512960084   -0.00020708425605808897
-0.002020143813036619   -0.006492830512960084   -0.00020708425605808897
-0.002020143813036619   -0.006492830512960084   -0.00020708425605808897
-0.002020143813036619   -0.006492830512960084   -0.00020708425605808897
-0.00741774179529964   -0.01404170145493116   -0.0035472828270796722
-0.00741774179529964   -0.01404170145493116   -0.0035472828270796722
-0.00741774179529964   -0.01404170145493116   -0.0035472828270796722
-0.00741774179529964   -0.01404170145493116   -0.0035472828270796722
0.09105296720130839   0.011786773344054563   0.005564543250333488
0.09105296720130839   0.011786773344054563   0.005564543250333488
0.09105296720130839   0.011786773344054563   0.005564543250333488
0.09105296720130839   0.011786773344054563   0.005564543250333488
0.04225252147754441   -0.00016922906386809778   -0.0016595650121583403
0.04225252147754441   -0.00016922906386809778   -0.0016595650121583403
0.04225252147754441   -0.00016922906386809778   -0.0016595650121583403
0.04225252147754441   -0.00016922906386809778   -0.0016595650121583403
0.08922061791430923   0.006361117570237626   0.0018284525891553993
0.08922061791430923   0.006361117570237626   0.0018284525891553993
0.08922061791430923   0.006361117570237626   0.0018284525891553993
0.08922061791430923   0.006361117570237626   0.0018284525891553993
-0.005584303876455603   -0.008614957049270495   0.00019316236147984408
-0.005584303876455603   -0.008614957049270495   0.00019316236147984408
-0.005584303876455603   -0.008614957049270495   0.00019316236147984408
-0.005584303876455603   -0.008614957049270495   0.00019316236147984408
-0.010815868407580831   -0.014923407563182271   -0.002892510691927833
-0.010815868407580831   -0.014923407563182271   -0.002892510691927833
-0.010815868407580831   -0.014923407563182271   -0.002892510691927833
-0.010815868407580831   -0.014923407563182271   -0.002892510691927833
0.08733156090731763   0.010038326795013389   0.006025791198625813
0.08733156090731763   0.010038326795013389   0.006025791198625813
0.08733156090731763   0.010038326795013389   0.006025791198625813
0.08733156090731763   0.010038326795013389   0.006025791198625813
0.039211049823464295   -0.0014439375487552927   -0.002520841502629951
0.039211049823464295   -0.0014439375487552927   -0.002520841502629951
0.039211049823464295   -0.0014439375487552927   -0.002520841502629951
0.039211049823464295   -0.0014439375487552927   -0.002520841502629951
0.00490351373496947   0.010197236274613487   0.002242108959670217
0.00490351373496947   0.010197236274613487   0.002242108959670217
0.00490351373496947   0.010197236274613487   0.002242108959670217
0.00490351373496947   0.010197236274613487   0.002242108959670217
-0.08885347607174002   -0.0061693574501724465   -0.0030016520655931633
-0.08885347607174002   -0.0061693574501724465   -0.0030016520655931633
-0.08885347607174002   -0.0061693574501724465   -0.0030016520655931633
-0.08885347607174002   -0.0061693574501724465   -0.0030016520655931633
-0.09314727104746645   -0.011625807531086111   -0.002766172092304675
-0.09314727104746645   -0.011625807531086111   -0.002766172092304675
-0.09314727104746645   -0.011625807531086111   -0.002766172092304675
-0.09314727104746645   -0.011625807531086111   -0.002766172092304675
0.0021228752196876476   0.011469285589018715   0.0025458948055844437
0.0021228752196876476   0.011469285589018715   0.0025458948055844437
0.0021228752196876476   0.011469285589018715   0.0025458948055844437
0.0021228752196876476   0.011469285589018715   0.0025458948055844437
-0.04368272227754202   0.0011162588170922833   0.00022188334240563073
-0.04368272227754202   0.0011162588170922833   0.00022188334240563073
-0.04368272227754202   0.0011162588170922833   0.00022188334240563073
-0.04368272227754202   0.0011162588170922833   0.00022188334240563073
0.0015502343008062687   0.008414435930890515   0.0027375398693057487
0.0015502343008062687   0.008414435930890515   0.0027375398693057487
0.0015502343008062687   0.008414435930890515   0.0027375398693057487
0.0015502343008062687   0.008414435930890515   0.0027375398693057487
-0.09247667350106503   -0.008473001245437881   -0.00256599064594586
-0.09247667350106503   -0.008473001245437881   -0.00256599064594586
-0.09247667350106503   -0.008473001245437881   -0.00256599064594586
-0.09247667350106503   -0.008473001245437881   -0.00256599064594586
-0.0968374426832887   -0.01341191018269678   -0.002373204924543359
-0.0968374426832887   -0.01341191018269678   -0.002373204924543359
-0.0968374426832887   -0.01341191018269678   -0.002373204924543359
-0.0968374426832887   -0.01341191018269678   -0.002373204924543359
-0.001439763831406234   0.009244456412163489   0.0030564491252927026
-0.001439763831406234   0.009244456412163489   0.0030564491252927026
-0.001439763831406234   0.009244456412163489   0.0030564491252927026
-0.001439763831406234   0.009244456412163489   0.0030564491252927026
-0.047225975338665044   -0.0006799103182213045   -0.0006696791673456368
-0.047225975338665044   -0.0006799103182213045   -0.0006696791673456368
-0.047225975338665044   -0.0006799103182213045   -0.0006696791673456368
-0.047225975338665044   -0.0006799103182213045   -0.0006696791673456368
-0.0019206155318042975   0.006687854699668289   0.0032087923357975853
-0.0019206155318042975   0.006687854699668289   0.0032087923357975853
-0.0019206155318042975   0.006687854699668289   0.0032087923357975853
-0.0019206155318042975   0.006687854699668289   0.0032087923357975853
-0.09627857373964531   -0.010777291226954974   -0.0022134791620682034
-0.09627857373964531   -0.010777291226954974   -0.0022134791620682034
-0.09627857373964531   -0.010777291226954974   -0.0022134791620682034
-0.09627857373964531   -0.010777291226954974   -0.0022134791620682034
-0.10049141476668288   -0.014796222663313097   -0.0017134868813023264
-0.10049141476668288   -0.014796222663313097   -0.0017134868813023264
-0.10049141476668288   -0.014796222663313097   -0.0017134868813023264
-0.10049141476668288   -0.014796222663313097   -0.0017134868813023264
-0.005135803543108648   0.0071487935243729   0.003435612542877914
-0.005135803543108648   0.0071487935243729   0.003435612542877914
-0.005135803543108648   0.0071487935243729   0.003435612542877914
-0.005135803543108648   0.0071487935243729   0.003435612542877914
-0.05104271790817111   -0.0025032186813392625   -0.0016572583160296157
-0.05104271790817111   -0.0025032186813392625   -0.0016572583160296157
-0.05104271790817111   -0.0025032186813392625   -0.0016572583160296157
-0.05104271790817111   -0.0025032186813392625   -0.0016572583160296157
-0.08395409579421284   0.01160688950609036   0.0037190023657813383
-0.08395409579421284   0.01160688950609036   0.0037190023657813383
-0.08395409579421284   0.01160688950609036   0.0037190023657813383
-0.08395409579421284   0.01160688950609036   0.0037190023657813383
-0.17704024488357653   -0.008350170187344306   -0.004820183534780559
-0.17704024488357653   -0.008350170187344306   -0.004820183534780559
-0.17704024488357653   -0.008350170187344306   -0.004820183534780559
-0.17704024488357653   -0.008350170187344306   -0.004820183534780559
-0.18036297668943346   -0.009807203000006813   -0.0011630667837524214
-0.18036297668943346   -0.009807203000006813   -0.0011630667837524214
-0.18036297668943346   -0.009807203000006813   -0.0011630667837524214
-0.18036297668943346   -0.009807203000006813   -0.0011630667837524214
-0.08849295859586087   0.00881271642918361   6.686620545397551e-05
-0.08849295859586087   0.00881271642918361   6.686620545397551e-05
-0.08849295859586087   0.00881271642918361   6.686620545397551e-05
-0.08849295859586087   0.00881271642918361   6.686620545397551e-05
-0.13149560749247363   0.0009064631263409817   0.0010025555413823509
-0.13149560749247363   0.0009064631263409817   0.0010025555413823509
-0.13149560749247363   0.0009064631263409817   0.0010025555413823509
-0.13149560749247363   0.0009064631263409817   0.0010025555413823509
-0.08747245254107482   0.009833281473440812   0.00414883143512703
-0.08747245254107482   0.009833281473440812   0.00414883143512703
-0.08747245254107482   0.009833281473440812   0.00414883143512703
-0.08747245254107482   0.009833281473440812   0.00414883143512703
-0.18126810212966402   -0.010712387429708502   -0.004783509555203437
-0.18126810212966402   -0.010712387429708502   -0.004783509555203437
-0.18126810212966402   -0.010712387429708502   -0.004783509555203437
-0.18126810212966402   -0.010712387429708502   -0.004783509555203437
-0.18489432263488637   -0.01182981808621706   -0.001131416434779639
-0.18489432263488637   -0.01182981808621706   -0.001131416434779639
-0.18489432263488637   -0.01182981808621706   -0.001131416434779639
-0.18489432263488637   -0.01182981808621706   -0.001131416434779639
-0.09223956083914021   0.006690218314980488   0.000514075798522827
-0.09223956083914021   0.006690218314980488   0.000514075798522827
-0.09223956083914021   0.006690218314980488   0.000514075798522827
-0.09223956083914021   0.006690218314980488   0.000514075798522827
-0.1345577364440933   -0.0006721220958224861   0.0002820978128256907
-0.1345577364440933   -0.0006721220958224861   0.0002820978128256907
-0.1345577364440933   -0.0006721220958224861   0.0002820978128256907
-0.1345577364440933   -0.0006721220958224861   0.0002820978128256907
-0.09111175230970847   0.008101372181589045   0.004741964579072985
-0.09111175230970847   0.008101372181589045   0.004741964579072985
-0.09111175230970847   0.008101372181589045   0.004741964579072985
-0.09111175230970847   0.008101372181589045   0.004741964579072985
-0.18576308351834123   -0.012981924306848748   -0.004323114631422327
-0.18576308351834123   -0.012981924306848748   -0.004323114631422327
-0.18576308351834123   -0.012981924306848748   -0.004323114631422327
-0.18576308351834123   -0.012981924306848748   -0.004323114631422327
-0.18904082127184   -0.014020946595850231   -8.841890497844618e-05
-0.18904082127184   -0.014020946595850231   -8.841890497844618e-05
-0.18904082127184   -0.014020946595850231   -8.841890497844618e-05
-0.18904082127184   -0.014020946595850231   -8.841890497844618e-05
-0.09621206232332805   0.0041098094213104265   0.0007772432508483286
-0.09621206232332805   0.0041098094213104265   0.0007772432508483286
-0.09621206232332805   0.0041098094213104265   0.0007772432508483286
-0.09621206232332805   0.0041098094213104265   0.0007772432508483286
-0.13963872989292347   -0.003035973523085298   -0.0007405853996345427
-0.13963872989292347   -0.003035973523085298   -0.0007405853996345427
-0.13963872989292347   -0.003035973523085298   -0.0007405853996345427
-0.13963872989292347   -0.003035973523085298   -0.0007405853996345427
-0.17104916663759948   0.011769918067619057   0.005015119440139458
-0.17104916663759948   0.011769918067619057   0.005015119440139458
-0.17104916663759948   0.011769918067619057   0.005015119440139458
-0.17104916663759948   0.011769918067619057   0.005015119440139458
-0.2620715949427273   -0.012235360004181637   -0.004117584051969471
-0.2620715949427273   -0.012235360004181637   -0.004117584051969471
-0.2620715949427273   -0.012235360004181637   -0.004117584051969471
-0.2620715949427273   -0.012235360004181637   -0.004117584051969471
-0.26513384209727564   -0.0060895783020543   0.0041330549244979475
-0.26513384209727564   -0.0060895783020543   0.0041330549244979475
-0.26513384209727564   -0.0060895783020543   0.0041330549244979475
-0.26513384209727564   -0.0060895783020543   0.0041330549244979475
-0.177435739642715   0.005745969915810294   -0.0020800544659772408
-0.177435739642715   0.005745969915810294   -0.0020800544659772408
-0.177435739642715   0.005745969915810294   -0.0020800544659772408
-0.177435739642715   0.005745969915810294   -0.0020800544659772408
-0.20915853332031076   0.0022302035948019456   0.005019346077272363
-0.20915853332031076   0.0022302035948019456   0.005019346077272363
-0.20915853332031076   0.0022302035948019456   0.005019346077272363
-0.20915853332031076   0.0022302035948019456   0.005019346077272363
-0.17454213891355075   0.012357445974101293   0.005776473121551058
-0.17454213891355075   0.012357445974101293   0.005776473121551058
-0.17454213891355075   0.012357445974101293   0.005776473121551058
-0.17454213891355075   0.012357445974101293   0.005776473121551058
-0.2678591186517853   -0.01253273018569072   -0.0030501759644120316
-0.2678591186517853   -0.01253273018569072   -0.0030501759644120316
-0.2678591186517853   -0.01253273018569072   -0.0030501759644120316
-0.2678591186517853   -0.01253273018569072   -0.0030501759644120316
-0.2707817350015922   -0.007151587813177054   0.005687054985920849
-0.2707817350015922   -0.007151587813177054   0.005687054985920849
-0.2707817350015922   -0.007151587813177054   0.005687054985920849
-0.2707817350015922   -0.007151587813177054   0.005687054985920849
-0.18176267193839024   0.004530804160409071   -0.0018337851989251655
-0.18176267193839024   0.004530804160409071   -0.0018337851989251655
-0.18176267193839024   0.004530804160409071   -0.0018337851989251655
-0.18176267193839024   0.004530804160409071   -0.0018337851989251655
-0.21737339834685218   0.0011444731012836985   0.0034622104876386797
-0.21737339834685218   0.0011444731012836985   0.0034622104876386797
-0.21737339834685218   0.0011444731012836985   0.0034622104876386797
-0.21737339834685218   0.0011444731012836985   0.0034622104876386797
-0.17856028335117535   0.011580903249361505   0.007128058648196836
-0.17856028335117535   0.011580903249361505   0.007128058648196836
-0.17856028335117535   0.011580903249361505   0.007128058648196836
-0.17856028335117535   0.011580903249361505   0.007128058648196836
-0.27381136546414   -0.014028928777462063   -0.002583756362531109
-0.27381136546414   -0.014028928777462063   -0.002583756362531109
-0.27381136546414   -0.014028928777462063   -0.002583756362531109
-0.27381136546414   -0.014028928777462063   -0.002583756362531109
-0.27845885824539507   -0.012093047759678864   0.005519478597235811
-0.27845885824539507   -0.012093047759678864   0.005519478597235811
-0.27845885824539507   -0.012093047759678864   0.005519478597235811
-0.27845885824539507   -0.012093047759678864   0.005519478597235811
-0.18645268315937166   0.0005799789664753356   -0.0017486539049636415
-0.18645268315937166   0.0005799789664753356   -0.0017486539049636415
-0.18645268315937166   0.0005799789664753356   -0.0017486539049636415
-0.18645268315937166   0.0005799789664753356   -0.0017486539049636415
-0.21916722165177185   -0.0005549611723206609   0.0030745235963353934
-0.21916722165177185   -0.0005549611723206609   0.0030745235963353934
-0.21916722165177185   -0.0005549611723206609   0.0030745235963353934
-0.21916722165177185   -0.0005549611723206609   0.0030745235963353934
0.15153611283823887   0.00876628440914233   -0.006449858803142708
0.15153611283823887   0.00876628440914233   -0.006449858803142708
0.15153611283823887   0.00876628440914233   -0.006449858803142708
0.15153611283823887   0.00876628440914233   -0.006449858803142708
0.071258766499395   0.0006943257192168527   0.0022838153559646066
0.071258766499395   0.0006943257192168527   0.0022838153559646066
0.071258766499395   0.0006943257192168527   0.0022838153559646066
0.071258766499395   0.0006943257192168527   0.0022838153559646066
0.06417966672206533   -0.011685698356529096   -0.006232533279611655
0.06417966672206533   -0.011685698356529096   -0.006232533279611655
0.06417966672206533   -0.011685698356529096   -0.006232533279611655
0.06417966672206533   -0.011685698356529096   -0.006232533279611655
0.14870316964224622   0.01353193421154952   0.002849965195503311
0.14870316964224622   0.01353193421154952   0.002849965195503311
0.14870316964224622   0.01353193421154952   0.002849965195503311
0.14870316964224622   0.01353193421154952   0.002849965195503311
0.10329392250089153   0.0013672201527219546   -0.0030744311630085536
0.10329392250089153   0.0013672201527219546   -0.0030744311630085536
0.10329392250089153   0.0013672201527219546   -0.0030744311630085536
0.10329392250089153   0.0013672201527219546   -0.0030744311630085536
0.14509497395488938   0.0045100449500100025   -0.006169123979740225
0.14509497395488938   0.0045100449500100025   -0.006169123979740225
0.14509497395488938   0.0045100449500100025   -0.006169123979740225
0.14509497395488938   0.0045100449500100025   -0.006169123979740225
0.06772256047308396   -0.002729111031327671   0.002525348150279629
0.06772256047308396   -0.002729111031327671   0.002525348150279629
0.06772256047308396   -0.002729111031327671   0.002525348150279629
0.06772256047308396   -0.002729111031327671   0.002525348150279629
0.06090744808341517   -0.012734545095984352   -0.005368824261252937
0.06090744808341517   -0.012734545095984352   -0.005368824261252937
0.06090744808341517   -0.012734545095984352   -0.005368824261252937
0.06090744808341517   -0.012734545095984352   -0.005368824261252937
0.143605674618467   0.012007604346010456   0.0038465274589477086
0.143605674618467   0.012007604346010456   0.0038465274589477086
0.143605674618467   0.012007604346010456   0.0038465274589477086
0.143605674618467   0.012007604346010456   0.0038465274589477086
0.10060863022921507   -0.0005169655691571618   -0.004105870247128107
0.10060863022921507   -0.0005169655691571618   -0.004105870247128107
0.10060863022921507   -0.0005169655691571618   -0.004105870247128107
0.10060863022921507   -0.0005169655691571618   -0.004105870247128107
0.1400625748057387   0.0031649763741621196   -0.005026343632844127
0.1400625748057387   0.0031649763741621196   -0.005026343632844127
0.1400625748057387   0.0031649763741621196   -0.005026343632844127
0.1400625748057387   0.0031649763741621196   -0.005026343632844127
0.06435353579200818   -0.003988929228271166   0.0031159984139984033
0.06435353579200818   -0.003988929228271166   0.0031159984139984033
0.06435353579200818   -0.003988929228271166   0.0031159984139984033
0.06435353579200818   -0.003988929228271166   0.0031159984139984033
0.05799215950548636   -0.013163737959793718   -0.004482502032701811
0.05799215950548636   -0.013163737959793718   -0.004482502032701811
0.05799215950548636   -0.013163737959793718   -0.004482502032701811
0.05799215950548636   -0.013163737959793718   -0.004482502032701811
0.1378268623344721   0.010514577242218767   0.004652795511746639
0.1378268623344721   0.010514577242218767   0.004652795511746639
0.1378268623344721   0.010514577242218767   0.004652795511746639
0.1378268623344721   0.010514577242218767   0.004652795511746639
0.0945536128813056   -0.001864460331463559   -0.005760994456614484
0.0945536128813056   -0.001864460331463559   -0.005760994456614484
0.0945536128813056   -0.001864460331463559   -0.005760994456614484
0.0945536128813056   -0.001864460331463559   -0.005760994456614484
0.07276849303233303   0.010587001738437456   -6.0227998564806734e-05
0.07276849303233303   0.010587001738437456   -6.0227998564806734e-05
0.07276849303233303   0.010587001738437456   -6.0227998564806734e-05
0.07276849303233303   0.010587001738437456   -6.0227998564806734e-05
-0.005547922067422216   -0.0015627493597098509   -0.00024699565036357036
-0.005547922067422216   -0.0015627493597098509   -0.00024699565036357036
-0.005547922067422216   -0.0015627493597098509   -0.00024699565036357036
-0.005547922067422216   -0.0015627493597098509   -0.00024699565036357036
-0.010540535172881194   -0.00897043834569167   -0.00407473205987145
-0.010540535172881194   -0.00897043834569167   -0.00407473205987145
-0.010540535172881194   -0.00897043834569167   -0.00407473205987145
-0.010540535172881194   -0.00897043834569167   -0.00407473205987145
0.07116621238427787   0.012406714404853098   0.004607782270068431
0.07116621238427787   0.012406714404853098   0.004607782270068431
0.07116621238427787   0.012406714404853098   0.004607782270068431
0.07116621238427787   0.012406714404853098   0.004607782270068431
0.031458060850782475   0.002964165320314109   0.0002797065687049037
0.031458060850782475   0.002964165320314109   0.0002797065687049037
0.031458060850782475   0.002964165320314109   0.0002797065687049037
0.031458060850782475   0.002964165320314109   0.0002797065687049037
0.0694451284553592   0.007936213498330486   0.00047286353199893494
0.0694451284553592   0.007936213498330486   0.00047286353199893494
0.0694451284553592   0.007936213498330486   0.00047286353199893494
0.0694451284553592   0.007936213498330486   0.00047286353199893494
-0.008793922077874657   -0.004474408273080981   0.00016230334255054601
-0.008793922077874657   -0.004474408273080981   0.00016230334255054601
-0.008793922077874657   -0.004474408273080981   0.00016230334255054601
-0.008793922077874657   -0.004474408273080981   0.00016230334255054601
-0.01361514999366035   -0.01094298189888081   -0.003416115769366981
-0.01361514999366035   -0.01094298189888081   -0.003416115769366981
-0.01361514999366035   -0.01094298189888081   -0.003416115769366981
-0.01361514999366035   -0.01094298189888081   -0.003416115769366981
0.06752800463409728   0.009972628506187417   0.005026784889985312
0.06752800463409728   0.009972628506187417   0.005026784889985312
0.06752800463409728   0.009972628506187417   0.005026784889985312
0.06752800463409728   0.009972628506187417   0.005026784889985312
0.02759703353621189   0.0005329556345097736   -0.0009327883324114477
0.02759703353621189   0.0005329556345097736   -0.0009327883324114477
0.02759703353621189   0.0005329556345097736   -0.0009327883324114477
0.02759703353621189   0.0005329556345097736   -0.0009327883324114477
0.06586877020314856   0.005814727952200251   0.0008885132892294204
0.06586877020314856   0.005814727952200251   0.0008885132892294204
0.06586877020314856   0.005814727952200251   0.0008885132892294204
0.06586877020314856   0.005814727952200251   0.0008885132892294204
-0.01198830242847963   -0.006817468210661553   0.0005926083683173719
-0.01198830242847963   -0.006817468210661553   0.0005926083683173719
-0.01198830242847963   -0.006817468210661553   0.0005926083683173719
-0.01198830242847963   -0.006817468210661553   0.0005926083683173719
-0.016639195569886942   -0.012520778805857452   -0.0027989803285238153
-0.016639195569886942   -0.012520778805857452   -0.0027989803285238153
-0.016639195569886942   -0.012520778805857452   -0.0027989803285238153
-0.016639195569886942   -0.012520778805857452   -0.0027989803285238153
0.06416771360790981   0.007795758913990512   0.005435771605631065
0.06416771360790981   0.007795758913990512   0.005435771605631065
0.06416771360790981   0.007795758913990512   0.005435771605631065
0.06416771360790981   0.007795758913990512   0.005435771605631065
0.024746540833988685   -0.0012123035383518836   -0.0019102350658106223
0.024746540833988685   -0.0012123035383518836   -0.0019102350658106223
0.024746540833988685   -0.0012123035383518836   -0.0019102350658106223
0.024746540833988685   -0.0012123035383518836   -0.0019102350658106223
-0.002420767066803559   0.012068933968781208   0.001757096024238653
-0.002420767066803559   0.012068933968781208   0.001757096024238653
-0.002420767066803559   0.012068933968781208   0.001757096024238653
-0.002420767066803559   0.012068933968781208   0.001757096024238653
-0.08077051220563128   -0.004000236546071776   -0.002672683425301612
-0.08077051220563128   -0.004000236546071776   -0.002672683425301612
-0.08077051220563128   -0.004000236546071776   -0.002672683425301612
-0.08077051220563128   -0.004000236546071776   -0.002672683425301612
-0.08397895226976554   -0.006686285451064112   -0.0021301329053765063
-0.08397895226976554   -0.006686285451064112   -0.0021301329053765063
-0.08397895226976554   -0.006686285451064112   -0.0021301329053765063
-0.08397895226976554   -0.006686285451064112   -0.0021301329053765063
-0.0055160572058551745   0.010004410196395934   0.0020728092331710425
-0.0055160572058551745   0.010004410196395934   0.0020728092331710425
-0.0055160572058551745   0.010004410196395934   0.0020728092331710425
-0.0055160572058551745   0.010004410196395934   0.0020728092331710425
-0.04306587765518446   0.0028432933495240865   0.0008345885119235945
-0.04306587765518446   0.0028432933495240865   0.0008345885119235945
-0.04306587765518446   0.0028432933495240865   0.0008345885119235945
-0.04306587765518446   0.0028432933495240865   0.0008345885119235945
-0.005470822826102851   0.009918371070339925   0.0023850202579886663
-0.005470822826102851   0.009918371070339925   0.0023850202579886663
-0.005470822826102851   0.009918371070339925   0.0023850202579886663
-0.005470822826102851   0.009918371070339925   0.0023850202579886663
-0.08396906100186596   -0.006545120677357484   -0.002221841339585258
-0.08396906100186596   -0.006545120677357484   -0.002221841339585258
-0.08396906100186596   -0.006545120677357484   -0.002221841339585258
-0.08396906100186596   -0.006545120677357484   -0.002221841339585258
-0.0871311006112877   -0.008818287429844137   -0.0015659333048716438
-0.0871311006112877   -0.008818287429844137   -0.0015659333048716438
-0.0871311006112877   -0.008818287429844137   -0.0015659333048716438
-0.0871311006112877   -0.008818287429844137   -0.0015659333048716438
-0.008729153072797827   0.007500623448235963   0.0025702634878293487
-0.008729153072797827   0.007500623448235963   0.0025702634878293487
-0.008729153072797827   0.007500623448235963   0.0025702634878293487
-0.008729153072797827   0.007500623448235963   0.0025702634878293487
-0.04625091486437206   0.0006999233800086815   -0.00013186675804277397
-0.04625091486437206   0.0006999233800086815   -0.00013186675804277397
-0.04625091486437206   0.0006999233800086815   -0.00013186675804277397
-0.04625091486437206   0.0006999233800086815   -0.00013186675804277397
-0.008616441094453416   0.007770600416710821   0.0028638464110765445
-0.008616441094453416   0.007770600416710821   0.0028638464110765445
-0.008616441094453416   0.007770600416710821   0.0028638464110765445
-0.008616441094453416   0.007770600416710821   0.0028638464110765445
-0.08723503232376902   -0.009079484132457103   -0.0018243951646647986
-0.08723503232376902   -0.009079484132457103   -0.0018243951646647986
-0.08723503232376902   -0.009079484132457103   -0.0018243951646647986
-0.08723503232376902   -0.009079484132457103   -0.0018243951646647986
-0.09023380155434493   -0.01075806446080559   -0.0010006793717782514
-0.09023380155434493   -0.01075806446080559   -0.0010006793717782514
-0.09023380155434493   -0.01075806446080559   -0.0010006793717782514
-0.09023380155434493   -0.01075806446080559   -0.0010006793717782514
-0.011963979161077526   0.005079463538113532   0.0029768593715527618
-0.011963979161077526   0.005079463538113532   0.0029768593715527618
-0.011963979161077526   0.005079463538113532   0.0029768593715527618
-0.011963979161077526   0.005079463538113532   0.0029768593715527618
-0.049591037897546396   -0.0014560902571012536   -0.001215289613545105
-0.049591037897546396   -0.0014560902571012536   -0.001215289613545105
-0.049591037897546396   -0.0014560902571012536   -0.001215289613545105
-0.049591037897546396   -0.0014560902571012536   -0.001215289613545105
-0.0760330229750861   0.013515180114650327   0.0034993460667021754
-0.0760330229750861   0.013515180114650327   0.0034993460667021754
-0.0760330229750861   0.013515180114650327   0.0034993460667021754
-0.0760330229750861   0.013515180114650327   0.0034993460667021754
-0.15484319425886112   -0.006530303476374621   -0.004704741149023337
-0.15484319425886112   -0.006530303476374621   -0.004704741149023337
-0.15484319425886112   -0.006530303476374621   -0.004704741149023337
-0.15484319425886112   -0.006530303476374621   -0.004704741149023337
-0.15657193705011901   -0.004820573009252977   -2.060253247079813e-05
-0.15657193705011901   -0.004820573009252977   -2.060253247079813e-05
-0.15657193705011901   -0.004820573009252977   -2.060253247079813e-05
-0.15657193705011901   -0.004820573009252977   -2.060253247079813e-05
-0.080849157372126   0.007267434400953519   -0.0004348782691954954
-0.080849157372126   0.007267434400953519   -0.0004348782691954954
-0.080849157372126   0.007267434400953519   -0.0004348782691954954
-0.080849157372126   0.007267434400953519   -0.0004348782691954954
-0.11628416840635668   0.0024744684940791375   0.001403197832206493
-0.11628416840635668   0.0024744684940791375   0.001403197832206493
-0.11628416840635668   0.0024744684940791375   0.001403197832206493
-0.11628416840635668   0.0024744684940791375   0.001403197832206493
-0.07909466532869124   0.011500004259428721   0.0041050120895022215
-0.07909466532869124   0.011500004259428721   0.0041050120895022215
-0.07909466532869124   0.011500004259428721   0.0041050120895022215
-0.07909466532869124   0.011500004259428721   0.0041050120895022215
-0.15832457958022217   -0.009051293354395577   -0.004553094837844801
-0.15832457958022217   -0.009051293354395577   -0.004553094837844801
-0.15832457958022217   -0.009051293354395577   -0.004553094837844801
-0.15832457958022217   -0.009051293354395577   -0.004553094837844801
-0.16025126690435967   -0.006981740690216814   0.00016598683775577439
-0.16025126690435967   -0.006981740690216814   0.00016598683775577439
-0.16025126690435967   -0.006981740690216814   0.00016598683775577439
-0.16025126690435967   -0.006981740690216814   0.00016598683775577439
-0.08405346411098691   0.004944716327272088   5.924543951651637e-05
-0.08405346411098691   0.004944716327272088   5.924543951651637e-05
-0.08405346411098691   0.004944716327272088   5.924543951651637e-05
-0.08405346411098691   0.004944716327272088   5.924543951651637e-05
-0.11888033513061556   0.0006172401803453166   0.0005158479486034109
-0.11888033513061556   0.0006172401803453166   0.0005158479486034109
-0.11888033513061556   0.0006172401803453166   0.0005158479486034109
-0.11888033513061556   0.0006172401803453166   0.0005158479486034109
-0.08221778241750631   0.009523527405367521   0.004658842828824096
-0.08221778241750631   0.009523527405367521   0.004658842828824096
-0.08221778241750631   0.009523527405367521   0.004658842828824096
-0.08221778241750631   0.009523527405367521   0.004658842828824096
-0.16199834501266916   -0.011471948183139999   -0.004079196210869343
-0.16199834501266916   -0.011471948183139999   -0.004079196210869343
-0.16199834501266916   -0.011471948183139999   -0.004079196210869343
-0.16199834501266916   -0.011471948183139999   -0.004079196210869343
-0.16356033932281178   -0.009346386265568047   0.000844541815939702
-0.16356033932281178   -0.009346386265568047   0.000844541815939702
-0.16356033932281178   -0.009346386265568047   0.000844541815939702
-0.16356033932281178   -0.009346386265568047   0.000844541815939702
-0.08735215632684136   0.0022345045364348766   0.0004149777684991293
-0.08735215632684136   0.0022345045364348766   0.0004149777684991293
-0.08735215632684136   0.0022345045364348766   0.0004149777684991293
-0.08735215632684136   0.0022345045364348766   0.0004149777684991293
-0.12309108032589554   -0.0018261272020059427   -0.0006554881136158659
-0.12309108032589554   -0.0018261272020059427   -0.0006554881136158659
-0.12309108032589554   -0.0018261272020059427   -0.0006554881136158659
-0.12309108032589554   -0.0018261272020059427   -0.0006554881136158659
-0.14920121279471243   0.012131004812403605   0.004843857882941838
-0.14920121279471243   0.012131004812403605   0.004843857882941838
-0.14920121279471243   0.012131004812403605   0.004843857882941838
-0.14920121279471243   0.012131004812403605   0.004843857882941838
-0.2264282475788848   -0.01059657544870807   -0.004867038360310334
-0.2264282475788848   -0.01059657544870807   -0.004867038360310334
-0.2264282475788848   -0.01059657544870807   -0.004867038360310334
-0.2264282475788848   -0.01059657544870807   -0.004867038360310334
-0.22856078029814947   -0.0031840595276298803   0.004394838972256357
-0.22856078029814947   -0.0031840595276298803   0.004394838972256357
-0.22856078029814947   -0.0031840595276298803   0.004394838972256357
-0.22856078029814947   -0.0031840595276298803   0.004394838972256357
-0.15532194307203237   0.0040860204709101235   -0.0026772261222005843
-0.15532194307203237   0.0040860204709101235   -0.0026772261222005843
-0.15532194307203237   0.0040860204709101235   -0.0026772261222005843
-0.15532194307203237   0.0040860204709101235   -0.0026772261222005843
-0.18140154973695508   0.002497831919709743   0.004609617310839968
-0.18140154973695508   0.002497831919709743   0.004609617310839968
-0.18140154973695508   0.002497831919709743   0.004609617310839968
-0.18140154973695508   0.002497831919709743   0.004609617310839968
-0.151986969631354   0.012390389268081229   0.005693272284016414
-0.151986969631354   0.012390389268081229   0.005693272284016414
-0.151986969631354   0.012390389268081229   0.005693272284016414
-0.151986969631354   0.012390389268081229   0.005693272284016414
-0.23185384648519727   -0.011446521071170522   -0.003808030419438918
-0.23185384648519727   -0.011446521071170522   -0.003808030419438918
-0.23185384648519727   -0.011446521071170522   -0.003808030419438918
-0.23185384648519727   -0.011446521071170522   -0.003808030419438918
-0.2334118048170669   -0.004336561257924256   0.005478520588084845
-0.2334118048170669   -0.004336561257924256   0.005478520588084845
-0.2334118048170669   -0.004336561257924256   0.005478520588084845
-0.2334118048170669   -0.004336561257924256   0.005478520588084845
-0.15877907859927118   0.002815769703130704   -0.0022705820301493
-0.15877907859927118   0.002815769703130704   -0.0022705820301493
-0.15877907859927118   0.002815769703130704   -0.0022705820301493
-0.15877907859927118   0.002815769703130704   -0.0022705820301493
-0.18854553966630516   0.0012395872292926217   0.0030046034434212873
-0.18854553966630516   0.0012395872292926217   0.0030046034434212873
-0.18854553966630516   0.0012395872292926217   0.0030046034434212873
-0.18854553966630516   0.0012395872292926217   0.0030046034434212873
-0.1552434672261061   0.01153837587534356   0.006684868663463156
-0.1552434672261061   0.01153837587534356   0.006684868663463156
-0.1552434672261061   0.01153837587534356   0.006684868663463156
-0.1552434672261061   0.01153837587534356   0.006684868663463156
-0.23686269726673265   -0.012974448506637369   -0.003138054411528181
-0.23686269726673265   -0.012974448506637369   -0.003138054411528181
-0.23686269726673265   -0.012974448506637369   -0.003138054411528181
-0.23686269726673265   -0.012974448506637369   -0.003138054411528181
-0.23982415588658157   -0.00868821930862429   0.0052818274467481205
-0.23982415588658157   -0.00868821930862429   0.0052818274467481205
-0.23982415588658157   -0.00868821930862429   0.0052818274467481205
-0.23982415588658157   -0.00868821930862429   0.0052818274467481205
-0.16246457014261736   -0.0009541224570211761   -0.0020688760916351273
-0.16246457014261736   -0.0009541224570211761   -0.0020688760916351273
-0.16246457014261736   -0.0009541224570211761   -0.0020688760916351273
-0.16246457014261736   -0.0009541224570211761   -0.0020688760916351273
-0.1899050921132319   -0.00041584737759469553   0.0025541000949582393
-0.1899050921132319   -0.00041584737759469553   0.0025541000949582393
-0.1899050921132319   -0.00041584737759469553   0.0025541000949582393
-0.1899050921132319   -0.00041584737759469553   0.0025541000949582393
0.10892758372951938   0.006467727425187459   -0.0065179933443144
0.10892758372951938   0.006467727425187459   -0.0065179933443144
0.10892758372951938   0.006467727425187459   -0.0065179933443144
0.10892758372951938   0.006467727425187459   -0.0065179933443144
0.046485449357139365   0.0022418746468534775   0.002649841128501605
0.046485449357139365   0.0022418746468534775   0.002649841128501605
0.046485449357139365   0.0022418746468534775   0.002649841128501605
0.046485449357139365   0.0022418746468534775   0.002649841128501605
0.03987980106359005   -0.010030105331552425   -0.006136863941350238
0.03987980106359005   -0.010030105331552425   -0.006136863941350238
0.03987980106359005   -0.010030105331552425   -0.006136863941350238
0.03987980106359005   -0.010030105331552425   -0.006136863941350238
0.10678393173107771   0.01186964939129079   0.0032371396504773976
0.10678393173107771   0.01186964939129079   0.0032371396504773976
0.10678393173107771   0.01186964939129079   0.0032371396504773976
0.10678393173107771   0.01186964939129079   0.0032371396504773976
0.07153676480599172   0.0015454097668082065   -0.0019406687173966763
0.07153676480599172   0.0015454097668082065   -0.0019406687173966763
0.07153676480599172   0.0015454097668082065   -0.0019406687173966763
0.07153676480599172   0.0015454097668082065   -0.0019406687173966763
0.10305429850026313   0.0026032429346579938   -0.006144620046963558
0.10305429850026313   0.0026032429346579938   -0.006144620046963558
0.10305429850026313   0.0026032429346579938   -0.006144620046963558
0.10305429850026313   0.0026032429346579938   -0.006144620046963558
0.04353813926065973   -0.0008349939086658084   0.0029597156211124027
0.04353813926065973   -0.0008349939086658084   0.0029597156211124027
0.04353813926065973   -0.0008349939086658084   0.0029597156211124027
0.04353813926065973   -0.0008349939086658084   0.0029597156211124027
0.03710695460124192   -0.01111649511748827   -0.005275249841320848
0.03710695460124192   -0.01111649511748827   -0.005275249841320848
0.03710695460124192   -0.01111649511748827   -0.005275249841320848
0.03710695460124192   -0.01111649511748827   -0.005275249841320848
0.10219545241882806   0.010319572370395326   0.004257936917816028
0.10219545241882806   0.010319572370395326   0.004257936917816028
0.10219545241882806   0.010319572370395326   0.004257936917816028
0.10219545241882806   0.010319572370395326   0.004257936917816028
0.06885472680174737   -0.00029346178639584   -0.0029731816896263995
0.06885472680174737   -0.00029346178639584   -0.0029731816896263995
0.06885472680174737   -0.00029346178639584   -0.0029731816896263995
0.06885472680174737   -0.00029346178639584   -0.0029731816896263995
0.09850596493657773   0.0012036427443623682   -0.005073570867403468
0.09850596493657773   0.0012036427443623682   -0.005073570867403468
0.09850596493657773   0.0012036427443623682   -0.005073570867403468
0.09850596493657773   0.0012036427443623682   -0.005073570867403468
0.04068217645570765   -0.0021148311192399983   0.003599195432759805
0.04068217645570765   -0.0021148311192399983   0.003599195432759805
0.04068217645570765   -0.0021148311192399983   0.003599195432759805
0.04068217645570765   -0.0021148311192399983   0.003599195432759805
0.03465432357847094   -0.011933022133272665   -0.004412662609709344
0.03465432357847094   -0.011933022133272665   -0.004412662609709344
0.03465432357847094   -0.011933022133272665   -0.004412662609709344
0.03465432357847094   -0.011933022133272665   -0.004412662609709344
0.09679294390412609   0.008399336486827273   0.004928387046904851
0.09679294390412609   0.008399336486827273   0.004928387046904851
0.09679294390412609   0.008399336486827273   0.004928387046904851
0.09679294390412609   0.008399336486827273   0.004928387046904851
0.06377593127458751   -0.0017355746901301901   -0.0044830415058177454
0.06377593127458751   -0.0017355746901301901   -0.0044830415058177454
0.06377593127458751   -0.0017355746901301901   -0.0044830415058177454
0.06377593127458751   -0.0017355746901301901   -0.0044830415058177454
0.04708829330676807   0.008829233291585026   -0.0009232977680871442
0.04708829330676807   0.008829233291585026   -0.0009232977680871442
0.04708829330676807   0.008829233291585026   -0.0009232977680871442
0.04708829330676807   0.008829233291585026   -0.0009232977680871442
-0.013549720349752924   0.0003041981427315217   0.0002059082210424958
-0.013549720349752924   0.0003041981427315217   0.0002059082210424958
-0.013549720349752924   0.0003041981427315217   0.0002059082210424958
-0.013549720349752924   0.0003041981427315217   0.0002059082210424958
-0.018068629588850825   -0.007134924896174771   -0.0038655722619422295
-0.018068629588850825   -0.007134924896174771   -0.0038655722619422295
-0.018068629588850825   -0.007134924896174771   -0.0038655722619422295
-0.018068629588850825   -0.007134924896174771   -0.0038655722619422295
0.046061659374046736   0.010521345064057702   0.004220977215323924
0.046061659374046736   0.010521345064057702   0.004220977215323924
0.046061659374046736   0.010521345064057702   0.004220977215323924
0.046061659374046736   0.010521345064057702   0.004220977215323924
0.015053874593339466   0.0029694996881617906   0.0006003507612547193
0.015053874593339466   0.0029694996881617906   0.0006003507612547193
0.015053874593339466   0.0029694996881617906   0.0006003507612547193
0.015053874593339466   0.0029694996881617906   0.0006003507612547193
0.044230931502387334   0.006013198632231755   -0.0004245157111477608
0.044230931502387334   0.006013198632231755   -0.0004245157111477608
0.044230931502387334   0.006013198632231755   -0.0004245157111477608
0.044230931502387334   0.006013198632231755   -0.0004245157111477608
-0.01627270020386313   -0.0026615769510199092   0.0006407267178418956
-0.01627270020386313   -0.0026615769510199092   0.0006407267178418956
-0.01627270020386313   -0.0026615769510199092   0.0006407267178418956
-0.01627270020386313   -0.0026615769510199092   0.0006407267178418956
-0.020638266279015657   -0.009300332732338046   -0.003171750389529067
-0.020638266279015657   -0.009300332732338046   -0.003171750389529067
-0.020638266279015657   -0.009300332732338046   -0.003171750389529067
-0.020638266279015657   -0.009300332732338046   -0.003171750389529067
0.042896483394679746   0.007964596482275557   0.004591302526104676
0.042896483394679746   0.007964596482275557   0.004591302526104676
0.042896483394679746   0.007964596482275557   0.004591302526104676
0.042896483394679746   0.007964596482275557   0.004591302526104676
0.011829137440961191   0.00044167475635172135   -0.0006127989315924264
0.011829137440961191   0.00044167475635172135   -0.0006127989315924264
0.011829137440961191   0.00044167475635172135   -0.0006127989315924264
0.011829137440961191   0.00044167475635172135   -0.0006127989315924264
0.041123878354065876   0.0036875175277051135   5.3562776051990085e-06
0.041123878354065876   0.0036875175277051135   5.3562776051990085e-06
0.041123878354065876   0.0036875175277051135   5.3562776051990085e-06
0.041123878354065876   0.0036875175277051135   5.3562776051990085e-06
-0.01894464353491463   -0.00510223607428118   0.0010982666729192018
-0.01894464353491463   -0.00510223607428118   0.0010982666729192018
-0.01894464353491463   -0.00510223607428118   0.0010982666729192018
-0.01894464353491463   -0.00510223607428118   0.0010982666729192018
-0.02316616652638863   -0.011264651662315986   -0.0025324011415953154
-0.02316616652638863   -0.011264651662315986   -0.0025324011415953154
-0.02316616652638863   -0.011264651662315986   -0.0025324011415953154
-0.02316616652638863   -0.011264651662315986   -0.0025324011415953154
0.040040860977082385   0.005577586407661073   0.005009415842414966
0.040040860977082385   0.005577586407661073   0.005009415842414966
0.040040860977082385   0.005577586407661073   0.005009415842414966
0.040040860977082385   0.005577586407661073   0.005009415842414966
0.009325745547781247   -0.0015697592487786704   -0.0016579322449774808
0.009325745547781247   -0.0015697592487786704   -0.0016579322449774808
0.009325745547781247   -0.0015697592487786704   -0.0016579322449774808
0.009325745547781247   -0.0015697592487786704   -0.0016579322449774808
-0.011317618131903674   0.010632502036948434   0.001038115416071843
-0.011317618131903674   0.010632502036948434   0.001038115416071843
-0.011317618131903674   0.010632502036948434   0.001038115416071843
-0.011317618131903674   0.010632502036948434   0.001038115416071843
-0.07261054626999064   -0.0023013788825618944   -0.002258285012796969
-0.07261054626999064   -0.0023013788825618944   -0.002258285012796969
-0.07261054626999064   -0.0023013788825618944   -0.002258285012796969
-0.07261054626999064   -0.0023013788825618944   -0.002258285012796969
-0.07517916651694151   -0.00468088219596396   -0.0016905434175420939
-0.07517916651694151   -0.00468088219596396   -0.0016905434175420939
-0.07517916651694151   -0.00468088219596396   -0.0016905434175420939
-0.07517916651694151   -0.00468088219596396   -0.0016905434175420939
-0.013934745199393564   0.008000717638834424   0.0016682071503349005
-0.013934745199393564   0.008000717638834424   0.0016682071503349005
-0.013934745199393564   0.008000717638834424   0.0016682071503349005
-0.013934745199393564   0.008000717638834424   0.0016682071503349005
-0.04314813336958623   0.002846434459313966   0.0008931531141825183
-0.04314813336958623   0.002846434459313966   0.0008931531141825183
-0.04314813336958623   0.002846434459313966   0.0008931531141825183
-0.04314813336958623   0.002846434459313966   0.0008931531141825183
-0.013879192062565354   0.008255466227568136   0.0016912242457422298
-0.013879192062565354   0.008255466227568136   0.0016912242457422298
-0.013879192062565354   0.008255466227568136   0.0016912242457422298
-0.013879192062565354   0.008255466227568136   0.0016912242457422298
-0.07525127983268455   -0.00495219096361242   -0.0017798012286083277
-0.07525127983268455   -0.00495219096361242   -0.0017798012286083277
-0.07525127983268455   -0.00495219096361242   -0.0017798012286083277
-0.07525127983268455   -0.00495219096361242   -0.0017798012286083277
-0.07778120257032706   -0.007040508596246822   -0.001083347237055346
-0.07778120257032706   -0.007040508596246822   -0.001083347237055346
-0.07778120257032706   -0.007040508596246822   -0.001083347237055346
-0.07778120257032706   -0.007040508596246822   -0.001083347237055346
-0.016634662333511005   0.005371072436282762   0.002174864169372902
-0.016634662333511005   0.005371072436282762   0.002174864169372902
-0.016634662333511005   0.005371072436282762   0.002174864169372902
-0.016634662333511005   0.005371072436282762   0.002174864169372902
-0.045820315659711126   0.0005219478825309641   -0.00013598898124557793
-0.045820315659711126   0.0005219478825309641   -0.00013598898124557793
-0.045820315659711126   0.0005219478825309641   -0.00013598898124557793
-0.045820315659711126   0.0005219478825309641   -0.00013598898124557793
-0.01652478743255381   0.005872088417339434   0.002223222693102685
-0.01652478743255381   0.005872088417339434   0.002223222693102685
-0.01652478743255381   0.005872088417339434   0.002223222693102685
-0.01652478743255381   0.005872088417339434   0.002223222693102685
-0.0779458202204103   -0.0075962673264287515   -0.0013506767572891952
-0.0779458202204103   -0.0075962673264287515   -0.0013506767572891952
-0.0779458202204103   -0.0075962673264287515   -0.0013506767572891952
-0.0779458202204103   -0.0075962673264287515   -0.0013506767572891952
-0.08032794921295959   -0.009285540301849712   -0.0004841897763813892
-0.08032794921295959   -0.009285540301849712   -0.0004841897763813892
-0.08032794921295959   -0.009285540301849712   -0.0004841897763813892
-0.08032794921295959   -0.009285540301849712   -0.0004841897763813892
-0.01932136924768746   0.0028196373703118435   0.0026072962192831917
-0.01932136924768746   0.0028196373703118435   0.0026072962192831917
-0.01932136924768746   0.0028196373703118435   0.0026072962192831917
-0.01932136924768746   0.0028196373703118435   0.0026072962192831917
-0.04861265310570364   -0.001800992753795987   -0.0012575815461363764
-0.04861265310570364   -0.001800992753795987   -0.0012575815461363764
-0.04861265310570364   -0.001800992753795987   -0.0012575815461363764
-0.04861265310570364   -0.001800992753795987   -0.0012575815461363764
-0.06864825112039839   0.01224999645970255   0.0030018153928997836
-0.06864825112039839   0.01224999645970255   0.0030018153928997836
-0.06864825112039839   0.01224999645970255   0.0030018153928997836
-0.06864825112039839   0.01224999645970255   0.0030018153928997836
-0.13105500886565574   -0.004947323294472919   -0.004456872625021199
-0.13105500886565574   -0.004947323294472919   -0.004456872625021199
-0.13105500886565574   -0.004947323294472919   -0.004456872625021199
-0.13105500886565574   -0.004947323294472919   -0.004456872625021199
-0.13198899487895885   -0.0027490891272161843   0.0006223415967888529
-0.13198899487895885   -0.0027490891272161843   0.0006223415967888529
-0.13198899487895885   -0.0027490891272161843   0.0006223415967888529
-0.13198899487895885   -0.0027490891272161843   0.0006223415967888529
-0.07301804571473901   0.005261406268949838   -0.0008272278714442968
-0.07301804571473901   0.005261406268949838   -0.0008272278714442968
-0.07301804571473901   0.005261406268949838   -0.0008272278714442968
-0.07301804571473901   0.005261406268949838   -0.0008272278714442968
-0.10053828207272669   0.002465454061444293   0.001267656261823652
-0.10053828207272669   0.002465454061444293   0.001267656261823652
-0.10053828207272669   0.002465454061444293   0.001267656261823652
-0.10053828207272669   0.002465454061444293   0.001267656261823652
-0.07117063584763453   0.010020299921913988   0.0036509278111153745
-0.07117063584763453   0.010020299921913988   0.0036509278111153745
-0.07117063584763453   0.010020299921913988   0.0036509278111153745
-0.07117063584763453   0.010020299921913988   0.0036509278111153745
-0.1339315707451858   -0.007603148779302887   -0.0042364780822611026
-0.1339315707451858   -0.007603148779302887   -0.0042364780822611026
-0.1339315707451858   -0.007603148779302887   -0.0042364780822611026
-0.1339315707451858   -0.007603148779302887   -0.0042364780822611026
-0.13507259727846765   -0.005093174307760738   0.0008889254318331201
-0.13507259727846765   -0.005093174307760738   0.0008889254318331201
-0.13507259727846765   -0.005093174307760738   0.0008889254318331201
-0.13507259727846765   -0.005093174307760738   0.0008889254318331201
-0.07565150273262543   0.0028283758092329785   -0.0003037324540274694
-0.07565150273262543   0.0028283758092329785   -0.0003037324540274694
-0.07565150273262543   0.0028283758092329785   -0.0003037324540274694
-0.07565150273262543   0.0028283758092329785   -0.0003037324540274694
-0.10271733368085936   0.00039776273062576157   0.0002470088756127489
-0.10271733368085936   0.00039776273062576157   0.0002470088756127489
-0.10271733368085936   0.00039776273062576157   0.0002470088756127489
-0.10271733368085936   0.00039776273062576157   0.0002470088756127489
-0.07373434928514451   0.007848976935882886   0.004261433656728101
-0.07373434928514451   0.007848976935882886   0.004261433656728101
-0.07373434928514451   0.007848976935882886   0.004261433656728101
-0.07373434928514451   0.007848976935882886   0.004261433656728101
-0.13700574170584173   -0.010129766414303978   -0.0037402045984959442
-0.13700574170584173   -0.010129766414303978   -0.0037402045984959442
-0.13700574170584173   -0.010129766414303978   -0.0037402045984959442
-0.13700574170584173   -0.010129766414303978   -0.0037402045984959442
-0.13779011107253922   -0.007629910337132888   0.0015308581463581647
-0.13779011107253922   -0.007629910337132888   0.0015308581463581647
-0.13779011107253922   -0.007629910337132888   0.0015308581463581647
-0.13779011107253922   -0.007629910337132888   0.0015308581463581647
-0.07833651928830825   8.081887550572594e-05   0.00010660066951801578
-0.07833651928830825   8.081887550572594e-05   0.00010660066951801578
-0.07833651928830825   8.081887550572594e-05   0.00010660066951801578
-0.07833651928830825   8.081887550572594e-05   0.00010660066951801578
-0.10618659451597798   -0.0020938323948348995   -0.000973946080311202
-0.10618659451597798   -0.0020938323948348995   -0.000973946080311202
-0.10618659451597798   -0.0020938323948348995   -0.000973946080311202
-0.10618659451597798   -0.0020938323948348995   -0.000973946080311202
-0.12596228849718694   0.011401587686886306   0.004657818235963684
-0.12596228849718694   0.011401587686886306   0.004657818235963684
-0.12596228849718694   0.011401587686886306   0.004657818235963684
-0.12596228849718694   0.011401587686886306   0.004657818235963684
-0.1871219574296264   -0.008798547566554153   -0.0054751355924479855
-0.1871219574296264   -0.008798547566554153   -0.0054751355924479855
-0.1871219574296264   -0.008798547566554153   -0.0054751355924479855
-0.1871219574296264   -0.008798547566554153   -0.0054751355924479855
-0.1886601918818444   -0.001130215096712803   0.004579844849496799
-0.1886601918818444   -0.001130215096712803   0.004579844849496799
-0.1886601918818444   -0.001130215096712803   0.004579844849496799
-0.1886601918818444   -0.001130215096712803   0.004579844849496799
-0.13176565953021604   0.002166222760269616   -0.0031762935469847493
-0.13176565953021604   0.002166222760269616   -0.0031762935469847493
-0.13176565953021604   0.002166222760269616   -0.0031762935469847493
-0.13176565953021604   0.002166222760269616   -0.0031762935469847493
-0.15133596296625412   0.0024174115965137407   0.003980623375797174
-0.15133596296625412   0.0024174115965137407   0.003980623375797174
-0.15133596296625412   0.0024174115965137407   0.003980623375797174
-0.15133596296625412   0.0024174115965137407   0.003980623375797174
-0.12823517984240482   0.011139403226453461   0.005502924425888529
-0.12823517984240482   0.011139403226453461   0.005502924425888529
-0.12823517984240482   0.011139403226453461   0.005502924425888529
-0.12823517984240482   0.011139403226453461   0.005502924425888529
-0.19227660603882557   -0.010189330032066755   -0.004443111000057093
-0.19227660603882557   -0.010189330032066755   -0.004443111000057093
-0.19227660603882557   -0.010189330032066755   -0.004443111000057093
-0.19227660603882557   -0.010189330032066755   -0.004443111000057093
-0.19306402686791027   -0.0024367250009549243   0.005751892718061653
-0.19306402686791027   -0.0024367250009549243   0.005751892718061653
-0.19306402686791027   -0.0024367250009549243   0.005751892718061653
-0.19306402686791027   -0.0024367250009549243   0.005751892718061653
-0.13460125496337805   0.0008352065579637748   -0.0026827438584462633
-0.13460125496337805   0.0008352065579637748   -0.0026827438584462633
-0.13460125496337805   0.0008352065579637748   -0.0026827438584462633
-0.13460125496337805   0.0008352065579637748   -0.0026827438584462633
-0.1575481719557875   0.0009417880578119191   0.002288374825643799
-0.1575481719557875   0.0009417880578119191   0.002288374825643799
-0.1575481719557875   0.0009417880578119191   0.002288374825643799
-0.1575481719557875   0.0009417880578119191   0.002288374825643799
-0.13091289604328324   0.010134978400297204   0.0064592788996952755
-0.13091289604328324   0.010134978400297204   0.0064592788996952755
-0.13091289604328324   0.010134978400297204   0.0064592788996952755
-0.13091289604328324   0.010134978400297204   0.0064592788996952755
-0.19681231795273582   -0.011796429008019253   -0.0036298586990036255
-0.19681231795273582   -0.011796429008019253   -0.0036298586990036255
-0.19681231795273582   -0.011796429008019253   -0.0036298586990036255
-0.19681231795273582   -0.011796429008019253   -0.0036298586990036255
-0.19895378368635655   -0.006698402444028202   0.005698937517068917
-0.19895378368635655   -0.006698402444028202   0.005698937517068917
-0.19895378368635655   -0.006698402444028202   0.005698937517068917
-0.19895378368635655   -0.006698402444028202   0.005698937517068917
-0.13759163376412578   -0.0027293632678486515   -0.0023773023808616837
-0.13759163376412578   -0.0027293632678486515   -0.0023773023808616837
-0.13759163376412578   -0.0027293632678486515   -0.0023773023808616837
-0.13759163376412578   -0.0027293632678486515   -0.0023773023808616837
-0.15892707833956804   -0.0008119656120624749   0.0015539649183971618
-0.15892707833956804   -0.0008119656120624749   0.0015539649183971618
-0.15892707833956804   -0.0008119656120624749   0.0015539649183971618
-0.15892707833956804   -0.0008119656120624749   0.0015539649183971618
0.06521480378253341   0.0041329730653479595   -0.006624021204420027
0.06521480378253341   0.0041329730653479595   -0.006624021204420027
0.06521480378253341   0.0041329730653479595   -0.006624021204420027
0.06521480378253341   0.0041329730653479595   -0.006624021204420027
0.020560812453469857   0.003727384753223829   0.0030375152695604033
0.020560812453469857   0.003727384753223829   0.0030375152695604033
0.020560812453469857   0.003727384753223829   0.0030375152695604033
0.020560812453469857   0.003727384753223829   0.0030375152695604033
0.014473500723383322   -0.008416718172779582   -0.005884267162176217
0.014473500723383322   -0.008416718172779582   -0.005884267162176217
0.014473500723383322   -0.008416718172779582   -0.005884267162176217
0.014473500723383322   -0.008416718172779582   -0.005884267162176217
0.06378224643775335   0.01015912622451266   0.0036486214519227626
0.06378224643775335   0.01015912622451266   0.0036486214519227626
0.06378224643775335   0.01015912622451266   0.0036486214519227626
0.06378224643775335   0.01015912622451266   0.0036486214519227626
0.038681134779362275   0.0017283372506002805   -0.0008443240241603426
0.038681134779362275   0.0017283372506002805   -0.0008443240241603426
0.038681134779362275   0.0017283372506002805   -0.0008443240241603426
0.038681134779362275   0.0017283372506002805   -0.0008443240241603426
0.059917542968004375   0.0006214914784315809   -0.0061372611507414555
0.059917542968004375   0.0006214914784315809   -0.0061372611507414555
0.059917542968004375   0.0006214914784315809   -0.0061372611507414555
0.059917542968004375   0.0006214914784315809   -0.0061372611507414555
0.01821851407489748   0.0010012264550666485   0.003422854967548576
0.01821851407489748   0.0010012264550666485   0.003422854967548576
0.01821851407489748   0.0010012264550666485   0.003422854967548576
0.01821851407489748   0.0010012264550666485   0.003422854967548576
0.012194051523262818   -0.009542412313758011   -0.005050585607385421
0.012194051523262818   -0.009542412313758011   -0.005050585607385421
0.012194051523262818   -0.009542412313758011   -0.005050585607385421
0.012194051523262818   -0.009542412313758011   -0.005050585607385421
0.059680230577108064   0.008613059332855787   0.004761806103805321
0.059680230577108064   0.008613059332855787   0.004761806103805321
0.059680230577108064   0.008613059332855787   0.004761806103805321
0.059680230577108064   0.008613059332855787   0.004761806103805321
0.035974184155287324   -6.086601908978674e-05   -0.0019589970157360814
0.035974184155287324   -6.086601908978674e-05   -0.0019589970157360814
0.035974184155287324   -6.086601908978674e-05   -0.0019589970157360814
0.035974184155287324   -6.086601908978674e-05   -0.0019589970157360814
0.05581662650857879   -0.0008303426470130382   -0.005112812258972692
0.05581662650857879   -0.0008303426470130382   -0.005112812258972692
0.05581662650857879   -0.0008303426470130382   -0.005112812258972692
0.05581662650857879   -0.0008303426470130382   -0.005112812258972692
0.015891210125735283   -0.00026545579994665254   0.0041582508911659
0.015891210125735283   -0.00026545579994665254   0.0041582508911659
0.015891210125735283   -0.00026545579994665254   0.0041582508911659
0.015891210125735283   -0.00026545579994665254   0.0041582508911659
0.010171420783180191   -0.01075692025241919   -0.004231373528381575
0.010171420783180191   -0.01075692025241919   -0.004231373528381575
0.010171420783180191   -0.01075692025241919   -0.004231373528381575
0.010171420783180191   -0.01075692025241919   -0.004231373528381575
0.05455915248496138   0.006236868314442448   0.005347959092989993
0.05455915248496138   0.006236868314442448   0.005347959092989993
0.05455915248496138   0.006236868314442448   0.005347959092989993
0.05455915248496138   0.006236868314442448   0.005347959092989993
0.03185406983070209   -0.0015929670803913505   -0.00338904193181536
0.03185406983070209   -0.0015929670803913505   -0.00338904193181536
0.03185406983070209   -0.0015929670803913505   -0.00338904193181536
0.03185406983070209   -0.0015929670803913505   -0.00338904193181536
0.020196851858841333   0.006667791958475144   -0.0017226949088336467
0.020196851858841333   0.006667791958475144   -0.0017226949088336467
0.020196851858841333   0.006667791958475144   -0.0017226949088336467
0.020196851858841333   0.006667791958475144   -0.0017226949088336467
-0.022346132994779513   0.0017346490028644684   0.0006305011787505329
-0.022346132994779513   0.0017346490028644684   0.0006305011787505329
-0.022346132994779513   0.0017346490028644684   0.0006305011787505329
-0.022346132994779513   0.0017346490028644684   0.0006305011787505329
-0.02628418013374876   -0.005492065576486236   -0.0035002364796002713
-0.02628418013374876   -0.005492065576486236   -0.0035002364796002713
-0.02628418013374876   -0.005492065576486236   -0.0035002364796002713
-0.02628418013374876   -0.005492065576486236   -0.0035002364796002713
0.019731058190558395   0.008217262112155373   0.00376953988876442
0.019731058190558395   0.008217262112155373   0.00376953988876442
0.019731058190558395   0.008217262112155373   0.00376953988876442
0.019731058190558395   0.008217262112155373   0.00376953988876442
-0.002343251290407293   0.00265609475236584   0.0007764777015198356
-0.002343251290407293   0.00265609475236584   0.0007764777015198356
-0.002343251290407293   0.00265609475236584   0.0007764777015198356
-0.002343251290407293   0.00265609475236584   0.0007764777015198356
0.017838526516220837   0.0037811264793950984   -0.0012569828501631962
0.017838526516220837   0.0037811264793950984   -0.0012569828501631962
0.017838526516220837   0.0037811264793950984   -0.0012569828501631962
0.017838526516220837   0.0037811264793950984   -0.0012569828501631962
-0.02450040750637129   -0.0011646889906860632   0.0010912500714869138
-0.02450040750637129   -0.0011646889906860632   0.0010912500714869138
-0.02450040750637129   -0.0011646889906860632   0.0010912500714869138
-0.02450040750637129   -0.0011646889906860632   0.0010912500714869138
-0.02831751036839735   -0.007753798708888522   -0.002786679666638624
-0.02831751036839735   -0.007753798708888522   -0.002786679666638624
-0.02831751036839735   -0.007753798708888522   -0.002786679666638624
-0.02831751036839735   -0.007753798708888522   -0.002786679666638624
0.017065017638598926   0.005641601888551622   0.004120230766985859
0.017065017638598926   0.005641601888551622   0.004120230766985859
0.017065017638598926   0.005641601888551622   0.004120230766985859
0.017065017638598926   0.005641601888551622   0.004120230766985859
-0.004887091914934278   0.00015685879200258275   -0.00042790389998643345
-0.004887091914934278   0.00015685879200258275   -0.00042790389998643345
-0.004887091914934278   0.00015685879200258275   -0.00042790389998643345
-0.004887091914934278   0.00015685879200258275   -0.00042790389998643345
0.015223158359319698   0.0013518151848423393   -0.0007992789257013667
0.015223158359319698   0.0013518151848423393   -0.0007992789257013667
0.015223158359319698   0.0013518151848423393   -0.0007992789257013667
0.015223158359319698   0.0013518151848423393   -0.0007992789257013667
-0.026617385068409046   -0.0036057459844702224   0.001565894108884613
-0.026617385068409046   -0.0036057459844702224   0.001565894108884613
-0.026617385068409046   -0.0036057459844702224   0.001565894108884613
-0.026617385068409046   -0.0036057459844702224   0.001565894108884613
-0.030331418966483864   -0.009927584363794635   -0.0021441580712973354
-0.030331418966483864   -0.009927584363794635   -0.0021441580712973354
-0.030331418966483864   -0.009927584363794635   -0.0021441580712973354
-0.030331418966483864   -0.009927584363794635   -0.0021441580712973354
0.014729296968661511   0.0031851064390546707   0.004615980707551411
0.014729296968661511   0.0031851064390546707   0.004615980707551411
0.014729296968661511   0.0031851064390546707   0.004615980707551411
0.014729296968661511   0.0031851064390546707   0.004615980707551411
-0.007028942290734036   -0.0019985734825534993   -0.0015424815927813818
-0.007028942290734036   -0.0019985734825534993   -0.0015424815927813818
-0.007028942290734036   -0.0019985734825534993   -0.0015424815927813818
-0.007028942290734036   -0.0019985734825534993   -0.0015424815927813818
-0.02104145891332436   0.00853483309092409   0.00035368749796667407
-0.02104145891332436   0.00853483309092409   0.00035368749796667407
-0.02104145891332436   0.00853483309092409   0.00035368749796667407
-0.02104145891332436   0.00853483309092409   0.00035368749796667407
-0.06451095179059954   -0.0011463379485238479   -0.0018660862045618253
-0.06451095179059954   -0.0011463379485238479   -0.0018660862045618253
-0.06451095179059954   -0.0011463379485238479   -0.0018660862045618253
-0.06451095179059954   -0.0011463379485238479   -0.0018660862045618253
-0.06636776509862086   -0.003051477470291816   -0.0011597484960689988
-0.06636776509862086   -0.003051477470291816   -0.0011597484960689988
-0.06636776509862086   -0.003051477470291816   -0.0011597484960689988
-0.06636776509862086   -0.003051477470291816   -0.0011597484960689988
-0.023156377855791672   0.005437655773102707   0.0012090535605957494
-0.023156377855791672   0.005437655773102707   0.0012090535605957494
-0.023156377855791672   0.005437655773102707   0.0012090535605957494
-0.023156377855791672   0.005437655773102707   0.0012090535605957494
-0.0436549519599473   0.0023723209113222757   0.0007770219311308956
-0.0436549519599473   0.0023723209113222757   0.0007770219311308956
-0.0436549519599473   0.0023723209113222757   0.0007770219311308956
-0.0436549519599473   0.0023723209113222757   0.0007770219311308956
-0.023072575414628094   0.00604387872801992   0.001021842811496916
-0.023072575414628094   0.00604387872801992   0.001021842811496916
-0.023072575414628094   0.00604387872801992   0.001021842811496916
-0.023072575414628094   0.00604387872801992   0.001021842811496916
-0.06654933325555061   -0.0037554661409744798   -0.0013636006100350827
-0.06654933325555061   -0.0037554661409744798   -0.0013636006100350827
-0.06654933325555061   -0.0037554661409744798   -0.0013636006100350827
-0.06654933325555061   -0.0037554661409744798   -0.0013636006100350827
-0.06839738821822917   -0.005521002622015007   -0.0005227852373977694
-0.06839738821822917   -0.005521002622015007   -0.0005227852373977694
-0.06839738821822917   -0.005521002622015007   -0.0005227852373977694
-0.06839738821822917   -0.005521002622015007   -0.0005227852373977694
-0.025298527550879704   0.0028248932094488734   0.001729542502612219
-0.025298527550879704   0.0028248932094488734   0.001729542502612219
-0.025298527550879704   0.0028248932094488734   0.001729542502612219
-0.025298527550879704   0.0028248932094488734   0.001729542502612219
-0.0457665482654808   1.2153310871408467e-05   -0.0002933091384452989
-0.0457665482654808   1.2153310871408467e-05   -0.0002933091384452989
-0.0457665482654808   1.2153310871408467e-05   -0.0002933091384452989
-0.0457665482654808   1.2153310871408467e-05   -0.0002933091384452989
-0.025185273363694152   0.0035417656049744365   0.0015789410430144214
-0.025185273363694152   0.0035417656049744365   0.0015789410430144214
-0.025185273363694152   0.0035417656049744365   0.0015789410430144214
-0.025185273363694152   0.0035417656049744365   0.0015789410430144214
-0.06864858410811163   -0.006375816720236833   -0.0009239505885882196
-0.06864858410811163   -0.006375816720236833   -0.0009239505885882196
-0.06864858410811163   -0.006375816720236833   -0.0009239505885882196
-0.06864858410811163   -0.006375816720236833   -0.0009239505885882196
-0.07037885946187178   -0.007892631400459173   0.00010344257961242276
-0.07037885946187178   -0.007892631400459173   0.00010344257961242276
-0.07037885946187178   -0.007892631400459173   0.00010344257961242276
-0.07037885946187178   -0.007892631400459173   0.00010344257961242276
-0.027415265844384633   0.00031796335401680816   0.002191059821386878
-0.027415265844384633   0.00031796335401680816   0.002191059821386878
-0.027415265844384633   0.00031796335401680816   0.002191059821386878
-0.027415265844384633   0.00031796335401680816   0.002191059821386878
-0.04799621896007623   -0.002348593344249085   -0.0014596876732433043
-0.04799621896007623   -0.002348593344249085   -0.0014596876732433043
-0.04799621896007623   -0.002348593344249085   -0.0014596876732433043
-0.04799621896007623   -0.002348593344249085   -0.0014596876732433043
-0.06132075411626489   0.010398845853439174   0.002539718365148394
-0.06132075411626489   0.010398845853439174   0.002539718365148394
-0.06132075411626489   0.010398845853439174   0.002539718365148394
-0.06132075411626489   0.010398845853439174   0.002539718365148394
-0.106115365876071   -0.0036229540822414995   -0.004111145685211252
-0.106115365876071   -0.0036229540822414995   -0.004111145685211252
-0.106115365876071   -0.0036229540822414995   -0.004111145685211252
-0.106115365876071   -0.0036229540822414995   -0.004111145685211252
-0.10628606190390838   -0.0009682032389068691   0.0012927407784415375
-0.10628606190390838   -0.0009682032389068691   0.0012927407784415375
-0.10628606190390838   -0.0009682032389068691   0.0012927407784415375
-0.10628606190390838   -0.0009682032389068691   0.0012927407784415375
-0.06519692452145225   0.0028474917337582275   -0.001204514814275949
-0.06519692452145225   0.0028474917337582275   -0.001204514814275949
-0.06519692452145225   0.0028474917337582275   -0.001204514814275949
-0.06519692452145225   0.0028474917337582275   -0.001204514814275949
-0.08425231597384605   0.00214174448871351   0.0009721595684583292
-0.08425231597384605   0.00214174448871351   0.0009721595684583292
-0.08425231597384605   0.00214174448871351   0.0009721595684583292
-0.08425231597384605   0.00214174448871351   0.0009721595684583292
-0.0632807571401551   0.008015893602791133   0.003207920223178274
-0.0632807571401551   0.008015893602791133   0.003207920223178274
-0.0632807571401551   0.008015893602791133   0.003207920223178274
-0.0632807571401551   0.008015893602791133   0.003207920223178274
-0.10838527582611257   -0.006319651648847397   -0.003851880422639911
-0.10838527582611257   -0.006319651648847397   -0.003851880422639911
-0.10838527582611257   -0.006319651648847397   -0.003851880422639911
-0.10838527582611257   -0.006319651648847397   -0.003851880422639911
-0.1087950786635383   -0.003413857154331558   0.0016286786590627156
-0.1087950786635383   -0.003413857154331558   0.0016286786590627156
-0.1087950786635383   -0.003413857154331558   0.0016286786590627156
-0.1087950786635383   -0.003413857154331558   0.0016286786590627156
-0.06723719812421823   0.0004227024718459981   -0.0006655398612045119
-0.06723719812421823   0.0004227024718459981   -0.0006655398612045119
-0.06723719812421823   0.0004227024718459981   -0.0006655398612045119
-0.06723719812421823   0.0004227024718459981   -0.0006655398612045119
-0.0860031750373816   -3.322918959626237e-05   -0.000142490753542876
-0.0860031750373816   -3.322918959626237e-05   -0.000142490753542876
-0.0860031750373816   -3.322918959626237e-05   -0.000142490753542876
-0.0860031750373816   -3.322918959626237e-05   -0.000142490753542876
-0.065271488607429   0.0057352226366628135   0.003850487557925282
-0.065271488607429   0.0057352226366628135   0.003850487557925282
-0.065271488607429   0.0057352226366628135   0.003850487557925282
-0.065271488607429   0.0057352226366628135   0.003850487557925282
-0.11087635755140812   -0.0088419466902297   -0.0033496262443892845
-0.11087635755140812   -0.0088419466902297   -0.0033496262443892845
-0.11087635755140812   -0.0088419466902297   -0.0033496262443892845
-0.11087635755140812   -0.0088419466902297   -0.0033496262443892845
-0.11093948056430705   -0.006001347219856777   0.0022987314687004795
-0.11093948056430705   -0.006001347219856777   0.0022987314687004795
-0.11093948056430705   -0.006001347219856777   0.0022987314687004795
-0.11093948056430705   -0.006001347219856777   0.0022987314687004795
-0.06930857799201379   -0.0022141628751966846   -0.00022361859636062242
-0.06930857799201379   -0.0022141628751966846   -0.00022361859636062242
-0.06930857799201379   -0.0022141628751966846   -0.00022361859636062242
-0.06930857799201379   -0.0022141628751966846   -0.00022361859636062242
-0.08873644395837611   -0.0024765905998342915   -0.0013858416877342537
-0.08873644395837611   -0.0024765905998342915   -0.0013858416877342537
-0.08873644395837611   -0.0024765905998342915   -0.0013858416877342537
-0.08873644395837611   -0.0024765905998342915   -0.0013858416877342537
-0.10161381079040478   0.010294036676629691   0.00447963898424962
-0.10161381079040478   0.010294036676629691   0.00447963898424962
-0.10161381079040478   0.010294036676629691   0.00447963898424962
-0.10161381079040478   0.010294036676629691   0.00447963898424962
-0.14503009010875378   -0.006896100594815858   -0.0059263038687289125
-0.14503009010875378   -0.006896100594815858   -0.0059263038687289125
-0.14503009010875378   -0.006896100594815858   -0.0059263038687289125
-0.14503009010875378   -0.006896100594815858   -0.0059263038687289125
-0.14596935280486983   0.0008997518582277379   0.004695045217459649
-0.14596935280486983   0.0008997518582277379   0.004695045217459649
-0.14596935280486983   0.0008997518582277379   0.004695045217459649
-0.14596935280486983   0.0008997518582277379   0.004695045217459649
-0.10705137965962508   5.975532201920111e-05   -0.0035618065610699516
-0.10705137965962508   5.975532201920111e-05   -0.0035618065610699516
-0.10705137965962508   5.975532201920111e-05   -0.0035618065610699516
-0.10705137965962508   5.975532201920111e-05   -0.0035618065610699516
-0.11946725372633396   0.00224238703230011   0.0030641740693336215
-0.11946725372633396   0.00224238703230011   0.0030641740693336215
-0.11946725372633396   0.00224238703230011   0.0030641740693336215
-0.11946725372633396   0.00224238703230011   0.0030641740693336215
-0.10338299956914279   0.009538319420461287   0.005301529792900342
-0.10338299956914279   0.009538319420461287   0.005301529792900342
-0.10338299956914279   0.009538319420461287   0.005301529792900342
-0.10338299956914279   0.009538319420461287   0.005301529792900342
-0.14983641881437373   -0.008777498159234842   -0.004963034812595326
-0.14983641881437373   -0.008777498159234842   -0.004963034812595326
-0.14983641881437373   -0.008777498159234842   -0.004963034812595326
-0.14983641881437373   -0.008777498159234842   -0.004963034812595326
-0.14992053675998612   -0.0004988617262955894   0.005966196516864981
-0.14992053675998612   -0.0004988617262955894   0.005966196516864981
-0.14992053675998612   -0.0004988617262955894   0.005966196516864981
-0.14992053675998612   -0.0004988617262955894   0.005966196516864981
-0.10930248544183237   -0.001292350308938978   -0.0030298620778021895
-0.10930248544183237   -0.001292350308938978   -0.0030298620778021895
-0.10930248544183237   -0.001292350308938978   -0.0030298620778021895
-0.10930248544183237   -0.001292350308938978   -0.0030298620778021895
-0.12469579220396493   0.000614564012534396   0.0013352671156160942
-0.12469579220396493   0.000614564012534396   0.0013352671156160942
-0.12469579220396493   0.000614564012534396   0.0013352671156160942
-0.12469579220396493   0.000614564012534396   0.0013352671156160942
-0.10549257458613207   0.008449133152878728   0.006278208738882532
-0.10549257458613207   0.008449133152878728   0.006278208738882532
-0.10549257458613207   0.008449133152878728   0.006278208738882532
-0.10549257458613207   0.008449133152878728   0.006278208738882532
-0.15391095336893273   -0.010420850941358669   -0.004063897312804106
-0.15391095336893273   -0.010420850941358669   -0.004063897312804106
-0.15391095336893273   -0.010420850941358669   -0.004063897312804106
-0.15391095336893273   -0.010420850941358669   -0.004063897312804106
-0.15534772018488605   -0.0045840111922857765   0.006105544417712973
-0.15534772018488605   -0.0045840111922857765   0.006105544417712973
-0.15534772018488605   -0.0045840111922857765   0.006105544417712973
-0.15534772018488605   -0.0045840111922857765   0.006105544417712973
-0.11163830891761962   -0.004552608615112814   -0.0026441489026082614
-0.11163830891761962   -0.004552608615112814   -0.0026441489026082614
-0.11163830891761962   -0.004552608615112814   -0.0026441489026082614
-0.11163830891761962   -0.004552608615112814   -0.0026441489026082614
-0.12613331751995588   -0.0011728030148494733   0.00036537829109807574
-0.12613331751995588   -0.0011728030148494733   0.00036537829109807574
-0.12613331751995588   -0.0011728030148494733   0.00036537829109807574
-0.12613331751995588   -0.0011728030148494733   0.00036537829109807574
0.019862566998748075   0.0016112548668866925   -0.006844888707403498
0.019862566998748075   0.0016112548668866925   -0.006844888707403498
0.019862566998748075   0.0016112548668866925   -0.006844888707403498
0.019862566998748075   0.0016112548668866925   -0.006844888707403498
-0.0063557400418227826   0.004936059559143676   0.0033820285735126103
-0.0063557400418227826   0.004936059559143676   0.0033820285735126103
-0.0063557400418227826   0.004936059559143676   0.0033820285735126103
-0.0063557400418227826   0.004936059559143676   0.0033820285735126103
-0.011946517919512817   -0.006831496342147193   -0.005575727024110334
-0.011946517919512817   -0.006831496342147193   -0.005575727024110334
-0.011946517919512817   -0.006831496342147193   -0.005575727024110334
-0.011946517919512817   -0.006831496342147193   -0.005575727024110334
0.019016951713174395   0.007965383878315958   0.004086569275602722
0.019016951713174395   0.007965383878315958   0.004086569275602722
0.019016951713174395   0.007965383878315958   0.004086569275602722
0.019016951713174395   0.007965383878315958   0.004086569275602722
0.004573834355375885   0.0017603340070725818   0.0005479491764085085
0.004573834355375885   0.0017603340070725818   0.0005479491764085085
0.004573834355375885   0.0017603340070725818   0.0005479491764085085
0.004573834355375885   0.0017603340070725818   0.0005479491764085085
0.015056206971653508   -0.0015551333915241774   -0.006196637162161582
0.015056206971653508   -0.0015551333915241774   -0.006196637162161582
0.015056206971653508   -0.0015551333915241774   -0.006196637162161582
0.015056206971653508   -0.0015551333915241774   -0.006196637162161582
-0.008203204358579613   0.0024715897471052576   0.0038377546913032265
-0.008203204358579613   0.0024715897471052576   0.0038377546913032265
-0.008203204358579613   0.0024715897471052576   0.0038377546913032265
-0.008203204358579613   0.0024715897471052576   0.0038377546913032265
-0.01382774150494652   -0.007998150616878025   -0.004786271562809159
-0.01382774150494652   -0.007998150616878025   -0.004786271562809159
-0.01382774150494652   -0.007998150616878025   -0.004786271562809159
-0.01382774150494652   -0.007998150616878025   -0.004786271562809159
0.015238274212849914   0.006407585952001727   0.005678948028458936
0.015238274212849914   0.006407585952001727   0.005678948028458936
0.015238274212849914   0.006407585952001727   0.005678948028458936
0.015238274212849914   0.006407585952001727   0.005678948028458936
0.0017240656428678502   2.600052136898757e-06   -0.0007649274821380705
0.0017240656428678502   2.600052136898757e-06   -0.0007649274821380705
0.0017240656428678502   2.600052136898757e-06   -0.0007649274821380705
0.0017240656428678502   2.600052136898757e-06   -0.0007649274821380705
0.011165910165781515   -0.0030810193509557106   -0.005194266903925623
0.011165910165781515   -0.0030810193509557106   -0.005194266903925623
0.011165910165781515   -0.0030810193509557106   -0.005194266903925623
0.011165910165781515   -0.0030810193509557106   -0.005194266903925623
-0.010064791456282704   0.001181040687674809   0.004849287375956964
-0.010064791456282704   0.001181040687674809   0.004849287375956964
-0.010064791456282704   0.001181040687674809   0.004849287375956964
-0.010064791456282704   0.001181040687674809   0.004849287375956964
-0.015546139453042944   -0.00965521610903802   -0.004007171086408017
-0.015546139453042944   -0.00965521610903802   -0.004007171086408017
-0.015546139453042944   -0.00965521610903802   -0.004007171086408017
-0.015546139453042944   -0.00965521610903802   -0.004007171086408017
0.009986169602432869   0.003233659800942014   0.006543480115963706
0.009986169602432869   0.003233659800942014   0.006543480115963706
0.009986169602432869   0.003233659800942014   0.006543480115963706
0.009986169602432869   0.003233659800942014   0.006543480115963706
-0.0016322924259151827   -0.0017094368511972632   -0.002335551673689801
-0.0016322924259151827   -0.0017094368511972632   -0.002335551673689801
-0.0016322924259151827   -0.0017094368511972632   -0.002335551673689801
-0.0016322924259151827   -0.0017094368511972632   -0.002335551673689801
-0.007727716521978952   0.004019894340041301   -0.0025616886081658635
-0.007727716521978952   0.004019894340041301   -0.0025616886081658635
-0.007727716521978952   0.004019894340041301   -0.0025616886081658635
-0.007727716521978952   0.004019894340041301   -0.0025616886081658635
-0.031633584968239266   0.0013595638639025416   0.0008177667647117134
-0.031633584968239266   0.0013595638639025416   0.0008177667647117134
-0.031633584968239266   0.0013595638639025416   0.0008177667647117134
-0.031633584968239266   0.0013595638639025416   0.0008177667647117134
-0.034592841948882104   -0.003994354141681442   -0.002964641240979167
-0.034592841948882104   -0.003994354141681442   -0.002964641240979167
-0.034592841948882104   -0.003994354141681442   -0.002964641240979167
-0.034592841948882104   -0.003994354141681442   -0.002964641240979167
-0.00807451015057686   0.004084794032074324   0.002868021446347925
-0.00807451015057686   0.004084794032074324   0.002868021446347925
-0.00807451015057686   0.004084794032074324   0.002868021446347925
-0.00807451015057686   0.004084794032074324   0.002868021446347925
-0.020493328851696205   0.0012843936913802519   0.0007351292060008814
-0.020493328851696205   0.0012843936913802519   0.0007351292060008814
-0.020493328851696205   0.0012843936913802519   0.0007351292060008814
-0.020493328851696205   0.0012843936913802519   0.0007351292060008814
-0.009656734340888469   0.0011617787779049263   -0.0021200842510409584
-0.009656734340888469   0.0011617787779049263   -0.0021200842510409584
-0.009656734340888469   0.0011617787779049263   -0.0021200842510409584
-0.009656734340888469   0.0011617787779049263   -0.0021200842510409584
-0.03320072306631132   -0.0012614441952529102   0.001263043225446213
-0.03320072306631132   -0.0012614441952529102   0.001263043225446213
-0.03320072306631132   -0.0012614441952529102   0.001263043225446213
-0.03320072306631132   -0.0012614441952529102   0.001263043225446213
-0.036074892721409374   -0.006258925178671532   -0.002242494209117772
-0.036074892721409374   -0.006258925178671532   -0.002242494209117772
-0.036074892721409374   -0.006258925178671532   -0.002242494209117772
-0.036074892721409374   -0.006258925178671532   -0.002242494209117772
-0.01030861579994801   0.0015740432430806249   0.0032371631022246206
-0.01030861579994801   0.0015740432430806249   0.0032371631022246206
-0.01030861579994801   0.0015740432430806249   0.0032371631022246206
-0.01030861579994801   0.0015740432430806249   0.0032371631022246206
-0.022361440866259172   -0.0010322455731707591   -0.000444010603755509
-0.022361440866259172   -0.0010322455731707591   -0.000444010603755509
-0.022361440866259172   -0.0010322455731707591   -0.000444010603755509
-0.022361440866259172   -0.0010322455731707591   -0.000444010603755509
-0.011846048900720602   -0.0012832078370181384   -0.0015927513215395733
-0.011846048900720602   -0.0012832078370181384   -0.0015927513215395733
-0.011846048900720602   -0.0012832078370181384   -0.0015927513215395733
-0.011846048900720602   -0.0012832078370181384   -0.0015927513215395733
-0.03474405603525923   -0.0036082705131952153   0.0017610345561566362
-0.03474405603525923   -0.0036082705131952153   0.0017610345561566362
-0.03474405603525923   -0.0036082705131952153   0.0017610345561566362
-0.03474405603525923   -0.0036082705131952153   0.0017610345561566362
-0.03756660983020142   -0.008518574366191833   -0.0016065165198181838
-0.03756660983020142   -0.008518574366191833   -0.0016065165198181838
-0.03756660983020142   -0.008518574366191833   -0.0016065165198181838
-0.03756660983020142   -0.008518574366191833   -0.0016065165198181838
-0.012188084876752638   -0.0008837790569355291   0.00401166474294091
-0.012188084876752638   -0.0008837790569355291   0.00401166474294091
-0.012188084876752638   -0.0008837790569355291   0.00401166474294091
-0.012188084876752638   -0.0008837790569355291   0.00401166474294091
-0.024178314526365006   -0.003237352138237044   -0.0016202801951103359
-0.024178314526365006   -0.003237352138237044   -0.0016202801951103359
-0.024178314526365006   -0.003237352138237044   -0.0016202801951103359
-0.024178314526365006   -0.003237352138237044   -0.0016202801951103359
-0.03094287131894646   0.005888895968111682   -0.0002579970930334137
-0.03094287131894646   0.005888895968111682   -0.0002579970930334137
-0.03094287131894646   0.005888895968111682   -0.0002579970930334137
-0.03094287131894646   0.005888895968111682   -0.0002579970930334137
-0.056379159934056663   -0.00210088713047973   -0.001695768969824013
-0.056379159934056663   -0.00210088713047973   -0.001695768969824013
-0.056379159934056663   -0.00210088713047973   -0.001695768969824013
-0.056379159934056663   -0.00210088713047973   -0.001695768969824013
-0.05703588313268874   -0.0016754343448446142   -0.0004768917522437934
-0.05703588313268874   -0.0016754343448446142   -0.0004768917522437934
-0.05703588313268874   -0.0016754343448446142   -0.0004768917522437934
-0.05703588313268874   -0.0016754343448446142   -0.0004768917522437934
-0.03293871111756294   0.00085569167655728   0.00045596709737792587
-0.03293871111756294   0.00085569167655728   0.00045596709737792587
-0.03293871111756294   0.00085569167655728   0.00045596709737792587
-0.03293871111756294   0.00085569167655728   0.00045596709737792587
-0.04422026566111516   0.0006811638192331837   0.00034231632917871256
-0.04422026566111516   0.0006811638192331837   0.00034231632917871256
-0.04422026566111516   0.0006811638192331837   0.00034231632917871256
-0.04422026566111516   0.0006811638192331837   0.00034231632917871256
-0.03243132819065545   0.003425474729754443   0.00042309867871820773
-0.03243132819065545   0.003425474729754443   0.00042309867871820773
-0.03243132819065545   0.003425474729754443   0.00042309867871820773
-0.03243132819065545   0.003425474729754443   0.00042309867871820773
-0.05773024520178714   -0.004432196540232695   -0.001191939902347748
-0.05773024520178714   -0.004432196540232695   -0.001191939902347748
-0.05773024520178714   -0.004432196540232695   -0.001191939902347748
-0.05773024520178714   -0.004432196540232695   -0.001191939902347748
-0.05843540126413079   -0.004110764823369022   0.00018812605176999828
-0.05843540126413079   -0.004110764823369022   0.00018812605176999828
-0.05843540126413079   -0.004110764823369022   0.00018812605176999828
-0.05843540126413079   -0.004110764823369022   0.00018812605176999828
-0.03449493101183619   -0.001548417762762677   0.0009468069228392734
-0.03449493101183619   -0.001548417762762677   0.0009468069228392734
-0.03449493101183619   -0.001548417762762677   0.0009468069228392734
-0.03449493101183619   -0.001548417762762677   0.0009468069228392734
-0.045723325319735796   -0.0015345798480935714   -0.0007380067919544198
-0.045723325319735796   -0.0015345798480935714   -0.0007380067919544198
-0.045723325319735796   -0.0015345798480935714   -0.0007380067919544198
-0.045723325319735796   -0.0015345798480935714   -0.0007380067919544198
-0.0339858957880118   0.0009418534311170772   0.0010017118480814997
-0.0339858957880118   0.0009418534311170772   0.0010017118480814997
-0.0339858957880118   0.0009418534311170772   0.0010017118480814997
-0.0339858957880118   0.0009418534311170772   0.0010017118480814997
-0.0591713016494169   -0.0068279011787104864   -0.0007742395193190716
-0.0591713016494169   -0.0068279011787104864   -0.0007742395193190716
-0.0591713016494169   -0.0068279011787104864   -0.0007742395193190716
-0.0591713016494169   -0.0068279011787104864   -0.0007742395193190716
-0.059793855283187314   -0.006428682077012811   0.0008364221050414511
-0.059793855283187314   -0.006428682077012811   0.0008364221050414511
-0.059793855283187314   -0.006428682077012811   0.0008364221050414511
-0.059793855283187314   -0.006428682077012811   0.0008364221050414511
-0.03600591052100103   -0.003793260084712824   0.0014716657447047428
-0.03600591052100103   -0.003793260084712824   0.0014716657447047428
-0.03600591052100103   -0.003793260084712824   0.0014716657447047428
-0.03600591052100103   -0.003793260084712824   0.0014716657447047428
-0.04734037280036968   -0.003754512577320986   -0.00191376012455775
-0.04734037280036968   -0.003754512577320986   -0.00191376012455775
-0.04734037280036968   -0.003754512577320986   -0.00191376012455775
-0.04734037280036968   -0.003754512577320986   -0.00191376012455775
-0.053553220800751616   0.008148593319258235   0.0021844462469642004
-0.053553220800751616   0.008148593319258235   0.0021844462469642004
-0.053553220800751616   0.008148593319258235   0.0021844462469642004
-0.053553220800751616   0.008148593319258235   0.0021844462469642004
-0.08045859157656618   -0.003657335128329728   -0.003736661905821649
-0.08045859157656618   -0.003657335128329728   -0.003736661905821649
-0.08045859157656618   -0.003657335128329728   -0.003736661905821649
-0.08045859157656618   -0.003657335128329728   -0.003736661905821649
-0.07953451744610969   0.0006320823699247809   0.002056031291214268
-0.07953451744610969   0.0006320823699247809   0.002056031291214268
-0.07953451744610969   0.0006320823699247809   0.002056031291214268
-0.07953451744610969   0.0006320823699247809   0.002056031291214268
-0.05708527252957604   -0.0008187158489108225   -0.0015805572326141066
-0.05708527252957604   -0.0008187158489108225   -0.0015805572326141066
-0.05708527252957604   -0.0008187158489108225   -0.0015805572326141066
-0.05708527252957604   -0.0008187158489108225   -0.0015805572326141066
-0.06737406639439564   0.0010664265461508282   0.0004334830692839346
-0.06737406639439564   0.0010664265461508282   0.0004334830692839346
-0.06737406639439564   0.0010664265461508282   0.0004334830692839346
-0.06737406639439564   0.0010664265461508282   0.0004334830692839346
-0.054887925773030664   0.005723072155448436   0.002864388545753516
-0.054887925773030664   0.005723072155448436   0.002864388545753516
-0.054887925773030664   0.005723072155448436   0.002864388545753516
-0.054887925773030664   0.005723072155448436   0.002864388545753516
-0.08200635972792003   -0.006184201159699768   -0.0034868965882148377
-0.08200635972792003   -0.006184201159699768   -0.0034868965882148377
-0.08200635972792003   -0.006184201159699768   -0.0034868965882148377
-0.08200635972792003   -0.006184201159699768   -0.0034868965882148377
-0.08139130402172733   -0.0017842102935566144   0.002454002209295345
-0.08139130402172733   -0.0017842102935566144   0.002454002209295345
-0.08139130402172733   -0.0017842102935566144   0.002454002209295345
-0.08139130402172733   -0.0017842102935566144   0.002454002209295345
-0.05847089612118983   -0.0030387352322603714   -0.0010613778246338443
-0.05847089612118983   -0.0030387352322603714   -0.0010613778246338443
-0.05847089612118983   -0.0030387352322603714   -0.0010613778246338443
-0.05847089612118983   -0.0030387352322603714   -0.0010613778246338443
-0.0686231652272857   -0.0010618802422475587   -0.0007360900004514722
-0.0686231652272857   -0.0010618802422475587   -0.0007360900004514722
-0.0686231652272857   -0.0010618802422475587   -0.0007360900004514722
-0.0686231652272857   -0.0010618802422475587   -0.0007360900004514722
-0.0562553651092313   0.0034564045397193427   0.003521137463179105
-0.0562553651092313   0.0034564045397193427   0.003521137463179105
-0.0562553651092313   0.0034564045397193427   0.003521137463179105
-0.0562553651092313   0.0034564045397193427   0.003521137463179105
-0.08382365475571302   -0.008496169787564295   -0.002995791966626426
-0.08382365475571302   -0.008496169787564295   -0.002995791966626426
-0.08382365475571302   -0.008496169787564295   -0.002995791966626426
-0.08382365475571302   -0.008496169787564295   -0.002995791966626426
-0.08289498172413344   -0.004253866927631425   0.003164264873585329
-0.08289498172413344   -0.004253866927631425   0.003164264873585329
-0.08289498172413344   -0.004253866927631425   0.003164264873585329
-0.08289498172413344   -0.004253866927631425   0.003164264873585329
-0.059868064961160344   -0.005346080346592409   -0.0006172280152441558
-0.059868064961160344   -0.005346080346592409   -0.0006172280152441558
-0.059868064961160344   -0.005346080346592409   -0.0006172280152441558
-0.059868064961160344   -0.005346080346592409   -0.0006172280152441558
-0.07054764010330379   -0.0032894609858176264   -0.0019567766240179384
-0.07054764010330379   -0.0032894609858176264   -0.0019567766240179384
-0.07054764010330379   -0.0032894609858176264   -0.0019567766240179384
-0.07054764010330379   -0.0032894609858176264   -0.0019567766240179384
-0.07632985338105902   0.008899288594287503   0.004350405349096947
-0.07632985338105902   0.008899288594287503   0.004350405349096947
-0.07632985338105902   0.008899288594287503   0.004350405349096947
-0.07632985338105902   0.008899288594287503   0.004350405349096947
-0.10103450103241415   -0.005272828056816257   -0.005972112918857533
-0.10103450103241415   -0.005272828056816257   -0.005972112918857533
-0.10103450103241415   -0.005272828056816257   -0.005972112918857533
-0.10103450103241415   -0.005272828056816257   -0.005972112918857533
-0.10120195736449164   0.0029017808886228885   0.004798898976811215
-0.10120195736449164   0.0029017808886228885   0.004798898976811215
-0.10120195736449164   0.0029017808886228885   0.004798898976811215
-0.10120195736449164   0.0029017808886228885   0.004798898976811215
-0.08127052461295028   -0.002353617238026959   -0.003638304935037962
-0.08127052461295028   -0.002353617238026959   -0.003638304935037962
-0.08127052461295028   -0.002353617238026959   -0.003638304935037962
-0.08127052461295028   -0.002353617238026959   -0.003638304935037962
-0.08622682275479689   0.0018920759528370497   0.0018799072051190156
-0.08622682275479689   0.0018920759528370497   0.0018799072051190156
-0.08622682275479689   0.0018920759528370497   0.0018799072051190156
-0.08622682275479689   0.0018920759528370497   0.0018799072051190156
-0.07750473974301039   0.007707370877403018   0.005129631299230608
-0.07750473974301039   0.007707370877403018   0.005129631299230608
-0.07750473974301039   0.007707370877403018   0.005129631299230608
-0.07750473974301039   0.007707370877403018   0.005129631299230608
-0.10526111419344253   -0.007452579185818238   -0.005142525093502111
-0.10526111419344253   -0.007452579185818238   -0.005142525093502111
-0.10526111419344253   -0.007452579185818238   -0.005142525093502111
-0.10526111419344253   -0.007452579185818238   -0.005142525093502111
-0.10456984885353818   0.0014888595693375428   0.006143550725286221
-0.10456984885353818   0.0014888595693375428   0.006143550725286221
-0.10456984885353818   0.0014888595693375428   0.006143550725286221
-0.10456984885353818   0.0014888595693375428   0.006143550725286221
-0.08288315397554154   -0.0036367022062784   -0.0031527556470548404
-0.08288315397554154   -0.0036367022062784   -0.0031527556470548404
-0.08288315397554154   -0.0036367022062784   -0.0031527556470548404
-0.08288315397554154   -0.0036367022062784   -0.0031527556470548404
-0.09032803378678732   0.00020061058156303681   0.00019330239824595294
-0.09032803378678732   0.00020061058156303681   0.00019330239824595294
-0.09032803378678732   0.00020061058156303681   0.00019330239824595294
-0.09032803378678732   0.00020061058156303681   0.00019330239824595294
-0.07898135995015904   0.00660145804972728   0.006118054223851928
-0.07898135995015904   0.00660145804972728   0.006118054223851928
-0.07898135995015904   0.00660145804972728   0.006118054223851928
-0.07898135995015904   0.00660145804972728   0.006118054223851928
-0.1087598499044462   -0.009037507712192699   -0.004280087247721671
-0.1087598499044462   -0.009037507712192699   -0.004280087247721671
-0.1087598499044462   -0.009037507712192699   -0.004280087247721671
-0.1087598499044462   -0.009037507712192699   -0.004280087247721671
-0.10944063678874418   -0.0022931012192864784   0.006455715947647968
-0.10944063678874418   -0.0022931012192864784   0.006455715947647968
-0.10944063678874418   -0.0022931012192864784   0.006455715947647968
-0.10944063678874418   -0.0022931012192864784   0.006455715947647968
-0.08450909986792013   -0.006438788117855358   -0.0027214046551260716
-0.08450909986792013   -0.006438788117855358   -0.0027214046551260716
-0.08450909986792013   -0.006438788117855358   -0.0027214046551260716
-0.08450909986792013   -0.006438788117855358   -0.0027214046551260716
-0.09176002710302276   -0.0015211075783638645   -0.0009562125429321104
-0.09176002710302276   -0.0015211075783638645   -0.0009562125429321104
-0.09176002710302276   -0.0015211075783638645   -0.0009562125429321104
-0.09176002710302276   -0.0015211075783638645   -0.0009562125429321104
-0.0290645478700629   -0.001777780421404641   -0.007478363500988857
-0.0290645478700629   -0.001777780421404641   -0.007478363500988857
-0.0290645478700629   -0.001777780421404641   -0.007478363500988857
-0.0290645478700629   -0.001777780421404641   -0.007478363500988857
-0.033798090199591166   0.005394210798832983   0.0032824243925619768
-0.033798090199591166   0.005394210798832983   0.0032824243925619768
-0.033798090199591166   0.005394210798832983   0.0032824243925619768
-0.033798090199591166   0.005394210798832983   0.0032824243925619768
-0.03887215321335288   -0.005470254329827571   -0.0052025168385876576
-0.03887215321335288   -0.005470254329827571   -0.0052025168385876576
-0.03887215321335288   -0.005470254329827571   -0.0052025168385876576
-0.03887215321335288   -0.005470254329827571   -0.0052025168385876576
-0.030025773271786616   0.0037098701296725623   0.0047103583385130245
-0.030025773271786616   0.0037098701296725623   0.0047103583385130245
-0.030025773271786616   0.0037098701296725623   0.0047103583385130245
-0.030025773271786616   0.0037098701296725623   0.0047103583385130245
-0.031261877086079644   0.0011208348987999887   0.0033541947756300762
-0.031261877086079644   0.0011208348987999887   0.0033541947756300762
-0.031261877086079644   0.0011208348987999887   0.0033541947756300762
-0.031261877086079644   0.0011208348987999887   0.0033541947756300762
-0.03392911671823504   -0.004717034513248076   -0.006379454250808013
-0.03392911671823504   -0.004717034513248076   -0.006379454250808013
-0.03392911671823504   -0.004717034513248076   -0.006379454250808013
-0.03392911671823504   -0.004717034513248076   -0.006379454250808013
-0.035399224798105464   0.00252623528189213   0.004165635625929708
-0.035399224798105464   0.00252623528189213   0.004165635625929708
-0.035399224798105464   0.00252623528189213   0.004165635625929708
-0.035399224798105464   0.00252623528189213   0.004165635625929708
-0.04054143918079727   -0.0067801962259705926   -0.004480249467755475
-0.04054143918079727   -0.0067801962259705926   -0.004480249467755475
-0.04054143918079727   -0.0067801962259705926   -0.004480249467755475
-0.04054143918079727   -0.0067801962259705926   -0.004480249467755475
-0.03395332675917777   0.0019820536766004234   0.009001935692694665
-0.03395332675917777   0.0019820536766004234   0.009001935692694665
-0.03395332675917777   0.0019820536766004234   0.009001935692694665
-0.03395332675917777   0.0019820536766004234   0.009001935692694665
-0.03473454261553805   -0.0011070486757637555   0.0014393378986640223
-0.03473454261553805   -0.0011070486757637555   0.0014393378986640223
-0.03473454261553805   -0.0011070486757637555   0.0014393378986640223
-0.03473454261553805   -0.0011070486757637555   0.0014393378986640223
-0.03846578966475539   -0.006487234550775371   -0.005091090607817417
-0.03846578966475539   -0.006487234550775371   -0.005091090607817417
-0.03846578966475539   -0.006487234550775371   -0.005091090607817417
-0.03846578966475539   -0.006487234550775371   -0.005091090607817417
-0.03712633598588523   0.0005917322907390212   0.005223337990095115
-0.03712633598588523   0.0005917322907390212   0.005223337990095115
-0.03712633598588523   0.0005917322907390212   0.005223337990095115
-0.03712633598588523   0.0005917322907390212   0.005223337990095115
-0.04193763842865086   -0.009179266520496904   -0.0035973434601509965
-0.04193763842865086   -0.009179266520496904   -0.0035973434601509965
-0.04193763842865086   -0.009179266520496904   -0.0035973434601509965
-0.04193763842865086   -0.009179266520496904   -0.0035973434601509965
-0.03999000338181422   -0.0037320675054344924   0.008383094523611447
-0.03999000338181422   -0.0037320675054344924   0.008383094523611447
-0.03999000338181422   -0.0037320675054344924   0.008383094523611447
-0.03999000338181422   -0.0037320675054344924   0.008383094523611447
-0.038055863777044424   -0.0037110559698746623   -0.0017209752716570263
-0.038055863777044424   -0.0037110559698746623   -0.0017209752716570263
-0.038055863777044424   -0.0037110559698746623   -0.0017209752716570263
-0.038055863777044424   -0.0037110559698746623   -0.0017209752716570263
-0.036373604660228716   -0.0004934840414962365   -0.003707453070296559
-0.036373604660228716   -0.0004934840414962365   -0.003707453070296559
-0.036373604660228716   -0.0004934840414962365   -0.003707453070296559
-0.036373604660228716   -0.0004934840414962365   -0.003707453070296559
-0.040626852009062124   -0.0051438584887061115   -0.00023980834092901526
-0.040626852009062124   -0.0051438584887061115   -0.00023980834092901526
-0.040626852009062124   -0.0051438584887061115   -0.00023980834092901526
-0.040626852009062124   -0.0051438584887061115   -0.00023980834092901526
-0.04119854835208485   -0.003528172535900459   -0.0020727731920180048
-0.04119854835208485   -0.003528172535900459   -0.0020727731920180048
-0.04119854835208485   -0.003528172535900459   -0.0020727731920180048
-0.04119854835208485   -0.003528172535900459   -0.0020727731920180048
-0.0379706981522838   -0.006278797087772241   0.00011330122470240567
-0.0379706981522838   -0.006278797087772241   0.00011330122470240567
-0.0379706981522838   -0.006278797087772241   0.00011330122470240567
-0.0379706981522838   -0.006278797087772241   0.00011330122470240567
-0.03872405946163819   -0.004036456190877438   9.645629891869706e-05
-0.03872405946163819   -0.004036456190877438   9.645629891869706e-05
-0.03872405946163819   -0.004036456190877438   9.645629891869706e-05
-0.03872405946163819   -0.004036456190877438   9.645629891869706e-05
-0.03801117403671147   -0.0031247650762198115   -0.0032431102089881475
-0.03801117403671147   -0.0031247650762198115   -0.0032431102089881475
-0.03801117403671147   -0.0031247650762198115   -0.0032431102089881475
-0.03801117403671147   -0.0031247650762198115   -0.0032431102089881475
-0.041420042431885795   -0.006944174511681464   0.00023575838475828684
-0.041420042431885795   -0.006944174511681464   0.00023575838475828684
-0.041420042431885795   -0.006944174511681464   0.00023575838475828684
-0.041420042431885795   -0.006944174511681464   0.00023575838475828684
-0.04212944670753958   -0.005720456345450398   -0.0014145039328389251
-0.04212944670753958   -0.005720456345450398   -0.0014145039328389251
-0.04212944670753958   -0.005720456345450398   -0.0014145039328389251
-0.04212944670753958   -0.005720456345450398   -0.0014145039328389251
-0.039720365449144174   -0.008292697895670083   0.0011376208602095223
-0.039720365449144174   -0.008292697895670083   0.0011376208602095223
-0.039720365449144174   -0.008292697895670083   0.0011376208602095223
-0.039720365449144174   -0.008292697895670083   0.0011376208602095223
-0.0399154544597151   -0.005849885433826905   -0.0009760544848980094
-0.0399154544597151   -0.005849885433826905   -0.0009760544848980094
-0.0399154544597151   -0.005849885433826905   -0.0009760544848980094
-0.0399154544597151   -0.005849885433826905   -0.0009760544848980094
-0.039873063571084555   -0.00547499371718675   -0.0024435739279757163
-0.039873063571084555   -0.00547499371718675   -0.0024435739279757163
-0.039873063571084555   -0.00547499371718675   -0.0024435739279757163
-0.039873063571084555   -0.00547499371718675   -0.0024435739279757163
-0.04230820973397542   -0.008869621672310028   0.0008408462618410464
-0.04230820973397542   -0.008869621672310028   0.0008408462618410464
-0.04230820973397542   -0.008869621672310028   0.0008408462618410464
-0.04230820973397542   -0.008869621672310028   0.0008408462618410464
-0.04299918849455129   -0.008002083641350789   -0.0007687545613329037
-0.04299918849455129   -0.008002083641350789   -0.0007687545613329037
-0.04299918849455129   -0.008002083641350789   -0.0007687545613329037
-0.04299918849455129   -0.008002083641350789   -0.0007687545613329037
-0.04109491093175999   -0.010728540865805339   0.002165568369611291
-0.04109491093175999   -0.010728540865805339   0.002165568369611291
-0.04109491093175999   -0.010728540865805339   0.002165568369611291
-0.04109491093175999   -0.010728540865805339   0.002165568369611291
-0.04142273811323924   -0.007925279980125212   -0.002289220191939858
-0.04142273811323924   -0.007925279980125212   -0.002289220191939858
-0.04142273811323924   -0.007925279980125212   -0.002289220191939858
-0.04142273811323924   -0.007925279980125212   -0.002289220191939858
-0.039392723593518454   0.001494124151007316   -0.0007071489029231593
-0.039392723593518454   0.001494124151007316   -0.0007071489029231593
-0.039392723593518454   0.001494124151007316   -0.0007071489029231593
-0.039392723593518454   0.001494124151007316   -0.0007071489029231593
-0.047736931715771945   -0.009102706562934701   -0.0023721420951684554
-0.047736931715771945   -0.009102706562934701   -0.0023721420951684554
-0.047736931715771945   -0.009102706562934701   -0.0023721420951684554
-0.047736931715771945   -0.009102706562934701   -0.0023721420951684554
-0.04603991428467484   -0.0017680113115739848   0.0004386553238335013
-0.04603991428467484   -0.0017680113115739848   0.0004386553238335013
-0.04603991428467484   -0.0017680113115739848   0.0004386553238335013
-0.04603991428467484   -0.0017680113115739848   0.0004386553238335013
-0.04218256407267222   -0.009165704395787923   -0.0013553199350673836
-0.04218256407267222   -0.009165704395787923   -0.0013553199350673836
-0.04218256407267222   -0.009165704395787923   -0.0013553199350673836
-0.04218256407267222   -0.009165704395787923   -0.0013553199350673836
-0.04380522938278715   -0.004792001003333853   -0.000851112096823899
-0.04380522938278715   -0.004792001003333853   -0.000851112096823899
-0.04380522938278715   -0.004792001003333853   -0.000851112096823899
-0.04380522938278715   -0.004792001003333853   -0.000851112096823899
-0.04022381101879202   -0.0006983112795458206   -2.8947781908497672e-05
-0.04022381101879202   -0.0006983112795458206   -2.8947781908497672e-05
-0.04022381101879202   -0.0006983112795458206   -2.8947781908497672e-05
-0.04022381101879202   -0.0006983112795458206   -2.8947781908497672e-05
-0.04824182744244819   -0.010478564531709242   -0.001860357244898008
-0.04824182744244819   -0.010478564531709242   -0.001860357244898008
-0.04824182744244819   -0.010478564531709242   -0.001860357244898008
-0.04824182744244819   -0.010478564531709242   -0.001860357244898008
-0.046776647312692717   -0.003976123552914896   0.0010899942729346978
-0.046776647312692717   -0.003976123552914896   0.0010899942729346978
-0.046776647312692717   -0.003976123552914896   0.0010899942729346978
-0.046776647312692717   -0.003976123552914896   0.0010899942729346978
-0.04305604324904802   -0.010887780091245119   -0.000880162894586891
-0.04305604324904802   -0.010887780091245119   -0.000880162894586891
-0.04305604324904802   -0.010887780091245119   -0.000880162894586891
-0.04305604324904802   -0.010887780091245119   -0.000880162894586891
-0.044562870794920495   -0.00645333407099259   -0.0017725951797899833
-0.044562870794920495   -0.00645333407099259   -0.0017725951797899833
-0.044562870794920495   -0.00645333407099259   -0.0017725951797899833
-0.044562870794920495   -0.00645333407099259   -0.0017725951797899833
-0.04117141991295597   -0.002951701823856722   0.0006068755184849856
-0.04117141991295597   -0.002951701823856722   0.0006068755184849856
-0.04117141991295597   -0.002951701823856722   0.0006068755184849856
-0.04117141991295597   -0.002951701823856722   0.0006068755184849856
-0.04893321511955484   -0.012184146291072728   -0.0014848220232181204
-0.04893321511955484   -0.012184146291072728   -0.0014848220232181204
-0.04893321511955484   -0.012184146291072728   -0.0014848220232181204
-0.04893321511955484   -0.012184146291072728   -0.0014848220232181204
-0.047417703185308704   -0.006022437171526668   0.0017375729749393564
-0.047417703185308704   -0.006022437171526668   0.0017375729749393564
-0.047417703185308704   -0.006022437171526668   0.0017375729749393564
-0.047417703185308704   -0.006022437171526668   0.0017375729749393564
-0.04377696932842101   -0.012483967541205173   -0.0001757748308270999
-0.04377696932842101   -0.012483967541205173   -0.0001757748308270999
-0.04377696932842101   -0.012483967541205173   -0.0001757748308270999
-0.04377696932842101   -0.012483967541205173   -0.0001757748308270999
-0.045434399751754326   -0.008179894722333818   -0.002781713148811534
-0.045434399751754326   -0.008179894722333818   -0.002781713148811534
-0.045434399751754326   -0.008179894722333818   -0.002781713148811534
-0.045434399751754326   -0.008179894722333818   -0.002781713148811534
-0.04405163664593727   0.004801427980978695   0.0021501987100915523
-0.04405163664593727   0.004801427980978695   0.0021501987100915523
-0.04405163664593727   0.004801427980978695   0.0021501987100915523
-0.04405163664593727   0.004801427980978695   0.0021501987100915523
-0.05482460114029367   -0.007168017772043031   -0.0034289656464448724
-0.05482460114029367   -0.007168017772043031   -0.0034289656464448724
-0.05482460114029367   -0.007168017772043031   -0.0034289656464448724
-0.05482460114029367   -0.007168017772043031   -0.0034289656464448724
-0.05224825137405623   0.0010335150633171367   0.0028435761730097146
-0.05224825137405623   0.0010335150633171367   0.0028435761730097146
-0.05224825137405623   0.0010335150633171367   0.0028435761730097146
-0.05224825137405623   0.0010335150633171367   0.0028435761730097146
-0.0476285679165373   -0.007285580103598505   -0.0019870440434542995
-0.0476285679165373   -0.007285580103598505   -0.0019870440434542995
-0.0476285679165373   -0.007285580103598505   -0.0019870440434542995
-0.0476285679165373   -0.007285580103598505   -0.0019870440434542995
-0.04963830215439881   -0.002115401354687127   -0.0005048140237285843
-0.04963830215439881   -0.002115401354687127   -0.0005048140237285843
-0.04963830215439881   -0.002115401354687127   -0.0005048140237285843
-0.04963830215439881   -0.002115401354687127   -0.0005048140237285843
-0.044705881610812105   0.002534529381399522   0.0028062780001736794
-0.044705881610812105   0.002534529381399522   0.0028062780001736794
-0.044705881610812105   0.002534529381399522   0.0028062780001736794
-0.044705881610812105   0.002534529381399522   0.0028062780001736794
-0.0555008102023161   -0.00911646694421492   -0.0032692359607575817
-0.0555008102023161   -0.00911646694421492   -0.0032692359607575817
-0.0555008102023161   -0.00911646694421492   -0.0032692359607575817
-0.0555008102023161   -0.00911646694421492   -0.0032692359607575817
-0.05336891878833974   -0.0011568519108709511   0.0032460614494670068
-0.05336891878833974   -0.0011568519108709511   0.0032460614494670068
-0.05336891878833974   -0.0011568519108709511   0.0032460614494670068
-0.05336891878833974   -0.0011568519108709511   0.0032460614494670068
-0.048298213389670275   -0.008931698447389525   -0.001562261217478475
-0.048298213389670275   -0.008931698447389525   -0.001562261217478475
-0.048298213389670275   -0.008931698447389525   -0.001562261217478475
-0.048298213389670275   -0.008931698447389525   -0.001562261217478475
-0.050288351690332585   -0.003936594266500176   -0.0015928330538407132
-0.050288351690332585   -0.003936594266500176   -0.0015928330538407132
-0.050288351690332585   -0.003936594266500176   -0.0015928330538407132
-0.050288351690332585   -0.003936594266500176   -0.0015928330538407132
-0.04541787922877131   0.0004714049492289176   0.003436306190397918
-0.04541787922877131   0.0004714049492289176   0.003436306190397918
-0.04541787922877131   0.0004714049492289176   0.003436306190397918
-0.04541787922877131   0.0004714049492289176   0.003436306190397918
-0.05653364478202847   -0.010844347140278845   -0.0028900732895687804
-0.05653364478202847   -0.010844347140278845   -0.0028900732895687804
-0.05653364478202847   -0.010844347140278845   -0.0028900732895687804
-0.05653364478202847   -0.010844347140278845   -0.0028900732895687804
-0.054167021539765464   -0.0032869503463014635   0.0039773785648156874
-0.054167021539765464   -0.0032869503463014635   0.0039773785648156874
-0.054167021539765464   -0.0032869503463014635   0.0039773785648156874
-0.054167021539765464   -0.0032869503463014635   0.0039773785648156874
-0.04891254307540465   -0.010596004409077887   -0.0011630592379891364
-0.04891254307540465   -0.010596004409077887   -0.0011630592379891364
-0.04891254307540465   -0.010596004409077887   -0.0011630592379891364
-0.04891254307540465   -0.010596004409077887   -0.0011630592379891364
-0.05132245131133849   -0.005696997383336442   -0.0026636389004309063
-0.05132245131133849   -0.005696997383336442   -0.0026636389004309063
-0.05132245131133849   -0.005696997383336442   -0.0026636389004309063
-0.05132245131133849   -0.005696997383336442   -0.0026636389004309063
-0.05044605546049687   0.006915360531198265   0.004380384449297812
-0.05044605546049687   0.006915360531198265   0.004380384449297812
-0.05044605546049687   0.006915360531198265   0.004380384449297812
-0.05044605546049687   0.006915360531198265   0.004380384449297812
-0.057230684162818034   -0.0046418712383456935   -0.004861917068488736
-0.057230684162818034   -0.0046418712383456935   -0.004861917068488736
-0.057230684162818034   -0.0046418712383456935   -0.004861917068488736
-0.057230684162818034   -0.0046418712383456935   -0.004861917068488736
-0.056346607110752914   0.004336284942487188   0.004887288465335402
-0.056346607110752914   0.004336284942487188   0.004887288465335402
-0.056346607110752914   0.004336284942487188   0.004887288465335402
-0.056346607110752914   0.004336284942487188   0.004887288465335402
-0.05463985074843773   -0.0051020780182629896   -0.0029788276173176777
-0.05463985074843773   -0.0051020780182629896   -0.0029788276173176777
-0.05463985074843773   -0.0051020780182629896   -0.0029788276173176777
-0.05463985074843773   -0.0051020780182629896   -0.0029788276173176777
-0.052698749269140505   0.0010432350922946563   0.00046629857718630957
-0.052698749269140505   0.0010432350922946563   0.00046629857718630957
-0.052698749269140505   0.0010432350922946563   0.00046629857718630957
-0.052698749269140505   0.0010432350922946563   0.00046629857718630957
-0.05092092061789051   0.005455594626186243   0.005058150390968269
-0.05092092061789051   0.005455594626186243   0.005058150390968269
-0.05092092061789051   0.005455594626186243   0.005058150390968269
-0.05092092061789051   0.005455594626186243   0.005058150390968269
-0.06035050025995338   -0.006506350720615131   -0.004289541617562743
-0.06035050025995338   -0.006506350720615131   -0.004289541617562743
-0.06035050025995338   -0.006506350720615131   -0.004289541617562743
-0.06035050025995338   -0.006506350720615131   -0.004289541617562743
-0.05881807621676555   0.0030564418152999144   0.006247886702056917
-0.05881807621676555   0.0030564418152999144   0.006247886702056917
-0.05881807621676555   0.0030564418152999144   0.006247886702056917
-0.05881807621676555   0.0030564418152999144   0.006247886702056917
-0.055540218045492994   -0.006094552172183529   -0.002672734574986681
-0.055540218045492994   -0.006094552172183529   -0.002672734574986681
-0.055540218045492994   -0.006094552172183529   -0.002672734574986681
-0.055540218045492994   -0.006094552172183529   -0.002672734574986681
-0.05539950107744501   -0.0004832097826738078   -0.0008920741930437456
-0.05539950107744501   -0.0004832097826738078   -0.0008920741930437456
-0.05539950107744501   -0.0004832097826738078   -0.0008920741930437456
-0.05539950107744501   -0.0004832097826738078   -0.0008920741930437456
-0.05169677503443496   0.004434258644148227   0.006015669663971726
-0.05169677503443496   0.004434258644148227   0.006015669663971726
-0.05169677503443496   0.004434258644148227   0.006015669663971726
-0.05169677503443496   0.004434258644148227   0.006015669663971726
-0.06301317209861657   -0.007824021871825796   -0.003847129020074433
-0.06301317209861657   -0.007824021871825796   -0.003847129020074433
-0.06301317209861657   -0.007824021871825796   -0.003847129020074433
-0.06301317209861657   -0.007824021871825796   -0.003847129020074433
-0.06289937478489678   -0.00024235448593764534   0.006651038421439149
-0.06289937478489678   -0.00024235448593764534   0.006651038421439149
-0.06289937478489678   -0.00024235448593764534   0.006651038421439149
-0.06289937478489678   -0.00024235448593764534   0.006651038421439149
-0.05638540078935926   -0.008091594138730453   -0.002309873890725272
-0.05638540078935926   -0.008091594138730453   -0.002309873890725272
-0.05638540078935926   -0.008091594138730453   -0.002309873890725272
-0.05638540078935926   -0.008091594138730453   -0.002309873890725272
-0.05666172667572857   -0.0019323044629661243   -0.002067313416186727
-0.05666172667572857   -0.0019323044629661243   -0.002067313416186727
-0.05666172667572857   -0.0019323044629661243   -0.002067313416186727
-0.05666172667572857   -0.0019323044629661243   -0.002067313416186727
-0.08992473038820063   -0.008426962020356423   -0.009696799514775586
-0.08992473038820063   -0.008426962020356423   -0.009696799514775586
-0.08992473038820063   -0.008426962020356423   -0.009696799514775586
-0.08992473038820063   -0.008426962020356423   -0.009696799514775586
-0.05967849361171696   0.0040966862006784925   0.0022030973234952317
-0.05967849361171696   0.0040966862006784925   0.0022030973234952317
-0.05967849361171696   0.0040966862006784925   0.0022030973234952317
-0.05967849361171696   0.0040966862006784925   0.0022030973234952317
-0.0629569931206179   -0.0047334220604982186   -0.004574882763509602
-0.0629569931206179   -0.0047334220604982186   -0.004574882763509602
-0.0629569931206179   -0.0047334220604982186   -0.004574882763509602
-0.0629569931206179   -0.0047334220604982186   -0.004574882763509602
-0.09697193980203876   -0.012354083616515538   0.010269222818492626
-0.09697193980203876   -0.012354083616515538   0.010269222818492626
-0.09697193980203876   -0.012354083616515538   0.010269222818492626
-0.09697193980203876   -0.012354083616515538   0.010269222818492626
-0.07081508490872493   -0.0031787515379220962   0.010267927183367775
-0.07081508490872493   -0.0031787515379220962   0.010267927183367775
-0.07081508490872493   -0.0031787515379220962   0.010267927183367775
-0.07081508490872493   -0.0031787515379220962   0.010267927183367775
-0.10056964642894446   -0.012796379129976419   -0.00727701480257403
-0.10056964642894446   -0.012796379129976419   -0.00727701480257403
-0.10056964642894446   -0.012796379129976419   -0.00727701480257403
-0.10056964642894446   -0.012796379129976419   -0.00727701480257403
-0.061928079120242105   -0.006859919173567166   0.0026961843514378327
-0.061928079120242105   -0.006859919173567166   0.0026961843514378327
-0.061928079120242105   -0.006859919173567166   0.0026961843514378327
-0.061928079120242105   -0.006859919173567166   0.0026961843514378327
-0.06441416982991922   -0.006603148086925735   -0.0034632300541966084
-0.06441416982991922   -0.006603148086925735   -0.0034632300541966084
-0.06441416982991922   -0.006603148086925735   -0.0034632300541966084
-0.06441416982991922   -0.006603148086925735   -0.0034632300541966084
-0.10076295721614924   -0.017072120875656745   -0.00012812550198297232
-0.10076295721614924   -0.017072120875656745   -0.00012812550198297232
-0.10076295721614924   -0.017072120875656745   -0.00012812550198297232
-0.10076295721614924   -0.017072120875656745   -0.00012812550198297232
-0.07939093400798775   -0.010286669253448535   0.002507347092656282
-0.07939093400798775   -0.010286669253448535   0.002507347092656282
-0.07939093400798775   -0.010286669253448535   0.002507347092656282
-0.07939093400798775   -0.010286669253448535   0.002507347092656282
-0.1014421642143132   -0.014529464355547788   -0.0060668170129109765
-0.1014421642143132   -0.014529464355547788   -0.0060668170129109765
-0.1014421642143132   -0.014529464355547788   -0.0060668170129109765
-0.1014421642143132   -0.014529464355547788   -0.0060668170129109765
-0.06446449473382444   -0.009875336509104164   -0.00044266615154484393
-0.06446449473382444   -0.009875336509104164   -0.00044266615154484393
-0.06446449473382444   -0.009875336509104164   -0.00044266615154484393
-0.06446449473382444   -0.009875336509104164   -0.00044266615154484393
-0.06491116141058861   -0.010920117423448263   -0.0026359970376830123
-0.06491116141058861   -0.010920117423448263   -0.0026359970376830123
-0.06491116141058861   -0.010920117423448263   -0.0026359970376830123
-0.06491116141058861   -0.010920117423448263   -0.0026359970376830123
-0.10403754172020693   -0.02574981791981467   0.0011352858889918417
-0.10403754172020693   -0.02574981791981467   0.0011352858889918417
-0.10403754172020693   -0.02574981791981467   0.0011352858889918417
-0.10403754172020693   -0.02574981791981467   0.0011352858889918417
-0.07986034372351605   -0.014024044559750442   0.00035283266456596907
-0.07986034372351605   -0.014024044559750442   0.00035283266456596907
-0.07986034372351605   -0.014024044559750442   0.00035283266456596907
-0.07986034372351605   -0.014024044559750442   0.00035283266456596907
-0.06437809094783374   -0.011071487699630473   -0.006126715456779213
-0.06437809094783374   -0.011071487699630473   -0.006126715456779213
-0.06437809094783374   -0.011071487699630473   -0.006126715456779213
-0.06437809094783374   -0.011071487699630473   -0.006126715456779213
-0.0463351334121464   -0.03233993747856173   -0.005948511965075424
-0.0463351334121464   -0.03233993747856173   -0.005948511965075424
-0.0463351334121464   -0.03233993747856173   -0.005948511965075424
-0.0463351334121464   -0.03233993747856173   -0.005948511965075424
-0.04056247031769951   -0.006936920652894701   -0.0005855444354941862
-0.04056247031769951   -0.006936920652894701   -0.0005855444354941862
-0.04056247031769951   -0.006936920652894701   -0.0005855444354941862
-0.04056247031769951   -0.006936920652894701   -0.0005855444354941862
-0.06927874789525461   -0.03365065660320315   -0.0072664220939886205
-0.06927874789525461   -0.03365065660320315   -0.0072664220939886205
-0.06927874789525461   -0.03365065660320315   -0.0072664220939886205
-0.06927874789525461   -0.03365065660320315   -0.0072664220939886205
-0.05455077666222348   -0.02214855942228716   -0.0016532514881772344
-0.05455077666222348   -0.02214855942228716   -0.0016532514881772344
-0.05455077666222348   -0.02214855942228716   -0.0016532514881772344
-0.05455077666222348   -0.02214855942228716   -0.0016532514881772344
-0.06454122577676352   -0.012551213732129928   -0.004678254372606298
-0.06454122577676352   -0.012551213732129928   -0.004678254372606298
-0.06454122577676352   -0.012551213732129928   -0.004678254372606298
-0.06454122577676352   -0.012551213732129928   -0.004678254372606298
-0.045550261311203176   -0.028286632398980497   -0.0041747876569267674
-0.045550261311203176   -0.028286632398980497   -0.0041747876569267674
-0.045550261311203176   -0.028286632398980497   -0.0041747876569267674
-0.045550261311203176   -0.028286632398980497   -0.0041747876569267674
-0.04145423190623473   -0.008899421125713685   -0.00016212883291793524
-0.04145423190623473   -0.008899421125713685   -0.00016212883291793524
-0.04145423190623473   -0.008899421125713685   -0.00016212883291793524
-0.04145423190623473   -0.008899421125713685   -0.00016212883291793524
-0.06993485363947315   -0.0334471753926646   -0.004222621796227861
-0.06993485363947315   -0.0334471753926646   -0.004222621796227861
-0.06993485363947315   -0.0334471753926646   -0.004222621796227861
-0.06993485363947315   -0.0334471753926646   -0.004222621796227861
-0.05423746402862201   -0.020750637214006995   -0.001761488494823528
-0.05423746402862201   -0.020750637214006995   -0.001761488494823528
-0.05423746402862201   -0.020750637214006995   -0.001761488494823528
-0.05423746402862201   -0.020750637214006995   -0.001761488494823528
-0.0660137408487605   -0.014493119828917496   -0.0035711134064112197
-0.0660137408487605   -0.014493119828917496   -0.0035711134064112197
-0.0660137408487605   -0.014493119828917496   -0.0035711134064112197
-0.0660137408487605   -0.014493119828917496   -0.0035711134064112197
-0.04593371447575434   -0.02841184646826775   -0.003047116337962426
-0.04593371447575434   -0.02841184646826775   -0.003047116337962426
-0.04593371447575434   -0.02841184646826775   -0.003047116337962426
-0.04593371447575434   -0.02841184646826775   -0.003047116337962426
-0.04193114882918247   -0.011240484962249754   0.0004420857848117018
-0.04193114882918247   -0.011240484962249754   0.0004420857848117018
-0.04193114882918247   -0.011240484962249754   0.0004420857848117018
-0.04193114882918247   -0.011240484962249754   0.0004420857848117018
-0.07021176634140536   -0.03370173828664633   -0.006357400828569459
-0.07021176634140536   -0.03370173828664633   -0.006357400828569459
-0.07021176634140536   -0.03370173828664633   -0.006357400828569459
-0.07021176634140536   -0.03370173828664633   -0.006357400828569459
-0.05553215128215111   -0.022222684695481127   -0.003319901043676717
-0.05553215128215111   -0.022222684695481127   -0.003319901043676717
-0.05553215128215111   -0.022222684695481127   -0.003319901043676717
-0.05553215128215111   -0.022222684695481127   -0.003319901043676717
-0.04024342559327728   -0.007246299157717313   -0.0005836111915742577
-0.04024342559327728   -0.007246299157717313   -0.0005836111915742577
-0.04024342559327728   -0.007246299157717313   -0.0005836111915742577
-0.04024342559327728   -0.007246299157717313   -0.0005836111915742577
-0.03589541256809566   -0.025189169312155313   -0.004342813485332275
-0.03589541256809566   -0.025189169312155313   -0.004342813485332275
-0.03589541256809566   -0.025189169312155313   -0.004342813485332275
-0.03589541256809566   -0.025189169312155313   -0.004342813485332275
-0.031034891163293755   -0.006361817043037428   0.0015164439193066249
-0.031034891163293755   -0.006361817043037428   0.0015164439193066249
-0.031034891163293755   -0.006361817043037428   0.0015164439193066249
-0.031034891163293755   -0.006361817043037428   0.0015164439193066249
-0.04535620762960117   -0.026838676945869295   -0.004652474702027917
-0.04535620762960117   -0.026838676945869295   -0.004652474702027917
-0.04535620762960117   -0.026838676945869295   -0.004652474702027917
-0.04535620762960117   -0.026838676945869295   -0.004652474702027917
-0.03799354890664962   -0.016562991141027113   -0.001964372400158003
-0.03799354890664962   -0.016562991141027113   -0.001964372400158003
-0.03799354890664962   -0.016562991141027113   -0.001964372400158003
-0.03799354890664962   -0.016562991141027113   -0.001964372400158003
-0.04077262083912644   -0.008606079417641667   3.2861722118120856e-05
-0.04077262083912644   -0.008606079417641667   3.2861722118120856e-05
-0.04077262083912644   -0.008606079417641667   3.2861722118120856e-05
-0.04077262083912644   -0.008606079417641667   3.2861722118120856e-05
-0.03585639946533072   -0.024832336082827294   -0.004120578551088341
-0.03585639946533072   -0.024832336082827294   -0.004120578551088341
-0.03585639946533072   -0.024832336082827294   -0.004120578551088341
-0.03585639946533072   -0.024832336082827294   -0.004120578551088341
-0.03144675565655271   -0.007990641656358825   0.0019962416873511735
-0.03144675565655271   -0.007990641656358825   0.0019962416873511735
-0.03144675565655271   -0.007990641656358825   0.0019962416873511735
-0.03144675565655271   -0.007990641656358825   0.0019962416873511735
-0.04590117355725966   -0.027257178822845653   -0.004039079390911105
-0.04590117355725966   -0.027257178822845653   -0.004039079390911105
-0.04590117355725966   -0.027257178822845653   -0.004039079390911105
-0.04590117355725966   -0.027257178822845653   -0.004039079390911105
-0.038268433935956636   -0.017121122498272225   -0.002559234398280451
-0.038268433935956636   -0.017121122498272225   -0.002559234398280451
-0.038268433935956636   -0.017121122498272225   -0.002559234398280451
-0.038268433935956636   -0.017121122498272225   -0.002559234398280451
-0.041553281660403785   -0.010268795783745625   0.0007119970542682572
-0.041553281660403785   -0.010268795783745625   0.0007119970542682572
-0.041553281660403785   -0.010268795783745625   0.0007119970542682572
-0.041553281660403785   -0.010268795783745625   0.0007119970542682572
-0.03593156274709292   -0.025115939889143197   -0.0033024955325655567
-0.03593156274709292   -0.025115939889143197   -0.0033024955325655567
-0.03593156274709292   -0.025115939889143197   -0.0033024955325655567
-0.03593156274709292   -0.025115939889143197   -0.0033024955325655567
-0.03153053215236155   -0.00949272538973005   0.002533998750489052
-0.03153053215236155   -0.00949272538973005   0.002533998750489052
-0.03153053215236155   -0.00949272538973005   0.002533998750489052
-0.03153053215236155   -0.00949272538973005   0.002533998750489052
-0.045836486701728726   -0.027483155875554225   -0.0028419326646146065
-0.045836486701728726   -0.027483155875554225   -0.0028419326646146065
-0.045836486701728726   -0.027483155875554225   -0.0028419326646146065
-0.045836486701728726   -0.027483155875554225   -0.0028419326646146065
-0.03860158871112658   -0.017923998662449352   -0.003032887934781691
-0.03860158871112658   -0.017923998662449352   -0.003032887934781691
-0.03860158871112658   -0.017923998662449352   -0.003032887934781691
-0.03860158871112658   -0.017923998662449352   -0.003032887934781691
-0.029577106357920834   -0.0008506800296684872   0.002910228283055009
-0.029577106357920834   -0.0008506800296684872   0.002910228283055009
-0.029577106357920834   -0.0008506800296684872   0.002910228283055009
-0.029577106357920834   -0.0008506800296684872   0.002910228283055009
-0.030121361955852834   -0.013772379442166072   -0.002797717047169853
-0.030121361955852834   -0.013772379442166072   -0.002797717047169853
-0.030121361955852834   -0.013772379442166072   -0.002797717047169853
-0.030121361955852834   -0.013772379442166072   -0.002797717047169853
-0.02636292913988577   -0.001974634456216553   0.0033020454168020035
-0.02636292913988577   -0.001974634456216553   0.0033020454168020035
-0.02636292913988577   -0.001974634456216553   0.0033020454168020035
-0.02636292913988577   -0.001974634456216553   0.0033020454168020035
-0.03351642937290149   -0.015353234323255874   -0.0018998298485135758
-0.03351642937290149   -0.015353234323255874   -0.0018998298485135758
-0.03351642937290149   -0.015353234323255874   -0.0018998298485135758
-0.03351642937290149   -0.015353234323255874   -0.0018998298485135758
-0.029976882999208823   -0.007878445917117213   -0.0010892241931531451
-0.029976882999208823   -0.007878445917117213   -0.0010892241931531451
-0.029976882999208823   -0.007878445917117213   -0.0010892241931531451
-0.029976882999208823   -0.007878445917117213   -0.0010892241931531451
-0.029928334087738078   -0.002675535065281903   0.003362947319329483
-0.029928334087738078   -0.002675535065281903   0.003362947319329483
-0.029928334087738078   -0.002675535065281903   0.003362947319329483
-0.029928334087738078   -0.002675535065281903   0.003362947319329483
-0.0302272216351096   -0.014928530924251268   -0.003065520591282435
-0.0302272216351096   -0.014928530924251268   -0.003065520591282435
-0.0302272216351096   -0.014928530924251268   -0.003065520591282435
-0.0302272216351096   -0.014928530924251268   -0.003065520591282435
-0.026782709289470095   -0.0036006352726275907   0.003577550556129098
-0.026782709289470095   -0.0036006352726275907   0.003577550556129098
-0.026782709289470095   -0.0036006352726275907   0.003577550556129098
-0.026782709289470095   -0.0036006352726275907   0.003577550556129098
-0.03391709435651638   -0.01631653596338834   -0.0020295575054376895
-0.03391709435651638   -0.01631653596338834   -0.0020295575054376895
-0.03391709435651638   -0.01631653596338834   -0.0020295575054376895
-0.03391709435651638   -0.01631653596338834   -0.0020295575054376895
-0.030199581866151844   -0.009148586601217097   -0.001884947081470312
-0.030199581866151844   -0.009148586601217097   -0.001884947081470312
-0.030199581866151844   -0.009148586601217097   -0.001884947081470312
-0.030199581866151844   -0.009148586601217097   -0.001884947081470312
-0.030336793310571195   -0.004263233196578523   0.003818644957477451
-0.030336793310571195   -0.004263233196578523   0.003818644957477451
-0.030336793310571195   -0.004263233196578523   0.003818644957477451
-0.030336793310571195   -0.004263233196578523   0.003818644957477451
-0.030532093703438297   -0.015823021407460912   -0.0029469853788786082
-0.030532093703438297   -0.015823021407460912   -0.0029469853788786082
-0.030532093703438297   -0.015823021407460912   -0.0029469853788786082
-0.030532093703438297   -0.015823021407460912   -0.0029469853788786082
-0.02696918412830497   -0.005142065748139765   0.0041632751196037125
-0.02696918412830497   -0.005142065748139765   0.0041632751196037125
-0.02696918412830497   -0.005142065748139765   0.0041632751196037125
-0.02696918412830497   -0.005142065748139765   0.0041632751196037125
-0.03385090127554348   -0.017247830828936366   -0.0013127414262143113
-0.03385090127554348   -0.017247830828936366   -0.0013127414262143113
-0.03385090127554348   -0.017247830828936366   -0.0013127414262143113
-0.03385090127554348   -0.017247830828936366   -0.0013127414262143113
-0.03054771213461991   -0.01031100663713831   -0.0024914072047898155
-0.03054771213461991   -0.01031100663713831   -0.0024914072047898155
-0.03054771213461991   -0.01031100663713831   -0.0024914072047898155
-0.03054771213461991   -0.01031100663713831   -0.0024914072047898155
-0.02513421208000124   0.0036857809749165182   0.004679871915005524
-0.02513421208000124   0.0036857809749165182   0.004679871915005524
-0.02513421208000124   0.0036857809749165182   0.004679871915005524
-0.02513421208000124   0.0036857809749165182   0.004679871915005524
-0.019639849143837786   -0.00485457827421273   -0.0018653213439430534
-0.019639849143837786   -0.00485457827421273   -0.0018653213439430534
-0.019639849143837786   -0.00485457827421273   -0.0018653213439430534
-0.019639849143837786   -0.00485457827421273   -0.0018653213439430534
-0.017958993497329375   0.0037646021019556845   0.004673715732669249
-0.017958993497329375   0.0037646021019556845   0.004673715732669249
-0.017958993497329375   0.0037646021019556845   0.004673715732669249
-0.017958993497329375   0.0037646021019556845   0.004673715732669249
-0.028169286318988244   -0.00670962408630266   -0.0009947508486242707
-0.028169286318988244   -0.00670962408630266   -0.0009947508486242707
-0.028169286318988244   -0.00670962408630266   -0.0009947508486242707
-0.028169286318988244   -0.00670962408630266   -0.0009947508486242707
-0.022292929344929078   -0.0005337125297008097   -0.0006766451810939315
-0.022292929344929078   -0.0005337125297008097   -0.0006766451810939315
-0.022292929344929078   -0.0005337125297008097   -0.0006766451810939315
-0.022292929344929078   -0.0005337125297008097   -0.0006766451810939315
-0.025121602279048638   0.0024201218766935037   0.0051139233880776085
-0.025121602279048638   0.0024201218766935037   0.0051139233880776085
-0.025121602279048638   0.0024201218766935037   0.0051139233880776085
-0.025121602279048638   0.0024201218766935037   0.0051139233880776085
-0.0210636609364235   -0.005422127260195316   -0.0016628921006522973
-0.0210636609364235   -0.005422127260195316   -0.0016628921006522973
-0.0210636609364235   -0.005422127260195316   -0.0016628921006522973
-0.0210636609364235   -0.005422127260195316   -0.0016628921006522973
-0.019054632738309787   0.0029075960525294206   0.005852421241394863
-0.019054632738309787   0.0029075960525294206   0.005852421241394863
-0.019054632738309787   0.0029075960525294206   0.005852421241394863
-0.019054632738309787   0.0029075960525294206   0.005852421241394863
-0.028451747463141025   -0.0072029633440122325   -0.0011653122408409305
-0.028451747463141025   -0.0072029633440122325   -0.0011653122408409305
-0.028451747463141025   -0.0072029633440122325   -0.0011653122408409305
-0.028451747463141025   -0.0072029633440122325   -0.0011653122408409305
-0.0233809524496349   -0.0014583756835752691   -0.0011817525512889037
-0.0233809524496349   -0.0014583756835752691   -0.0011817525512889037
-0.0233809524496349   -0.0014583756835752691   -0.0011817525512889037
-0.0233809524496349   -0.0014583756835752691   -0.0011817525512889037
-0.025271890538299032   0.0016665517101033017   0.005864457329253513
-0.025271890538299032   0.0016665517101033017   0.005864457329253513
-0.025271890538299032   0.0016665517101033017   0.005864457329253513
-0.025271890538299032   0.0016665517101033017   0.005864457329253513
-0.022452661333845124   -0.006180090672279613   -0.0020500350114727806
-0.022452661333845124   -0.006180090672279613   -0.0020500350114727806
-0.022452661333845124   -0.006180090672279613   -0.0020500350114727806
-0.022452661333845124   -0.006180090672279613   -0.0020500350114727806
-0.021654265728770467   0.0005359364345670233   0.006096643915173316
-0.021654265728770467   0.0005359364345670233   0.006096643915173316
-0.021654265728770467   0.0005359364345670233   0.006096643915173316
-0.021654265728770467   0.0005359364345670233   0.006096643915173316
-0.028515640645749823   -0.00777665227492631   -0.0009344209408340106
-0.028515640645749823   -0.00777665227492631   -0.0009344209408340106
-0.028515640645749823   -0.00777665227492631   -0.0009344209408340106
-0.028515640645749823   -0.00777665227492631   -0.0009344209408340106
-0.024061638115905705   -0.0022026574350027537   -0.001859455042076484
-0.024061638115905705   -0.0022026574350027537   -0.001859455042076484
-0.024061638115905705   -0.0022026574350027537   -0.001859455042076484
-0.024061638115905705   -0.0022026574350027537   -0.001859455042076484
-0.22792988680160442   -0.03404637695168887   -0.020260825248455072
-0.22792988680160442   -0.03404637695168887   -0.020260825248455072
-0.22792988680160442   -0.03404637695168887   -0.020260825248455072
-0.22792988680160442   -0.03404637695168887   -0.020260825248455072
-0.08149638124190801   -0.14690758805690518   -0.015493846318401588
-0.08149638124190801   -0.14690758805690518   -0.015493846318401588
-0.08149638124190801   -0.14690758805690518   -0.015493846318401588
-0.08149638124190801   -0.14690758805690518   -0.015493846318401588
-0.06037117464454509   -0.007123677472246402   -0.00017951161765536114
-0.06037117464454509   -0.007123677472246402   -0.00017951161765536114
-0.06037117464454509   -0.007123677472246402   -0.00017951161765536114
-0.06037117464454509   -0.007123677472246402   -0.00017951161765536114
-0.2484144629687754   -0.16871275803317182   -0.08342544420038944
-0.2484144629687754   -0.16871275803317182   -0.08342544420038944
-0.2484144629687754   -0.16871275803317182   -0.08342544420038944
-0.2484144629687754   -0.16871275803317182   -0.08342544420038944
-0.15059400977770748   -0.08337136130699487   -0.01222017431958762
-0.15059400977770748   -0.08337136130699487   -0.01222017431958762
-0.15059400977770748   -0.08337136130699487   -0.01222017431958762
-0.15059400977770748   -0.08337136130699487   -0.01222017431958762
-0.212089427831022   -0.042945025912474934   -0.027568000632321118
-0.212089427831022   -0.042945025912474934   -0.027568000632321118
-0.212089427831022   -0.042945025912474934   -0.027568000632321118
-0.212089427831022   -0.042945025912474934   -0.027568000632321118
-0.08877407721404432   -0.12496927702468931   -0.024348424912707927
-0.08877407721404432   -0.12496927702468931   -0.024348424912707927
-0.08877407721404432   -0.12496927702468931   -0.024348424912707927
-0.08877407721404432   -0.12496927702468931   -0.024348424912707927
-0.06226835549959339   -0.008903700885305177   0.0022193727332199854
-0.06226835549959339   -0.008903700885305177   0.0022193727332199854
-0.06226835549959339   -0.008903700885305177   0.0022193727332199854
-0.06226835549959339   -0.008903700885305177   0.0022193727332199854
-0.23291182894822257   -0.15265603030891392   -0.0771135718514273
-0.23291182894822257   -0.15265603030891392   -0.0771135718514273
-0.23291182894822257   -0.15265603030891392   -0.0771135718514273
-0.23291182894822257   -0.15265603030891392   -0.0771135718514273
-0.14221856952189618   -0.07588028634096804   0.005212967347637043
-0.14221856952189618   -0.07588028634096804   0.005212967347637043
-0.14221856952189618   -0.07588028634096804   0.005212967347637043
-0.14221856952189618   -0.07588028634096804   0.005212967347637043
-0.19934243904990287   -0.040955768896466606   -0.02096688377227768
-0.19934243904990287   -0.040955768896466606   -0.02096688377227768
-0.19934243904990287   -0.040955768896466606   -0.02096688377227768
-0.19934243904990287   -0.040955768896466606   -0.02096688377227768
-0.08696380192092953   -0.11173001882076912   -0.018431541437996322
-0.08696380192092953   -0.11173001882076912   -0.018431541437996322
-0.08696380192092953   -0.11173001882076912   -0.018431541437996322
-0.08696380192092953   -0.11173001882076912   -0.018431541437996322
-0.07315043736430937   -0.020667095522497625   -0.004338206480320482
-0.07315043736430937   -0.020667095522497625   -0.004338206480320482
-0.07315043736430937   -0.020667095522497625   -0.004338206480320482
-0.07315043736430937   -0.020667095522497625   -0.004338206480320482
-0.2125569111810585   -0.13110235886771293   -0.06873185400975429
-0.2125569111810585   -0.13110235886771293   -0.06873185400975429
-0.2125569111810585   -0.13110235886771293   -0.06873185400975429
-0.2125569111810585   -0.13110235886771293   -0.06873185400975429
-0.13216265036692965   -0.06631388492270043   0.025110529720853814
-0.13216265036692965   -0.06631388492270043   0.025110529720853814
-0.13216265036692965   -0.06631388492270043   0.025110529720853814
-0.13216265036692965   -0.06631388492270043   0.025110529720853814
-0.05684114640688909   -0.03423040810378142   -0.0048948520964311616
-0.05684114640688909   -0.03423040810378142   -0.0048948520964311616
-0.05684114640688909   -0.03423040810378142   -0.0048948520964311616
-0.05684114640688909   -0.03423040810378142   -0.0048948520964311616
-0.028421672244418026   -0.052559051070748354   -0.007124095292714672
-0.028421672244418026   -0.052559051070748354   -0.007124095292714672
-0.028421672244418026   -0.052559051070748354   -0.007124095292714672
-0.028421672244418026   -0.052559051070748354   -0.007124095292714672
-0.023738323339746677   -0.023001583087792158   0.00043852092755842023
-0.023738323339746677   -0.023001583087792158   0.00043852092755842023
-0.023738323339746677   -0.023001583087792158   0.00043852092755842023
-0.023738323339746677   -0.023001583087792158   0.00043852092755842023
-0.07312196981657705   -0.07218309877342208   0.001125933823361222
-0.07312196981657705   -0.07218309877342208   0.001125933823361222
-0.07312196981657705   -0.07218309877342208   0.001125933823361222
-0.07312196981657705   -0.07218309877342208   0.001125933823361222
-0.0383056437321901   -0.034435313579167605   0.013031741307147987
-0.0383056437321901   -0.034435313579167605   0.013031741307147987
-0.0383056437321901   -0.034435313579167605   0.013031741307147987
-0.0383056437321901   -0.034435313579167605   0.013031741307147987
-0.06598055163928156   -0.03217312312160639   -0.0031769509419778894
-0.06598055163928156   -0.03217312312160639   -0.0031769509419778894
-0.06598055163928156   -0.03217312312160639   -0.0031769509419778894
-0.06598055163928156   -0.03217312312160639   -0.0031769509419778894
-0.033179984827207284   -0.0653118020497731   -0.004459567547763686
-0.033179984827207284   -0.0653118020497731   -0.004459567547763686
-0.033179984827207284   -0.0653118020497731   -0.004459567547763686
-0.033179984827207284   -0.0653118020497731   -0.004459567547763686
-0.026268634346753115   -0.023751702428878075   0.0005885237299837493
-0.026268634346753115   -0.023751702428878075   0.0005885237299837493
-0.026268634346753115   -0.023751702428878075   0.0005885237299837493
-0.026268634346753115   -0.023751702428878075   0.0005885237299837493
-0.07765144529859568   -0.07205811168534651   -0.011541665461749642
-0.07765144529859568   -0.07205811168534651   -0.011541665461749642
-0.07765144529859568   -0.07205811168534651   -0.011541665461749642
-0.07765144529859568   -0.07205811168534651   -0.011541665461749642
-0.04689343614158166   -0.0434446950223987   0.005371868578325917
-0.04689343614158166   -0.0434446950223987   0.005371868578325917
-0.04689343614158166   -0.0434446950223987   0.005371868578325917
-0.04689343614158166   -0.0434446950223987   0.005371868578325917
-0.06886564991255242   -0.03360247527617563   -0.0060683249407047155
-0.06886564991255242   -0.03360247527617563   -0.0060683249407047155
-0.06886564991255242   -0.03360247527617563   -0.0060683249407047155
-0.06886564991255242   -0.03360247527617563   -0.0060683249407047155
-0.03487240049268597   -0.062025309597938644   -0.004156699830619979
-0.03487240049268597   -0.062025309597938644   -0.004156699830619979
-0.03487240049268597   -0.062025309597938644   -0.004156699830619979
-0.03487240049268597   -0.062025309597938644   -0.004156699830619979
-0.030370842797649317   -0.02428386245199874   0.0008910548009124011
-0.030370842797649317   -0.02428386245199874   0.0008910548009124011
-0.030370842797649317   -0.02428386245199874   0.0008910548009124011
-0.030370842797649317   -0.02428386245199874   0.0008910548009124011
-0.08419888379214356   -0.07059581674491998   -0.009651717397069298
-0.08419888379214356   -0.07059581674491998   -0.009651717397069298
-0.08419888379214356   -0.07059581674491998   -0.009651717397069298
-0.08419888379214356   -0.07059581674491998   -0.009651717397069298
-0.04991811145831703   -0.04108427917691687   0.005566669316273757
-0.04991811145831703   -0.04108427917691687   0.005566669316273757
-0.04991811145831703   -0.04108427917691687   0.005566669316273757
-0.04991811145831703   -0.04108427917691687   0.005566669316273757
-0.020359776048695887   -0.02090684365681614   0.0015331782719637966
-0.020359776048695887   -0.02090684365681614   0.0015331782719637966
-0.020359776048695887   -0.02090684365681614   0.0015331782719637966
-0.020359776048695887   -0.02090684365681614   0.0015331782719637966
-0.014213668761727942   -0.019617733076741924   -0.0036405547361822847
-0.014213668761727942   -0.019617733076741924   -0.0036405547361822847
-0.014213668761727942   -0.019617733076741924   -0.0036405547361822847
-0.014213668761727942   -0.019617733076741924   -0.0036405547361822847
-0.013169465364965431   -0.01919040790519958   0.0014021282366849163
-0.013169465364965431   -0.01919040790519958   0.0014021282366849163
-0.013169465364965431   -0.01919040790519958   0.0014021282366849163
-0.013169465364965431   -0.01919040790519958   0.0014021282366849163
-0.024371017445978176   -0.024936982143761843   -0.0007895505476293758
-0.024371017445978176   -0.024936982143761843   -0.0007895505476293758
-0.024371017445978176   -0.024936982143761843   -0.0007895505476293758
-0.024371017445978176   -0.024936982143761843   -0.0007895505476293758
-0.015012653388362003   -0.017675123044594836   0.006676884830768422
-0.015012653388362003   -0.017675123044594836   0.006676884830768422
-0.015012653388362003   -0.017675123044594836   0.006676884830768422
-0.015012653388362003   -0.017675123044594836   0.006676884830768422
-0.023096442507009124   -0.021105800483545496   0.0017521424869990435
-0.023096442507009124   -0.021105800483545496   0.0017521424869990435
-0.023096442507009124   -0.021105800483545496   0.0017521424869990435
-0.023096442507009124   -0.021105800483545496   0.0017521424869990435
-0.014782778321479796   -0.0233603275829613   -0.002494516868125172
-0.014782778321479796   -0.0233603275829613   -0.002494516868125172
-0.014782778321479796   -0.0233603275829613   -0.002494516868125172
-0.014782778321479796   -0.0233603275829613   -0.002494516868125172
-0.013747969730133723   -0.019755424225765563   0.0013164897673634181
-0.013747969730133723   -0.019755424225765563   0.0013164897673634181
-0.013747969730133723   -0.019755424225765563   0.0013164897673634181
-0.013747969730133723   -0.019755424225765563   0.0013164897673634181
-0.02653886360035145   -0.028704451728706754   0.0041901267618207685
-0.02653886360035145   -0.028704451728706754   0.0041901267618207685
-0.02653886360035145   -0.028704451728706754   0.0041901267618207685
-0.02653886360035145   -0.028704451728706754   0.0041901267618207685
-0.017043740865796974   -0.019839555688024757   0.005228052375013699
-0.017043740865796974   -0.019839555688024757   0.005228052375013699
-0.017043740865796974   -0.019839555688024757   0.005228052375013699
-0.017043740865796974   -0.019839555688024757   0.005228052375013699
-0.02555309078062958   -0.021914032135827287   0.0023285712675506394
-0.02555309078062958   -0.021914032135827287   0.0023285712675506394
-0.02555309078062958   -0.021914032135827287   0.0023285712675506394
-0.02555309078062958   -0.021914032135827287   0.0023285712675506394
-0.016021688703839066   -0.027833789972628503   -0.0019737393543003655
-0.016021688703839066   -0.027833789972628503   -0.0019737393543003655
-0.016021688703839066   -0.027833789972628503   -0.0019737393543003655
-0.016021688703839066   -0.027833789972628503   -0.0019737393543003655
-0.014670489608085879   -0.020298946363843575   0.001913117800295792
-0.014670489608085879   -0.020298946363843575   0.001913117800295792
-0.014670489608085879   -0.020298946363843575   0.001913117800295792
-0.014670489608085879   -0.020298946363843575   0.001913117800295792
-0.03217521570291111   -0.0343353926869317   0.001920720509536393
-0.03217521570291111   -0.0343353926869317   0.001920720509536393
-0.03217521570291111   -0.0343353926869317   0.001920720509536393
-0.03217521570291111   -0.0343353926869317   0.001920720509536393
-0.019794860318389267   -0.022271447136426974   0.0018731471176445472
-0.019794860318389267   -0.022271447136426974   0.0018731471176445472
-0.019794860318389267   -0.022271447136426974   0.0018731471176445472
-0.019794860318389267   -0.022271447136426974   0.0018731471176445472
-0.010434029318726668   -0.008456156354075366   0.004096065756157513
-0.010434029318726668   -0.008456156354075366   0.004096065756157513
-0.010434029318726668   -0.008456156354075366   0.004096065756157513
-0.010434029318726668   -0.008456156354075366   0.004096065756157513
-0.008700074477792422   -0.0029840381859671445   -0.0009060227493033644
-0.008700074477792422   -0.0029840381859671445   -0.0009060227493033644
-0.008700074477792422   -0.0029840381859671445   -0.0009060227493033644
-0.008700074477792422   -0.0029840381859671445   -0.0009060227493033644
-0.008157684591162366   -0.009407938056630255   0.0024679067028753974
-0.008157684591162366   -0.009407938056630255   0.0024679067028753974
-0.008157684591162366   -0.009407938056630255   0.0024679067028753974
-0.008157684591162366   -0.009407938056630255   0.0024679067028753974
-0.010573631961643501   -0.004850093242573332   4.0980590668318e-05
-0.010573631961643501   -0.004850093242573332   4.0980590668318e-05
-0.010573631961643501   -0.004850093242573332   4.0980590668318e-05
-0.010573631961643501   -0.004850093242573332   4.0980590668318e-05
-0.008680414302477884   -0.0058633343616688585   0.002024333542605381
-0.008680414302477884   -0.0058633343616688585   0.002024333542605381
-0.008680414302477884   -0.0058633343616688585   0.002024333542605381
-0.008680414302477884   -0.0058633343616688585   0.002024333542605381
-0.010750014345966551   -0.00963182521905852   0.003940800645538261
-0.010750014345966551   -0.00963182521905852   0.003940800645538261
-0.010750014345966551   -0.00963182521905852   0.003940800645538261
-0.010750014345966551   -0.00963182521905852   0.003940800645538261
-0.007863848446015762   -0.004508752319321673   -0.0009620983087011248
-0.007863848446015762   -0.004508752319321673   -0.0009620983087011248
-0.007863848446015762   -0.004508752319321673   -0.0009620983087011248
-0.007863848446015762   -0.004508752319321673   -0.0009620983087011248
-0.00786898880538383   -0.010231913458512192   0.0023454494678105293
-0.00786898880538383   -0.010231913458512192   0.0023454494678105293
-0.00786898880538383   -0.010231913458512192   0.0023454494678105293
-0.00786898880538383   -0.010231913458512192   0.0023454494678105293
-0.011157393124089166   -0.00699056426343715   0.001504512835257787
-0.011157393124089166   -0.00699056426343715   0.001504512835257787
-0.011157393124089166   -0.00699056426343715   0.001504512835257787
-0.011157393124089166   -0.00699056426343715   0.001504512835257787
-0.008454400640030496   -0.006827667799674976   0.0020880863569756438
-0.008454400640030496   -0.006827667799674976   0.0020880863569756438
-0.008454400640030496   -0.006827667799674976   0.0020880863569756438
-0.008454400640030496   -0.006827667799674976   0.0020880863569756438
-0.011239147763924727   -0.01046166672437826   0.0045668420970210845
-0.011239147763924727   -0.01046166672437826   0.0045668420970210845
-0.011239147763924727   -0.01046166672437826   0.0045668420970210845
-0.011239147763924727   -0.01046166672437826   0.0045668420970210845
-0.007953714124478555   -0.0069272909565013694   -0.0013827996296739168
-0.007953714124478555   -0.0069272909565013694   -0.0013827996296739168
-0.007953714124478555   -0.0069272909565013694   -0.0013827996296739168
-0.007953714124478555   -0.0069272909565013694   -0.0013827996296739168
-0.007281735855150548   -0.011143657672042586   0.002638958937862602
-0.007281735855150548   -0.011143657672042586   0.002638958937862602
-0.007281735855150548   -0.011143657672042586   0.002638958937862602
-0.007281735855150548   -0.011143657672042586   0.002638958937862602
-0.012932737240371162   -0.0115898963815776   0.0018928296566033884
-0.012932737240371162   -0.0115898963815776   0.0018928296566033884
-0.012932737240371162   -0.0115898963815776   0.0018928296566033884
-0.012932737240371162   -0.0115898963815776   0.0018928296566033884
-0.008750793733558224   -0.008418541473782543   0.0014109690773740687
-0.008750793733558224   -0.008418541473782543   0.0014109690773740687
-0.008750793733558224   -0.008418541473782543   0.0014109690773740687
-0.008750793733558224   -0.008418541473782543   0.0014109690773740687
-0.007294656140882198   -0.0011542243791473998   0.004291255128428009
-0.007294656140882198   -0.0011542243791473998   0.004291255128428009
-0.007294656140882198   -0.0011542243791473998   0.004291255128428009
-0.007294656140882198   -0.0011542243791473998   0.004291255128428009
-0.0022976061752249238   0.0003082037590306293   -8.757781424038045e-05
-0.0022976061752249238   0.0003082037590306293   -8.757781424038045e-05
-0.0022976061752249238   0.0003082037590306293   -8.757781424038045e-05
-0.0022976061752249238   0.0003082037590306293   -8.757781424038045e-05
-0.0007810072035455007   -0.0004766099517684053   0.002782040708604257
-0.0007810072035455007   -0.0004766099517684053   0.002782040708604257
-0.0007810072035455007   -0.0004766099517684053   0.002782040708604257
-0.0007810072035455007   -0.0004766099517684053   0.002782040708604257
-0.006785379981622248   -0.00012686007764943844   4.8351771594214816e-05
-0.006785379981622248   -0.00012686007764943844   4.8351771594214816e-05
-0.006785379981622248   -0.00012686007764943844   4.8351771594214816e-05
-0.006785379981622248   -0.00012686007764943844   4.8351771594214816e-05
-0.004302378133880907   -0.0004368960977084248   -0.00022101782424026838
-0.004302378133880907   -0.0004368960977084248   -0.00022101782424026838
-0.004302378133880907   -0.0004368960977084248   -0.00022101782424026838
-0.004302378133880907   -0.0004368960977084248   -0.00022101782424026838
-0.006108305559398675   -0.0011975875030394694   0.004504451308102111
-0.006108305559398675   -0.0011975875030394694   0.004504451308102111
-0.006108305559398675   -0.0011975875030394694   0.004504451308102111
-0.006108305559398675   -0.0011975875030394694   0.004504451308102111
-0.0012652051520959972   0.000786993947294702   -0.0009025529332113336
-0.0012652051520959972   0.000786993947294702   -0.0009025529332113336
-0.0012652051520959972   0.000786993947294702   -0.0009025529332113336
-0.0012652051520959972   0.000786993947294702   -0.0009025529332113336
-0.00026558273094587316   -0.0006421230738632802   0.003452724377709635
-0.00026558273094587316   -0.0006421230738632802   0.003452724377709635
-0.00026558273094587316   -0.0006421230738632802   0.003452724377709635
-0.00026558273094587316   -0.0006421230738632802   0.003452724377709635
-0.006386300707149091   -0.0005901543353870926   0.00011713083585912563
-0.006386300707149091   -0.0005901543353870926   0.00011713083585912563
-0.006386300707149091   -0.0005901543353870926   0.00011713083585912563
-0.006386300707149091   -0.0005901543353870926   0.00011713083585912563
-0.003446818197137187   -0.0003521068778186484   0.0003142296596979669
-0.003446818197137187   -0.0003521068778186484   0.0003142296596979669
-0.003446818197137187   -0.0003521068778186484   0.0003142296596979669
-0.003446818197137187   -0.0003521068778186484   0.0003142296596979669
-0.005589527163580219   -0.0014127399935573311   0.004923584211873724
-0.005589527163580219   -0.0014127399935573311   0.004923584211873724
-0.005589527163580219   -0.0014127399935573311   0.004923584211873724
-0.005589527163580219   -0.0014127399935573311   0.004923584211873724
-0.0009341510114084113   0.00030866784741329263   -0.000840907945879628
-0.0009341510114084113   0.00030866784741329263   -0.000840907945879628
-0.0009341510114084113   0.00030866784741329263   -0.000840907945879628
-0.0009341510114084113   0.00030866784741329263   -0.000840907945879628
3.2080342836138254e-05   -0.001191289163935673   0.0034446736255322593
3.2080342836138254e-05   -0.001191289163935673   0.0034446736255322593
3.2080342836138254e-05   -0.001191289163935673   0.0034446736255322593
3.2080342836138254e-05   -0.001191289163935673   0.0034446736255322593
-0.005802849348844796   -0.001285914766171081   0.00017564856351889586
-0.005802849348844796   -0.001285914766171081   0.00017564856351889586
-0.005802849348844796   -0.001285914766171081   0.00017564856351889586
-0.005802849348844796   -0.001285914766171081   0.00017564856351889586
-0.002773773152590522   -0.00045603440473379543   0.0006588226368156733
-0.002773773152590522   -0.00045603440473379543   0.0006588226368156733
-0.002773773152590522   -0.00045603440473379543   0.0006588226368156733
-0.002773773152590522   -0.00045603440473379543   0.0006588226368156733
              </DataArray>   
             <DataArray type="Float64" NumberOfComponents="3" Name="Displacements" format="ascii">   
0.0   0.0   0.0
-0.0006505784405860509   -0.0004382700316521907   -0.00021864750125259963
0.0   0.0   0.0
0.0   0.0   0.0
-0.0006505784405860509   -0.0004382700316521907   -0.00021864750125259963
-0.0004128584478370013   -0.00039592624070944977   -0.00016077444055078474
0.0   0.0   0.0
-0.0004039217027422094   -0.00041512793925762106   -0.0001349400419511283
0.0   0.0   0.0
0.0   0.0   0.0
-0.0004039217027422094   -0.00041512793925762106   -0.0001349400419511283
0.0   0.0   0.0
0.0   0.0   0.0
-0.0004039217027422094   -0.00041512793925762106   -0.0001349400419511283
-0.0006799067892529581   -0.00046637165786520473   -0.00017591281543436298
-0.0006505784405860509   -0.0004382700316521907   -0.00021864750125259963
0.0   0.0   0.0
-0.0004039217027422094   -0.00041512793925762106   -0.0001349400419511283
-0.0006505784405860509   -0.0004382700316521907   -0.00021864750125259963
0.0   0.0   0.0
0.0   0.0   0.0
-0.0006799067892529581   -0.00046637165786520473   -0.00017591281543436298
0.0   0.0   0.0
0.0   0.0   0.0
-0.0006799067892529581   -0.00046637165786520473   -0.00017591281543436298
-0.0004039217027422094   -0.00041512793925762106   -0.0001349400419511283
0.0   0.0   0.0
-0.0004042263280602489   -0.00042506419584292066   -0.00010923799932529992
0.0   0.0   0.0
0.0   0.0   0.0
-0.0004042263280602489   -0.00042506419584292066   -0.00010923799932529992
0.0   0.0   0.0
0.0   0.0   0.0
-0.0004042263280602489   -0.00042506419584292066   -0.00010923799932529992
-0.0007001206963250888   -0.00048008097045965656   -0.000135146919827287
-0.0006799067892529581   -0.00046637165786520473   -0.00017591281543436298
0.0   0.0   0.0
-0.0004042263280602489   -0.00042506419584292066   -0.00010923799932529992
-0.0006799067892529581   -0.00046637165786520473   -0.00017591281543436298
0.0   0.0   0.0
0.0   0.0   0.0
-0.0007001206963250888   -0.00048008097045965656   -0.000135146919827287
0.0   0.0   0.0
0.0   0.0   0.0
-0.0007001206963250888   -0.00048008097045965656   -0.000135146919827287
-0.0004042263280602489   -0.00042506419584292066   -0.00010923799932529992
0.0   0.0   0.0
-0.00040307313715883615   -0.00042774901024526796   -8.27803841979666e-05
0.0   0.0   0.0
0.0   0.0   0.0
-0.00040307313715883615   -0.00042774901024526796   -8.27803841979666e-05
0.0   0.0   0.0
0.0   0.0   0.0
-0.00040307313715883615   -0.00042774901024526796   -8.27803841979666e-05
-0.0007444951763411629   -0.0004907892909848297   -8.797017033370303e-05
-0.0007001206963250888   -0.00048008097045965656   -0.000135146919827287
0.0   0.0   0.0
-0.00040307313715883615   -0.00042774901024526796   -8.27803841979666e-05
-0.0007001206963250888   -0.00048008097045965656   -0.000135146919827287
0.0   0.0   0.0
0.0   0.0   0.0
-0.0004128584478370013   -0.00039592624070944977   -0.00016077444055078474
0.0   0.0   0.0
0.0   0.0   0.0
-0.0004128584478370013   -0.00039592624070944977   -0.00016077444055078474
-0.00018898301432330406   -0.000380569693518267   -0.00012264629479306639
0.0   0.0   0.0
-0.0001809478486656775   -0.00039296875982792036   -0.00011034963190171067
0.0   0.0   0.0
0.0   0.0   0.0
-0.0001809478486656775   -0.00039296875982792036   -0.00011034963190171067
0.0   0.0   0.0
0.0   0.0   0.0
-0.0001809478486656775   -0.00039296875982792036   -0.00011034963190171067
-0.0004039217027422094   -0.00041512793925762106   -0.0001349400419511283
-0.0004128584478370013   -0.00039592624070944977   -0.00016077444055078474
0.0   0.0   0.0
-0.0001809478486656775   -0.00039296875982792036   -0.00011034963190171067
-0.0004128584478370013   -0.00039592624070944977   -0.00016077444055078474
0.0   0.0   0.0
0.0   0.0   0.0
-0.0004039217027422094   -0.00041512793925762106   -0.0001349400419511283
0.0   0.0   0.0
0.0   0.0   0.0
-0.0004039217027422094   -0.00041512793925762106   -0.0001349400419511283
-0.0001809478486656775   -0.00039296875982792036   -0.00011034963190171067
0.0   0.0   0.0
-0.00017609392742932688   -0.00039772900093236496   -9.846781357171266e-05
0.0   0.0   0.0
0.0   0.0   0.0
-0.00017609392742932688   -0.00039772900093236496   -9.846781357171266e-05
0.0   0.0   0.0
0.0   0.0   0.0
-0.00017609392742932688   -0.00039772900093236496   -9.846781357171266e-05
-0.0004042263280602489   -0.00042506419584292066   -0.00010923799932529992
-0.0004039217027422094   -0.00041512793925762106   -0.0001349400419511283
0.0   0.0   0.0
-0.00017609392742932688   -0.00039772900093236496   -9.846781357171266e-05
-0.0004039217027422094   -0.00041512793925762106   -0.0001349400419511283
0.0   0.0   0.0
0.0   0.0   0.0
-0.0004042263280602489   -0.00042506419584292066   -0.00010923799932529992
0.0   0.0   0.0
0.0   0.0   0.0
-0.0004042263280602489   -0.00042506419584292066   -0.00010923799932529992
-0.00017609392742932688   -0.00039772900093236496   -9.846781357171266e-05
0.0   0.0   0.0
-0.00017153619635215528   -0.0003958225544698534   -8.628192250430565e-05
0.0   0.0   0.0
0.0   0.0   0.0
-0.00017153619635215528   -0.0003958225544698534   -8.628192250430565e-05
0.0   0.0   0.0
0.0   0.0   0.0
-0.00017153619635215528   -0.0003958225544698534   -8.628192250430565e-05
-0.00040307313715883615   -0.00042774901024526796   -8.27803841979666e-05
-0.0004042263280602489   -0.00042506419584292066   -0.00010923799932529992
0.0   0.0   0.0
-0.00017153619635215528   -0.0003958225544698534   -8.628192250430565e-05
-0.0004042263280602489   -0.00042506419584292066   -0.00010923799932529992
0.0   0.0   0.0
0.0   0.0   0.0
-0.00018898301432330406   -0.000380569693518267   -0.00012264629479306639
0.0   0.0   0.0
0.0   0.0   0.0
-0.00018898301432330406   -0.000380569693518267   -0.00012264629479306639
2.1824018073156225e-05   -0.0003826676703242955   -9.859201623553792e-05
0.0   0.0   0.0
2.7339690966308903e-05   -0.00038898293712805914   -0.00010005276819626059
0.0   0.0   0.0
0.0   0.0   0.0
2.7339690966308903e-05   -0.00038898293712805914   -0.00010005276819626059
0.0   0.0   0.0
0.0   0.0   0.0
2.7339690966308903e-05   -0.00038898293712805914   -0.00010005276819626059
-0.0001809478486656775   -0.00039296875982792036   -0.00011034963190171067
-0.00018898301432330406   -0.000380569693518267   -0.00012264629479306639
0.0   0.0   0.0
2.7339690966308903e-05   -0.00038898293712805914   -0.00010005276819626059
-0.00018898301432330406   -0.000380569693518267   -0.00012264629479306639
0.0   0.0   0.0
0.0   0.0   0.0
-0.0001809478486656775   -0.00039296875982792036   -0.00011034963190171067
0.0   0.0   0.0
0.0   0.0   0.0
-0.0001809478486656775   -0.00039296875982792036   -0.00011034963190171067
2.7339690966308903e-05   -0.00038898293712805914   -0.00010005276819626059
0.0   0.0   0.0
3.1803309850107256e-05   -0.0003883623539369371   -0.00010145307376436948
0.0   0.0   0.0
0.0   0.0   0.0
3.1803309850107256e-05   -0.0003883623539369371   -0.00010145307376436948
0.0   0.0   0.0
0.0   0.0   0.0
3.1803309850107256e-05   -0.0003883623539369371   -0.00010145307376436948
-0.00017609392742932688   -0.00039772900093236496   -9.846781357171266e-05
-0.0001809478486656775   -0.00039296875982792036   -0.00011034963190171067
0.0   0.0   0.0
3.1803309850107256e-05   -0.0003883623539369371   -0.00010145307376436948
-0.0001809478486656775   -0.00039296875982792036   -0.00011034963190171067
0.0   0.0   0.0
0.0   0.0   0.0
-0.00017609392742932688   -0.00039772900093236496   -9.846781357171266e-05
0.0   0.0   0.0
0.0   0.0   0.0
-0.00017609392742932688   -0.00039772900093236496   -9.846781357171266e-05
3.1803309850107256e-05   -0.0003883623539369371   -0.00010145307376436948
0.0   0.0   0.0
3.7532111234959936e-05   -0.0003802533116028879   -0.00010298998801013117
0.0   0.0   0.0
0.0   0.0   0.0
3.7532111234959936e-05   -0.0003802533116028879   -0.00010298998801013117
0.0   0.0   0.0
0.0   0.0   0.0
3.7532111234959936e-05   -0.0003802533116028879   -0.00010298998801013117
-0.00017153619635215528   -0.0003958225544698534   -8.628192250430565e-05
-0.00017609392742932688   -0.00039772900093236496   -9.846781357171266e-05
0.0   0.0   0.0
3.7532111234959936e-05   -0.0003802533116028879   -0.00010298998801013117
-0.00017609392742932688   -0.00039772900093236496   -9.846781357171266e-05
0.0   0.0   0.0
0.0   0.0   0.0
2.1824018073156225e-05   -0.0003826676703242955   -9.859201623553792e-05
0.0   0.0   0.0
0.0   0.0   0.0
2.1824018073156225e-05   -0.0003826676703242955   -9.859201623553792e-05
0.0002513618385554453   -0.0004003596142658535   -8.70132986790675e-05
0.0   0.0   0.0
0.00025285325875962797   -0.0004021791879376566   -0.00010295752805498294
0.0   0.0   0.0
0.0   0.0   0.0
0.00025285325875962797   -0.0004021791879376566   -0.00010295752805498294
0.0   0.0   0.0
0.0   0.0   0.0
0.00025285325875962797   -0.0004021791879376566   -0.00010295752805498294
2.7339690966308903e-05   -0.00038898293712805914   -0.00010005276819626059
2.1824018073156225e-05   -0.0003826676703242955   -9.859201623553792e-05
0.0   0.0   0.0
0.00025285325875962797   -0.0004021791879376566   -0.00010295752805498294
2.1824018073156225e-05   -0.0003826676703242955   -9.859201623553792e-05
0.0   0.0   0.0
0.0   0.0   0.0
2.7339690966308903e-05   -0.00038898293712805914   -0.00010005276819626059
0.0   0.0   0.0
0.0   0.0   0.0
2.7339690966308903e-05   -0.00038898293712805914   -0.00010005276819626059
0.00025285325875962797   -0.0004021791879376566   -0.00010295752805498294
0.0   0.0   0.0
0.00025267041774820916   -0.00039644370361400507   -0.00011836948292472597
0.0   0.0   0.0
0.0   0.0   0.0
0.00025267041774820916   -0.00039644370361400507   -0.00011836948292472597
0.0   0.0   0.0
0.0   0.0   0.0
0.00025267041774820916   -0.00039644370361400507   -0.00011836948292472597
3.1803309850107256e-05   -0.0003883623539369371   -0.00010145307376436948
2.7339690966308903e-05   -0.00038898293712805914   -0.00010005276819626059
0.0   0.0   0.0
0.00025267041774820916   -0.00039644370361400507   -0.00011836948292472597
2.7339690966308903e-05   -0.00038898293712805914   -0.00010005276819626059
0.0   0.0   0.0
0.0   0.0   0.0
3.1803309850107256e-05   -0.0003883623539369371   -0.00010145307376436948
0.0   0.0   0.0
0.0   0.0   0.0
3.1803309850107256e-05   -0.0003883623539369371   -0.00010145307376436948
0.00025267041774820916   -0.00039644370361400507   -0.00011836948292472597
0.0   0.0   0.0
0.0002584287531294395   -0.00038149428635973005   -0.00013358010704081122
0.0   0.0   0.0
0.0   0.0   0.0
0.0002584287531294395   -0.00038149428635973005   -0.00013358010704081122
0.0   0.0   0.0
0.0   0.0   0.0
0.0002584287531294395   -0.00038149428635973005   -0.00013358010704081122
3.7532111234959936e-05   -0.0003802533116028879   -0.00010298998801013117
3.1803309850107256e-05   -0.0003883623539369371   -0.00010145307376436948
0.0   0.0   0.0
0.0002584287531294395   -0.00038149428635973005   -0.00013358010704081122
3.1803309850107256e-05   -0.0003883623539369371   -0.00010145307376436948
0.0   0.0   0.0
0.0   0.0   0.0
0.0002513618385554453   -0.0004003596142658535   -8.70132986790675e-05
0.0   0.0   0.0
0.0   0.0   0.0
0.0002513618385554453   -0.0004003596142658535   -8.70132986790675e-05
0.0005730076917639805   -0.0004456301980900685   -8.29017841580989e-05
0.0   0.0   0.0
0.0005395033669335777   -0.0004403662581454298   -0.00011937947274548742
0.0   0.0   0.0
0.0   0.0   0.0
0.0005395033669335777   -0.0004403662581454298   -0.00011937947274548742
0.0   0.0   0.0
0.0   0.0   0.0
0.0005395033669335777   -0.0004403662581454298   -0.00011937947274548742
0.00025285325875962797   -0.0004021791879376566   -0.00010295752805498294
0.0002513618385554453   -0.0004003596142658535   -8.70132986790675e-05
0.0   0.0   0.0
0.0005395033669335777   -0.0004403662581454298   -0.00011937947274548742
0.0002513618385554453   -0.0004003596142658535   -8.70132986790675e-05
0.0   0.0   0.0
0.0   0.0   0.0
0.00025285325875962797   -0.0004021791879376566   -0.00010295752805498294
0.0   0.0   0.0
0.0   0.0   0.0
0.00025285325875962797   -0.0004021791879376566   -0.00010295752805498294
0.0005395033669335777   -0.0004403662581454298   -0.00011937947274548742
0.0   0.0   0.0
0.0005244597459310753   -0.0004312206694654743   -0.00015031811641733807
0.0   0.0   0.0
0.0   0.0   0.0
0.0005244597459310753   -0.0004312206694654743   -0.00015031811641733807
0.0   0.0   0.0
0.0   0.0   0.0
0.0005244597459310753   -0.0004312206694654743   -0.00015031811641733807
0.00025267041774820916   -0.00039644370361400507   -0.00011836948292472597
0.00025285325875962797   -0.0004021791879376566   -0.00010295752805498294
0.0   0.0   0.0
0.0005244597459310753   -0.0004312206694654743   -0.00015031811641733807
0.00025285325875962797   -0.0004021791879376566   -0.00010295752805498294
0.0   0.0   0.0
0.0   0.0   0.0
0.00025267041774820916   -0.00039644370361400507   -0.00011836948292472597
0.0   0.0   0.0
0.0   0.0   0.0
0.00025267041774820916   -0.00039644370361400507   -0.00011836948292472597
0.0005244597459310753   -0.0004312206694654743   -0.00015031811641733807
0.0   0.0   0.0
0.0005014349116758557   -0.00040813473355007224   -0.00018326135714773756
0.0   0.0   0.0
0.0   0.0   0.0
0.0005014349116758557   -0.00040813473355007224   -0.00018326135714773756
0.0   0.0   0.0
0.0   0.0   0.0
0.0005014349116758557   -0.00040813473355007224   -0.00018326135714773756
0.0002584287531294395   -0.00038149428635973005   -0.00013358010704081122
0.00025267041774820916   -0.00039644370361400507   -0.00011836948292472597
0.0   0.0   0.0
0.0005014349116758557   -0.00040813473355007224   -0.00018326135714773756
0.00025267041774820916   -0.00039644370361400507   -0.00011836948292472597
0.0   0.0   0.0
-0.0006505784405860509   -0.0004382700316521907   -0.00021864750125259963
-0.0012066865029285198   -0.0012068599124683132   -0.00029498769609358335
-0.0004128584478370013   -0.00039592624070944977   -0.00016077444055078474
-0.0006799067892529581   -0.00046637165786520473   -0.00017591281543436298
-0.0012066865029285198   -0.0012068599124683132   -0.00029498769609358335
-0.0007697929521459898   -0.0011690846021331152   -0.00024367769490055944
-0.0004128584478370013   -0.00039592624070944977   -0.00016077444055078474
-0.0007693872005737689   -0.0011885636530048688   -0.0002200077615807407
-0.0006799067892529581   -0.00046637165786520473   -0.00017591281543436298
-0.0004039217027422094   -0.00041512793925762106   -0.0001349400419511283
-0.0007693872005737689   -0.0011885636530048688   -0.0002200077615807407
-0.0004128584478370013   -0.00039592624070944977   -0.00016077444055078474
-0.0006799067892529581   -0.00046637165786520473   -0.00017591281543436298
-0.0007693872005737689   -0.0011885636530048688   -0.0002200077615807407
-0.0012410931240958202   -0.0012341789918794417   -0.00025674936551345155
-0.0012066865029285198   -0.0012068599124683132   -0.00029498769609358335
-0.0006799067892529581   -0.00046637165786520473   -0.00017591281543436298
-0.0007693872005737689   -0.0011885636530048688   -0.0002200077615807407
-0.0012066865029285198   -0.0012068599124683132   -0.00029498769609358335
-0.0004128584478370013   -0.00039592624070944977   -0.00016077444055078474
-0.0006799067892529581   -0.00046637165786520473   -0.00017591281543436298
-0.0012410931240958202   -0.0012341789918794417   -0.00025674936551345155
-0.0004039217027422094   -0.00041512793925762106   -0.0001349400419511283
-0.0007001206963250888   -0.00048008097045965656   -0.000135146919827287
-0.0012410931240958202   -0.0012341789918794417   -0.00025674936551345155
-0.0007693872005737689   -0.0011885636530048688   -0.0002200077615807407
-0.0004039217027422094   -0.00041512793925762106   -0.0001349400419511283
-0.0007710039291110648   -0.0012005589429056767   -0.00019734757887581965
-0.0007001206963250888   -0.00048008097045965656   -0.000135146919827287
-0.0004042263280602489   -0.00042506419584292066   -0.00010923799932529992
-0.0007710039291110648   -0.0012005589429056767   -0.00019734757887581965
-0.0004039217027422094   -0.00041512793925762106   -0.0001349400419511283
-0.0007001206963250888   -0.00048008097045965656   -0.000135146919827287
-0.0007710039291110648   -0.0012005589429056767   -0.00019734757887581965
-0.0012644436059521668   -0.0012497233934085103   -0.00021942581485005655
-0.0012410931240958202   -0.0012341789918794417   -0.00025674936551345155
-0.0007001206963250888   -0.00048008097045965656   -0.000135146919827287
-0.0007710039291110648   -0.0012005589429056767   -0.00019734757887581965
-0.0012410931240958202   -0.0012341789918794417   -0.00025674936551345155
-0.0004039217027422094   -0.00041512793925762106   -0.0001349400419511283
-0.0007001206963250888   -0.00048008097045965656   -0.000135146919827287
-0.0012644436059521668   -0.0012497233934085103   -0.00021942581485005655
-0.0004042263280602489   -0.00042506419584292066   -0.00010923799932529992
-0.0007444951763411629   -0.0004907892909848297   -8.797017033370303e-05
-0.0012644436059521668   -0.0012497233934085103   -0.00021942581485005655
-0.0007710039291110648   -0.0012005589429056767   -0.00019734757887581965
-0.0004042263280602489   -0.00042506419584292066   -0.00010923799932529992
-0.0007672406963525392   -0.0012069842381975413   -0.00017622241641221924
-0.0007444951763411629   -0.0004907892909848297   -8.797017033370303e-05
-0.00040307313715883615   -0.00042774901024526796   -8.27803841979666e-05
-0.0007672406963525392   -0.0012069842381975413   -0.00017622241641221924
-0.0004042263280602489   -0.00042506419584292066   -0.00010923799932529992
-0.0007444951763411629   -0.0004907892909848297   -8.797017033370303e-05
-0.0007672406963525392   -0.0012069842381975413   -0.00017622241641221924
-0.0012919826839465462   -0.0012591191590970228   -0.00018565829386991972
-0.0012644436059521668   -0.0012497233934085103   -0.00021942581485005655
-0.0007444951763411629   -0.0004907892909848297   -8.797017033370303e-05
-0.0007672406963525392   -0.0012069842381975413   -0.00017622241641221924
-0.0012644436059521668   -0.0012497233934085103   -0.00021942581485005655
-0.0004042263280602489   -0.00042506419584292066   -0.00010923799932529992
-0.0004128584478370013   -0.00039592624070944977   -0.00016077444055078474
-0.0007697929521459898   -0.0011690846021331152   -0.00024367769490055944
-0.00018898301432330406   -0.000380569693518267   -0.00012264629479306639
-0.0004039217027422094   -0.00041512793925762106   -0.0001349400419511283
-0.0007697929521459898   -0.0011690846021331152   -0.00024367769490055944
-0.00035946051743296706   -0.0011514976366024108   -0.00020877640713809508
-0.00018898301432330406   -0.000380569693518267   -0.00012264629479306639
-0.000355019432870709   -0.0011637737736922519   -0.00019652320540891323
-0.0004039217027422094   -0.00041512793925762106   -0.0001349400419511283
-0.0001809478486656775   -0.00039296875982792036   -0.00011034963190171067
-0.000355019432870709   -0.0011637737736922519   -0.00019652320540891323
-0.00018898301432330406   -0.000380569693518267   -0.00012264629479306639
-0.0004039217027422094   -0.00041512793925762106   -0.0001349400419511283
-0.000355019432870709   -0.0011637737736922519   -0.00019652320540891323
-0.0007693872005737689   -0.0011885636530048688   -0.0002200077615807407
-0.0007697929521459898   -0.0011690846021331152   -0.00024367769490055944
-0.0004039217027422094   -0.00041512793925762106   -0.0001349400419511283
-0.000355019432870709   -0.0011637737736922519   -0.00019652320540891323
-0.0007697929521459898   -0.0011690846021331152   -0.00024367769490055944
-0.00018898301432330406   -0.000380569693518267   -0.00012264629479306639
-0.0004039217027422094   -0.00041512793925762106   -0.0001349400419511283
-0.0007693872005737689   -0.0011885636530048688   -0.0002200077615807407
-0.0001809478486656775   -0.00039296875982792036   -0.00011034963190171067
-0.0004042263280602489   -0.00042506419584292066   -0.00010923799932529992
-0.0007693872005737689   -0.0011885636530048688   -0.0002200077615807407
-0.000355019432870709   -0.0011637737736922519   -0.00019652320540891323
-0.0001809478486656775   -0.00039296875982792036   -0.00011034963190171067
-0.0003509329891985051   -0.0011697732136111965   -0.0001854727333987943
-0.0004042263280602489   -0.00042506419584292066   -0.00010923799932529992
-0.00017609392742932688   -0.00039772900093236496   -9.846781357171266e-05
-0.0003509329891985051   -0.0011697732136111965   -0.0001854727333987943
-0.0001809478486656775   -0.00039296875982792036   -0.00011034963190171067
-0.0004042263280602489   -0.00042506419584292066   -0.00010923799932529992
-0.0003509329891985051   -0.0011697732136111965   -0.0001854727333987943
-0.0007710039291110648   -0.0012005589429056767   -0.00019734757887581965
-0.0007693872005737689   -0.0011885636530048688   -0.0002200077615807407
-0.0004042263280602489   -0.00042506419584292066   -0.00010923799932529992
-0.0003509329891985051   -0.0011697732136111965   -0.0001854727333987943
-0.0007693872005737689   -0.0011885636530048688   -0.0002200077615807407
-0.0001809478486656775   -0.00039296875982792036   -0.00011034963190171067
-0.0004042263280602489   -0.00042506419584292066   -0.00010923799932529992
-0.0007710039291110648   -0.0012005589429056767   -0.00019734757887581965
-0.00017609392742932688   -0.00039772900093236496   -9.846781357171266e-05
-0.00040307313715883615   -0.00042774901024526796   -8.27803841979666e-05
-0.0007710039291110648   -0.0012005589429056767   -0.00019734757887581965
-0.0003509329891985051   -0.0011697732136111965   -0.0001854727333987943
-0.00017609392742932688   -0.00039772900093236496   -9.846781357171266e-05
-0.00034545987811663236   -0.0011697187032782112   -0.0001759199006528416
-0.00040307313715883615   -0.00042774901024526796   -8.27803841979666e-05
-0.00017153619635215528   -0.0003958225544698534   -8.628192250430565e-05
-0.00034545987811663236   -0.0011697187032782112   -0.0001759199006528416
-0.00017609392742932688   -0.00039772900093236496   -9.846781357171266e-05
-0.00040307313715883615   -0.00042774901024526796   -8.27803841979666e-05
-0.00034545987811663236   -0.0011697187032782112   -0.0001759199006528416
-0.0007672406963525392   -0.0012069842381975413   -0.00017622241641221924
-0.0007710039291110648   -0.0012005589429056767   -0.00019734757887581965
-0.00040307313715883615   -0.00042774901024526796   -8.27803841979666e-05
-0.00034545987811663236   -0.0011697187032782112   -0.0001759199006528416
-0.0007710039291110648   -0.0012005589429056767   -0.00019734757887581965
-0.00017609392742932688   -0.00039772900093236496   -9.846781357171266e-05
-0.00018898301432330406   -0.000380569693518267   -0.00012264629479306639
-0.00035946051743296706   -0.0011514976366024108   -0.00020877640713809508
2.1824018073156225e-05   -0.0003826676703242955   -9.859201623553792e-05
-0.0001809478486656775   -0.00039296875982792036   -0.00011034963190171067
-0.00035946051743296706   -0.0011514976366024108   -0.00020877640713809508
3.5369437390986256e-05   -0.0011521016480994795   -0.00018700925598586832
2.1824018073156225e-05   -0.0003826676703242955   -9.859201623553792e-05
4.0595129844888944e-05   -0.0011577258834685087   -0.00018595005959500874
-0.0001809478486656775   -0.00039296875982792036   -0.00011034963190171067
2.7339690966308903e-05   -0.00038898293712805914   -0.00010005276819626059
4.0595129844888944e-05   -0.0011577258834685087   -0.00018595005959500874
2.1824018073156225e-05   -0.0003826676703242955   -9.859201623553792e-05
-0.0001809478486656775   -0.00039296875982792036   -0.00011034963190171067
4.0595129844888944e-05   -0.0011577258834685087   -0.00018595005959500874
-0.000355019432870709   -0.0011637737736922519   -0.00019652320540891323
-0.00035946051743296706   -0.0011514976366024108   -0.00020877640713809508
-0.0001809478486656775   -0.00039296875982792036   -0.00011034963190171067
4.0595129844888944e-05   -0.0011577258834685087   -0.00018595005959500874
-0.00035946051743296706   -0.0011514976366024108   -0.00020877640713809508
2.1824018073156225e-05   -0.0003826676703242955   -9.859201623553792e-05
-0.0001809478486656775   -0.00039296875982792036   -0.00011034963190171067
-0.000355019432870709   -0.0011637737736922519   -0.00019652320540891323
2.7339690966308903e-05   -0.00038898293712805914   -0.00010005276819626059
-0.00017609392742932688   -0.00039772900093236496   -9.846781357171266e-05
-0.000355019432870709   -0.0011637737736922519   -0.00019652320540891323
4.0595129844888944e-05   -0.0011577258834685087   -0.00018595005959500874
2.7339690966308903e-05   -0.00038898293712805914   -0.00010005276819626059
4.4536695625761815e-05   -0.0011572159031369691   -0.0001862508397049027
-0.00017609392742932688   -0.00039772900093236496   -9.846781357171266e-05
3.1803309850107256e-05   -0.0003883623539369371   -0.00010145307376436948
4.4536695625761815e-05   -0.0011572159031369691   -0.0001862508397049027
2.7339690966308903e-05   -0.00038898293712805914   -0.00010005276819626059
-0.00017609392742932688   -0.00039772900093236496   -9.846781357171266e-05
4.4536695625761815e-05   -0.0011572159031369691   -0.0001862508397049027
-0.0003509329891985051   -0.0011697732136111965   -0.0001854727333987943
-0.000355019432870709   -0.0011637737736922519   -0.00019652320540891323
-0.00017609392742932688   -0.00039772900093236496   -9.846781357171266e-05
4.4536695625761815e-05   -0.0011572159031369691   -0.0001862508397049027
-0.000355019432870709   -0.0011637737736922519   -0.00019652320540891323
2.7339690966308903e-05   -0.00038898293712805914   -0.00010005276819626059
-0.00017609392742932688   -0.00039772900093236496   -9.846781357171266e-05
-0.0003509329891985051   -0.0011697732136111965   -0.0001854727333987943
3.1803309850107256e-05   -0.0003883623539369371   -0.00010145307376436948
-0.00017153619635215528   -0.0003958225544698534   -8.628192250430565e-05
-0.0003509329891985051   -0.0011697732136111965   -0.0001854727333987943
4.4536695625761815e-05   -0.0011572159031369691   -0.0001862508397049027
3.1803309850107256e-05   -0.0003883623539369371   -0.00010145307376436948
4.866555940457613e-05   -0.0011503910577842478   -0.00018793141195084248
-0.00017153619635215528   -0.0003958225544698534   -8.628192250430565e-05
3.7532111234959936e-05   -0.0003802533116028879   -0.00010298998801013117
4.866555940457613e-05   -0.0011503910577842478   -0.00018793141195084248
3.1803309850107256e-05   -0.0003883623539369371   -0.00010145307376436948
-0.00017153619635215528   -0.0003958225544698534   -8.628192250430565e-05
4.866555940457613e-05   -0.0011503910577842478   -0.00018793141195084248
-0.00034545987811663236   -0.0011697187032782112   -0.0001759199006528416
-0.0003509329891985051   -0.0011697732136111965   -0.0001854727333987943
-0.00017153619635215528   -0.0003958225544698534   -8.628192250430565e-05
4.866555940457613e-05   -0.0011503910577842478   -0.00018793141195084248
-0.0003509329891985051   -0.0011697732136111965   -0.0001854727333987943
3.1803309850107256e-05   -0.0003883623539369371   -0.00010145307376436948
2.1824018073156225e-05   -0.0003826676703242955   -9.859201623553792e-05
3.5369437390986256e-05   -0.0011521016480994795   -0.00018700925598586832
0.0002513618385554453   -0.0004003596142658535   -8.70132986790675e-05
2.7339690966308903e-05   -0.00038898293712805914   -0.00010005276819626059
3.5369437390986256e-05   -0.0011521016480994795   -0.00018700925598586832
0.0004545227873185326   -0.0011702661866493033   -0.00017732907854816198
0.0002513618385554453   -0.0004003596142658535   -8.70132986790675e-05
0.00045824400556972053   -0.0011697907165725693   -0.00018781756616809297
2.7339690966308903e-05   -0.00038898293712805914   -0.00010005276819626059
0.00025285325875962797   -0.0004021791879376566   -0.00010295752805498294
0.00045824400556972053   -0.0011697907165725693   -0.00018781756616809297
0.0002513618385554453   -0.0004003596142658535   -8.70132986790675e-05
2.7339690966308903e-05   -0.00038898293712805914   -0.00010005276819626059
0.00045824400556972053   -0.0011697907165725693   -0.00018781756616809297
4.0595129844888944e-05   -0.0011577258834685087   -0.00018595005959500874
3.5369437390986256e-05   -0.0011521016480994795   -0.00018700925598586832
2.7339690966308903e-05   -0.00038898293712805914   -0.00010005276819626059
0.00045824400556972053   -0.0011697907165725693   -0.00018781756616809297
3.5369437390986256e-05   -0.0011521016480994795   -0.00018700925598586832
0.0002513618385554453   -0.0004003596142658535   -8.70132986790675e-05
2.7339690966308903e-05   -0.00038898293712805914   -0.00010005276819626059
4.0595129844888944e-05   -0.0011577258834685087   -0.00018595005959500874
0.00025285325875962797   -0.0004021791879376566   -0.00010295752805498294
3.1803309850107256e-05   -0.0003883623539369371   -0.00010145307376436948
4.0595129844888944e-05   -0.0011577258834685087   -0.00018595005959500874
0.00045824400556972053   -0.0011697907165725693   -0.00018781756616809297
0.00025285325875962797   -0.0004021791879376566   -0.00010295752805498294
0.00045763854722221785   -0.001163340656023869   -0.000199843584757868
3.1803309850107256e-05   -0.0003883623539369371   -0.00010145307376436948
0.00025267041774820916   -0.00039644370361400507   -0.00011836948292472597
0.00045763854722221785   -0.001163340656023869   -0.000199843584757868
0.00025285325875962797   -0.0004021791879376566   -0.00010295752805498294
3.1803309850107256e-05   -0.0003883623539369371   -0.00010145307376436948
0.00045763854722221785   -0.001163340656023869   -0.000199843584757868
4.4536695625761815e-05   -0.0011572159031369691   -0.0001862508397049027
4.0595129844888944e-05   -0.0011577258834685087   -0.00018595005959500874
3.1803309850107256e-05   -0.0003883623539369371   -0.00010145307376436948
0.00045763854722221785   -0.001163340656023869   -0.000199843584757868
4.0595129844888944e-05   -0.0011577258834685087   -0.00018595005959500874
0.00025285325875962797   -0.0004021791879376566   -0.00010295752805498294
3.1803309850107256e-05   -0.0003883623539369371   -0.00010145307376436948
4.4536695625761815e-05   -0.0011572159031369691   -0.0001862508397049027
0.00025267041774820916   -0.00039644370361400507   -0.00011836948292472597
3.7532111234959936e-05   -0.0003802533116028879   -0.00010298998801013117
4.4536695625761815e-05   -0.0011572159031369691   -0.0001862508397049027
0.00045763854722221785   -0.001163340656023869   -0.000199843584757868
0.00025267041774820916   -0.00039644370361400507   -0.00011836948292472597
0.0004578400371333976   -0.0011492122198847904   -0.00021295701741503453
3.7532111234959936e-05   -0.0003802533116028879   -0.00010298998801013117
0.0002584287531294395   -0.00038149428635973005   -0.00013358010704081122
0.0004578400371333976   -0.0011492122198847904   -0.00021295701741503453
0.00025267041774820916   -0.00039644370361400507   -0.00011836948292472597
3.7532111234959936e-05   -0.0003802533116028879   -0.00010298998801013117
0.0004578400371333976   -0.0011492122198847904   -0.00021295701741503453
4.866555940457613e-05   -0.0011503910577842478   -0.00018793141195084248
4.4536695625761815e-05   -0.0011572159031369691   -0.0001862508397049027
3.7532111234959936e-05   -0.0003802533116028879   -0.00010298998801013117
0.0004578400371333976   -0.0011492122198847904   -0.00021295701741503453
4.4536695625761815e-05   -0.0011572159031369691   -0.0001862508397049027
0.00025267041774820916   -0.00039644370361400507   -0.00011836948292472597
0.0002513618385554453   -0.0004003596142658535   -8.70132986790675e-05
0.0004545227873185326   -0.0011702661866493033   -0.00017732907854816198
0.0005730076917639805   -0.0004456301980900685   -8.29017841580989e-05
0.00025285325875962797   -0.0004021791879376566   -0.00010295752805498294
0.0004545227873185326   -0.0011702661866493033   -0.00017732907854816198
0.0009622831993389322   -0.0012037620523181656   -0.00017567298124593936
0.0005730076917639805   -0.0004456301980900685   -8.29017841580989e-05
0.0009449391664144663   -0.001199913778712291   -0.00019947307982607552
0.00025285325875962797   -0.0004021791879376566   -0.00010295752805498294
0.0005395033669335777   -0.0004403662581454298   -0.00011937947274548742
0.0009449391664144663   -0.001199913778712291   -0.00019947307982607552
0.0005730076917639805   -0.0004456301980900685   -8.29017841580989e-05
0.00025285325875962797   -0.0004021791879376566   -0.00010295752805498294
0.0009449391664144663   -0.001199913778712291   -0.00019947307982607552
0.00045824400556972053   -0.0011697907165725693   -0.00018781756616809297
0.0004545227873185326   -0.0011702661866493033   -0.00017732907854816198
0.00025285325875962797   -0.0004021791879376566   -0.00010295752805498294
0.0009449391664144663   -0.001199913778712291   -0.00019947307982607552
0.0004545227873185326   -0.0011702661866493033   -0.00017732907854816198
0.0005730076917639805   -0.0004456301980900685   -8.29017841580989e-05
0.00025285325875962797   -0.0004021791879376566   -0.00010295752805498294
0.00045824400556972053   -0.0011697907165725693   -0.00018781756616809297
0.0005395033669335777   -0.0004403662581454298   -0.00011937947274548742
0.00025267041774820916   -0.00039644370361400507   -0.00011836948292472597
0.00045824400556972053   -0.0011697907165725693   -0.00018781756616809297
0.0009449391664144663   -0.001199913778712291   -0.00019947307982607552
0.0005395033669335777   -0.0004403662581454298   -0.00011937947274548742
0.0009292485300166018   -0.0011900526022230681   -0.00022649029992341988
0.00025267041774820916   -0.00039644370361400507   -0.00011836948292472597
0.0005244597459310753   -0.0004312206694654743   -0.00015031811641733807
0.0009292485300166018   -0.0011900526022230681   -0.00022649029992341988
0.0005395033669335777   -0.0004403662581454298   -0.00011937947274548742
0.00025267041774820916   -0.00039644370361400507   -0.00011836948292472597
0.0009292485300166018   -0.0011900526022230681   -0.00022649029992341988
0.00045763854722221785   -0.001163340656023869   -0.000199843584757868
0.00045824400556972053   -0.0011697907165725693   -0.00018781756616809297
0.00025267041774820916   -0.00039644370361400507   -0.00011836948292472597
0.0009292485300166018   -0.0011900526022230681   -0.00022649029992341988
0.00045824400556972053   -0.0011697907165725693   -0.00018781756616809297
0.0005395033669335777   -0.0004403662581454298   -0.00011937947274548742
0.00025267041774820916   -0.00039644370361400507   -0.00011836948292472597
0.00045763854722221785   -0.001163340656023869   -0.000199843584757868
0.0005244597459310753   -0.0004312206694654743   -0.00015031811641733807
0.0002584287531294395   -0.00038149428635973005   -0.00013358010704081122
0.00045763854722221785   -0.001163340656023869   -0.000199843584757868
0.0009292485300166018   -0.0011900526022230681   -0.00022649029992341988
0.0005244597459310753   -0.0004312206694654743   -0.00015031811641733807
0.0009047866013431479   -0.0011686076388862244   -0.00025476185293969776
0.0002584287531294395   -0.00038149428635973005   -0.00013358010704081122
0.0005014349116758557   -0.00040813473355007224   -0.00018326135714773756
0.0009047866013431479   -0.0011686076388862244   -0.00025476185293969776
0.0005244597459310753   -0.0004312206694654743   -0.00015031811641733807
0.0002584287531294395   -0.00038149428635973005   -0.00013358010704081122
0.0009047866013431479   -0.0011686076388862244   -0.00025476185293969776
0.0004578400371333976   -0.0011492122198847904   -0.00021295701741503453
0.00045763854722221785   -0.001163340656023869   -0.000199843584757868
0.0002584287531294395   -0.00038149428635973005   -0.00013358010704081122
0.0009047866013431479   -0.0011686076388862244   -0.00025476185293969776
0.00045763854722221785   -0.001163340656023869   -0.000199843584757868
0.0005244597459310753   -0.0004312206694654743   -0.00015031811641733807
-0.0012066865029285198   -0.0012068599124683132   -0.00029498769609358335
-0.0016427991971861254   -0.0022411849246172896   -0.00033723075186302566
-0.0007697929521459898   -0.0011690846021331152   -0.00024367769490055944
-0.0012410931240958202   -0.0012341789918794417   -0.00025674936551345155
-0.0016427991971861254   -0.0022411849246172896   -0.00033723075186302566
-0.0010573656630542144   -0.002212678747984217   -0.0002962656577311889
-0.0007697929521459898   -0.0011690846021331152   -0.00024367769490055944
-0.0010580810590284113   -0.0022292615496094423   -0.0002781186486534952
-0.0012410931240958202   -0.0012341789918794417   -0.00025674936551345155
-0.0007693872005737689   -0.0011885636530048688   -0.0002200077615807407
-0.0010580810590284113   -0.0022292615496094423   -0.0002781186486534952
-0.0007697929521459898   -0.0011690846021331152   -0.00024367769490055944
-0.0012410931240958202   -0.0012341789918794417   -0.00025674936551345155
-0.0010580810590284113   -0.0022292615496094423   -0.0002781186486534952
-0.001669809962351842   -0.0022639397261109157   -0.00030920641588261564
-0.0016427991971861254   -0.0022411849246172896   -0.00033723075186302566
-0.0012410931240958202   -0.0012341789918794417   -0.00025674936551345155
-0.0010580810590284113   -0.0022292615496094423   -0.0002781186486534952
-0.0016427991971861254   -0.0022411849246172896   -0.00033723075186302566
-0.0007697929521459898   -0.0011690846021331152   -0.00024367769490055944
-0.0012410931240958202   -0.0012341789918794417   -0.00025674936551345155
-0.001669809962351842   -0.0022639397261109157   -0.00030920641588261564
-0.0007693872005737689   -0.0011885636530048688   -0.0002200077615807407
-0.0012644436059521668   -0.0012497233934085103   -0.00021942581485005655
-0.001669809962351842   -0.0022639397261109157   -0.00030920641588261564
-0.0010580810590284113   -0.0022292615496094423   -0.0002781186486534952
-0.0007693872005737689   -0.0011885636530048688   -0.0002200077615807407
-0.0010591189906561486   -0.0022409317676880874   -0.0002613431252704475
-0.0012644436059521668   -0.0012497233934085103   -0.00021942581485005655
-0.0007710039291110648   -0.0012005589429056767   -0.00019734757887581965
-0.0010591189906561486   -0.0022409317676880874   -0.0002613431252704475
-0.0007693872005737689   -0.0011885636530048688   -0.0002200077615807407
-0.0012644436059521668   -0.0012497233934085103   -0.00021942581485005655
-0.0010591189906561486   -0.0022409317676880874   -0.0002613431252704475
-0.0016861024146990634   -0.0022783554389759772   -0.0002831868244235079
-0.001669809962351842   -0.0022639397261109157   -0.00030920641588261564
-0.0012644436059521668   -0.0012497233934085103   -0.00021942581485005655
-0.0010591189906561486   -0.0022409317676880874   -0.0002613431252704475
-0.001669809962351842   -0.0022639397261109157   -0.00030920641588261564
-0.0007693872005737689   -0.0011885636530048688   -0.0002200077615807407
-0.0012644436059521668   -0.0012497233934085103   -0.00021942581485005655
-0.0016861024146990634   -0.0022783554389759772   -0.0002831868244235079
-0.0007710039291110648   -0.0012005589429056767   -0.00019734757887581965
-0.0012919826839465462   -0.0012591191590970228   -0.00018565829386991972
-0.0016861024146990634   -0.0022783554389759772   -0.0002831868244235079
-0.0010591189906561486   -0.0022409317676880874   -0.0002613431252704475
-0.0007710039291110648   -0.0012005589429056767   -0.00019734757887581965
-0.0010554380958991466   -0.002248809010898727   -0.00024564295016077153
-0.0012919826839465462   -0.0012591191590970228   -0.00018565829386991972
-0.0007672406963525392   -0.0012069842381975413   -0.00017622241641221924
-0.0010554380958991466   -0.002248809010898727   -0.00024564295016077153
-0.0007710039291110648   -0.0012005589429056767   -0.00019734757887581965
-0.0012919826839465462   -0.0012591191590970228   -0.00018565829386991972
-0.0010554380958991466   -0.002248809010898727   -0.00024564295016077153
-0.0017046386485467747   -0.0022890460932289236   -0.0002593608963832428
-0.0016861024146990634   -0.0022783554389759772   -0.0002831868244235079
-0.0012919826839465462   -0.0012591191590970228   -0.00018565829386991972
-0.0010554380958991466   -0.002248809010898727   -0.00024564295016077153
-0.0016861024146990634   -0.0022783554389759772   -0.0002831868244235079
-0.0007710039291110648   -0.0012005589429056767   -0.00019734757887581965
-0.0007697929521459898   -0.0011690846021331152   -0.00024367769490055944
-0.0010573656630542144   -0.002212678747984217   -0.0002962656577311889
-0.00035946051743296706   -0.0011514976366024108   -0.00020877640713809508
-0.0007693872005737689   -0.0011885636530048688   -0.0002200077615807407
-0.0010573656630542144   -0.002212678747984217   -0.0002962656577311889
-0.0005076300092328155   -0.0021983293596679445   -0.00026787530065714154
-0.00035946051743296706   -0.0011514976366024108   -0.00020877640713809508
-0.0005047668163480083   -0.0022088132145275732   -0.0002574643187525825
-0.0007693872005737689   -0.0011885636530048688   -0.0002200077615807407
-0.000355019432870709   -0.0011637737736922519   -0.00019652320540891323
-0.0005047668163480083   -0.0022088132145275732   -0.0002574643187525825
-0.00035946051743296706   -0.0011514976366024108   -0.00020877640713809508
-0.0007693872005737689   -0.0011885636530048688   -0.0002200077615807407
-0.0005047668163480083   -0.0022088132145275732   -0.0002574643187525825
-0.0010580810590284113   -0.0022292615496094423   -0.0002781186486534952
-0.0010573656630542144   -0.002212678747984217   -0.0002962656577311889
-0.0007693872005737689   -0.0011885636530048688   -0.0002200077615807407
-0.0005047668163480083   -0.0022088132145275732   -0.0002574643187525825
-0.0010573656630542144   -0.002212678747984217   -0.0002962656577311889
-0.00035946051743296706   -0.0011514976366024108   -0.00020877640713809508
-0.0007693872005737689   -0.0011885636530048688   -0.0002200077615807407
-0.0010580810590284113   -0.0022292615496094423   -0.0002781186486534952
-0.000355019432870709   -0.0011637737736922519   -0.00019652320540891323
-0.0007710039291110648   -0.0012005589429056767   -0.00019734757887581965
-0.0010580810590284113   -0.0022292615496094423   -0.0002781186486534952
-0.0005047668163480083   -0.0022088132145275732   -0.0002574643187525825
-0.000355019432870709   -0.0011637737736922519   -0.00019652320540891323
-0.000501627131894296   -0.002215022233528772   -0.0002483494070859203
-0.0007710039291110648   -0.0012005589429056767   -0.00019734757887581965
-0.0003509329891985051   -0.0011697732136111965   -0.0001854727333987943
-0.000501627131894296   -0.002215022233528772   -0.0002483494070859203
-0.000355019432870709   -0.0011637737736922519   -0.00019652320540891323
-0.0007710039291110648   -0.0012005589429056767   -0.00019734757887581965
-0.000501627131894296   -0.002215022233528772   -0.0002483494070859203
-0.0010591189906561486   -0.0022409317676880874   -0.0002613431252704475
-0.0010580810590284113   -0.0022292615496094423   -0.0002781186486534952
-0.0007710039291110648   -0.0012005589429056767   -0.00019734757887581965
-0.000501627131894296   -0.002215022233528772   -0.0002483494070859203
-0.0010580810590284113   -0.0022292615496094423   -0.0002781186486534952
-0.000355019432870709   -0.0011637737736922519   -0.00019652320540891323
-0.0007710039291110648   -0.0012005589429056767   -0.00019734757887581965
-0.0010591189906561486   -0.0022409317676880874   -0.0002613431252704475
-0.0003509329891985051   -0.0011697732136111965   -0.0001854727333987943
-0.0007672406963525392   -0.0012069842381975413   -0.00017622241641221924
-0.0010591189906561486   -0.0022409317676880874   -0.0002613431252704475
-0.000501627131894296   -0.002215022233528772   -0.0002483494070859203
-0.0003509329891985051   -0.0011697732136111965   -0.0001854727333987943
-0.000497461378779911   -0.0022170448396091735   -0.0002405313158205366
-0.0007672406963525392   -0.0012069842381975413   -0.00017622241641221924
-0.00034545987811663236   -0.0011697187032782112   -0.0001759199006528416
-0.000497461378779911   -0.0022170448396091735   -0.0002405313158205366
-0.0003509329891985051   -0.0011697732136111965   -0.0001854727333987943
-0.0007672406963525392   -0.0012069842381975413   -0.00017622241641221924
-0.000497461378779911   -0.0022170448396091735   -0.0002405313158205366
-0.0010554380958991466   -0.002248809010898727   -0.00024564295016077153
-0.0010591189906561486   -0.0022409317676880874   -0.0002613431252704475
-0.0007672406963525392   -0.0012069842381975413   -0.00017622241641221924
-0.000497461378779911   -0.0022170448396091735   -0.0002405313158205366
-0.0010591189906561486   -0.0022409317676880874   -0.0002613431252704475
-0.0003509329891985051   -0.0011697732136111965   -0.0001854727333987943
-0.00035946051743296706   -0.0011514976366024108   -0.00020877640713809508
-0.0005076300092328155   -0.0021983293596679445   -0.00026787530065714154
3.5369437390986256e-05   -0.0011521016480994795   -0.00018700925598586832
-0.000355019432870709   -0.0011637737736922519   -0.00019652320540891323
-0.0005076300092328155   -0.0021983293596679445   -0.00026787530065714154
2.5281350929726787e-05   -0.0021975388521814584   -0.00025059049263904287
3.5369437390986256e-05   -0.0011521016480994795   -0.00018700925598586832
2.9269017714321926e-05   -0.0022019799602140872   -0.00024788433426372984
-0.000355019432870709   -0.0011637737736922519   -0.00019652320540891323
4.0595129844888944e-05   -0.0011577258834685087   -0.00018595005959500874
2.9269017714321926e-05   -0.0022019799602140872   -0.00024788433426372984
3.5369437390986256e-05   -0.0011521016480994795   -0.00018700925598586832
-0.000355019432870709   -0.0011637737736922519   -0.00019652320540891323
2.9269017714321926e-05   -0.0022019799602140872   -0.00024788433426372984
-0.0005047668163480083   -0.0022088132145275732   -0.0002574643187525825
-0.0005076300092328155   -0.0021983293596679445   -0.00026787530065714154
-0.000355019432870709   -0.0011637737736922519   -0.00019652320540891323
2.9269017714321926e-05   -0.0022019799602140872   -0.00024788433426372984
-0.0005076300092328155   -0.0021983293596679445   -0.00026787530065714154
3.5369437390986256e-05   -0.0011521016480994795   -0.00018700925598586832
-0.000355019432870709   -0.0011637737736922519   -0.00019652320540891323
-0.0005047668163480083   -0.0022088132145275732   -0.0002574643187525825
4.0595129844888944e-05   -0.0011577258834685087   -0.00018595005959500874
-0.0003509329891985051   -0.0011697732136111965   -0.0001854727333987943
-0.0005047668163480083   -0.0022088132145275732   -0.0002574643187525825
2.9269017714321926e-05   -0.0022019799602140872   -0.00024788433426372984
4.0595129844888944e-05   -0.0011577258834685087   -0.00018595005959500874
3.2393162068400705e-05   -0.002202160220288368   -0.00024644578818724857
-0.0003509329891985051   -0.0011697732136111965   -0.0001854727333987943
4.4536695625761815e-05   -0.0011572159031369691   -0.0001862508397049027
3.2393162068400705e-05   -0.002202160220288368   -0.00024644578818724857
4.0595129844888944e-05   -0.0011577258834685087   -0.00018595005959500874
-0.0003509329891985051   -0.0011697732136111965   -0.0001854727333987943
3.2393162068400705e-05   -0.002202160220288368   -0.00024644578818724857
-0.000501627131894296   -0.002215022233528772   -0.0002483494070859203
-0.0005047668163480083   -0.0022088132145275732   -0.0002574643187525825
-0.0003509329891985051   -0.0011697732136111965   -0.0001854727333987943
3.2393162068400705e-05   -0.002202160220288368   -0.00024644578818724857
-0.0005047668163480083   -0.0022088132145275732   -0.0002574643187525825
4.0595129844888944e-05   -0.0011577258834685087   -0.00018595005959500874
-0.0003509329891985051   -0.0011697732136111965   -0.0001854727333987943
-0.000501627131894296   -0.002215022233528772   -0.0002483494070859203
4.4536695625761815e-05   -0.0011572159031369691   -0.0001862508397049027
-0.00034545987811663236   -0.0011697187032782112   -0.0001759199006528416
-0.000501627131894296   -0.002215022233528772   -0.0002483494070859203
3.2393162068400705e-05   -0.002202160220288368   -0.00024644578818724857
4.4536695625761815e-05   -0.0011572159031369691   -0.0001862508397049027
3.511131888678593e-05   -0.0021980182606749776   -0.00024634584295300593
-0.00034545987811663236   -0.0011697187032782112   -0.0001759199006528416
4.866555940457613e-05   -0.0011503910577842478   -0.00018793141195084248
3.511131888678593e-05   -0.0021980182606749776   -0.00024634584295300593
4.4536695625761815e-05   -0.0011572159031369691   -0.0001862508397049027
-0.00034545987811663236   -0.0011697187032782112   -0.0001759199006528416
3.511131888678593e-05   -0.0021980182606749776   -0.00024634584295300593
-0.000497461378779911   -0.0022170448396091735   -0.0002405313158205366
-0.000501627131894296   -0.002215022233528772   -0.0002483494070859203
-0.00034545987811663236   -0.0011697187032782112   -0.0001759199006528416
3.511131888678593e-05   -0.0021980182606749776   -0.00024634584295300593
-0.000501627131894296   -0.002215022233528772   -0.0002483494070859203
4.4536695625761815e-05   -0.0011572159031369691   -0.0001862508397049027
3.5369437390986256e-05   -0.0011521016480994795   -0.00018700925598586832
2.5281350929726787e-05   -0.0021975388521814584   -0.00025059049263904287
0.0004545227873185326   -0.0011702661866493033   -0.00017732907854816198
4.0595129844888944e-05   -0.0011577258834685087   -0.00018595005959500874
2.5281350929726787e-05   -0.0021975388521814584   -0.00025059049263904287
0.0005813876489099232   -0.0022094869484812867   -0.00024416243270943417
0.0004545227873185326   -0.0011702661866493033   -0.00017732907854816198
0.0005852320421639983   -0.0022083334343530846   -0.0002493082194616332
4.0595129844888944e-05   -0.0011577258834685087   -0.00018595005959500874
0.00045824400556972053   -0.0011697907165725693   -0.00018781756616809297
0.0005852320421639983   -0.0022083334343530846   -0.0002493082194616332
0.0004545227873185326   -0.0011702661866493033   -0.00017732907854816198
4.0595129844888944e-05   -0.0011577258834685087   -0.00018595005959500874
0.0005852320421639983   -0.0022083334343530846   -0.0002493082194616332
2.9269017714321926e-05   -0.0022019799602140872   -0.00024788433426372984
2.5281350929726787e-05   -0.0021975388521814584   -0.00025059049263904287
4.0595129844888944e-05   -0.0011577258834685087   -0.00018595005959500874
0.0005852320421639983   -0.0022083334343530846   -0.0002493082194616332
2.5281350929726787e-05   -0.0021975388521814584   -0.00025059049263904287
0.0004545227873185326   -0.0011702661866493033   -0.00017732907854816198
4.0595129844888944e-05   -0.0011577258834685087   -0.00018595005959500874
2.9269017714321926e-05   -0.0022019799602140872   -0.00024788433426372984
0.00045824400556972053   -0.0011697907165725693   -0.00018781756616809297
4.4536695625761815e-05   -0.0011572159031369691   -0.0001862508397049027
2.9269017714321926e-05   -0.0022019799602140872   -0.00024788433426372984
0.0005852320421639983   -0.0022083334343530846   -0.0002493082194616332
0.00045824400556972053   -0.0011697907165725693   -0.00018781756616809297
0.0005855559033274755   -0.0022030638523180585   -0.000255628498307498
4.4536695625761815e-05   -0.0011572159031369691   -0.0001862508397049027
0.00045763854722221785   -0.001163340656023869   -0.000199843584757868
0.0005855559033274755   -0.0022030638523180585   -0.000255628498307498
0.00045824400556972053   -0.0011697907165725693   -0.00018781756616809297
4.4536695625761815e-05   -0.0011572159031369691   -0.0001862508397049027
0.0005855559033274755   -0.0022030638523180585   -0.000255628498307498
3.2393162068400705e-05   -0.002202160220288368   -0.00024644578818724857
2.9269017714321926e-05   -0.0022019799602140872   -0.00024788433426372984
4.4536695625761815e-05   -0.0011572159031369691   -0.0001862508397049027
0.0005855559033274755   -0.0022030638523180585   -0.000255628498307498
2.9269017714321926e-05   -0.0022019799602140872   -0.00024788433426372984
0.00045824400556972053   -0.0011697907165725693   -0.00018781756616809297
4.4536695625761815e-05   -0.0011572159031369691   -0.0001862508397049027
3.2393162068400705e-05   -0.002202160220288368   -0.00024644578818724857
0.00045763854722221785   -0.001163340656023869   -0.000199843584757868
4.866555940457613e-05   -0.0011503910577842478   -0.00018793141195084248
3.2393162068400705e-05   -0.002202160220288368   -0.00024644578818724857
0.0005855559033274755   -0.0022030638523180585   -0.000255628498307498
0.00045763854722221785   -0.001163340656023869   -0.000199843584757868
0.0005850276001172794   -0.002192599659673016   -0.0002632672784106179
4.866555940457613e-05   -0.0011503910577842478   -0.00018793141195084248
0.0004578400371333976   -0.0011492122198847904   -0.00021295701741503453
0.0005850276001172794   -0.002192599659673016   -0.0002632672784106179
0.00045763854722221785   -0.001163340656023869   -0.000199843584757868
4.866555940457613e-05   -0.0011503910577842478   -0.00018793141195084248
0.0005850276001172794   -0.002192599659673016   -0.0002632672784106179
3.511131888678593e-05   -0.0021980182606749776   -0.00024634584295300593
3.2393162068400705e-05   -0.002202160220288368   -0.00024644578818724857
4.866555940457613e-05   -0.0011503910577842478   -0.00018793141195084248
0.0005850276001172794   -0.002192599659673016   -0.0002632672784106179
3.2393162068400705e-05   -0.002202160220288368   -0.00024644578818724857
0.00045763854722221785   -0.001163340656023869   -0.000199843584757868
0.0004545227873185326   -0.0011702661866493033   -0.00017732907854816198
0.0005813876489099232   -0.0022094869484812867   -0.00024416243270943417
0.0009622831993389322   -0.0012037620523181656   -0.00017567298124593936
0.00045824400556972053   -0.0011697907165725693   -0.00018781756616809297
0.0005813876489099232   -0.0022094869484812867   -0.00024416243270943417
0.0012156464002791214   -0.0022308018597285923   -0.00024557100040513636
0.0009622831993389322   -0.0012037620523181656   -0.00017567298124593936
0.0012077090444888453   -0.002226336714031507   -0.00025940521702775003
0.00045824400556972053   -0.0011697907165725693   -0.00018781756616809297
0.0009449391664144663   -0.001199913778712291   -0.00019947307982607552
0.0012077090444888453   -0.002226336714031507   -0.00025940521702775003
0.0009622831993389322   -0.0012037620523181656   -0.00017567298124593936
0.00045824400556972053   -0.0011697907165725693   -0.00018781756616809297
0.0012077090444888453   -0.002226336714031507   -0.00025940521702775003
0.0005852320421639983   -0.0022083334343530846   -0.0002493082194616332
0.0005813876489099232   -0.0022094869484812867   -0.00024416243270943417
0.00045824400556972053   -0.0011697907165725693   -0.00018781756616809297
0.0012077090444888453   -0.002226336714031507   -0.00025940521702775003
0.0005813876489099232   -0.0022094869484812867   -0.00024416243270943417
0.0009622831993389322   -0.0012037620523181656   -0.00017567298124593936
0.00045824400556972053   -0.0011697907165725693   -0.00018781756616809297
0.0005852320421639983   -0.0022083334343530846   -0.0002493082194616332
0.0009449391664144663   -0.001199913778712291   -0.00019947307982607552
0.00045763854722221785   -0.001163340656023869   -0.000199843584757868
0.0005852320421639983   -0.0022083334343530846   -0.0002493082194616332
0.0012077090444888453   -0.002226336714031507   -0.00025940521702775003
0.0009449391664144663   -0.001199913778712291   -0.00019947307982607552
0.0011994150675913588   -0.002218327650190287   -0.00027535871606659644
0.00045763854722221785   -0.001163340656023869   -0.000199843584757868
0.0009292485300166018   -0.0011900526022230681   -0.00022649029992341988
0.0011994150675913588   -0.002218327650190287   -0.00027535871606659644
0.0009449391664144663   -0.001199913778712291   -0.00019947307982607552
0.00045763854722221785   -0.001163340656023869   -0.000199843584757868
0.0011994150675913588   -0.002218327650190287   -0.00027535871606659644
0.0005855559033274755   -0.0022030638523180585   -0.000255628498307498
0.0005852320421639983   -0.0022083334343530846   -0.0002493082194616332
0.00045763854722221785   -0.001163340656023869   -0.000199843584757868
0.0011994150675913588   -0.002218327650190287   -0.00027535871606659644
0.0005852320421639983   -0.0022083334343530846   -0.0002493082194616332
0.0009449391664144663   -0.001199913778712291   -0.00019947307982607552
0.00045763854722221785   -0.001163340656023869   -0.000199843584757868
0.0005855559033274755   -0.0022030638523180585   -0.000255628498307498
0.0009292485300166018   -0.0011900526022230681   -0.00022649029992341988
0.0004578400371333976   -0.0011492122198847904   -0.00021295701741503453
0.0005855559033274755   -0.0022030638523180585   -0.000255628498307498
0.0011994150675913588   -0.002218327650190287   -0.00027535871606659644
0.0009292485300166018   -0.0011900526022230681   -0.00022649029992341988
0.0011829771749186388   -0.0022020928199393552   -0.00029343438949804766
0.0004578400371333976   -0.0011492122198847904   -0.00021295701741503453
0.0009047866013431479   -0.0011686076388862244   -0.00025476185293969776
0.0011829771749186388   -0.0022020928199393552   -0.00029343438949804766
0.0009292485300166018   -0.0011900526022230681   -0.00022649029992341988
0.0004578400371333976   -0.0011492122198847904   -0.00021295701741503453
0.0011829771749186388   -0.0022020928199393552   -0.00029343438949804766
0.0005850276001172794   -0.002192599659673016   -0.0002632672784106179
0.0005855559033274755   -0.0022030638523180585   -0.000255628498307498
0.0004578400371333976   -0.0011492122198847904   -0.00021295701741503453
0.0011829771749186388   -0.0022020928199393552   -0.00029343438949804766
0.0005855559033274755   -0.0022030638523180585   -0.000255628498307498
0.0009292485300166018   -0.0011900526022230681   -0.00022649029992341988
-0.0016427991971861254   -0.0022411849246172896   -0.00033723075186302566
-0.00195033278259072   -0.0034546845750741363   -0.0003613548842750463
-0.0010573656630542144   -0.002212678747984217   -0.0002962656577311889
-0.001669809962351842   -0.0022639397261109157   -0.00030920641588261564
-0.00195033278259072   -0.0034546845750741363   -0.0003613548842750463
-0.0012690458524408986   -0.003436887124105692   -0.00032853598774302173
-0.0010573656630542144   -0.002212678747984217   -0.0002962656577311889
-0.0012689458048880749   -0.0034509213370706037   -0.00031571757975084203
-0.001669809962351842   -0.0022639397261109157   -0.00030920641588261564
-0.0010580810590284113   -0.0022292615496094423   -0.0002781186486534952
-0.0012689458048880749   -0.0034509213370706037   -0.00031571757975084203
-0.0010573656630542144   -0.002212678747984217   -0.0002962656577311889
-0.001669809962351842   -0.0022639397261109157   -0.00030920641588261564
-0.0012689458048880749   -0.0034509213370706037   -0.00031571757975084203
-0.001967600663838663   -0.0034737512872543156   -0.0003431576961674198
-0.00195033278259072   -0.0034546845750741363   -0.0003613548842750463
-0.001669809962351842   -0.0022639397261109157   -0.00030920641588261564
-0.0012689458048880749   -0.0034509213370706037   -0.00031571757975084203
-0.00195033278259072   -0.0034546845750741363   -0.0003613548842750463
-0.0010573656630542144   -0.002212678747984217   -0.0002962656577311889
-0.001669809962351842   -0.0022639397261109157   -0.00030920641588261564
-0.001967600663838663   -0.0034737512872543156   -0.0003431576961674198
-0.0010580810590284113   -0.0022292615496094423   -0.0002781186486534952
-0.0016861024146990634   -0.0022783554389759772   -0.0002831868244235079
-0.001967600663838663   -0.0034737512872543156   -0.0003431576961674198
-0.0012689458048880749   -0.0034509213370706037   -0.00031571757975084203
-0.0010580810590284113   -0.0022292615496094423   -0.0002781186486534952
-0.0012683542474465426   -0.0034621853580657277   -0.00030420508188476486
-0.0016861024146990634   -0.0022783554389759772   -0.0002831868244235079
-0.0010591189906561486   -0.0022409317676880874   -0.0002613431252704475
-0.0012683542474465426   -0.0034621853580657277   -0.00030420508188476486
-0.0010580810590284113   -0.0022292615496094423   -0.0002781186486534952
-0.0016861024146990634   -0.0022783554389759772   -0.0002831868244235079
-0.0012683542474465426   -0.0034621853580657277   -0.00030420508188476486
-0.0019767060092078124   -0.0034874072374774722   -0.00032677605065915794
-0.001967600663838663   -0.0034737512872543156   -0.0003431576961674198
-0.0016861024146990634   -0.0022783554389759772   -0.0002831868244235079
-0.0012683542474465426   -0.0034621853580657277   -0.00030420508188476486
-0.001967600663838663   -0.0034737512872543156   -0.0003431576961674198
-0.0010580810590284113   -0.0022292615496094423   -0.0002781186486534952
-0.0016861024146990634   -0.0022783554389759772   -0.0002831868244235079
-0.0019767060092078124   -0.0034874072374774722   -0.00032677605065915794
-0.0010591189906561486   -0.0022409317676880874   -0.0002613431252704475
-0.0017046386485467747   -0.0022890460932289236   -0.0002593608963832428
-0.0019767060092078124   -0.0034874072374774722   -0.00032677605065915794
-0.0012683542474465426   -0.0034621853580657277   -0.00030420508188476486
-0.0010591189906561486   -0.0022409317676880874   -0.0002613431252704475
-0.0012640837285495508   -0.003471628378930125   -0.00029381464292960353
-0.0017046386485467747   -0.0022890460932289236   -0.0002593608963832428
-0.0010554380958991466   -0.002248809010898727   -0.00024564295016077153
-0.0012640837285495508   -0.003471628378930125   -0.00029381464292960353
-0.0010591189906561486   -0.0022409317676880874   -0.0002613431252704475
-0.0017046386485467747   -0.0022890460932289236   -0.0002593608963832428
-0.0012640837285495508   -0.003471628378930125   -0.00029381464292960353
-0.0019859500521487304   -0.003499930538942205   -0.0003124351771919459
-0.0019767060092078124   -0.0034874072374774722   -0.00032677605065915794
-0.0017046386485467747   -0.0022890460932289236   -0.0002593608963832428
-0.0012640837285495508   -0.003471628378930125   -0.00029381464292960353
-0.0019767060092078124   -0.0034874072374774722   -0.00032677605065915794
-0.0010591189906561486   -0.0022409317676880874   -0.0002613431252704475
-0.0010573656630542144   -0.002212678747984217   -0.0002962656577311889
-0.0012690458524408986   -0.003436887124105692   -0.00032853598774302173
-0.0005076300092328155   -0.0021983293596679445   -0.00026787530065714154
-0.0010580810590284113   -0.0022292615496094423   -0.0002781186486534952
-0.0012690458524408986   -0.003436887124105692   -0.00032853598774302173
-0.0006317182461199313   -0.0034274611339445015   -0.0003058618190935374
-0.0005076300092328155   -0.0021983293596679445   -0.00026787530065714154
-0.0006289373519733649   -0.003436150009080806   -0.00029721273991512454
-0.0010580810590284113   -0.0022292615496094423   -0.0002781186486534952
-0.0005047668163480083   -0.0022088132145275732   -0.0002574643187525825
-0.0006289373519733649   -0.003436150009080806   -0.00029721273991512454
-0.0005076300092328155   -0.0021983293596679445   -0.00026787530065714154
-0.0010580810590284113   -0.0022292615496094423   -0.0002781186486534952
-0.0006289373519733649   -0.003436150009080806   -0.00029721273991512454
-0.0012689458048880749   -0.0034509213370706037   -0.00031571757975084203
-0.0012690458524408986   -0.003436887124105692   -0.00032853598774302173
-0.0010580810590284113   -0.0022292615496094423   -0.0002781186486534952
-0.0006289373519733649   -0.003436150009080806   -0.00029721273991512454
-0.0012690458524408986   -0.003436887124105692   -0.00032853598774302173
-0.0005076300092328155   -0.0021983293596679445   -0.00026787530065714154
-0.0010580810590284113   -0.0022292615496094423   -0.0002781186486534952
-0.0012689458048880749   -0.0034509213370706037   -0.00031571757975084203
-0.0005047668163480083   -0.0022088132145275732   -0.0002574643187525825
-0.0010591189906561486   -0.0022409317676880874   -0.0002613431252704475
-0.0012689458048880749   -0.0034509213370706037   -0.00031571757975084203
-0.0006289373519733649   -0.003436150009080806   -0.00029721273991512454
-0.0005047668163480083   -0.0022088132145275732   -0.0002574643187525825
-0.0006257384195018637   -0.0034425030052032822   -0.0002898417523529859
-0.0010591189906561486   -0.0022409317676880874   -0.0002613431252704475
-0.000501627131894296   -0.002215022233528772   -0.0002483494070859203
-0.0006257384195018637   -0.0034425030052032822   -0.0002898417523529859
-0.0005047668163480083   -0.0022088132145275732   -0.0002574643187525825
-0.0010591189906561486   -0.0022409317676880874   -0.0002613431252704475
-0.0006257384195018637   -0.0034425030052032822   -0.0002898417523529859
-0.0012683542474465426   -0.0034621853580657277   -0.00030420508188476486
-0.0012689458048880749   -0.0034509213370706037   -0.00031571757975084203
-0.0010591189906561486   -0.0022409317676880874   -0.0002613431252704475
-0.0006257384195018637   -0.0034425030052032822   -0.0002898417523529859
-0.0012689458048880749   -0.0034509213370706037   -0.00031571757975084203
-0.0005047668163480083   -0.0022088132145275732   -0.0002574643187525825
-0.0010591189906561486   -0.0022409317676880874   -0.0002613431252704475
-0.0012683542474465426   -0.0034621853580657277   -0.00030420508188476486
-0.000501627131894296   -0.002215022233528772   -0.0002483494070859203
-0.0010554380958991466   -0.002248809010898727   -0.00024564295016077153
-0.0012683542474465426   -0.0034621853580657277   -0.00030420508188476486
-0.0006257384195018637   -0.0034425030052032822   -0.0002898417523529859
-0.000501627131894296   -0.002215022233528772   -0.0002483494070859203
-0.0006217201723778479   -0.003446563485533414   -0.00028377597599792414
-0.0010554380958991466   -0.002248809010898727   -0.00024564295016077153
-0.000497461378779911   -0.0022170448396091735   -0.0002405313158205366
-0.0006217201723778479   -0.003446563485533414   -0.00028377597599792414
-0.000501627131894296   -0.002215022233528772   -0.0002483494070859203
-0.0010554380958991466   -0.002248809010898727   -0.00024564295016077153
-0.0006217201723778479   -0.003446563485533414   -0.00028377597599792414
-0.0012640837285495508   -0.003471628378930125   -0.00029381464292960353
-0.0012683542474465426   -0.0034621853580657277   -0.00030420508188476486
-0.0010554380958991466   -0.002248809010898727   -0.00024564295016077153
-0.0006217201723778479   -0.003446563485533414   -0.00028377597599792414
-0.0012683542474465426   -0.0034621853580657277   -0.00030420508188476486
-0.000501627131894296   -0.002215022233528772   -0.0002483494070859203
-0.0005076300092328155   -0.0021983293596679445   -0.00026787530065714154
-0.0006317182461199313   -0.0034274611339445015   -0.0003058618190935374
2.5281350929726787e-05   -0.0021975388521814584   -0.00025059049263904287
-0.0005047668163480083   -0.0022088132145275732   -0.0002574643187525825
-0.0006317182461199313   -0.0034274611339445015   -0.0003058618190935374
-1.2087653511588126e-05   -0.003425698308414335   -0.0002929931373339991
2.5281350929726787e-05   -0.0021975388521814584   -0.00025059049263904287
-8.208105604797939e-06   -0.0034289635687128634   -0.00028856517388786327
-0.0005047668163480083   -0.0022088132145275732   -0.0002574643187525825
2.9269017714321926e-05   -0.0022019799602140872   -0.00024788433426372984
-8.208105604797939e-06   -0.0034289635687128634   -0.00028856517388786327
2.5281350929726787e-05   -0.0021975388521814584   -0.00025059049263904287
-0.0005047668163480083   -0.0022088132145275732   -0.0002574643187525825
-8.208105604797939e-06   -0.0034289635687128634   -0.00028856517388786327
-0.0006289373519733649   -0.003436150009080806   -0.00029721273991512454
-0.0006317182461199313   -0.0034274611339445015   -0.0003058618190935374
-0.0005047668163480083   -0.0022088132145275732   -0.0002574643187525825
-8.208105604797939e-06   -0.0034289635687128634   -0.00028856517388786327
-0.0006317182461199313   -0.0034274611339445015   -0.0003058618190935374
2.5281350929726787e-05   -0.0021975388521814584   -0.00025059049263904287
-0.0005047668163480083   -0.0022088132145275732   -0.0002574643187525825
-0.0006289373519733649   -0.003436150009080806   -0.00029721273991512454
2.9269017714321926e-05   -0.0022019799602140872   -0.00024788433426372984
-0.000501627131894296   -0.002215022233528772   -0.0002483494070859203
-0.0006289373519733649   -0.003436150009080806   -0.00029721273991512454
-8.208105604797939e-06   -0.0034289635687128634   -0.00028856517388786327
2.9269017714321926e-05   -0.0022019799602140872   -0.00024788433426372984
-4.9935997328549275e-06   -0.003429874835680601   -0.0002854048050025756
-0.000501627131894296   -0.002215022233528772   -0.0002483494070859203
3.2393162068400705e-05   -0.002202160220288368   -0.00024644578818724857
-4.9935997328549275e-06   -0.003429874835680601   -0.0002854048050025756
2.9269017714321926e-05   -0.0022019799602140872   -0.00024788433426372984
-0.000501627131894296   -0.002215022233528772   -0.0002483494070859203
-4.9935997328549275e-06   -0.003429874835680601   -0.0002854048050025756
-0.0006257384195018637   -0.0034425030052032822   -0.0002898417523529859
-0.0006289373519733649   -0.003436150009080806   -0.00029721273991512454
-0.000501627131894296   -0.002215022233528772   -0.0002483494070859203
-4.9935997328549275e-06   -0.003429874835680601   -0.0002854048050025756
-0.0006289373519733649   -0.003436150009080806   -0.00029721273991512454
2.9269017714321926e-05   -0.0022019799602140872   -0.00024788433426372984
-0.000501627131894296   -0.002215022233528772   -0.0002483494070859203
-0.0006257384195018637   -0.0034425030052032822   -0.0002898417523529859
3.2393162068400705e-05   -0.002202160220288368   -0.00024644578818724857
-0.000497461378779911   -0.0022170448396091735   -0.0002405313158205366
-0.0006257384195018637   -0.0034425030052032822   -0.0002898417523529859
-4.9935997328549275e-06   -0.003429874835680601   -0.0002854048050025756
3.2393162068400705e-05   -0.002202160220288368   -0.00024644578818724857
-2.3469479595701658e-06   -0.0034283984716594624   -0.00028356330868382326
-0.000497461378779911   -0.0022170448396091735   -0.0002405313158205366
3.511131888678593e-05   -0.0021980182606749776   -0.00024634584295300593
-2.3469479595701658e-06   -0.0034283984716594624   -0.00028356330868382326
3.2393162068400705e-05   -0.002202160220288368   -0.00024644578818724857
-0.000497461378779911   -0.0022170448396091735   -0.0002405313158205366
-2.3469479595701658e-06   -0.0034283984716594624   -0.00028356330868382326
-0.0006217201723778479   -0.003446563485533414   -0.00028377597599792414
-0.0006257384195018637   -0.0034425030052032822   -0.0002898417523529859
-0.000497461378779911   -0.0022170448396091735   -0.0002405313158205366
-2.3469479595701658e-06   -0.0034283984716594624   -0.00028356330868382326
-0.0006257384195018637   -0.0034425030052032822   -0.0002898417523529859
3.2393162068400705e-05   -0.002202160220288368   -0.00024644578818724857
2.5281350929726787e-05   -0.0021975388521814584   -0.00025059049263904287
-1.2087653511588126e-05   -0.003425698308414335   -0.0002929931373339991
0.0005813876489099232   -0.0022094869484812867   -0.00024416243270943417
2.9269017714321926e-05   -0.0022019799602140872   -0.00024788433426372984
-1.2087653511588126e-05   -0.003425698308414335   -0.0002929931373339991
0.0006289433106862763   -0.0034309045125077405   -0.00028993750692942225
0.0005813876489099232   -0.0022094869484812867   -0.00024416243270943417
0.0006334619904870368   -0.0034290114694872993   -0.00028980700329127155
2.9269017714321926e-05   -0.0022019799602140872   -0.00024788433426372984
0.0005852320421639983   -0.0022083334343530846   -0.0002493082194616332
0.0006334619904870368   -0.0034290114694872993   -0.00028980700329127155
0.0005813876489099232   -0.0022094869484812867   -0.00024416243270943417
2.9269017714321926e-05   -0.0022019799602140872   -0.00024788433426372984
0.0006334619904870368   -0.0034290114694872993   -0.00028980700329127155
-8.208105604797939e-06   -0.0034289635687128634   -0.00028856517388786327
-1.2087653511588126e-05   -0.003425698308414335   -0.0002929931373339991
2.9269017714321926e-05   -0.0022019799602140872   -0.00024788433426372984
0.0006334619904870368   -0.0034290114694872993   -0.00028980700329127155
-1.2087653511588126e-05   -0.003425698308414335   -0.0002929931373339991
0.0005813876489099232   -0.0022094869484812867   -0.00024416243270943417
2.9269017714321926e-05   -0.0022019799602140872   -0.00024788433426372984
-8.208105604797939e-06   -0.0034289635687128634   -0.00028856517388786327
0.0005852320421639983   -0.0022083334343530846   -0.0002493082194616332
3.2393162068400705e-05   -0.002202160220288368   -0.00024644578818724857
-8.208105604797939e-06   -0.0034289635687128634   -0.00028856517388786327
0.0006334619904870368   -0.0034290114694872993   -0.00028980700329127155
0.0005852320421639983   -0.0022083334343530846   -0.0002493082194616332
0.0006355089562415953   -0.003425006353156424   -0.0002908715958424926
3.2393162068400705e-05   -0.002202160220288368   -0.00024644578818724857
0.0005855559033274755   -0.0022030638523180585   -0.000255628498307498
0.0006355089562415953   -0.003425006353156424   -0.0002908715958424926
0.0005852320421639983   -0.0022083334343530846   -0.0002493082194616332
3.2393162068400705e-05   -0.002202160220288368   -0.00024644578818724857
0.0006355089562415953   -0.003425006353156424   -0.0002908715958424926
-4.9935997328549275e-06   -0.003429874835680601   -0.0002854048050025756
-8.208105604797939e-06   -0.0034289635687128634   -0.00028856517388786327
3.2393162068400705e-05   -0.002202160220288368   -0.00024644578818724857
0.0006355089562415953   -0.003425006353156424   -0.0002908715958424926
-8.208105604797939e-06   -0.0034289635687128634   -0.00028856517388786327
0.0005852320421639983   -0.0022083334343530846   -0.0002493082194616332
3.2393162068400705e-05   -0.002202160220288368   -0.00024644578818724857
-4.9935997328549275e-06   -0.003429874835680601   -0.0002854048050025756
0.0005855559033274755   -0.0022030638523180585   -0.000255628498307498
3.511131888678593e-05   -0.0021980182606749776   -0.00024634584295300593
-4.9935997328549275e-06   -0.003429874835680601   -0.0002854048050025756
0.0006355089562415953   -0.003425006353156424   -0.0002908715958424926
0.0005855559033274755   -0.0022030638523180585   -0.000255628498307498
0.0006358580417995006   -0.003417946690615315   -0.00029318243152794707
3.511131888678593e-05   -0.0021980182606749776   -0.00024634584295300593
0.0005850276001172794   -0.002192599659673016   -0.0002632672784106179
0.0006358580417995006   -0.003417946690615315   -0.00029318243152794707
0.0005855559033274755   -0.0022030638523180585   -0.000255628498307498
3.511131888678593e-05   -0.0021980182606749776   -0.00024634584295300593
0.0006358580417995006   -0.003417946690615315   -0.00029318243152794707
-2.3469479595701658e-06   -0.0034283984716594624   -0.00028356330868382326
-4.9935997328549275e-06   -0.003429874835680601   -0.0002854048050025756
3.511131888678593e-05   -0.0021980182606749776   -0.00024634584295300593
0.0006358580417995006   -0.003417946690615315   -0.00029318243152794707
-4.9935997328549275e-06   -0.003429874835680601   -0.0002854048050025756
0.0005855559033274755   -0.0022030638523180585   -0.000255628498307498
0.0005813876489099232   -0.0022094869484812867   -0.00024416243270943417
0.0006289433106862763   -0.0034309045125077405   -0.00028993750692942225
0.0012156464002791214   -0.0022308018597285923   -0.00024557100040513636
0.0005852320421639983   -0.0022083334343530846   -0.0002493082194616332
0.0006289433106862763   -0.0034309045125077405   -0.00028993750692942225
0.0013366311742854667   -0.003440186335965602   -0.0002948423068196356
0.0012156464002791214   -0.0022308018597285923   -0.00024557100040513636
0.001338126600498106   -0.0034347350468588605   -0.0002991624211407604
0.0005852320421639983   -0.0022083334343530846   -0.0002493082194616332
0.0012077090444888453   -0.002226336714031507   -0.00025940521702775003
0.001338126600498106   -0.0034347350468588605   -0.0002991624211407604
0.0012156464002791214   -0.0022308018597285923   -0.00024557100040513636
0.0005852320421639983   -0.0022083334343530846   -0.0002493082194616332
0.001338126600498106   -0.0034347350468588605   -0.0002991624211407604
0.0006334619904870368   -0.0034290114694872993   -0.00028980700329127155
0.0006289433106862763   -0.0034309045125077405   -0.00028993750692942225
0.0005852320421639983   -0.0022083334343530846   -0.0002493082194616332
0.001338126600498106   -0.0034347350468588605   -0.0002991624211407604
0.0006289433106862763   -0.0034309045125077405   -0.00028993750692942225
0.0012156464002791214   -0.0022308018597285923   -0.00024557100040513636
0.0005852320421639983   -0.0022083334343530846   -0.0002493082194616332
0.0006334619904870368   -0.0034290114694872993   -0.00028980700329127155
0.0012077090444888453   -0.002226336714031507   -0.00025940521702775003
0.0005855559033274755   -0.0022030638523180585   -0.000255628498307498
0.0006334619904870368   -0.0034290114694872993   -0.00028980700329127155
0.001338126600498106   -0.0034347350468588605   -0.0002991624211407604
0.0012077090444888453   -0.002226336714031507   -0.00025940521702775003
0.001337179655765181   -0.0034283308394767557   -0.00030543304458068845
0.0005855559033274755   -0.0022030638523180585   -0.000255628498307498
0.0011994150675913588   -0.002218327650190287   -0.00027535871606659644
0.001337179655765181   -0.0034283308394767557   -0.00030543304458068845
0.0012077090444888453   -0.002226336714031507   -0.00025940521702775003
0.0005855559033274755   -0.0022030638523180585   -0.000255628498307498
0.001337179655765181   -0.0034283308394767557   -0.00030543304458068845
0.0006355089562415953   -0.003425006353156424   -0.0002908715958424926
0.0006334619904870368   -0.0034290114694872993   -0.00028980700329127155
0.0005855559033274755   -0.0022030638523180585   -0.000255628498307498
0.001337179655765181   -0.0034283308394767557   -0.00030543304458068845
0.0006334619904870368   -0.0034290114694872993   -0.00028980700329127155
0.0012077090444888453   -0.002226336714031507   -0.00025940521702775003
0.0005855559033274755   -0.0022030638523180585   -0.000255628498307498
0.0006355089562415953   -0.003425006353156424   -0.0002908715958424926
0.0011994150675913588   -0.002218327650190287   -0.00027535871606659644
0.0005850276001172794   -0.002192599659673016   -0.0002632672784106179
0.0006355089562415953   -0.003425006353156424   -0.0002908715958424926
0.001337179655765181   -0.0034283308394767557   -0.00030543304458068845
0.0011994150675913588   -0.002218327650190287   -0.00027535871606659644
0.0013306280922446624   -0.003416663705943485   -0.0003136397878623485
0.0005850276001172794   -0.002192599659673016   -0.0002632672784106179
0.0011829771749186388   -0.0022020928199393552   -0.00029343438949804766
0.0013306280922446624   -0.003416663705943485   -0.0003136397878623485
0.0011994150675913588   -0.002218327650190287   -0.00027535871606659644
0.0005850276001172794   -0.002192599659673016   -0.0002632672784106179
0.0013306280922446624   -0.003416663705943485   -0.0003136397878623485
0.0006358580417995006   -0.003417946690615315   -0.00029318243152794707
0.0006355089562415953   -0.003425006353156424   -0.0002908715958424926
0.0005850276001172794   -0.002192599659673016   -0.0002632672784106179
0.0013306280922446624   -0.003416663705943485   -0.0003136397878623485
0.0006355089562415953   -0.003425006353156424   -0.0002908715958424926
0.0011994150675913588   -0.002218327650190287   -0.00027535871606659644
-0.00195033278259072   -0.0034546845750741363   -0.0003613548842750463
-0.002131308749020782   -0.004763224332305934   -0.00036984947846785334
-0.0012690458524408986   -0.003436887124105692   -0.00032853598774302173
-0.001967600663838663   -0.0034737512872543156   -0.0003431576961674198
-0.002131308749020782   -0.004763224332305934   -0.00036984947846785334
-0.0014057159958373903   -0.004756277957115947   -0.0003442214777120627
-0.0012690458524408986   -0.003436887124105692   -0.00032853598774302173
-0.0014037745596639187   -0.004768037282711321   -0.0003364782062595008
-0.001967600663838663   -0.0034737512872543156   -0.0003431576961674198
-0.0012689458048880749   -0.0034509213370706037   -0.00031571757975084203
-0.0014037745596639187   -0.004768037282711321   -0.0003364782062595008
-0.0012690458524408986   -0.003436887124105692   -0.00032853598774302173
-0.001967600663838663   -0.0034737512872543156   -0.0003431576961674198
-0.0014037745596639187   -0.004768037282711321   -0.0003364782062595008
-0.002138367713561113   -0.004779105939755956   -0.00036083901528876803
-0.002131308749020782   -0.004763224332305934   -0.00036984947846785334
-0.001967600663838663   -0.0034737512872543156   -0.0003431576961674198
-0.0014037745596639187   -0.004768037282711321   -0.0003364782062595008
-0.002131308749020782   -0.004763224332305934   -0.00036984947846785334
-0.0012690458524408986   -0.003436887124105692   -0.00032853598774302173
-0.001967600663838663   -0.0034737512872543156   -0.0003431576961674198
-0.002138367713561113   -0.004779105939755956   -0.00036083901528876803
-0.0012689458048880749   -0.0034509213370706037   -0.00031571757975084203
-0.0019767060092078124   -0.0034874072374774722   -0.00032677605065915794
-0.002138367713561113   -0.004779105939755956   -0.00036083901528876803
-0.0014037745596639187   -0.004768037282711321   -0.0003364782062595008
-0.0012689458048880749   -0.0034509213370706037   -0.00031571757975084203
-0.0014005030655547396   -0.004779045395869079   -0.0003300257264665014
-0.0019767060092078124   -0.0034874072374774722   -0.00032677605065915794
-0.0012683542474465426   -0.0034621853580657277   -0.00030420508188476486
-0.0014005030655547396   -0.004779045395869079   -0.0003300257264665014
-0.0012689458048880749   -0.0034509213370706037   -0.00031571757975084203
-0.0019767060092078124   -0.0034874072374774722   -0.00032677605065915794
-0.0014005030655547396   -0.004779045395869079   -0.0003300257264665014
-0.002139481053481781   -0.004792253805317313   -0.0003536815768997589
-0.002138367713561113   -0.004779105939755956   -0.00036083901528876803
-0.0019767060092078124   -0.0034874072374774722   -0.00032677605065915794
-0.0014005030655547396   -0.004779045395869079   -0.0003300257264665014
-0.002138367713561113   -0.004779105939755956   -0.00036083901528876803
-0.0012689458048880749   -0.0034509213370706037   -0.00031571757975084203
-0.0019767060092078124   -0.0034874072374774722   -0.00032677605065915794
-0.002139481053481781   -0.004792253805317313   -0.0003536815768997589
-0.0012683542474465426   -0.0034621853580657277   -0.00030420508188476486
-0.0019859500521487304   -0.003499930538942205   -0.0003124351771919459
-0.002139481053481781   -0.004792253805317313   -0.0003536815768997589
-0.0014005030655547396   -0.004779045395869079   -0.0003300257264665014
-0.0012683542474465426   -0.0034621853580657277   -0.00030420508188476486
-0.001394542663085066   -0.004790156454540746   -0.0003247599051324989
-0.0019859500521487304   -0.003499930538942205   -0.0003124351771919459
-0.0012640837285495508   -0.003471628378930125   -0.00029381464292960353
-0.001394542663085066   -0.004790156454540746   -0.0003247599051324989
-0.0012683542474465426   -0.0034621853580657277   -0.00030420508188476486
-0.0019859500521487304   -0.003499930538942205   -0.0003124351771919459
-0.001394542663085066   -0.004790156454540746   -0.0003247599051324989
-0.0021385853413596867   -0.004806782346861657   -0.00034855167702762694
-0.002139481053481781   -0.004792253805317313   -0.0003536815768997589
-0.0019859500521487304   -0.003499930538942205   -0.0003124351771919459
-0.001394542663085066   -0.004790156454540746   -0.0003247599051324989
-0.002139481053481781   -0.004792253805317313   -0.0003536815768997589
-0.0012683542474465426   -0.0034621853580657277   -0.00030420508188476486
-0.0012690458524408986   -0.003436887124105692   -0.00032853598774302173
-0.0014057159958373903   -0.004756277957115947   -0.0003442214777120627
-0.0006317182461199313   -0.0034274611339445015   -0.0003058618190935374
-0.0012689458048880749   -0.0034509213370706037   -0.00031571757975084203
-0.0014057159958373903   -0.004756277957115947   -0.0003442214777120627
-0.0007320165109878202   -0.004751982552556634   -0.0003268219837879543
-0.0006317182461199313   -0.0034274611339445015   -0.0003058618190935374
-0.000728146191227849   -0.004758983914915773   -0.0003198481000685514
-0.0012689458048880749   -0.0034509213370706037   -0.00031571757975084203
-0.0006289373519733649   -0.003436150009080806   -0.00029721273991512454
-0.000728146191227849   -0.004758983914915773   -0.0003198481000685514
-0.0006317182461199313   -0.0034274611339445015   -0.0003058618190935374
-0.0012689458048880749   -0.0034509213370706037   -0.00031571757975084203
-0.000728146191227849   -0.004758983914915773   -0.0003198481000685514
-0.0014037745596639187   -0.004768037282711321   -0.0003364782062595008
-0.0014057159958373903   -0.004756277957115947   -0.0003442214777120627
-0.0012689458048880749   -0.0034509213370706037   -0.00031571757975084203
-0.000728146191227849   -0.004758983914915773   -0.0003198481000685514
-0.0014057159958373903   -0.004756277957115947   -0.0003442214777120627
-0.0006317182461199313   -0.0034274611339445015   -0.0003058618190935374
-0.0012689458048880749   -0.0034509213370706037   -0.00031571757975084203
-0.0014037745596639187   -0.004768037282711321   -0.0003364782062595008
-0.0006289373519733649   -0.003436150009080806   -0.00029721273991512454
-0.0012683542474465426   -0.0034621853580657277   -0.00030420508188476486
-0.0014037745596639187   -0.004768037282711321   -0.0003364782062595008
-0.000728146191227849   -0.004758983914915773   -0.0003198481000685514
-0.0006289373519733649   -0.003436150009080806   -0.00029721273991512454
-0.0007237281947898502   -0.0047655200242442556   -0.00031415875620754063
-0.0012683542474465426   -0.0034621853580657277   -0.00030420508188476486
-0.0006257384195018637   -0.0034425030052032822   -0.0002898417523529859
-0.0007237281947898502   -0.0047655200242442556   -0.00031415875620754063
-0.0006289373519733649   -0.003436150009080806   -0.00029721273991512454
-0.0012683542474465426   -0.0034621853580657277   -0.00030420508188476486
-0.0007237281947898502   -0.0047655200242442556   -0.00031415875620754063
-0.0014005030655547396   -0.004779045395869079   -0.0003300257264665014
-0.0014037745596639187   -0.004768037282711321   -0.0003364782062595008
-0.0012683542474465426   -0.0034621853580657277   -0.00030420508188476486
-0.0007237281947898502   -0.0047655200242442556   -0.00031415875620754063
-0.0014037745596639187   -0.004768037282711321   -0.0003364782062595008
-0.0006289373519733649   -0.003436150009080806   -0.00029721273991512454
-0.0012683542474465426   -0.0034621853580657277   -0.00030420508188476486
-0.0014005030655547396   -0.004779045395869079   -0.0003300257264665014
-0.0006257384195018637   -0.0034425030052032822   -0.0002898417523529859
-0.0012640837285495508   -0.003471628378930125   -0.00029381464292960353
-0.0014005030655547396   -0.004779045395869079   -0.0003300257264665014
-0.0007237281947898502   -0.0047655200242442556   -0.00031415875620754063
-0.0006257384195018637   -0.0034425030052032822   -0.0002898417523529859
-0.000718671107026154   -0.004771615085209184   -0.00030979183206038057
-0.0012640837285495508   -0.003471628378930125   -0.00029381464292960353
-0.0006217201723778479   -0.003446563485533414   -0.00028377597599792414
-0.000718671107026154   -0.004771615085209184   -0.00030979183206038057
-0.0006257384195018637   -0.0034425030052032822   -0.0002898417523529859
-0.0012640837285495508   -0.003471628378930125   -0.00029381464292960353
-0.000718671107026154   -0.004771615085209184   -0.00030979183206038057
-0.001394542663085066   -0.004790156454540746   -0.0003247599051324989
-0.0014005030655547396   -0.004779045395869079   -0.0003300257264665014
-0.0012640837285495508   -0.003471628378930125   -0.00029381464292960353
-0.000718671107026154   -0.004771615085209184   -0.00030979183206038057
-0.0014005030655547396   -0.004779045395869079   -0.0003300257264665014
-0.0006257384195018637   -0.0034425030052032822   -0.0002898417523529859
-0.0006317182461199313   -0.0034274611339445015   -0.0003058618190935374
-0.0007320165109878202   -0.004751982552556634   -0.0003268219837879543
-1.2087653511588126e-05   -0.003425698308414335   -0.0002929931373339991
-0.0006289373519733649   -0.003436150009080806   -0.00029721273991512454
-0.0007320165109878202   -0.004751982552556634   -0.0003268219837879543
-7.662615502489773e-05   -0.004749316974333061   -0.000318190170045808
-1.2087653511588126e-05   -0.003425698308414335   -0.0002929931373339991
-7.171269476446148e-05   -0.004751418560487968   -0.0003120718395580615
-0.0006289373519733649   -0.003436150009080806   -0.00029721273991512454
-8.208105604797939e-06   -0.0034289635687128634   -0.00028856517388786327
-7.171269476446148e-05   -0.004751418560487968   -0.0003120718395580615
-1.2087653511588126e-05   -0.003425698308414335   -0.0002929931373339991
-0.0006289373519733649   -0.003436150009080806   -0.00029721273991512454
-7.171269476446148e-05   -0.004751418560487968   -0.0003120718395580615
-0.000728146191227849   -0.004758983914915773   -0.0003198481000685514
-0.0007320165109878202   -0.004751982552556634   -0.0003268219837879543
-0.0006289373519733649   -0.003436150009080806   -0.00029721273991512454
-7.171269476446148e-05   -0.004751418560487968   -0.0003120718395580615
-0.0007320165109878202   -0.004751982552556634   -0.0003268219837879543
-1.2087653511588126e-05   -0.003425698308414335   -0.0002929931373339991
-0.0006289373519733649   -0.003436150009080806   -0.00029721273991512454
-0.000728146191227849   -0.004758983914915773   -0.0003198481000685514
-8.208105604797939e-06   -0.0034289635687128634   -0.00028856517388786327
-0.0006257384195018637   -0.0034425030052032822   -0.0002898417523529859
-0.000728146191227849   -0.004758983914915773   -0.0003198481000685514
-7.171269476446148e-05   -0.004751418560487968   -0.0003120718395580615
-8.208105604797939e-06   -0.0034289635687128634   -0.00028856517388786327
-6.728449322017851e-05   -0.004753014427324161   -0.0003072329700051053
-0.0006257384195018637   -0.0034425030052032822   -0.0002898417523529859
-4.9935997328549275e-06   -0.003429874835680601   -0.0002854048050025756
-6.728449322017851e-05   -0.004753014427324161   -0.0003072329700051053
-8.208105604797939e-06   -0.0034289635687128634   -0.00028856517388786327
-0.0006257384195018637   -0.0034425030052032822   -0.0002898417523529859
-6.728449322017851e-05   -0.004753014427324161   -0.0003072329700051053
-0.0007237281947898502   -0.0047655200242442556   -0.00031415875620754063
-0.000728146191227849   -0.004758983914915773   -0.0003198481000685514
-0.0006257384195018637   -0.0034425030052032822   -0.0002898417523529859
-6.728449322017851e-05   -0.004753014427324161   -0.0003072329700051053
-0.000728146191227849   -0.004758983914915773   -0.0003198481000685514
-8.208105604797939e-06   -0.0034289635687128634   -0.00028856517388786327
-0.0006257384195018637   -0.0034425030052032822   -0.0002898417523529859
-0.0007237281947898502   -0.0047655200242442556   -0.00031415875620754063
-4.9935997328549275e-06   -0.003429874835680601   -0.0002854048050025756
-0.0006217201723778479   -0.003446563485533414   -0.00028377597599792414
-0.0007237281947898502   -0.0047655200242442556   -0.00031415875620754063
-6.728449322017851e-05   -0.004753014427324161   -0.0003072329700051053
-4.9935997328549275e-06   -0.003429874835680601   -0.0002854048050025756
-6.35619746182476e-05   -0.004754091838844211   -0.00030371639712039065
-0.0006217201723778479   -0.003446563485533414   -0.00028377597599792414
-2.3469479595701658e-06   -0.0034283984716594624   -0.00028356330868382326
-6.35619746182476e-05   -0.004754091838844211   -0.00030371639712039065
-4.9935997328549275e-06   -0.003429874835680601   -0.0002854048050025756
-0.0006217201723778479   -0.003446563485533414   -0.00028377597599792414
-6.35619746182476e-05   -0.004754091838844211   -0.00030371639712039065
-0.000718671107026154   -0.004771615085209184   -0.00030979183206038057
-0.0007237281947898502   -0.0047655200242442556   -0.00031415875620754063
-0.0006217201723778479   -0.003446563485533414   -0.00028377597599792414
-6.35619746182476e-05   -0.004754091838844211   -0.00030371639712039065
-0.0007237281947898502   -0.0047655200242442556   -0.00031415875620754063
-4.9935997328549275e-06   -0.003429874835680601   -0.0002854048050025756
-1.2087653511588126e-05   -0.003425698308414335   -0.0002929931373339991
-7.662615502489773e-05   -0.004749316974333061   -0.000318190170045808
0.0006289433106862763   -0.0034309045125077405   -0.00028993750692942225
-8.208105604797939e-06   -0.0034289635687128634   -0.00028856517388786327
-7.662615502489773e-05   -0.004749316974333061   -0.000318190170045808
0.0005984665273770374   -0.004747811174051725   -0.0003184624178828105
0.0006289433106862763   -0.0034309045125077405   -0.00028993750692942225
0.0006046510366881204   -0.0047451250004818535   -0.0003132355189518511
-8.208105604797939e-06   -0.0034289635687128634   -0.00028856517388786327
0.0006334619904870368   -0.0034290114694872993   -0.00028980700329127155
0.0006046510366881204   -0.0047451250004818535   -0.0003132355189518511
0.0006289433106862763   -0.0034309045125077405   -0.00028993750692942225
-8.208105604797939e-06   -0.0034289635687128634   -0.00028856517388786327
0.0006046510366881204   -0.0047451250004818535   -0.0003132355189518511
-7.171269476446148e-05   -0.004751418560487968   -0.0003120718395580615
-7.662615502489773e-05   -0.004749316974333061   -0.000318190170045808
-8.208105604797939e-06   -0.0034289635687128634   -0.00028856517388786327
0.0006046510366881204   -0.0047451250004818535   -0.0003132355189518511
-7.662615502489773e-05   -0.004749316974333061   -0.000318190170045808
0.0006289433106862763   -0.0034309045125077405   -0.00028993750692942225
-8.208105604797939e-06   -0.0034289635687128634   -0.00028856517388786327
-7.171269476446148e-05   -0.004751418560487968   -0.0003120718395580615
0.0006334619904870368   -0.0034290114694872993   -0.00028980700329127155
-4.9935997328549275e-06   -0.003429874835680601   -0.0002854048050025756
-7.171269476446148e-05   -0.004751418560487968   -0.0003120718395580615
0.0006046510366881204   -0.0047451250004818535   -0.0003132355189518511
0.0006334619904870368   -0.0034290114694872993   -0.00028980700329127155
0.0006093677898149143   -0.004742250272843978   -0.00030924669094107616
-4.9935997328549275e-06   -0.003429874835680601   -0.0002854048050025756
0.0006355089562415953   -0.003425006353156424   -0.0002908715958424926
0.0006093677898149143   -0.004742250272843978   -0.00030924669094107616
0.0006334619904870368   -0.0034290114694872993   -0.00028980700329127155
-4.9935997328549275e-06   -0.003429874835680601   -0.0002854048050025756
0.0006093677898149143   -0.004742250272843978   -0.00030924669094107616
-6.728449322017851e-05   -0.004753014427324161   -0.0003072329700051053
-7.171269476446148e-05   -0.004751418560487968   -0.0003120718395580615
-4.9935997328549275e-06   -0.003429874835680601   -0.0002854048050025756
0.0006093677898149143   -0.004742250272843978   -0.00030924669094107616
-7.171269476446148e-05   -0.004751418560487968   -0.0003120718395580615
0.0006334619904870368   -0.0034290114694872993   -0.00028980700329127155
-4.9935997328549275e-06   -0.003429874835680601   -0.0002854048050025756
-6.728449322017851e-05   -0.004753014427324161   -0.0003072329700051053
0.0006355089562415953   -0.003425006353156424   -0.0002908715958424926
-2.3469479595701658e-06   -0.0034283984716594624   -0.00028356330868382326
-6.728449322017851e-05   -0.004753014427324161   -0.0003072329700051053
0.0006093677898149143   -0.004742250272843978   -0.00030924669094107616
0.0006355089562415953   -0.003425006353156424   -0.0002908715958424926
0.0006115475624285415   -0.004738325061951338   -0.0003064740466656558
-2.3469479595701658e-06   -0.0034283984716594624   -0.00028356330868382326
0.0006358580417995006   -0.003417946690615315   -0.00029318243152794707
0.0006115475624285415   -0.004738325061951338   -0.0003064740466656558
0.0006355089562415953   -0.003425006353156424   -0.0002908715958424926
-2.3469479595701658e-06   -0.0034283984716594624   -0.00028356330868382326
0.0006115475624285415   -0.004738325061951338   -0.0003064740466656558
-6.35619746182476e-05   -0.004754091838844211   -0.00030371639712039065
-6.728449322017851e-05   -0.004753014427324161   -0.0003072329700051053
-2.3469479595701658e-06   -0.0034283984716594624   -0.00028356330868382326
0.0006115475624285415   -0.004738325061951338   -0.0003064740466656558
-6.728449322017851e-05   -0.004753014427324161   -0.0003072329700051053
0.0006355089562415953   -0.003425006353156424   -0.0002908715958424926
0.0006289433106862763   -0.0034309045125077405   -0.00028993750692942225
0.0005984665273770374   -0.004747811174051725   -0.0003184624178828105
0.0013366311742854667   -0.003440186335965602   -0.0002948423068196356
0.0006334619904870368   -0.0034290114694872993   -0.00028980700329127155
0.0005984665273770374   -0.004747811174051725   -0.0003184624178828105
0.001328833484164372   -0.004745313704638733   -0.0003269842994362455
0.0013366311742854667   -0.003440186335965602   -0.0002948423068196356
0.0013403931106055872   -0.004738791566411159   -0.0003221588858054012
0.0006334619904870368   -0.0034290114694872993   -0.00028980700329127155
0.001338126600498106   -0.0034347350468588605   -0.0002991624211407604
0.0013403931106055872   -0.004738791566411159   -0.0003221588858054012
0.0013366311742854667   -0.003440186335965602   -0.0002948423068196356
0.0006334619904870368   -0.0034290114694872993   -0.00028980700329127155
0.0013403931106055872   -0.004738791566411159   -0.0003221588858054012
0.0006046510366881204   -0.0047451250004818535   -0.0003132355189518511
0.0005984665273770374   -0.004747811174051725   -0.0003184624178828105
0.0006334619904870368   -0.0034290114694872993   -0.00028980700329127155
0.0013403931106055872   -0.004738791566411159   -0.0003221588858054012
0.0005984665273770374   -0.004747811174051725   -0.0003184624178828105
0.0013366311742854667   -0.003440186335965602   -0.0002948423068196356
0.0006334619904870368   -0.0034290114694872993   -0.00028980700329127155
0.0006046510366881204   -0.0047451250004818535   -0.0003132355189518511
0.001338126600498106   -0.0034347350468588605   -0.0002991624211407604
0.0006355089562415953   -0.003425006353156424   -0.0002908715958424926
0.0006046510366881204   -0.0047451250004818535   -0.0003132355189518511
0.0013403931106055872   -0.004738791566411159   -0.0003221588858054012
0.001338126600498106   -0.0034347350468588605   -0.0002991624211407604
0.0013474223101788121   -0.004733786312619291   -0.00031923127943954264
0.0006355089562415953   -0.003425006353156424   -0.0002908715958424926
0.001337179655765181   -0.0034283308394767557   -0.00030543304458068845
0.0013474223101788121   -0.004733786312619291   -0.00031923127943954264
0.001338126600498106   -0.0034347350468588605   -0.0002991624211407604
0.0006355089562415953   -0.003425006353156424   -0.0002908715958424926
0.0013474223101788121   -0.004733786312619291   -0.00031923127943954264
0.0006093677898149143   -0.004742250272843978   -0.00030924669094107616
0.0006046510366881204   -0.0047451250004818535   -0.0003132355189518511
0.0006355089562415953   -0.003425006353156424   -0.0002908715958424926
0.0013474223101788121   -0.004733786312619291   -0.00031923127943954264
0.0006046510366881204   -0.0047451250004818535   -0.0003132355189518511
0.001338126600498106   -0.0034347350468588605   -0.0002991624211407604
0.0006355089562415953   -0.003425006353156424   -0.0002908715958424926
0.0006093677898149143   -0.004742250272843978   -0.00030924669094107616
0.001337179655765181   -0.0034283308394767557   -0.00030543304458068845
0.0006358580417995006   -0.003417946690615315   -0.00029318243152794707
0.0006093677898149143   -0.004742250272843978   -0.00030924669094107616
0.0013474223101788121   -0.004733786312619291   -0.00031923127943954264
0.001337179655765181   -0.0034283308394767557   -0.00030543304458068845
0.0013511151519023151   -0.004726208067002031   -0.0003182345538838214
0.0006358580417995006   -0.003417946690615315   -0.00029318243152794707
0.0013306280922446624   -0.003416663705943485   -0.0003136397878623485
0.0013511151519023151   -0.004726208067002031   -0.0003182345538838214
0.001337179655765181   -0.0034283308394767557   -0.00030543304458068845
0.0006358580417995006   -0.003417946690615315   -0.00029318243152794707
0.0013511151519023151   -0.004726208067002031   -0.0003182345538838214
0.0006115475624285415   -0.004738325061951338   -0.0003064740466656558
0.0006093677898149143   -0.004742250272843978   -0.00030924669094107616
0.0006358580417995006   -0.003417946690615315   -0.00029318243152794707
0.0013511151519023151   -0.004726208067002031   -0.0003182345538838214
0.0006093677898149143   -0.004742250272843978   -0.00030924669094107616
0.001337179655765181   -0.0034283308394767557   -0.00030543304458068845
-0.002131308749020782   -0.004763224332305934   -0.00036984947846785334
-0.002188838439099899   -0.006083678627627628   -0.00036539152801278314
-0.0014057159958373903   -0.004756277957115947   -0.0003442214777120627
-0.002138367713561113   -0.004779105939755956   -0.00036083901528876803
-0.002188838439099899   -0.006083678627627628   -0.00036539152801278314
-0.0014693349030219494   -0.006087394767694067   -0.0003468813913509899
-0.0014057159958373903   -0.004756277957115947   -0.0003442214777120627
-0.0014645163421346805   -0.006096907468570597   -0.00034402182316429716
-0.002138367713561113   -0.004779105939755956   -0.00036083901528876803
-0.0014037745596639187   -0.004768037282711321   -0.0003364782062595008
-0.0014645163421346805   -0.006096907468570597   -0.00034402182316429716
-0.0014057159958373903   -0.004756277957115947   -0.0003442214777120627
-0.002138367713561113   -0.004779105939755956   -0.00036083901528876803
-0.0014645163421346805   -0.006096907468570597   -0.00034402182316429716
-0.002184911381342903   -0.006096463379989526   -0.00036530705407964917
-0.002188838439099899   -0.006083678627627628   -0.00036539152801278314
-0.002138367713561113   -0.004779105939755956   -0.00036083901528876803
-0.0014645163421346805   -0.006096907468570597   -0.00034402182316429716
-0.002188838439099899   -0.006083678627627628   -0.00036539152801278314
-0.0014057159958373903   -0.004756277957115947   -0.0003442214777120627
-0.002138367713561113   -0.004779105939755956   -0.00036083901528876803
-0.002184911381342903   -0.006096463379989526   -0.00036530705407964917
-0.0014037745596639187   -0.004768037282711321   -0.0003364782062595008
-0.002139481053481781   -0.004792253805317313   -0.0003536815768997589
-0.002184911381342903   -0.006096463379989526   -0.00036530705407964917
-0.0014645163421346805   -0.006096907468570597   -0.00034402182316429716
-0.0014037745596639187   -0.004768037282711321   -0.0003364782062595008
-0.0014575513050147978   -0.006107648235538417   -0.00034245106176412747
-0.002139481053481781   -0.004792253805317313   -0.0003536815768997589
-0.0014005030655547396   -0.004779045395869079   -0.0003300257264665014
-0.0014575513050147978   -0.006107648235538417   -0.00034245106176412747
-0.0014037745596639187   -0.004768037282711321   -0.0003364782062595008
-0.002139481053481781   -0.004792253805317313   -0.0003536815768997589
-0.0014575513050147978   -0.006107648235538417   -0.00034245106176412747
-0.0021771197881585813   -0.0061091207727621165   -0.000367143646059371
-0.002184911381342903   -0.006096463379989526   -0.00036530705407964917
-0.002139481053481781   -0.004792253805317313   -0.0003536815768997589
-0.0014575513050147978   -0.006107648235538417   -0.00034245106176412747
-0.002184911381342903   -0.006096463379989526   -0.00036530705407964917
-0.0014037745596639187   -0.004768037282711321   -0.0003364782062595008
-0.002139481053481781   -0.004792253805317313   -0.0003536815768997589
-0.0021771197881585813   -0.0061091207727621165   -0.000367143646059371
-0.0014005030655547396   -0.004779045395869079   -0.0003300257264665014
-0.0021385853413596867   -0.004806782346861657   -0.00034855167702762694
-0.0021771197881585813   -0.0061091207727621165   -0.000367143646059371
-0.0014575513050147978   -0.006107648235538417   -0.00034245106176412747
-0.0014005030655547396   -0.004779045395869079   -0.0003300257264665014
-0.0014488591518253824   -0.00612037077882989   -0.00034213360592971813
-0.0021385853413596867   -0.004806782346861657   -0.00034855167702762694
-0.001394542663085066   -0.004790156454540746   -0.0003247599051324989
-0.0014488591518253824   -0.00612037077882989   -0.00034213360592971813
-0.0014005030655547396   -0.004779045395869079   -0.0003300257264665014
-0.0021385853413596867   -0.004806782346861657   -0.00034855167702762694
-0.0014488591518253824   -0.00612037077882989   -0.00034213360592971813
-0.0021652291015607367   -0.0061256431269400575   -0.0003710168854254256
-0.0021771197881585813   -0.0061091207727621165   -0.000367143646059371
-0.0021385853413596867   -0.004806782346861657   -0.00034855167702762694
-0.0014488591518253824   -0.00612037077882989   -0.00034213360592971813
-0.0021771197881585813   -0.0061091207727621165   -0.000367143646059371
-0.0014005030655547396   -0.004779045395869079   -0.0003300257264665014
-0.0014057159958373903   -0.004756277957115947   -0.0003442214777120627
-0.0014693349030219494   -0.006087394767694067   -0.0003468813913509899
-0.0007320165109878202   -0.004751982552556634   -0.0003268219837879543
-0.0014037745596639187   -0.004768037282711321   -0.0003364782062595008
-0.0014693349030219494   -0.006087394767694067   -0.0003468813913509899
-0.0008094358850485381   -0.006087985319103092   -0.00033463391557482915
-0.0007320165109878202   -0.004751982552556634   -0.0003268219837879543
-0.0008033595332319342   -0.006093326769414197   -0.00032925307980213815
-0.0014037745596639187   -0.004768037282711321   -0.0003364782062595008
-0.000728146191227849   -0.004758983914915773   -0.0003198481000685514
-0.0008033595332319342   -0.006093326769414197   -0.00032925307980213815
-0.0007320165109878202   -0.004751982552556634   -0.0003268219837879543
-0.0014037745596639187   -0.004768037282711321   -0.0003364782062595008
-0.0008033595332319342   -0.006093326769414197   -0.00032925307980213815
-0.0014645163421346805   -0.006096907468570597   -0.00034402182316429716
-0.0014693349030219494   -0.006087394767694067   -0.0003468813913509899
-0.0014037745596639187   -0.004768037282711321   -0.0003364782062595008
-0.0008033595332319342   -0.006093326769414197   -0.00032925307980213815
-0.0014693349030219494   -0.006087394767694067   -0.0003468813913509899
-0.0007320165109878202   -0.004751982552556634   -0.0003268219837879543
-0.0014037745596639187   -0.004768037282711321   -0.0003364782062595008
-0.0014645163421346805   -0.006096907468570597   -0.00034402182316429716
-0.000728146191227849   -0.004758983914915773   -0.0003198481000685514
-0.0014005030655547396   -0.004779045395869079   -0.0003300257264665014
-0.0014645163421346805   -0.006096907468570597   -0.00034402182316429716
-0.0008033595332319342   -0.006093326769414197   -0.00032925307980213815
-0.000728146191227849   -0.004758983914915773   -0.0003198481000685514
-0.0007966366957779905   -0.006100008243486775   -0.0003251603585009364
-0.0014005030655547396   -0.004779045395869079   -0.0003300257264665014
-0.0007237281947898502   -0.0047655200242442556   -0.00031415875620754063
-0.0007966366957779905   -0.006100008243486775   -0.0003251603585009364
-0.000728146191227849   -0.004758983914915773   -0.0003198481000685514
-0.0014005030655547396   -0.004779045395869079   -0.0003300257264665014
-0.0007966366957779905   -0.006100008243486775   -0.0003251603585009364
-0.0014575513050147978   -0.006107648235538417   -0.00034245106176412747
-0.0014645163421346805   -0.006096907468570597   -0.00034402182316429716
-0.0014005030655547396   -0.004779045395869079   -0.0003300257264665014
-0.0007966366957779905   -0.006100008243486775   -0.0003251603585009364
-0.0014645163421346805   -0.006096907468570597   -0.00034402182316429716
-0.000728146191227849   -0.004758983914915773   -0.0003198481000685514
-0.0014005030655547396   -0.004779045395869079   -0.0003300257264665014
-0.0014575513050147978   -0.006107648235538417   -0.00034245106176412747
-0.0007237281947898502   -0.0047655200242442556   -0.00031415875620754063
-0.001394542663085066   -0.004790156454540746   -0.0003247599051324989
-0.0014575513050147978   -0.006107648235538417   -0.00034245106176412747
-0.0007966366957779905   -0.006100008243486775   -0.0003251603585009364
-0.0007237281947898502   -0.0047655200242442556   -0.00031415875620754063
-0.0007894503167181709   -0.006108051000351967   -0.00032240518538386966
-0.001394542663085066   -0.004790156454540746   -0.0003247599051324989
-0.000718671107026154   -0.004771615085209184   -0.00030979183206038057
-0.0007894503167181709   -0.006108051000351967   -0.00032240518538386966
-0.0007237281947898502   -0.0047655200242442556   -0.00031415875620754063
-0.001394542663085066   -0.004790156454540746   -0.0003247599051324989
-0.0007894503167181709   -0.006108051000351967   -0.00032240518538386966
-0.0014488591518253824   -0.00612037077882989   -0.00034213360592971813
-0.0014575513050147978   -0.006107648235538417   -0.00034245106176412747
-0.001394542663085066   -0.004790156454540746   -0.0003247599051324989
-0.0007894503167181709   -0.006108051000351967   -0.00032240518538386966
-0.0014575513050147978   -0.006107648235538417   -0.00034245106176412747
-0.0007237281947898502   -0.0047655200242442556   -0.00031415875620754063
-0.0007320165109878202   -0.004751982552556634   -0.0003268219837879543
-0.0008094358850485381   -0.006087985319103092   -0.00033463391557482915
-7.662615502489773e-05   -0.004749316974333061   -0.000318190170045808
-0.000728146191227849   -0.004758983914915773   -0.0003198481000685514
-0.0008094358850485381   -0.006087985319103092   -0.00033463391557482915
-0.00016801643561076526   -0.006084228294241468   -0.00033005496641935376
-7.662615502489773e-05   -0.004749316974333061   -0.000318190170045808
-0.0001609629893381827   -0.0060852025217075075   -0.00032228106017041243
-0.000728146191227849   -0.004758983914915773   -0.0003198481000685514
-7.171269476446148e-05   -0.004751418560487968   -0.0003120718395580615
-0.0001609629893381827   -0.0060852025217075075   -0.00032228106017041243
-7.662615502489773e-05   -0.004749316974333061   -0.000318190170045808
-0.000728146191227849   -0.004758983914915773   -0.0003198481000685514
-0.0001609629893381827   -0.0060852025217075075   -0.00032228106017041243
-0.0008033595332319342   -0.006093326769414197   -0.00032925307980213815
-0.0008094358850485381   -0.006087985319103092   -0.00033463391557482915
-0.000728146191227849   -0.004758983914915773   -0.0003198481000685514
-0.0001609629893381827   -0.0060852025217075075   -0.00032228106017041243
-0.0008094358850485381   -0.006087985319103092   -0.00033463391557482915
-7.662615502489773e-05   -0.004749316974333061   -0.000318190170045808
-0.000728146191227849   -0.004758983914915773   -0.0003198481000685514
-0.0008033595332319342   -0.006093326769414197   -0.00032925307980213815
-7.171269476446148e-05   -0.004751418560487968   -0.0003120718395580615
-0.0007237281947898502   -0.0047655200242442556   -0.00031415875620754063
-0.0008033595332319342   -0.006093326769414197   -0.00032925307980213815
-0.0001609629893381827   -0.0060852025217075075   -0.00032228106017041243
-7.171269476446148e-05   -0.004751418560487968   -0.0003120718395580615
-0.000154241708208805   -0.006087429629289359   -0.00031579247240448626
-0.0007237281947898502   -0.0047655200242442556   -0.00031415875620754063
-6.728449322017851e-05   -0.004753014427324161   -0.0003072329700051053
-0.000154241708208805   -0.006087429629289359   -0.00031579247240448626
-7.171269476446148e-05   -0.004751418560487968   -0.0003120718395580615
-0.0007237281947898502   -0.0047655200242442556   -0.00031415875620754063
-0.000154241708208805   -0.006087429629289359   -0.00031579247240448626
-0.0007966366957779905   -0.006100008243486775   -0.0003251603585009364
-0.0008033595332319342   -0.006093326769414197   -0.00032925307980213815
-0.0007237281947898502   -0.0047655200242442556   -0.00031415875620754063
-0.000154241708208805   -0.006087429629289359   -0.00031579247240448626
-0.0008033595332319342   -0.006093326769414197   -0.00032925307980213815
-7.171269476446148e-05   -0.004751418560487968   -0.0003120718395580615
-0.0007237281947898502   -0.0047655200242442556   -0.00031415875620754063
-0.0007966366957779905   -0.006100008243486775   -0.0003251603585009364
-6.728449322017851e-05   -0.004753014427324161   -0.0003072329700051053
-0.000718671107026154   -0.004771615085209184   -0.00030979183206038057
-0.0007966366957779905   -0.006100008243486775   -0.0003251603585009364
-0.000154241708208805   -0.006087429629289359   -0.00031579247240448626
-6.728449322017851e-05   -0.004753014427324161   -0.0003072329700051053
-0.00014836754430787763   -0.0060909520747921145   -0.00031063066186150744
-0.000718671107026154   -0.004771615085209184   -0.00030979183206038057
-6.35619746182476e-05   -0.004754091838844211   -0.00030371639712039065
-0.00014836754430787763   -0.0060909520747921145   -0.00031063066186150744
-6.728449322017851e-05   -0.004753014427324161   -0.0003072329700051053
-0.000718671107026154   -0.004771615085209184   -0.00030979183206038057
-0.00014836754430787763   -0.0060909520747921145   -0.00031063066186150744
-0.0007894503167181709   -0.006108051000351967   -0.00032240518538386966
-0.0007966366957779905   -0.006100008243486775   -0.0003251603585009364
-0.000718671107026154   -0.004771615085209184   -0.00030979183206038057
-0.00014836754430787763   -0.0060909520747921145   -0.00031063066186150744
-0.0007966366957779905   -0.006100008243486775   -0.0003251603585009364
-6.728449322017851e-05   -0.004753014427324161   -0.0003072329700051053
-7.662615502489773e-05   -0.004749316974333061   -0.000318190170045808
-0.00016801643561076526   -0.006084228294241468   -0.00033005496641935376
0.0005984665273770374   -0.004747811174051725   -0.0003184624178828105
-7.171269476446148e-05   -0.004751418560487968   -0.0003120718395580615
-0.00016801643561076526   -0.006084228294241468   -0.00033005496641935376
0.000491927968136603   -0.006075997331261102   -0.00033342991740744075
0.0005984665273770374   -0.004747811174051725   -0.0003184624178828105
0.0005007846601917123   -0.006072560032513706   -0.0003232802799264228
-7.171269476446148e-05   -0.004751418560487968   -0.0003120718395580615
0.0006046510366881204   -0.0047451250004818535   -0.0003132355189518511
0.0005007846601917123   -0.006072560032513706   -0.0003232802799264228
0.0005984665273770374   -0.004747811174051725   -0.0003184624178828105
-7.171269476446148e-05   -0.004751418560487968   -0.0003120718395580615
0.0005007846601917123   -0.006072560032513706   -0.0003232802799264228
-0.0001609629893381827   -0.0060852025217075075   -0.00032228106017041243
-0.00016801643561076526   -0.006084228294241468   -0.00033005496641935376
-7.171269476446148e-05   -0.004751418560487968   -0.0003120718395580615
0.0005007846601917123   -0.006072560032513706   -0.0003232802799264228
-0.00016801643561076526   -0.006084228294241468   -0.00033005496641935376
0.0005984665273770374   -0.004747811174051725   -0.0003184624178828105
-7.171269476446148e-05   -0.004751418560487968   -0.0003120718395580615
-0.0001609629893381827   -0.0060852025217075075   -0.00032228106017041243
0.0006046510366881204   -0.0047451250004818535   -0.0003132355189518511
-6.728449322017851e-05   -0.004753014427324161   -0.0003072329700051053
-0.0001609629893381827   -0.0060852025217075075   -0.00032228106017041243
0.0005007846601917123   -0.006072560032513706   -0.0003232802799264228
0.0006046510366881204   -0.0047451250004818535   -0.0003132355189518511
0.0005091449365356646   -0.006070753257220694   -0.00031440809698778696
-6.728449322017851e-05   -0.004753014427324161   -0.0003072329700051053
0.0006093677898149143   -0.004742250272843978   -0.00030924669094107616
0.0005091449365356646   -0.006070753257220694   -0.00031440809698778696
0.0006046510366881204   -0.0047451250004818535   -0.0003132355189518511
-6.728449322017851e-05   -0.004753014427324161   -0.0003072329700051053
0.0005091449365356646   -0.006070753257220694   -0.00031440809698778696
-0.000154241708208805   -0.006087429629289359   -0.00031579247240448626
-0.0001609629893381827   -0.0060852025217075075   -0.00032228106017041243
-6.728449322017851e-05   -0.004753014427324161   -0.0003072329700051053
0.0005091449365356646   -0.006070753257220694   -0.00031440809698778696
-0.0001609629893381827   -0.0060852025217075075   -0.00032228106017041243
0.0006046510366881204   -0.0047451250004818535   -0.0003132355189518511
-6.728449322017851e-05   -0.004753014427324161   -0.0003072329700051053
-0.000154241708208805   -0.006087429629289359   -0.00031579247240448626
0.0006093677898149143   -0.004742250272843978   -0.00030924669094107616
-6.35619746182476e-05   -0.004754091838844211   -0.00030371639712039065
-0.000154241708208805   -0.006087429629289359   -0.00031579247240448626
0.0005091449365356646   -0.006070753257220694   -0.00031440809698778696
0.0006093677898149143   -0.004742250272843978   -0.00030924669094107616
0.0005141388225533852   -0.006069811290009768   -0.0003067298862404872
-6.35619746182476e-05   -0.004754091838844211   -0.00030371639712039065
0.0006115475624285415   -0.004738325061951338   -0.0003064740466656558
0.0005141388225533852   -0.006069811290009768   -0.0003067298862404872
0.0006093677898149143   -0.004742250272843978   -0.00030924669094107616
-6.35619746182476e-05   -0.004754091838844211   -0.00030371639712039065
0.0005141388225533852   -0.006069811290009768   -0.0003067298862404872
-0.00014836754430787763   -0.0060909520747921145   -0.00031063066186150744
-0.000154241708208805   -0.006087429629289359   -0.00031579247240448626
-6.35619746182476e-05   -0.004754091838844211   -0.00030371639712039065
0.0005141388225533852   -0.006069811290009768   -0.0003067298862404872
-0.000154241708208805   -0.006087429629289359   -0.00031579247240448626
0.0006093677898149143   -0.004742250272843978   -0.00030924669094107616
0.0005984665273770374   -0.004747811174051725   -0.0003184624178828105
0.000491927968136603   -0.006075997331261102   -0.00033342991740744075
0.001328833484164372   -0.004745313704638733   -0.0003269842994362455
0.0006046510366881204   -0.0047451250004818535   -0.0003132355189518511
0.000491927968136603   -0.006075997331261102   -0.00033342991740744075
0.001196256400416121   -0.006061944860972506   -0.00034534407120525364
0.001328833484164372   -0.004745313704638733   -0.0003269842994362455
0.0012185292185831302   -0.0060544585162242825   -0.00033177243554900987
0.0006046510366881204   -0.0047451250004818535   -0.0003132355189518511
0.0013403931106055872   -0.004738791566411159   -0.0003221588858054012
0.0012185292185831302   -0.0060544585162242825   -0.00033177243554900987
0.001328833484164372   -0.004745313704638733   -0.0003269842994362455
0.0006046510366881204   -0.0047451250004818535   -0.0003132355189518511
0.0012185292185831302   -0.0060544585162242825   -0.00033177243554900987
0.0005007846601917123   -0.006072560032513706   -0.0003232802799264228
0.000491927968136603   -0.006075997331261102   -0.00033342991740744075
0.0006046510366881204   -0.0047451250004818535   -0.0003132355189518511
0.0012185292185831302   -0.0060544585162242825   -0.00033177243554900987
0.000491927968136603   -0.006075997331261102   -0.00033342991740744075
0.001328833484164372   -0.004745313704638733   -0.0003269842994362455
0.0006046510366881204   -0.0047451250004818535   -0.0003132355189518511
0.0005007846601917123   -0.006072560032513706   -0.0003232802799264228
0.0013403931106055872   -0.004738791566411159   -0.0003221588858054012
0.0006093677898149143   -0.004742250272843978   -0.00030924669094107616
0.0005007846601917123   -0.006072560032513706   -0.0003232802799264228
0.0012185292185831302   -0.0060544585162242825   -0.00033177243554900987
0.0013403931106055872   -0.004738791566411159   -0.0003221588858054012
0.001234271967847861   -0.0060508023217515595   -0.0003200382070508101
0.0006093677898149143   -0.004742250272843978   -0.00030924669094107616
0.0013474223101788121   -0.004733786312619291   -0.00031923127943954264
0.001234271967847861   -0.0060508023217515595   -0.0003200382070508101
0.0013403931106055872   -0.004738791566411159   -0.0003221588858054012
0.0006093677898149143   -0.004742250272843978   -0.00030924669094107616
0.001234271967847861   -0.0060508023217515595   -0.0003200382070508101
0.0005091449365356646   -0.006070753257220694   -0.00031440809698778696
0.0005007846601917123   -0.006072560032513706   -0.0003232802799264228
0.0006093677898149143   -0.004742250272843978   -0.00030924669094107616
0.001234271967847861   -0.0060508023217515595   -0.0003200382070508101
0.0005007846601917123   -0.006072560032513706   -0.0003232802799264228
0.0013403931106055872   -0.004738791566411159   -0.0003221588858054012
0.0006093677898149143   -0.004742250272843978   -0.00030924669094107616
0.0005091449365356646   -0.006070753257220694   -0.00031440809698778696
0.0013474223101788121   -0.004733786312619291   -0.00031923127943954264
0.0006115475624285415   -0.004738325061951338   -0.0003064740466656558
0.0005091449365356646   -0.006070753257220694   -0.00031440809698778696
0.001234271967847861   -0.0060508023217515595   -0.0003200382070508101
0.0013474223101788121   -0.004733786312619291   -0.00031923127943954264
0.0012488280796065943   -0.006047132235401302   -0.0003102221477802308
0.0006115475624285415   -0.004738325061951338   -0.0003064740466656558
0.0013511151519023151   -0.004726208067002031   -0.0003182345538838214
0.0012488280796065943   -0.006047132235401302   -0.0003102221477802308
0.0013474223101788121   -0.004733786312619291   -0.00031923127943954264
0.0006115475624285415   -0.004738325061951338   -0.0003064740466656558
0.0012488280796065943   -0.006047132235401302   -0.0003102221477802308
0.0005141388225533852   -0.006069811290009768   -0.0003067298862404872
0.0005091449365356646   -0.006070753257220694   -0.00031440809698778696
0.0006115475624285415   -0.004738325061951338   -0.0003064740466656558
0.0012488280796065943   -0.006047132235401302   -0.0003102221477802308
0.0005091449365356646   -0.006070753257220694   -0.00031440809698778696
0.0013474223101788121   -0.004733786312619291   -0.00031923127943954264
-0.002188838439099899   -0.006083678627627628   -0.00036539152801278314
-0.0021251109548916184   -0.007334171010898509   -0.0003508357887540999
-0.0014693349030219494   -0.006087394767694067   -0.0003468813913509899
-0.002184911381342903   -0.006096463379989526   -0.00036530705407964917
-0.0021251109548916184   -0.007334171010898509   -0.0003508357887540999
-0.001461816175555688   -0.007348445165144252   -0.00034002358391540833
-0.0014693349030219494   -0.006087394767694067   -0.0003468813913509899
-0.0014531268513810688   -0.00735542863538351   -0.0003418131620815653
-0.002184911381342903   -0.006096463379989526   -0.00036530705407964917
-0.0014645163421346805   -0.006096907468570597   -0.00034402182316429716
-0.0014531268513810688   -0.00735542863538351   -0.0003418131620815653
-0.0014693349030219494   -0.006087394767694067   -0.0003468813913509899
-0.002184911381342903   -0.006096463379989526   -0.00036530705407964917
-0.0014531268513810688   -0.00735542863538351   -0.0003418131620815653
-0.0021093585866460308   -0.007343619747418157   -0.0003594693535842619
-0.0021251109548916184   -0.007334171010898509   -0.0003508357887540999
-0.002184911381342903   -0.006096463379989526   -0.00036530705407964917
-0.0014531268513810688   -0.00735542863538351   -0.0003418131620815653
-0.0021251109548916184   -0.007334171010898509   -0.0003508357887540999
-0.0014693349030219494   -0.006087394767694067   -0.0003468813913509899
-0.002184911381342903   -0.006096463379989526   -0.00036530705407964917
-0.0021093585866460308   -0.007343619747418157   -0.0003594693535842619
-0.0014645163421346805   -0.006096907468570597   -0.00034402182316429716
-0.0021771197881585813   -0.0061091207727621165   -0.000367143646059371
-0.0021093585866460308   -0.007343619747418157   -0.0003594693535842619
-0.0014531268513810688   -0.00735542863538351   -0.0003418131620815653
-0.0014645163421346805   -0.006096907468570597   -0.00034402182316429716
-0.0014415419871012009   -0.007365623496429759   -0.00034488569084252854
-0.0021771197881585813   -0.0061091207727621165   -0.000367143646059371
-0.0014575513050147978   -0.006107648235538417   -0.00034245106176412747
-0.0014415419871012009   -0.007365623496429759   -0.00034488569084252854
-0.0014645163421346805   -0.006096907468570597   -0.00034402182316429716
-0.0021771197881585813   -0.0061091207727621165   -0.000367143646059371
-0.0014415419871012009   -0.007365623496429759   -0.00034488569084252854
-0.002091761038560207   -0.007355534415459814   -0.0003701138971565433
-0.0021093585866460308   -0.007343619747418157   -0.0003594693535842619
-0.0021771197881585813   -0.0061091207727621165   -0.000367143646059371
-0.0014415419871012009   -0.007365623496429759   -0.00034488569084252854
-0.0021093585866460308   -0.007343619747418157   -0.0003594693535842619
-0.0014645163421346805   -0.006096907468570597   -0.00034402182316429716
-0.0021771197881585813   -0.0061091207727621165   -0.000367143646059371
-0.002091761038560207   -0.007355534415459814   -0.0003701138971565433
-0.0014575513050147978   -0.006107648235538417   -0.00034245106176412747
-0.0021652291015607367   -0.0061256431269400575   -0.0003710168854254256
-0.002091761038560207   -0.007355534415459814   -0.0003701138971565433
-0.0014415419871012009   -0.007365623496429759   -0.00034488569084252854
-0.0014575513050147978   -0.006107648235538417   -0.00034245106176412747
-0.0014291928305699066   -0.007379663915189211   -0.0003492663929555614
-0.0021652291015607367   -0.0061256431269400575   -0.0003710168854254256
-0.0014488591518253824   -0.00612037077882989   -0.00034213360592971813
-0.0014291928305699066   -0.007379663915189211   -0.0003492663929555614
-0.0014575513050147978   -0.006107648235538417   -0.00034245106176412747
-0.0021652291015607367   -0.0061256431269400575   -0.0003710168854254256
-0.0014291928305699066   -0.007379663915189211   -0.0003492663929555614
-0.0020680745524050436   -0.007373833885313555   -0.00038282596187617755
-0.002091761038560207   -0.007355534415459814   -0.0003701138971565433
-0.0021652291015607367   -0.0061256431269400575   -0.0003710168854254256
-0.0014291928305699066   -0.007379663915189211   -0.0003492663929555614
-0.002091761038560207   -0.007355534415459814   -0.0003701138971565433
-0.0014575513050147978   -0.006107648235538417   -0.00034245106176412747
-0.0014693349030219494   -0.006087394767694067   -0.0003468813913509899
-0.001461816175555688   -0.007348445165144252   -0.00034002358391540833
-0.0008094358850485381   -0.006087985319103092   -0.00033463391557482915
-0.0014645163421346805   -0.006096907468570597   -0.00034402182316429716
-0.001461816175555688   -0.007348445165144252   -0.00034002358391540833
-0.0008651583346922459   -0.007353777716871656   -0.00033318127810003843
-0.0008094358850485381   -0.006087985319103092   -0.00033463391557482915
-0.0008557963379093744   -0.007357298039826307   -0.0003292482449697157
-0.0014645163421346805   -0.006096907468570597   -0.00034402182316429716
-0.0008033595332319342   -0.006093326769414197   -0.00032925307980213815
-0.0008557963379093744   -0.007357298039826307   -0.0003292482449697157
-0.0008094358850485381   -0.006087985319103092   -0.00033463391557482915
-0.0014645163421346805   -0.006096907468570597   -0.00034402182316429716
-0.0008557963379093744   -0.007357298039826307   -0.0003292482449697157
-0.0014531268513810688   -0.00735542863538351   -0.0003418131620815653
-0.001461816175555688   -0.007348445165144252   -0.00034002358391540833
-0.0014645163421346805   -0.006096907468570597   -0.00034402182316429716
-0.0008557963379093744   -0.007357298039826307   -0.0003292482449697157
-0.001461816175555688   -0.007348445165144252   -0.00034002358391540833
-0.0008094358850485381   -0.006087985319103092   -0.00033463391557482915
-0.0014645163421346805   -0.006096907468570597   -0.00034402182316429716
-0.0014531268513810688   -0.00735542863538351   -0.0003418131620815653
-0.0008033595332319342   -0.006093326769414197   -0.00032925307980213815
-0.0014575513050147978   -0.006107648235538417   -0.00034245106176412747
-0.0014531268513810688   -0.00735542863538351   -0.0003418131620815653
-0.0008557963379093744   -0.007357298039826307   -0.0003292482449697157
-0.0008033595332319342   -0.006093326769414197   -0.00032925307980213815
-0.0008457645045136139   -0.00736388513059546   -0.0003265801500745586
-0.0014575513050147978   -0.006107648235538417   -0.00034245106176412747
-0.0007966366957779905   -0.006100008243486775   -0.0003251603585009364
-0.0008457645045136139   -0.00736388513059546   -0.0003265801500745586
-0.0008033595332319342   -0.006093326769414197   -0.00032925307980213815
-0.0014575513050147978   -0.006107648235538417   -0.00034245106176412747
-0.0008457645045136139   -0.00736388513059546   -0.0003265801500745586
-0.0014415419871012009   -0.007365623496429759   -0.00034488569084252854
-0.0014531268513810688   -0.00735542863538351   -0.0003418131620815653
-0.0014575513050147978   -0.006107648235538417   -0.00034245106176412747
-0.0008457645045136139   -0.00736388513059546   -0.0003265801500745586
-0.0014531268513810688   -0.00735542863538351   -0.0003418131620815653
-0.0008033595332319342   -0.006093326769414197   -0.00032925307980213815
-0.0014575513050147978   -0.006107648235538417   -0.00034245106176412747
-0.0014415419871012009   -0.007365623496429759   -0.00034488569084252854
-0.0007966366957779905   -0.006100008243486775   -0.0003251603585009364
-0.0014488591518253824   -0.00612037077882989   -0.00034213360592971813
-0.0014415419871012009   -0.007365623496429759   -0.00034488569084252854
-0.0008457645045136139   -0.00736388513059546   -0.0003265801500745586
-0.0007966366957779905   -0.006100008243486775   -0.0003251603585009364
-0.0008354550299946449   -0.007373611830950803   -0.0003252468719468013
-0.0014488591518253824   -0.00612037077882989   -0.00034213360592971813
-0.0007894503167181709   -0.006108051000351967   -0.00032240518538386966
-0.0008354550299946449   -0.007373611830950803   -0.0003252468719468013
-0.0007966366957779905   -0.006100008243486775   -0.0003251603585009364
-0.0014488591518253824   -0.00612037077882989   -0.00034213360592971813
-0.0008354550299946449   -0.007373611830950803   -0.0003252468719468013
-0.0014291928305699066   -0.007379663915189211   -0.0003492663929555614
-0.0014415419871012009   -0.007365623496429759   -0.00034488569084252854
-0.0014488591518253824   -0.00612037077882989   -0.00034213360592971813
-0.0008354550299946449   -0.007373611830950803   -0.0003252468719468013
-0.0014415419871012009   -0.007365623496429759   -0.00034488569084252854
-0.0007966366957779905   -0.006100008243486775   -0.0003251603585009364
-0.0008094358850485381   -0.006087985319103092   -0.00033463391557482915
-0.0008651583346922459   -0.007353777716871656   -0.00033318127810003843
-0.00016801643561076526   -0.006084228294241468   -0.00033005496641935376
-0.0008033595332319342   -0.006093326769414197   -0.00032925307980213815
-0.0008651583346922459   -0.007353777716871656   -0.00033318127810003843
-0.00028622871296237585   -0.007349060939170103   -0.0003325957912273589
-0.00016801643561076526   -0.006084228294241468   -0.00033005496641935376
-0.000275890897652095   -0.007348863589462424   -0.00032313639800306406
-0.0008033595332319342   -0.006093326769414197   -0.00032925307980213815
-0.0001609629893381827   -0.0060852025217075075   -0.00032228106017041243
-0.000275890897652095   -0.007348863589462424   -0.00032313639800306406
-0.00016801643561076526   -0.006084228294241468   -0.00033005496641935376
-0.0008033595332319342   -0.006093326769414197   -0.00032925307980213815
-0.000275890897652095   -0.007348863589462424   -0.00032313639800306406
-0.0008557963379093744   -0.007357298039826307   -0.0003292482449697157
-0.0008651583346922459   -0.007353777716871656   -0.00033318127810003843
-0.0008033595332319342   -0.006093326769414197   -0.00032925307980213815
-0.000275890897652095   -0.007348863589462424   -0.00032313639800306406
-0.0008651583346922459   -0.007353777716871656   -0.00033318127810003843
-0.00016801643561076526   -0.006084228294241468   -0.00033005496641935376
-0.0008033595332319342   -0.006093326769414197   -0.00032925307980213815
-0.0008557963379093744   -0.007357298039826307   -0.0003292482449697157
-0.0001609629893381827   -0.0060852025217075075   -0.00032228106017041243
-0.0007966366957779905   -0.006100008243486775   -0.0003251603585009364
-0.0008557963379093744   -0.007357298039826307   -0.0003292482449697157
-0.000275890897652095   -0.007348863589462424   -0.00032313639800306406
-0.0001609629893381827   -0.0060852025217075075   -0.00032228106017041243
-0.0002657974790516686   -0.007351539113982762   -0.00031495048518801367
-0.0007966366957779905   -0.006100008243486775   -0.0003251603585009364
-0.000154241708208805   -0.006087429629289359   -0.00031579247240448626
-0.0002657974790516686   -0.007351539113982762   -0.00031495048518801367
-0.0001609629893381827   -0.0060852025217075075   -0.00032228106017041243
-0.0007966366957779905   -0.006100008243486775   -0.0003251603585009364
-0.0002657974790516686   -0.007351539113982762   -0.00031495048518801367
-0.0008457645045136139   -0.00736388513059546   -0.0003265801500745586
-0.0008557963379093744   -0.007357298039826307   -0.0003292482449697157
-0.0007966366957779905   -0.006100008243486775   -0.0003251603585009364
-0.0002657974790516686   -0.007351539113982762   -0.00031495048518801367
-0.0008557963379093744   -0.007357298039826307   -0.0003292482449697157
-0.0001609629893381827   -0.0060852025217075075   -0.00032228106017041243
-0.0007966366957779905   -0.006100008243486775   -0.0003251603585009364
-0.0008457645045136139   -0.00736388513059546   -0.0003265801500745586
-0.000154241708208805   -0.006087429629289359   -0.00031579247240448626
-0.0007894503167181709   -0.006108051000351967   -0.00032240518538386966
-0.0008457645045136139   -0.00736388513059546   -0.0003265801500745586
-0.0002657974790516686   -0.007351539113982762   -0.00031495048518801367
-0.000154241708208805   -0.006087429629289359   -0.00031579247240448626
-0.0002567144499928203   -0.007357283899938824   -0.00030807986938188484
-0.0007894503167181709   -0.006108051000351967   -0.00032240518538386966
-0.00014836754430787763   -0.0060909520747921145   -0.00031063066186150744
-0.0002567144499928203   -0.007357283899938824   -0.00030807986938188484
-0.000154241708208805   -0.006087429629289359   -0.00031579247240448626
-0.0007894503167181709   -0.006108051000351967   -0.00032240518538386966
-0.0002567144499928203   -0.007357283899938824   -0.00030807986938188484
-0.0008354550299946449   -0.007373611830950803   -0.0003252468719468013
-0.0008457645045136139   -0.00736388513059546   -0.0003265801500745586
-0.0007894503167181709   -0.006108051000351967   -0.00032240518538386966
-0.0002567144499928203   -0.007357283899938824   -0.00030807986938188484
-0.0008457645045136139   -0.00736388513059546   -0.0003265801500745586
-0.000154241708208805   -0.006087429629289359   -0.00031579247240448626
-0.00016801643561076526   -0.006084228294241468   -0.00033005496641935376
-0.00028622871296237585   -0.007349060939170103   -0.0003325957912273589
0.000491927968136603   -0.006075997331261102   -0.00033342991740744075
-0.0001609629893381827   -0.0060852025217075075   -0.00032228106017041243
-0.00028622871296237585   -0.007349060939170103   -0.0003325957912273589
0.00031118692865959787   -0.007334454327786427   -0.00033874794838674666
0.000491927968136603   -0.006075997331261102   -0.00033342991740744075
0.00032385783640751366   -0.007330284444132137   -0.0003237860828769977
-0.0001609629893381827   -0.0060852025217075075   -0.00032228106017041243
0.0005007846601917123   -0.006072560032513706   -0.0003232802799264228
0.00032385783640751366   -0.007330284444132137   -0.0003237860828769977
0.000491927968136603   -0.006075997331261102   -0.00033342991740744075
-0.0001609629893381827   -0.0060852025217075075   -0.00032228106017041243
0.00032385783640751366   -0.007330284444132137   -0.0003237860828769977
-0.000275890897652095   -0.007348863589462424   -0.00032313639800306406
-0.00028622871296237585   -0.007349060939170103   -0.0003325957912273589
-0.0001609629893381827   -0.0060852025217075075   -0.00032228106017041243
0.00032385783640751366   -0.007330284444132137   -0.0003237860828769977
-0.00028622871296237585   -0.007349060939170103   -0.0003325957912273589
0.000491927968136603   -0.006075997331261102   -0.00033342991740744075
-0.0001609629893381827   -0.0060852025217075075   -0.00032228106017041243
-0.000275890897652095   -0.007348863589462424   -0.00032313639800306406
0.0005007846601917123   -0.006072560032513706   -0.0003232802799264228
-0.000154241708208805   -0.006087429629289359   -0.00031579247240448626
-0.000275890897652095   -0.007348863589462424   -0.00032313639800306406
0.00032385783640751366   -0.007330284444132137   -0.0003237860828769977
0.0005007846601917123   -0.006072560032513706   -0.0003232802799264228
0.0003369571734967405   -0.0073294105155336685   -0.00031017178235694684
-0.000154241708208805   -0.006087429629289359   -0.00031579247240448626
0.0005091449365356646   -0.006070753257220694   -0.00031440809698778696
0.0003369571734967405   -0.0073294105155336685   -0.00031017178235694684
0.0005007846601917123   -0.006072560032513706   -0.0003232802799264228
-0.000154241708208805   -0.006087429629289359   -0.00031579247240448626
0.0003369571734967405   -0.0073294105155336685   -0.00031017178235694684
-0.0002657974790516686   -0.007351539113982762   -0.00031495048518801367
-0.000275890897652095   -0.007348863589462424   -0.00032313639800306406
-0.000154241708208805   -0.006087429629289359   -0.00031579247240448626
0.0003369571734967405   -0.0073294105155336685   -0.00031017178235694684
-0.000275890897652095   -0.007348863589462424   -0.00032313639800306406
0.0005007846601917123   -0.006072560032513706   -0.0003232802799264228
-0.000154241708208805   -0.006087429629289359   -0.00031579247240448626
-0.0002657974790516686   -0.007351539113982762   -0.00031495048518801367
0.0005091449365356646   -0.006070753257220694   -0.00031440809698778696
-0.00014836754430787763   -0.0060909520747921145   -0.00031063066186150744
-0.0002657974790516686   -0.007351539113982762   -0.00031495048518801367
0.0003369571734967405   -0.0073294105155336685   -0.00031017178235694684
0.0005091449365356646   -0.006070753257220694   -0.00031440809698778696
0.00034585495918842946   -0.007331246814785335   -0.0002977249862772948
-0.00014836754430787763   -0.0060909520747921145   -0.00031063066186150744
0.0005141388225533852   -0.006069811290009768   -0.0003067298862404872
0.00034585495918842946   -0.007331246814785335   -0.0002977249862772948
0.0005091449365356646   -0.006070753257220694   -0.00031440809698778696
-0.00014836754430787763   -0.0060909520747921145   -0.00031063066186150744
0.00034585495918842946   -0.007331246814785335   -0.0002977249862772948
-0.0002567144499928203   -0.007357283899938824   -0.00030807986938188484
-0.0002657974790516686   -0.007351539113982762   -0.00031495048518801367
-0.00014836754430787763   -0.0060909520747921145   -0.00031063066186150744
0.00034585495918842946   -0.007331246814785335   -0.0002977249862772948
-0.0002657974790516686   -0.007351539113982762   -0.00031495048518801367
0.0005091449365356646   -0.006070753257220694   -0.00031440809698778696
0.000491927968136603   -0.006075997331261102   -0.00033342991740744075
0.00031118692865959787   -0.007334454327786427   -0.00033874794838674666
0.001196256400416121   -0.006061944860972506   -0.00034534407120525364
0.0005007846601917123   -0.006072560032513706   -0.0003232802799264228
0.00031118692865959787   -0.007334454327786427   -0.00033874794838674666
0.0009433981307186436   -0.007309252452583825   -0.00035362982684071834
0.001196256400416121   -0.006061944860972506   -0.00034534407120525364
0.0009772287370866575   -0.007300907033273322   -0.00033169731508963287
0.0005007846601917123   -0.006072560032513706   -0.0003232802799264228
0.0012185292185831302   -0.0060544585162242825   -0.00033177243554900987
0.0009772287370866575   -0.007300907033273322   -0.00033169731508963287
0.001196256400416121   -0.006061944860972506   -0.00034534407120525364
0.0005007846601917123   -0.006072560032513706   -0.0003232802799264228
0.0009772287370866575   -0.007300907033273322   -0.00033169731508963287
0.00032385783640751366   -0.007330284444132137   -0.0003237860828769977
0.00031118692865959787   -0.007334454327786427   -0.00033874794838674666
0.0005007846601917123   -0.006072560032513706   -0.0003232802799264228
0.0009772287370866575   -0.007300907033273322   -0.00033169731508963287
0.00031118692865959787   -0.007334454327786427   -0.00033874794838674666
0.001196256400416121   -0.006061944860972506   -0.00034534407120525364
0.0005007846601917123   -0.006072560032513706   -0.0003232802799264228
0.00032385783640751366   -0.007330284444132137   -0.0003237860828769977
0.0012185292185831302   -0.0060544585162242825   -0.00033177243554900987
0.0005091449365356646   -0.006070753257220694   -0.00031440809698778696
0.00032385783640751366   -0.007330284444132137   -0.0003237860828769977
0.0009772287370866575   -0.007300907033273322   -0.00033169731508963287
0.0012185292185831302   -0.0060544585162242825   -0.00033177243554900987
0.0010025169782284424   -0.007298520131401546   -0.00031157292201148683
0.0005091449365356646   -0.006070753257220694   -0.00031440809698778696
0.001234271967847861   -0.0060508023217515595   -0.0003200382070508101
0.0010025169782284424   -0.007298520131401546   -0.00031157292201148683
0.0012185292185831302   -0.0060544585162242825   -0.00033177243554900987
0.0005091449365356646   -0.006070753257220694   -0.00031440809698778696
0.0010025169782284424   -0.007298520131401546   -0.00031157292201148683
0.0003369571734967405   -0.0073294105155336685   -0.00031017178235694684
0.00032385783640751366   -0.007330284444132137   -0.0003237860828769977
0.0005091449365356646   -0.006070753257220694   -0.00031440809698778696
0.0010025169782284424   -0.007298520131401546   -0.00031157292201148683
0.00032385783640751366   -0.007330284444132137   -0.0003237860828769977
0.0012185292185831302   -0.0060544585162242825   -0.00033177243554900987
0.0005091449365356646   -0.006070753257220694   -0.00031440809698778696
0.0003369571734967405   -0.0073294105155336685   -0.00031017178235694684
0.001234271967847861   -0.0060508023217515595   -0.0003200382070508101
0.0005141388225533852   -0.006069811290009768   -0.0003067298862404872
0.0003369571734967405   -0.0073294105155336685   -0.00031017178235694684
0.0010025169782284424   -0.007298520131401546   -0.00031157292201148683
0.001234271967847861   -0.0060508023217515595   -0.0003200382070508101
0.00102858520807274   -0.007298586603102388   -0.00029335081920103584
0.0005141388225533852   -0.006069811290009768   -0.0003067298862404872
0.0012488280796065943   -0.006047132235401302   -0.0003102221477802308
0.00102858520807274   -0.007298586603102388   -0.00029335081920103584
0.001234271967847861   -0.0060508023217515595   -0.0003200382070508101
0.0005141388225533852   -0.006069811290009768   -0.0003067298862404872
0.00102858520807274   -0.007298586603102388   -0.00029335081920103584
0.00034585495918842946   -0.007331246814785335   -0.0002977249862772948
0.0003369571734967405   -0.0073294105155336685   -0.00031017178235694684
0.0005141388225533852   -0.006069811290009768   -0.0003067298862404872
0.00102858520807274   -0.007298586603102388   -0.00029335081920103584
0.0003369571734967405   -0.0073294105155336685   -0.00031017178235694684
0.001234271967847861   -0.0060508023217515595   -0.0003200382070508101
-0.0021251109548916184   -0.007334171010898509   -0.0003508357887540999
-0.0019410626465597499   -0.008432540137203041   -0.00032829324423681383
-0.001461816175555688   -0.007348445165144252   -0.00034002358391540833
-0.0021093585866460308   -0.007343619747418157   -0.0003594693535842619
-0.0019410626465597499   -0.008432540137203041   -0.00032829324423681383
-0.0013848624562989172   -0.00845761082824405   -0.0003267882264257029
-0.001461816175555688   -0.007348445165144252   -0.00034002358391540833
-0.001371506408437999   -0.008461191855785925   -0.0003328142246081976
-0.0021093585866460308   -0.007343619747418157   -0.0003594693535842619
-0.0014531268513810688   -0.00735542863538351   -0.0003418131620815653
-0.001371506408437999   -0.008461191855785925   -0.0003328142246081976
-0.001461816175555688   -0.007348445165144252   -0.00034002358391540833
-0.0021093585866460308   -0.007343619747418157   -0.0003594693535842619
-0.001371506408437999   -0.008461191855785925   -0.0003328142246081976
-0.0019127341588864076   -0.008437798115922187   -0.0003453983335297811
-0.0019410626465597499   -0.008432540137203041   -0.00032829324423681383
-0.0021093585866460308   -0.007343619747418157   -0.0003594693535842619
-0.001371506408437999   -0.008461191855785925   -0.0003328142246081976
-0.0019410626465597499   -0.008432540137203041   -0.00032829324423681383
-0.001461816175555688   -0.007348445165144252   -0.00034002358391540833
-0.0021093585866460308   -0.007343619747418157   -0.0003594693535842619
-0.0019127341588864076   -0.008437798115922187   -0.0003453983335297811
-0.0014531268513810688   -0.00735542863538351   -0.0003418131620815653
-0.002091761038560207   -0.007355534415459814   -0.0003701138971565433
-0.0019127341588864076   -0.008437798115922187   -0.0003453983335297811
-0.001371506408437999   -0.008461191855785925   -0.0003328142246081976
-0.0014531268513810688   -0.00735542863538351   -0.0003418131620815653
-0.0013547093691513835   -0.00846999853919411   -0.00034010558371182686
-0.002091761038560207   -0.007355534415459814   -0.0003701138971565433
-0.0014415419871012009   -0.007365623496429759   -0.00034488569084252854
-0.0013547093691513835   -0.00846999853919411   -0.00034010558371182686
-0.0014531268513810688   -0.00735542863538351   -0.0003418131620815653
-0.002091761038560207   -0.007355534415459814   -0.0003701138971565433
-0.0013547093691513835   -0.00846999853919411   -0.00034010558371182686
-0.0018847435901692125   -0.00844814339748783   -0.0003645604485379202
-0.0019127341588864076   -0.008437798115922187   -0.0003453983335297811
-0.002091761038560207   -0.007355534415459814   -0.0003701138971565433
-0.0013547093691513835   -0.00846999853919411   -0.00034010558371182686
-0.0019127341588864076   -0.008437798115922187   -0.0003453983335297811
-0.0014531268513810688   -0.00735542863538351   -0.0003418131620815653
-0.002091761038560207   -0.007355534415459814   -0.0003701138971565433
-0.0018847435901692125   -0.00844814339748783   -0.0003645604485379202
-0.0014415419871012009   -0.007365623496429759   -0.00034488569084252854
-0.0020680745524050436   -0.007373833885313555   -0.00038282596187617755
-0.0018847435901692125   -0.00844814339748783   -0.0003645604485379202
-0.0013547093691513835   -0.00846999853919411   -0.00034010558371182686
-0.0014415419871012009   -0.007365623496429759   -0.00034488569084252854
-0.001338186707679062   -0.008484535684039106   -0.00034864962383243105
-0.0020680745524050436   -0.007373833885313555   -0.00038282596187617755
-0.0014291928305699066   -0.007379663915189211   -0.0003492663929555614
-0.001338186707679062   -0.008484535684039106   -0.00034864962383243105
-0.0014415419871012009   -0.007365623496429759   -0.00034488569084252854
-0.0020680745524050436   -0.007373833885313555   -0.00038282596187617755
-0.001338186707679062   -0.008484535684039106   -0.00034864962383243105
-0.0018489652465988708   -0.00846743675398746   -0.0003857627409515716
-0.0018847435901692125   -0.00844814339748783   -0.0003645604485379202
-0.0020680745524050436   -0.007373833885313555   -0.00038282596187617755
-0.001338186707679062   -0.008484535684039106   -0.00034864962383243105
-0.0018847435901692125   -0.00844814339748783   -0.0003645604485379202
-0.0014415419871012009   -0.007365623496429759   -0.00034488569084252854
-0.001461816175555688   -0.007348445165144252   -0.00034002358391540833
-0.0013848624562989172   -0.00845761082824405   -0.0003267882264257029
-0.0008651583346922459   -0.007353777716871656   -0.00033318127810003843
-0.0014531268513810688   -0.00735542863538351   -0.0003418131620815653
-0.0013848624562989172   -0.00845761082824405   -0.0003267882264257029
-0.0008999820769054252   -0.008468845398856941   -0.000326346487662084
-0.0008651583346922459   -0.007353777716871656   -0.00033318127810003843
-0.0008863742331361206   -0.008469940851435888   -0.0003235248122582909
-0.0014531268513810688   -0.00735542863538351   -0.0003418131620815653
-0.0008557963379093744   -0.007357298039826307   -0.0003292482449697157
-0.0008863742331361206   -0.008469940851435888   -0.0003235248122582909
-0.0008651583346922459   -0.007353777716871656   -0.00033318127810003843
-0.0014531268513810688   -0.00735542863538351   -0.0003418131620815653
-0.0008863742331361206   -0.008469940851435888   -0.0003235248122582909
-0.001371506408437999   -0.008461191855785925   -0.0003328142246081976
-0.0013848624562989172   -0.00845761082824405   -0.0003267882264257029
-0.0014531268513810688   -0.00735542863538351   -0.0003418131620815653
-0.0008863742331361206   -0.008469940851435888   -0.0003235248122582909
-0.0013848624562989172   -0.00845761082824405   -0.0003267882264257029
-0.0008651583346922459   -0.007353777716871656   -0.00033318127810003843
-0.0014531268513810688   -0.00735542863538351   -0.0003418131620815653
-0.001371506408437999   -0.008461191855785925   -0.0003328142246081976
-0.0008557963379093744   -0.007357298039826307   -0.0003292482449697157
-0.0014415419871012009   -0.007365623496429759   -0.00034488569084252854
-0.001371506408437999   -0.008461191855785925   -0.0003328142246081976
-0.0008863742331361206   -0.008469940851435888   -0.0003235248122582909
-0.0008557963379093744   -0.007357298039826307   -0.0003292482449697157
-0.0008722919783783731   -0.00847572383190944   -0.0003219304980548842
-0.0014415419871012009   -0.007365623496429759   -0.00034488569084252854
-0.0008457645045136139   -0.00736388513059546   -0.0003265801500745586
-0.0008722919783783731   -0.00847572383190944   -0.0003219304980548842
-0.0008557963379093744   -0.007357298039826307   -0.0003292482449697157
-0.0014415419871012009   -0.007365623496429759   -0.00034488569084252854
-0.0008722919783783731   -0.00847572383190944   -0.0003219304980548842
-0.0013547093691513835   -0.00846999853919411   -0.00034010558371182686
-0.001371506408437999   -0.008461191855785925   -0.0003328142246081976
-0.0014415419871012009   -0.007365623496429759   -0.00034488569084252854
-0.0008722919783783731   -0.00847572383190944   -0.0003219304980548842
-0.001371506408437999   -0.008461191855785925   -0.0003328142246081976
-0.0008557963379093744   -0.007357298039826307   -0.0003292482449697157
-0.0014415419871012009   -0.007365623496429759   -0.00034488569084252854
-0.0013547093691513835   -0.00846999853919411   -0.00034010558371182686
-0.0008457645045136139   -0.00736388513059546   -0.0003265801500745586
-0.0014291928305699066   -0.007379663915189211   -0.0003492663929555614
-0.0013547093691513835   -0.00846999853919411   -0.00034010558371182686
-0.0008722919783783731   -0.00847572383190944   -0.0003219304980548842
-0.0008457645045136139   -0.00736388513059546   -0.0003265801500745586
-0.0008582128060023136   -0.00848642287210127   -0.000321563156734065
-0.0014291928305699066   -0.007379663915189211   -0.0003492663929555614
-0.0008354550299946449   -0.007373611830950803   -0.0003252468719468013
-0.0008582128060023136   -0.00848642287210127   -0.000321563156734065
-0.0008457645045136139   -0.00736388513059546   -0.0003265801500745586
-0.0014291928305699066   -0.007379663915189211   -0.0003492663929555614
-0.0008582128060023136   -0.00848642287210127   -0.000321563156734065
-0.001338186707679062   -0.008484535684039106   -0.00034864962383243105
-0.0013547093691513835   -0.00846999853919411   -0.00034010558371182686
-0.0014291928305699066   -0.007379663915189211   -0.0003492663929555614
-0.0008582128060023136   -0.00848642287210127   -0.000321563156734065
-0.0013547093691513835   -0.00846999853919411   -0.00034010558371182686
-0.0008457645045136139   -0.00736388513059546   -0.0003265801500745586
-0.0008651583346922459   -0.007353777716871656   -0.00033318127810003843
-0.0008999820769054252   -0.008468845398856941   -0.000326346487662084
-0.00028622871296237585   -0.007349060939170103   -0.0003325957912273589
-0.0008557963379093744   -0.007357298039826307   -0.0003292482449697157
-0.0008999820769054252   -0.008468845398856941   -0.000326346487662084
-0.0004308545914047331   -0.008465800649875557   -0.0003302260418504732
-0.00028622871296237585   -0.007349060939170103   -0.0003325957912273589
-0.0004159592921320694   -0.008464066572358313   -0.00031885679434471393
-0.0008557963379093744   -0.007357298039826307   -0.0003292482449697157
-0.000275890897652095   -0.007348863589462424   -0.00032313639800306406
-0.0004159592921320694   -0.008464066572358313   -0.00031885679434471393
-0.00028622871296237585   -0.007349060939170103   -0.0003325957912273589
-0.0008557963379093744   -0.007357298039826307   -0.0003292482449697157
-0.0004159592921320694   -0.008464066572358313   -0.00031885679434471393
-0.0008863742331361206   -0.008469940851435888   -0.0003235248122582909
-0.0008999820769054252   -0.008468845398856941   -0.000326346487662084
-0.0008557963379093744   -0.007357298039826307   -0.0003292482449697157
-0.0004159592921320694   -0.008464066572358313   -0.00031885679434471393
-0.0008999820769054252   -0.008468845398856941   -0.000326346487662084
-0.00028622871296237585   -0.007349060939170103   -0.0003325957912273589
-0.0008557963379093744   -0.007357298039826307   -0.0003292482449697157
-0.0008863742331361206   -0.008469940851435888   -0.0003235248122582909
-0.000275890897652095   -0.007348863589462424   -0.00032313639800306406
-0.0008457645045136139   -0.00736388513059546   -0.0003265801500745586
-0.0008863742331361206   -0.008469940851435888   -0.0003235248122582909
-0.0004159592921320694   -0.008464066572358313   -0.00031885679434471393
-0.000275890897652095   -0.007348863589462424   -0.00032313639800306406
-0.0004014480176941503   -0.008466628218720748   -0.00030879804808659145
-0.0008457645045136139   -0.00736388513059546   -0.0003265801500745586
-0.0002657974790516686   -0.007351539113982762   -0.00031495048518801367
-0.0004014480176941503   -0.008466628218720748   -0.00030879804808659145
-0.000275890897652095   -0.007348863589462424   -0.00032313639800306406
-0.0008457645045136139   -0.00736388513059546   -0.0003265801500745586
-0.0004014480176941503   -0.008466628218720748   -0.00030879804808659145
-0.0008722919783783731   -0.00847572383190944   -0.0003219304980548842
-0.0008863742331361206   -0.008469940851435888   -0.0003235248122582909
-0.0008457645045136139   -0.00736388513059546   -0.0003265801500745586
-0.0004014480176941503   -0.008466628218720748   -0.00030879804808659145
-0.0008863742331361206   -0.008469940851435888   -0.0003235248122582909
-0.000275890897652095   -0.007348863589462424   -0.00032313639800306406
-0.0008457645045136139   -0.00736388513059546   -0.0003265801500745586
-0.0008722919783783731   -0.00847572383190944   -0.0003219304980548842
-0.0002657974790516686   -0.007351539113982762   -0.00031495048518801367
-0.0008354550299946449   -0.007373611830950803   -0.0003252468719468013
-0.0008722919783783731   -0.00847572383190944   -0.0003219304980548842
-0.0004014480176941503   -0.008466628218720748   -0.00030879804808659145
-0.0002657974790516686   -0.007351539113982762   -0.00031495048518801367
-0.00038828643856942503   -0.008474008591666499   -0.00029994439918320343
-0.0008354550299946449   -0.007373611830950803   -0.0003252468719468013
-0.0002567144499928203   -0.007357283899938824   -0.00030807986938188484
-0.00038828643856942503   -0.008474008591666499   -0.00029994439918320343
-0.0002657974790516686   -0.007351539113982762   -0.00031495048518801367
-0.0008354550299946449   -0.007373611830950803   -0.0003252468719468013
-0.00038828643856942503   -0.008474008591666499   -0.00029994439918320343
-0.0008582128060023136   -0.00848642287210127   -0.000321563156734065
-0.0008722919783783731   -0.00847572383190944   -0.0003219304980548842
-0.0008354550299946449   -0.007373611830950803   -0.0003252468719468013
-0.00038828643856942503   -0.008474008591666499   -0.00029994439918320343
-0.0008722919783783731   -0.00847572383190944   -0.0003219304980548842
-0.0002657974790516686   -0.007351539113982762   -0.00031495048518801367
-0.00028622871296237585   -0.007349060939170103   -0.0003325957912273589
-0.0004308545914047331   -0.008465800649875557   -0.0003302260418504732
0.00031118692865959787   -0.007334454327786427   -0.00033874794838674666
-0.000275890897652095   -0.007348863589462424   -0.00032313639800306406
-0.0004308545914047331   -0.008465800649875557   -0.0003302260418504732
5.783225228185096e-05   -0.008447945615723845   -0.00033912163579413664
0.00031118692865959787   -0.007334454327786427   -0.00033874794838674666
7.605704368469706e-05   -0.008442687667401081   -0.00031920425146052337
-0.000275890897652095   -0.007348863589462424   -0.00032313639800306406
0.00032385783640751366   -0.007330284444132137   -0.0003237860828769977
7.605704368469706e-05   -0.008442687667401081   -0.00031920425146052337
0.00031118692865959787   -0.007334454327786427   -0.00033874794838674666
-0.000275890897652095   -0.007348863589462424   -0.00032313639800306406
7.605704368469706e-05   -0.008442687667401081   -0.00031920425146052337
-0.0004159592921320694   -0.008464066572358313   -0.00031885679434471393
-0.0004308545914047331   -0.008465800649875557   -0.0003302260418504732
-0.000275890897652095   -0.007348863589462424   -0.00032313639800306406
7.605704368469706e-05   -0.008442687667401081   -0.00031920425146052337
-0.0004308545914047331   -0.008465800649875557   -0.0003302260418504732
0.00031118692865959787   -0.007334454327786427   -0.00033874794838674666
-0.000275890897652095   -0.007348863589462424   -0.00032313639800306406
-0.0004159592921320694   -0.008464066572358313   -0.00031885679434471393
0.00032385783640751366   -0.007330284444132137   -0.0003237860828769977
-0.0002657974790516686   -0.007351539113982762   -0.00031495048518801367
-0.0004159592921320694   -0.008464066572358313   -0.00031885679434471393
7.605704368469706e-05   -0.008442687667401081   -0.00031920425146052337
0.00032385783640751366   -0.007330284444132137   -0.0003237860828769977
9.543587553322507e-05   -0.008442225080499003   -0.00030093391098044264
-0.0002657974790516686   -0.007351539113982762   -0.00031495048518801367
0.0003369571734967405   -0.0073294105155336685   -0.00031017178235694684
9.543587553322507e-05   -0.008442225080499003   -0.00030093391098044264
0.00032385783640751366   -0.007330284444132137   -0.0003237860828769977
-0.0002657974790516686   -0.007351539113982762   -0.00031495048518801367
9.543587553322507e-05   -0.008442225080499003   -0.00030093391098044264
-0.0004014480176941503   -0.008466628218720748   -0.00030879804808659145
-0.0004159592921320694   -0.008464066572358313   -0.00031885679434471393
-0.0002657974790516686   -0.007351539113982762   -0.00031495048518801367
9.543587553322507e-05   -0.008442225080499003   -0.00030093391098044264
-0.0004159592921320694   -0.008464066572358313   -0.00031885679434471393
0.00032385783640751366   -0.007330284444132137   -0.0003237860828769977
-0.0002657974790516686   -0.007351539113982762   -0.00031495048518801367
-0.0004014480176941503   -0.008466628218720748   -0.00030879804808659145
0.0003369571734967405   -0.0073294105155336685   -0.00031017178235694684
-0.0002567144499928203   -0.007357283899938824   -0.00030807986938188484
-0.0004014480176941503   -0.008466628218720748   -0.00030879804808659145
9.543587553322507e-05   -0.008442225080499003   -0.00030093391098044264
0.0003369571734967405   -0.0073294105155336685   -0.00031017178235694684
0.00010960462878713513   -0.00844631458940761   -0.0002837910080202689
-0.0002567144499928203   -0.007357283899938824   -0.00030807986938188484
0.00034585495918842946   -0.007331246814785335   -0.0002977249862772948
0.00010960462878713513   -0.00844631458940761   -0.0002837910080202689
0.0003369571734967405   -0.0073294105155336685   -0.00031017178235694684
-0.0002567144499928203   -0.007357283899938824   -0.00030807986938188484
0.00010960462878713513   -0.00844631458940761   -0.0002837910080202689
-0.00038828643856942503   -0.008474008591666499   -0.00029994439918320343
-0.0004014480176941503   -0.008466628218720748   -0.00030879804808659145
-0.0002567144499928203   -0.007357283899938824   -0.00030807986938188484
0.00010960462878713513   -0.00844631458940761   -0.0002837910080202689
-0.0004014480176941503   -0.008466628218720748   -0.00030879804808659145
0.0003369571734967405   -0.0073294105155336685   -0.00031017178235694684
0.00031118692865959787   -0.007334454327786427   -0.00033874794838674666
5.783225228185096e-05   -0.008447945615723845   -0.00033912163579413664
0.0009433981307186436   -0.007309252452583825   -0.00035362982684071834
0.00032385783640751366   -0.007330284444132137   -0.0003237860828769977
5.783225228185096e-05   -0.008447945615723845   -0.00033912163579413664
0.0005742026462681307   -0.008413661013945077   -0.00035730885054180704
0.0009433981307186436   -0.007309252452583825   -0.00035362982684071834
0.0006217250509322477   -0.00840371064742686   -0.00032674772736494644
0.00032385783640751366   -0.007330284444132137   -0.0003237860828769977
0.0009772287370866575   -0.007300907033273322   -0.00033169731508963287
0.0006217250509322477   -0.00840371064742686   -0.00032674772736494644
0.0009433981307186436   -0.007309252452583825   -0.00035362982684071834
0.00032385783640751366   -0.007330284444132137   -0.0003237860828769977
0.0006217250509322477   -0.00840371064742686   -0.00032674772736494644
7.605704368469706e-05   -0.008442687667401081   -0.00031920425146052337
5.783225228185096e-05   -0.008447945615723845   -0.00033912163579413664
0.00032385783640751366   -0.007330284444132137   -0.0003237860828769977
0.0006217250509322477   -0.00840371064742686   -0.00032674772736494644
5.783225228185096e-05   -0.008447945615723845   -0.00033912163579413664
0.0009433981307186436   -0.007309252452583825   -0.00035362982684071834
0.00032385783640751366   -0.007330284444132137   -0.0003237860828769977
7.605704368469706e-05   -0.008442687667401081   -0.00031920425146052337
0.0009772287370866575   -0.007300907033273322   -0.00033169731508963287
0.0003369571734967405   -0.0073294105155336685   -0.00031017178235694684
7.605704368469706e-05   -0.008442687667401081   -0.00031920425146052337
0.0006217250509322477   -0.00840371064742686   -0.00032674772736494644
0.0009772287370866575   -0.007300907033273322   -0.00033169731508963287
0.0006582613770875148   -0.008401982365146412   -0.0002982347384247891
0.0003369571734967405   -0.0073294105155336685   -0.00031017178235694684
0.0010025169782284424   -0.007298520131401546   -0.00031157292201148683
0.0006582613770875148   -0.008401982365146412   -0.0002982347384247891
0.0009772287370866575   -0.007300907033273322   -0.00033169731508963287
0.0003369571734967405   -0.0073294105155336685   -0.00031017178235694684
0.0006582613770875148   -0.008401982365146412   -0.0002982347384247891
9.543587553322507e-05   -0.008442225080499003   -0.00030093391098044264
7.605704368469706e-05   -0.008442687667401081   -0.00031920425146052337
0.0003369571734967405   -0.0073294105155336685   -0.00031017178235694684
0.0006582613770875148   -0.008401982365146412   -0.0002982347384247891
7.605704368469706e-05   -0.008442687667401081   -0.00031920425146052337
0.0009772287370866575   -0.007300907033273322   -0.00033169731508963287
0.0003369571734967405   -0.0073294105155336685   -0.00031017178235694684
9.543587553322507e-05   -0.008442225080499003   -0.00030093391098044264
0.0010025169782284424   -0.007298520131401546   -0.00031157292201148683
0.00034585495918842946   -0.007331246814785335   -0.0002977249862772948
9.543587553322507e-05   -0.008442225080499003   -0.00030093391098044264
0.0006582613770875148   -0.008401982365146412   -0.0002982347384247891
0.0010025169782284424   -0.007298520131401546   -0.00031157292201148683
0.0006967008478521119   -0.008405150160915276   -0.00027199230677626404
0.00034585495918842946   -0.007331246814785335   -0.0002977249862772948
0.00102858520807274   -0.007298586603102388   -0.00029335081920103584
0.0006967008478521119   -0.008405150160915276   -0.00027199230677626404
0.0010025169782284424   -0.007298520131401546   -0.00031157292201148683
0.00034585495918842946   -0.007331246814785335   -0.0002977249862772948
0.0006967008478521119   -0.008405150160915276   -0.00027199230677626404
0.00010960462878713513   -0.00844631458940761   -0.0002837910080202689
9.543587553322507e-05   -0.008442225080499003   -0.00030093391098044264
0.00034585495918842946   -0.007331246814785335   -0.0002977249862772948
0.0006967008478521119   -0.008405150160915276   -0.00027199230677626404
9.543587553322507e-05   -0.008442225080499003   -0.00030093391098044264
0.0010025169782284424   -0.007298520131401546   -0.00031157292201148683
-0.0019410626465597499   -0.008432540137203041   -0.00032829324423681383
-0.0016378832419621009   -0.009291003452879266   -0.0002988196389431202
-0.0013848624562989172   -0.00845761082824405   -0.0003267882264257029
-0.0019127341588864076   -0.008437798115922187   -0.0003453983335297811
-0.0016378832419621009   -0.009291003452879266   -0.0002988196389431202
-0.0012406429325197066   -0.00932736058314823   -0.0003095632943824812
-0.0013848624562989172   -0.00845761082824405   -0.0003267882264257029
-0.0012221671879336633   -0.00932574953717537   -0.0003187952033280669
-0.0019127341588864076   -0.008437798115922187   -0.0003453983335297811
-0.001371506408437999   -0.008461191855785925   -0.0003328142246081976
-0.0012221671879336633   -0.00932574953717537   -0.0003187952033280669
-0.0013848624562989172   -0.00845761082824405   -0.0003267882264257029
-0.0019127341588864076   -0.008437798115922187   -0.0003453983335297811
-0.0012221671879336633   -0.00932574953717537   -0.0003187952033280669
-0.0015969215239409753   -0.009290151299602405   -0.0003236617555083452
-0.0016378832419621009   -0.009291003452879266   -0.0002988196389431202
-0.0019127341588864076   -0.008437798115922187   -0.0003453983335297811
-0.0012221671879336633   -0.00932574953717537   -0.0003187952033280669
-0.0016378832419621009   -0.009291003452879266   -0.0002988196389431202
-0.0013848624562989172   -0.00845761082824405   -0.0003267882264257029
-0.0019127341588864076   -0.008437798115922187   -0.0003453983335297811
-0.0015969215239409753   -0.009290151299602405   -0.0003236617555083452
-0.001371506408437999   -0.008461191855785925   -0.0003328142246081976
-0.0018847435901692125   -0.00844814339748783   -0.0003645604485379202
-0.0015969215239409753   -0.009290151299602405   -0.0003236617555083452
-0.0012221671879336633   -0.00932574953717537   -0.0003187952033280669
-0.001371506408437999   -0.008461191855785925   -0.0003328142246081976
-0.0012002568386269806   -0.00933144228267357   -0.0003292861975784894
-0.0018847435901692125   -0.00844814339748783   -0.0003645604485379202
-0.0013547093691513835   -0.00846999853919411   -0.00034010558371182686
-0.0012002568386269806   -0.00933144228267357   -0.0003292861975784894
-0.001371506408437999   -0.008461191855785925   -0.0003328142246081976
-0.0018847435901692125   -0.00844814339748783   -0.0003645604485379202
-0.0012002568386269806   -0.00933144228267357   -0.0003292861975784894
-0.0015593485299162557   -0.009297110275648597   -0.0003502904619733635
-0.0015969215239409753   -0.009290151299602405   -0.0003236617555083452
-0.0018847435901692125   -0.00844814339748783   -0.0003645604485379202
-0.0012002568386269806   -0.00933144228267357   -0.0003292861975784894
-0.0015969215239409753   -0.009290151299602405   -0.0003236617555083452
-0.001371506408437999   -0.008461191855785925   -0.0003328142246081976
-0.0018847435901692125   -0.00844814339748783   -0.0003645604485379202
-0.0015593485299162557   -0.009297110275648597   -0.0003502904619733635
-0.0013547093691513835   -0.00846999853919411   -0.00034010558371182686
-0.0018489652465988708   -0.00846743675398746   -0.0003857627409515716
-0.0015593485299162557   -0.009297110275648597   -0.0003502904619733635
-0.0012002568386269806   -0.00933144228267357   -0.0003292861975784894
-0.0013547093691513835   -0.00846999853919411   -0.00034010558371182686
-0.0011803897882389403   -0.00934459583332546   -0.00034095948921530265
-0.0018489652465988708   -0.00846743675398746   -0.0003857627409515716
-0.001338186707679062   -0.008484535684039106   -0.00034864962383243105
-0.0011803897882389403   -0.00934459583332546   -0.00034095948921530265
-0.0013547093691513835   -0.00846999853919411   -0.00034010558371182686
-0.0018489652465988708   -0.00846743675398746   -0.0003857627409515716
-0.0011803897882389403   -0.00934459583332546   -0.00034095948921530265
-0.0015133950578521958   -0.009315092569831849   -0.0003786212013827743
-0.0015593485299162557   -0.009297110275648597   -0.0003502904619733635
-0.0018489652465988708   -0.00846743675398746   -0.0003857627409515716
-0.0011803897882389403   -0.00934459583332546   -0.00034095948921530265
-0.0015593485299162557   -0.009297110275648597   -0.0003502904619733635
-0.0013547093691513835   -0.00846999853919411   -0.00034010558371182686
-0.0013848624562989172   -0.00845761082824405   -0.0003267882264257029
-0.0012406429325197066   -0.00932736058314823   -0.0003095632943824812
-0.0008999820769054252   -0.008468845398856941   -0.000326346487662084
-0.001371506408437999   -0.008461191855785925   -0.0003328142246081976
-0.0012406429325197066   -0.00932736058314823   -0.0003095632943824812
-0.0009121032452364058   -0.009349696247988494   -0.00031801360623846673
-0.0008999820769054252   -0.008468845398856941   -0.000326346487662084
-0.0008933140890923485   -0.009346845249492985   -0.00031522020956947273
-0.001371506408437999   -0.008461191855785925   -0.0003328142246081976
-0.0008863742331361206   -0.008469940851435888   -0.0003235248122582909
-0.0008933140890923485   -0.009346845249492985   -0.00031522020956947273
-0.0008999820769054252   -0.008468845398856941   -0.000326346487662084
-0.001371506408437999   -0.008461191855785925   -0.0003328142246081976
-0.0008933140890923485   -0.009346845249492985   -0.00031522020956947273
-0.0012221671879336633   -0.00932574953717537   -0.0003187952033280669
-0.0012406429325197066   -0.00932736058314823   -0.0003095632943824812
-0.001371506408437999   -0.008461191855785925   -0.0003328142246081976
-0.0008933140890923485   -0.009346845249492985   -0.00031522020956947273
-0.0012406429325197066   -0.00932736058314823   -0.0003095632943824812
-0.0008999820769054252   -0.008468845398856941   -0.000326346487662084
-0.001371506408437999   -0.008461191855785925   -0.0003328142246081976
-0.0012221671879336633   -0.00932574953717537   -0.0003187952033280669
-0.0008863742331361206   -0.008469940851435888   -0.0003235248122582909
-0.0013547093691513835   -0.00846999853919411   -0.00034010558371182686
-0.0012221671879336633   -0.00932574953717537   -0.0003187952033280669
-0.0008933140890923485   -0.009346845249492985   -0.00031522020956947273
-0.0008863742331361206   -0.008469940851435888   -0.0003235248122582909
-0.0008746855429828254   -0.00935035471893035   -0.0003136620534665501
-0.0013547093691513835   -0.00846999853919411   -0.00034010558371182686
-0.0008722919783783731   -0.00847572383190944   -0.0003219304980548842
-0.0008746855429828254   -0.00935035471893035   -0.0003136620534665501
-0.0008863742331361206   -0.008469940851435888   -0.0003235248122582909
-0.0013547093691513835   -0.00846999853919411   -0.00034010558371182686
-0.0008746855429828254   -0.00935035471893035   -0.0003136620534665501
-0.0012002568386269806   -0.00933144228267357   -0.0003292861975784894
-0.0012221671879336633   -0.00932574953717537   -0.0003187952033280669
-0.0013547093691513835   -0.00846999853919411   -0.00034010558371182686
-0.0008746855429828254   -0.00935035471893035   -0.0003136620534665501
-0.0012221671879336633   -0.00932574953717537   -0.0003187952033280669
-0.0008863742331361206   -0.008469940851435888   -0.0003235248122582909
-0.0013547093691513835   -0.00846999853919411   -0.00034010558371182686
-0.0012002568386269806   -0.00933144228267357   -0.0003292861975784894
-0.0008722919783783731   -0.00847572383190944   -0.0003219304980548842
-0.001338186707679062   -0.008484535684039106   -0.00034864962383243105
-0.0012002568386269806   -0.00933144228267357   -0.0003292861975784894
-0.0008746855429828254   -0.00935035471893035   -0.0003136620534665501
-0.0008722919783783731   -0.00847572383190944   -0.0003219304980548842
-0.000857434232357876   -0.009360392229304888   -0.0003135795818926565
-0.001338186707679062   -0.008484535684039106   -0.00034864962383243105
-0.0008582128060023136   -0.00848642287210127   -0.000321563156734065
-0.000857434232357876   -0.009360392229304888   -0.0003135795818926565
-0.0008722919783783731   -0.00847572383190944   -0.0003219304980548842
-0.001338186707679062   -0.008484535684039106   -0.00034864962383243105
-0.000857434232357876   -0.009360392229304888   -0.0003135795818926565
-0.0011803897882389403   -0.00934459583332546   -0.00034095948921530265
-0.0012002568386269806   -0.00933144228267357   -0.0003292861975784894
-0.001338186707679062   -0.008484535684039106   -0.00034864962383243105
-0.000857434232357876   -0.009360392229304888   -0.0003135795818926565
-0.0012002568386269806   -0.00933144228267357   -0.0003292861975784894
-0.0008722919783783731   -0.00847572383190944   -0.0003219304980548842
-0.0008999820769054252   -0.008468845398856941   -0.000326346487662084
-0.0009121032452364058   -0.009349696247988494   -0.00031801360623846673
-0.0004308545914047331   -0.008465800649875557   -0.0003302260418504732
-0.0008863742331361206   -0.008469940851435888   -0.0003235248122582909
-0.0009121032452364058   -0.009349696247988494   -0.00031801360623846673
-0.0005970168304874588   -0.00935952278216369   -0.0003284177521478695
-0.0004308545914047331   -0.008465800649875557   -0.0003302260418504732
-0.000575877391042728   -0.009355157345950537   -0.0003142096734466094
-0.0008863742331361206   -0.008469940851435888   -0.0003235248122582909
-0.0004159592921320694   -0.008464066572358313   -0.00031885679434471393
-0.000575877391042728   -0.009355157345950537   -0.0003142096734466094
-0.0004308545914047331   -0.008465800649875557   -0.0003302260418504732
-0.0008863742331361206   -0.008469940851435888   -0.0003235248122582909
-0.000575877391042728   -0.009355157345950537   -0.0003142096734466094
-0.0008933140890923485   -0.009346845249492985   -0.00031522020956947273
-0.0009121032452364058   -0.009349696247988494   -0.00031801360623846673
-0.0008863742331361206   -0.008469940851435888   -0.0003235248122582909
-0.000575877391042728   -0.009355157345950537   -0.0003142096734466094
-0.0009121032452364058   -0.009349696247988494   -0.00031801360623846673
-0.0004308545914047331   -0.008465800649875557   -0.0003302260418504732
-0.0008863742331361206   -0.008469940851435888   -0.0003235248122582909
-0.0008933140890923485   -0.009346845249492985   -0.00031522020956947273
-0.0004159592921320694   -0.008464066572358313   -0.00031885679434471393
-0.0008722919783783731   -0.00847572383190944   -0.0003219304980548842
-0.0008933140890923485   -0.009346845249492985   -0.00031522020956947273
-0.000575877391042728   -0.009355157345950537   -0.0003142096734466094
-0.0004159592921320694   -0.008464066572358313   -0.00031885679434471393
-0.000555640773861915   -0.009356489529871335   -0.0003011383444856963
-0.0008722919783783731   -0.00847572383190944   -0.0003219304980548842
-0.0004014480176941503   -0.008466628218720748   -0.00030879804808659145
-0.000555640773861915   -0.009356489529871335   -0.0003011383444856963
-0.0004159592921320694   -0.008464066572358313   -0.00031885679434471393
-0.0008722919783783731   -0.00847572383190944   -0.0003219304980548842
-0.000555640773861915   -0.009356489529871335   -0.0003011383444856963
-0.0008746855429828254   -0.00935035471893035   -0.0003136620534665501
-0.0008933140890923485   -0.009346845249492985   -0.00031522020956947273
-0.0008722919783783731   -0.00847572383190944   -0.0003219304980548842
-0.000555640773861915   -0.009356489529871335   -0.0003011383444856963
-0.0008933140890923485   -0.009346845249492985   -0.00031522020956947273
-0.0004159592921320694   -0.008464066572358313   -0.00031885679434471393
-0.0008722919783783731   -0.00847572383190944   -0.0003219304980548842
-0.0008746855429828254   -0.00935035471893035   -0.0003136620534665501
-0.0004014480176941503   -0.008466628218720748   -0.00030879804808659145
-0.0008582128060023136   -0.00848642287210127   -0.000321563156734065
-0.0008746855429828254   -0.00935035471893035   -0.0003136620534665501
-0.000555640773861915   -0.009356489529871335   -0.0003011383444856963
-0.0004014480176941503   -0.008466628218720748   -0.00030879804808659145
-0.0005386442968333592   -0.009364436877558219   -0.0002898105712391578
-0.0008582128060023136   -0.00848642287210127   -0.000321563156734065
-0.00038828643856942503   -0.008474008591666499   -0.00029994439918320343
-0.0005386442968333592   -0.009364436877558219   -0.0002898105712391578
-0.0004014480176941503   -0.008466628218720748   -0.00030879804808659145
-0.0008582128060023136   -0.00848642287210127   -0.000321563156734065
-0.0005386442968333592   -0.009364436877558219   -0.0002898105712391578
-0.000857434232357876   -0.009360392229304888   -0.0003135795818926565
-0.0008746855429828254   -0.00935035471893035   -0.0003136620534665501
-0.0008582128060023136   -0.00848642287210127   -0.000321563156734065
-0.0005386442968333592   -0.009364436877558219   -0.0002898105712391578
-0.0008746855429828254   -0.00935035471893035   -0.0003136620534665501
-0.0004014480176941503   -0.008466628218720748   -0.00030879804808659145
-0.0004308545914047331   -0.008465800649875557   -0.0003302260418504732
-0.0005970168304874588   -0.00935952278216369   -0.0003284177521478695
5.783225228185096e-05   -0.008447945615723845   -0.00033912163579413664
-0.0004159592921320694   -0.008464066572358313   -0.00031885679434471393
-0.0005970168304874588   -0.00935952278216369   -0.0003284177521478695
-0.0002649382649954566   -0.009352949190077786   -0.0003410291823404677
5.783225228185096e-05   -0.008447945615723845   -0.00033912163579413664
-0.00023779057494475816   -0.009346036578524617   -0.0003157964270019617
-0.0004159592921320694   -0.008464066572358313   -0.00031885679434471393
7.605704368469706e-05   -0.008442687667401081   -0.00031920425146052337
-0.00023779057494475816   -0.009346036578524617   -0.0003157964270019617
5.783225228185096e-05   -0.008447945615723845   -0.00033912163579413664
-0.0004159592921320694   -0.008464066572358313   -0.00031885679434471393
-0.00023779057494475816   -0.009346036578524617   -0.0003157964270019617
-0.000575877391042728   -0.009355157345950537   -0.0003142096734466094
-0.0005970168304874588   -0.00935952278216369   -0.0003284177521478695
-0.0004159592921320694   -0.008464066572358313   -0.00031885679434471393
-0.00023779057494475816   -0.009346036578524617   -0.0003157964270019617
-0.0005970168304874588   -0.00935952278216369   -0.0003284177521478695
5.783225228185096e-05   -0.008447945615723845   -0.00033912163579413664
-0.0004159592921320694   -0.008464066572358313   -0.00031885679434471393
-0.000575877391042728   -0.009355157345950537   -0.0003142096734466094
7.605704368469706e-05   -0.008442687667401081   -0.00031920425146052337
-0.0004014480176941503   -0.008466628218720748   -0.00030879804808659145
-0.000575877391042728   -0.009355157345950537   -0.0003142096734466094
-0.00023779057494475816   -0.009346036578524617   -0.0003157964270019617
7.605704368469706e-05   -0.008442687667401081   -0.00031920425146052337
-0.00020964418745859147   -0.009345050361271964   -0.00029175292655486077
-0.0004014480176941503   -0.008466628218720748   -0.00030879804808659145
9.543587553322507e-05   -0.008442225080499003   -0.00030093391098044264
-0.00020964418745859147   -0.009345050361271964   -0.00029175292655486077
7.605704368469706e-05   -0.008442687667401081   -0.00031920425146052337
-0.0004014480176941503   -0.008466628218720748   -0.00030879804808659145
-0.00020964418745859147   -0.009345050361271964   -0.00029175292655486077
-0.000555640773861915   -0.009356489529871335   -0.0003011383444856963
-0.000575877391042728   -0.009355157345950537   -0.0003142096734466094
-0.0004014480176941503   -0.008466628218720748   -0.00030879804808659145
-0.00020964418745859147   -0.009345050361271964   -0.00029175292655486077
-0.000575877391042728   -0.009355157345950537   -0.0003142096734466094
7.605704368469706e-05   -0.008442687667401081   -0.00031920425146052337
-0.0004014480176941503   -0.008466628218720748   -0.00030879804808659145
-0.000555640773861915   -0.009356489529871335   -0.0003011383444856963
9.543587553322507e-05   -0.008442225080499003   -0.00030093391098044264
-0.00038828643856942503   -0.008474008591666499   -0.00029994439918320343
-0.000555640773861915   -0.009356489529871335   -0.0003011383444856963
-0.00020964418745859147   -0.009345050361271964   -0.00029175292655486077
9.543587553322507e-05   -0.008442225080499003   -0.00030093391098044264
-0.00018903082862847242   -0.009351093224922058   -0.00026971670431025316
-0.00038828643856942503   -0.008474008591666499   -0.00029994439918320343
0.00010960462878713513   -0.00844631458940761   -0.0002837910080202689
-0.00018903082862847242   -0.009351093224922058   -0.00026971670431025316
9.543587553322507e-05   -0.008442225080499003   -0.00030093391098044264
-0.00038828643856942503   -0.008474008591666499   -0.00029994439918320343
-0.00018903082862847242   -0.009351093224922058   -0.00026971670431025316
-0.0005386442968333592   -0.009364436877558219   -0.0002898105712391578
-0.000555640773861915   -0.009356489529871335   -0.0003011383444856963
-0.00038828643856942503   -0.008474008591666499   -0.00029994439918320343
-0.00018903082862847242   -0.009351093224922058   -0.00026971670431025316
-0.000555640773861915   -0.009356489529871335   -0.0003011383444856963
9.543587553322507e-05   -0.008442225080499003   -0.00030093391098044264
5.783225228185096e-05   -0.008447945615723845   -0.00033912163579413664
-0.0002649382649954566   -0.009352949190077786   -0.0003410291823404677
0.0005742026462681307   -0.008413661013945077   -0.00035730885054180704
7.605704368469706e-05   -0.008442687667401081   -0.00031920425146052337
-0.0002649382649954566   -0.009352949190077786   -0.0003410291823404677
8.658744736078145e-05   -0.009319790296515813   -0.0003656397387873787
0.0005742026462681307   -0.008413661013945077   -0.00035730885054180704
0.00015284544024217974   -0.009305141844730695   -0.00032457337732228885
7.605704368469706e-05   -0.008442687667401081   -0.00031920425146052337
0.0006217250509322477   -0.00840371064742686   -0.00032674772736494644
0.00015284544024217974   -0.009305141844730695   -0.00032457337732228885
0.0005742026462681307   -0.008413661013945077   -0.00035730885054180704
7.605704368469706e-05   -0.008442687667401081   -0.00031920425146052337
0.00015284544024217974   -0.009305141844730695   -0.00032457337732228885
-0.00023779057494475816   -0.009346036578524617   -0.0003157964270019617
-0.0002649382649954566   -0.009352949190077786   -0.0003410291823404677
7.605704368469706e-05   -0.008442687667401081   -0.00031920425146052337
0.00015284544024217974   -0.009305141844730695   -0.00032457337732228885
-0.0002649382649954566   -0.009352949190077786   -0.0003410291823404677
0.0005742026462681307   -0.008413661013945077   -0.00035730885054180704
7.605704368469706e-05   -0.008442687667401081   -0.00031920425146052337
-0.00023779057494475816   -0.009346036578524617   -0.0003157964270019617
0.0006217250509322477   -0.00840371064742686   -0.00032674772736494644
9.543587553322507e-05   -0.008442225080499003   -0.00030093391098044264
-0.00023779057494475816   -0.009346036578524617   -0.0003157964270019617
0.00015284544024217974   -0.009305141844730695   -0.00032457337732228885
0.0006217250509322477   -0.00840371064742686   -0.00032674772736494644
0.00020474973691737242   -0.009302368033531584   -0.0002857639258176443
9.543587553322507e-05   -0.008442225080499003   -0.00030093391098044264
0.0006582613770875148   -0.008401982365146412   -0.0002982347384247891
0.00020474973691737242   -0.009302368033531584   -0.0002857639258176443
0.0006217250509322477   -0.00840371064742686   -0.00032674772736494644
9.543587553322507e-05   -0.008442225080499003   -0.00030093391098044264
0.00020474973691737242   -0.009302368033531584   -0.0002857639258176443
-0.00020964418745859147   -0.009345050361271964   -0.00029175292655486077
-0.00023779057494475816   -0.009346036578524617   -0.0003157964270019617
9.543587553322507e-05   -0.008442225080499003   -0.00030093391098044264
0.00020474973691737242   -0.009302368033531584   -0.0002857639258176443
-0.00023779057494475816   -0.009346036578524617   -0.0003157964270019617
0.0006217250509322477   -0.00840371064742686   -0.00032674772736494644
9.543587553322507e-05   -0.008442225080499003   -0.00030093391098044264
-0.00020964418745859147   -0.009345050361271964   -0.00029175292655486077
0.0006582613770875148   -0.008401982365146412   -0.0002982347384247891
0.00010960462878713513   -0.00844631458940761   -0.0002837910080202689
-0.00020964418745859147   -0.009345050361271964   -0.00029175292655486077
0.00020474973691737242   -0.009302368033531584   -0.0002857639258176443
0.0006582613770875148   -0.008401982365146412   -0.0002982347384247891
0.00025944361029661835   -0.009305664969045162   -0.0002500179480796837
0.00010960462878713513   -0.00844631458940761   -0.0002837910080202689
0.0006967008478521119   -0.008405150160915276   -0.00027199230677626404
0.00025944361029661835   -0.009305664969045162   -0.0002500179480796837
0.0006582613770875148   -0.008401982365146412   -0.0002982347384247891
0.00010960462878713513   -0.00844631458940761   -0.0002837910080202689
0.00025944361029661835   -0.009305664969045162   -0.0002500179480796837
-0.00018903082862847242   -0.009351093224922058   -0.00026971670431025316
-0.00020964418745859147   -0.009345050361271964   -0.00029175292655486077
0.00010960462878713513   -0.00844631458940761   -0.0002837910080202689
0.00025944361029661835   -0.009305664969045162   -0.0002500179480796837
-0.00020964418745859147   -0.009345050361271964   -0.00029175292655486077
0.0006582613770875148   -0.008401982365146412   -0.0002982347384247891
-0.0016378832419621009   -0.009291003452879266   -0.0002988196389431202
-0.0012282272965983003   -0.009806657188465788   -0.00026384360096595245
-0.0012406429325197066   -0.00932736058314823   -0.0003095632943824812
-0.0015969215239409753   -0.009290151299602405   -0.0003236617555083452
-0.0012282272965983003   -0.009806657188465788   -0.00026384360096595245
-0.0010367494855009578   -0.009852038692300126   -0.00029027245365387564
-0.0012406429325197066   -0.00932736058314823   -0.0003095632943824812
-0.001013965106557488   -0.009843682368789838   -0.00030031179618407195
-0.0015969215239409753   -0.009290151299602405   -0.0003236617555083452
-0.0012221671879336633   -0.00932574953717537   -0.0003187952033280669
-0.001013965106557488   -0.009843682368789838   -0.00030031179618407195
-0.0012406429325197066   -0.00932736058314823   -0.0003095632943824812
-0.0015969215239409753   -0.009290151299602405   -0.0003236617555083452
-0.001013965106557488   -0.009843682368789838   -0.00030031179618407195
-0.001177930186231415   -0.009797161471020601   -0.0002934971497817852
-0.0012282272965983003   -0.009806657188465788   -0.00026384360096595245
-0.0015969215239409753   -0.009290151299602405   -0.0003236617555083452
-0.001013965106557488   -0.009843682368789838   -0.00030031179618407195
-0.0012282272965983003   -0.009806657188465788   -0.00026384360096595245
-0.0012406429325197066   -0.00932736058314823   -0.0003095632943824812
-0.0015969215239409753   -0.009290151299602405   -0.0003236617555083452
-0.001177930186231415   -0.009797161471020601   -0.0002934971497817852
-0.0012221671879336633   -0.00932574953717537   -0.0003187952033280669
-0.0015593485299162557   -0.009297110275648597   -0.0003502904619733635
-0.001177930186231415   -0.009797161471020601   -0.0002934971497817852
-0.001013965106557488   -0.009843682368789838   -0.00030031179618407195
-0.0012221671879336633   -0.00932574953717537   -0.0003187952033280669
-0.0009884287013734183   -0.009844907702133896   -0.00031046700611545675
-0.0015593485299162557   -0.009297110275648597   -0.0003502904619733635
-0.0012002568386269806   -0.00933144228267357   -0.0003292861975784894
-0.0009884287013734183   -0.009844907702133896   -0.00031046700611545675
-0.0012221671879336633   -0.00932574953717537   -0.0003187952033280669
-0.0015593485299162557   -0.009297110275648597   -0.0003502904619733635
-0.0009884287013734183   -0.009844907702133896   -0.00031046700611545675
-0.001134607794370048   -0.009798887062407583   -0.0003231081090127641
-0.001177930186231415   -0.009797161471020601   -0.0002934971497817852
-0.0015593485299162557   -0.009297110275648597   -0.0003502904619733635
-0.0009884287013734183   -0.009844907702133896   -0.00031046700611545675
-0.001177930186231415   -0.009797161471020601   -0.0002934971497817852
-0.0012221671879336633   -0.00932574953717537   -0.0003187952033280669
-0.0015593485299162557   -0.009297110275648597   -0.0003502904619733635
-0.001134607794370048   -0.009798887062407583   -0.0003231081090127641
-0.0012002568386269806   -0.00933144228267357   -0.0003292861975784894
-0.0015133950578521958   -0.009315092569831849   -0.0003786212013827743
-0.001134607794370048   -0.009798887062407583   -0.0003231081090127641
-0.0009884287013734183   -0.009844907702133896   -0.00031046700611545675
-0.0012002568386269806   -0.00933144228267357   -0.0003292861975784894
-0.0009648721950448495   -0.00985579720205481   -0.0003207786915662847
-0.0015133950578521958   -0.009315092569831849   -0.0003786212013827743
-0.0011803897882389403   -0.00934459583332546   -0.00034095948921530265
-0.0009648721950448495   -0.00985579720205481   -0.0003207786915662847
-0.0012002568386269806   -0.00933144228267357   -0.0003292861975784894
-0.0015133950578521958   -0.009315092569831849   -0.0003786212013827743
-0.0009648721950448495   -0.00985579720205481   -0.0003207786915662847
-0.001082985074865119   -0.009812565753406251   -0.0003533341186835874
-0.001134607794370048   -0.009798887062407583   -0.0003231081090127641
-0.0015133950578521958   -0.009315092569831849   -0.0003786212013827743
-0.0009648721950448495   -0.00985579720205481   -0.0003207786915662847
-0.001134607794370048   -0.009798887062407583   -0.0003231081090127641
-0.0012002568386269806   -0.00933144228267357   -0.0003292861975784894
-0.0012406429325197066   -0.00932736058314823   -0.0003095632943824812
-0.0010367494855009578   -0.009852038692300126   -0.00029027245365387564
-0.0009121032452364058   -0.009349696247988494   -0.00031801360623846673
-0.0012221671879336633   -0.00932574953717537   -0.0003187952033280669
-0.0010367494855009578   -0.009852038692300126   -0.00029027245365387564
-0.0008933343287804925   -0.009894624006560883   -0.00031342385736265923
-0.0009121032452364058   -0.009349696247988494   -0.00031801360623846673
-0.0008695877610633223   -0.009885892969262346   -0.0003072453448505251
-0.0012221671879336633   -0.00932574953717537   -0.0003187952033280669
-0.0008933140890923485   -0.009346845249492985   -0.00031522020956947273
-0.0008695877610633223   -0.009885892969262346   -0.0003072453448505251
-0.0009121032452364058   -0.009349696247988494   -0.00031801360623846673
-0.0012221671879336633   -0.00932574953717537   -0.0003187952033280669
-0.0008695877610633223   -0.009885892969262346   -0.0003072453448505251
-0.001013965106557488   -0.009843682368789838   -0.00030031179618407195
-0.0010367494855009578   -0.009852038692300126   -0.00029027245365387564
-0.0012221671879336633   -0.00932574953717537   -0.0003187952033280669
-0.0008695877610633223   -0.009885892969262346   -0.0003072453448505251
-0.0010367494855009578   -0.009852038692300126   -0.00029027245365387564
-0.0009121032452364058   -0.009349696247988494   -0.00031801360623846673
-0.0012221671879336633   -0.00932574953717537   -0.0003187952033280669
-0.001013965106557488   -0.009843682368789838   -0.00030031179618407195
-0.0008933140890923485   -0.009346845249492985   -0.00031522020956947273
-0.0012002568386269806   -0.00933144228267357   -0.0003292861975784894
-0.001013965106557488   -0.009843682368789838   -0.00030031179618407195
-0.0008695877610633223   -0.009885892969262346   -0.0003072453448505251
-0.0008933140890923485   -0.009346845249492985   -0.00031522020956947273
-0.0008464924177640446   -0.009886341189447366   -0.00030101062987565786
-0.0012002568386269806   -0.00933144228267357   -0.0003292861975784894
-0.0008746855429828254   -0.00935035471893035   -0.0003136620534665501
-0.0008464924177640446   -0.009886341189447366   -0.00030101062987565786
-0.0008933140890923485   -0.009346845249492985   -0.00031522020956947273
-0.0012002568386269806   -0.00933144228267357   -0.0003292861975784894
-0.0008464924177640446   -0.009886341189447366   -0.00030101062987565786
-0.0009884287013734183   -0.009844907702133896   -0.00031046700611545675
-0.001013965106557488   -0.009843682368789838   -0.00030031179618407195
-0.0012002568386269806   -0.00933144228267357   -0.0003292861975784894
-0.0008464924177640446   -0.009886341189447366   -0.00030101062987565786
-0.001013965106557488   -0.009843682368789838   -0.00030031179618407195
-0.0008933140890923485   -0.009346845249492985   -0.00031522020956947273
-0.0012002568386269806   -0.00933144228267357   -0.0003292861975784894
-0.0009884287013734183   -0.009844907702133896   -0.00031046700611545675
-0.0008746855429828254   -0.00935035471893035   -0.0003136620534665501
-0.0011803897882389403   -0.00934459583332546   -0.00034095948921530265
-0.0009884287013734183   -0.009844907702133896   -0.00031046700611545675
-0.0008464924177640446   -0.009886341189447366   -0.00030101062987565786
-0.0008746855429828254   -0.00935035471893035   -0.0003136620534665501
-0.0008225202210025353   -0.009895814594937966   -0.0002950726238692412
-0.0011803897882389403   -0.00934459583332546   -0.00034095948921530265
-0.000857434232357876   -0.009360392229304888   -0.0003135795818926565
-0.0008225202210025353   -0.009895814594937966   -0.0002950726238692412
-0.0008746855429828254   -0.00935035471893035   -0.0003136620534665501
-0.0011803897882389403   -0.00934459583332546   -0.00034095948921530265
-0.0008225202210025353   -0.009895814594937966   -0.0002950726238692412
-0.0009648721950448495   -0.00985579720205481   -0.0003207786915662847
-0.0009884287013734183   -0.009844907702133896   -0.00031046700611545675
-0.0011803897882389403   -0.00934459583332546   -0.00034095948921530265
-0.0008225202210025353   -0.009895814594937966   -0.0002950726238692412
-0.0009884287013734183   -0.009844907702133896   -0.00031046700611545675
-0.0008746855429828254   -0.00935035471893035   -0.0003136620534665501
-0.0009121032452364058   -0.009349696247988494   -0.00031801360623846673
-0.0008933343287804925   -0.009894624006560883   -0.00031342385736265923
-0.0005970168304874588   -0.00935952278216369   -0.0003284177521478695
-0.0008933140890923485   -0.009346845249492985   -0.00031522020956947273
-0.0008933343287804925   -0.009894624006560883   -0.00031342385736265923
-0.0007612321487878374   -0.009942878619153571   -0.00033934432734632517
-0.0005970168304874588   -0.00935952278216369   -0.0003284177521478695
-0.0007323115899964918   -0.00993497523617799   -0.0003161016522735447
-0.0008933140890923485   -0.009346845249492985   -0.00031522020956947273
-0.000575877391042728   -0.009355157345950537   -0.0003142096734466094
-0.0007323115899964918   -0.00993497523617799   -0.0003161016522735447
-0.0005970168304874588   -0.00935952278216369   -0.0003284177521478695
-0.0008933140890923485   -0.009346845249492985   -0.00031522020956947273
-0.0007323115899964918   -0.00993497523617799   -0.0003161016522735447
-0.0008695877610633223   -0.009885892969262346   -0.0003072453448505251
-0.0008933343287804925   -0.009894624006560883   -0.00031342385736265923
-0.0008933140890923485   -0.009346845249492985   -0.00031522020956947273
-0.0007323115899964918   -0.00993497523617799   -0.0003161016522735447
-0.0008933343287804925   -0.009894624006560883   -0.00031342385736265923
-0.0005970168304874588   -0.00935952278216369   -0.0003284177521478695
-0.0008933140890923485   -0.009346845249492985   -0.00031522020956947273
-0.0008695877610633223   -0.009885892969262346   -0.0003072453448505251
-0.000575877391042728   -0.009355157345950537   -0.0003142096734466094
-0.0008746855429828254   -0.00935035471893035   -0.0003136620534665501
-0.0008695877610633223   -0.009885892969262346   -0.0003072453448505251
-0.0007323115899964918   -0.00993497523617799   -0.0003161016522735447
-0.000575877391042728   -0.009355157345950537   -0.0003142096734466094
-0.0007053021313478395   -0.009934904890565942   -0.000292810811883911
-0.0008746855429828254   -0.00935035471893035   -0.0003136620534665501
-0.000555640773861915   -0.009356489529871335   -0.0003011383444856963
-0.0007053021313478395   -0.009934904890565942   -0.000292810811883911
-0.000575877391042728   -0.009355157345950537   -0.0003142096734466094
-0.0008746855429828254   -0.00935035471893035   -0.0003136620534665501
-0.0007053021313478395   -0.009934904890565942   -0.000292810811883911
-0.0008464924177640446   -0.009886341189447366   -0.00030101062987565786
-0.0008695877610633223   -0.009885892969262346   -0.0003072453448505251
-0.0008746855429828254   -0.00935035471893035   -0.0003136620534665501
-0.0007053021313478395   -0.009934904890565942   -0.000292810811883911
-0.0008695877610633223   -0.009885892969262346   -0.0003072453448505251
-0.000575877391042728   -0.009355157345950537   -0.0003142096734466094
-0.0008746855429828254   -0.00935035471893035   -0.0003136620534665501
-0.0008464924177640446   -0.009886341189447366   -0.00030101062987565786
-0.000555640773861915   -0.009356489529871335   -0.0003011383444856963
-0.000857434232357876   -0.009360392229304888   -0.0003135795818926565
-0.0008464924177640446   -0.009886341189447366   -0.00030101062987565786
-0.0007053021313478395   -0.009934904890565942   -0.000292810811883911
-0.000555640773861915   -0.009356489529871335   -0.0003011383444856963
-0.0006765776410234195   -0.009942336946444657   -0.000269683252910118
-0.000857434232357876   -0.009360392229304888   -0.0003135795818926565
-0.0005386442968333592   -0.009364436877558219   -0.0002898105712391578
-0.0006765776410234195   -0.009942336946444657   -0.000269683252910118
-0.000555640773861915   -0.009356489529871335   -0.0003011383444856963
-0.000857434232357876   -0.009360392229304888   -0.0003135795818926565
-0.0006765776410234195   -0.009942336946444657   -0.000269683252910118
-0.0008225202210025353   -0.009895814594937966   -0.0002950726238692412
-0.0008464924177640446   -0.009886341189447366   -0.00030101062987565786
-0.000857434232357876   -0.009360392229304888   -0.0003135795818926565
-0.0006765776410234195   -0.009942336946444657   -0.000269683252910118
-0.0008464924177640446   -0.009886341189447366   -0.00030101062987565786
-0.000555640773861915   -0.009356489529871335   -0.0003011383444856963
-0.0005970168304874588   -0.00935952278216369   -0.0003284177521478695
-0.0007612321487878374   -0.009942878619153571   -0.00033934432734632517
-0.0002649382649954566   -0.009352949190077786   -0.0003410291823404677
-0.000575877391042728   -0.009355157345950537   -0.0003142096734466094
-0.0007612321487878374   -0.009942878619153571   -0.00033934432734632517
-0.0006312127902451232   -0.01   -0.0003609023579890211
-0.0002649382649954566   -0.009352949190077786   -0.0003410291823404677
-0.0005943720969586066   -0.01   -0.00032430347997838594
-0.000575877391042728   -0.009355157345950537   -0.0003142096734466094
-0.00023779057494475816   -0.009346036578524617   -0.0003157964270019617
-0.0005943720969586066   -0.01   -0.00032430347997838594
-0.0002649382649954566   -0.009352949190077786   -0.0003410291823404677
-0.000575877391042728   -0.009355157345950537   -0.0003142096734466094
-0.0005943720969586066   -0.01   -0.00032430347997838594
-0.0007323115899964918   -0.00993497523617799   -0.0003161016522735447
-0.0007612321487878374   -0.009942878619153571   -0.00033934432734632517
-0.000575877391042728   -0.009355157345950537   -0.0003142096734466094
-0.0005943720969586066   -0.01   -0.00032430347997838594
-0.0007612321487878374   -0.009942878619153571   -0.00033934432734632517
-0.0002649382649954566   -0.009352949190077786   -0.0003410291823404677
-0.000575877391042728   -0.009355157345950537   -0.0003142096734466094
-0.0007323115899964918   -0.00993497523617799   -0.0003161016522735447
-0.00023779057494475816   -0.009346036578524617   -0.0003157964270019617
-0.000555640773861915   -0.009356489529871335   -0.0003011383444856963
-0.0007323115899964918   -0.00993497523617799   -0.0003161016522735447
-0.0005943720969586066   -0.01   -0.00032430347997838594
-0.00023779057494475816   -0.009346036578524617   -0.0003157964270019617
-0.0005569787059891659   -0.01   -0.00028728340221162175
-0.000555640773861915   -0.009356489529871335   -0.0003011383444856963
-0.00020964418745859147   -0.009345050361271964   -0.00029175292655486077
-0.0005569787059891659   -0.01   -0.00028728340221162175
-0.00023779057494475816   -0.009346036578524617   -0.0003157964270019617
-0.000555640773861915   -0.009356489529871335   -0.0003011383444856963
-0.0005569787059891659   -0.01   -0.00028728340221162175
-0.0007053021313478395   -0.009934904890565942   -0.000292810811883911
-0.0007323115899964918   -0.00993497523617799   -0.0003161016522735447
-0.000555640773861915   -0.009356489529871335   -0.0003011383444856963
-0.0005569787059891659   -0.01   -0.00028728340221162175
-0.0007323115899964918   -0.00993497523617799   -0.0003161016522735447
-0.00023779057494475816   -0.009346036578524617   -0.0003157964270019617
-0.000555640773861915   -0.009356489529871335   -0.0003011383444856963
-0.0007053021313478395   -0.009934904890565942   -0.000292810811883911
-0.00020964418745859147   -0.009345050361271964   -0.00029175292655486077
-0.0005386442968333592   -0.009364436877558219   -0.0002898105712391578
-0.0007053021313478395   -0.009934904890565942   -0.000292810811883911
-0.0005569787059891659   -0.01   -0.00028728340221162175
-0.00020964418745859147   -0.009345050361271964   -0.00029175292655486077
-0.0005208993696719409   -0.01   -0.00025078523548696625
-0.0005386442968333592   -0.009364436877558219   -0.0002898105712391578
-0.00018903082862847242   -0.009351093224922058   -0.00026971670431025316
-0.0005208993696719409   -0.01   -0.00025078523548696625
-0.00020964418745859147   -0.009345050361271964   -0.00029175292655486077
-0.0005386442968333592   -0.009364436877558219   -0.0002898105712391578
-0.0005208993696719409   -0.01   -0.00025078523548696625
-0.0006765776410234195   -0.009942336946444657   -0.000269683252910118
-0.0007053021313478395   -0.009934904890565942   -0.000292810811883911
-0.0005386442968333592   -0.009364436877558219   -0.0002898105712391578
-0.0005208993696719409   -0.01   -0.00025078523548696625
-0.0007053021313478395   -0.009934904890565942   -0.000292810811883911
-0.00020964418745859147   -0.009345050361271964   -0.00029175292655486077
-0.0002649382649954566   -0.009352949190077786   -0.0003410291823404677
-0.0006312127902451232   -0.01   -0.0003609023579890211
8.658744736078145e-05   -0.009319790296515813   -0.0003656397387873787
-0.00023779057494475816   -0.009346036578524617   -0.0003157964270019617
-0.0006312127902451232   -0.01   -0.0003609023579890211
-0.0005327729907871726   -0.01   -0.0003869993402913062
8.658744736078145e-05   -0.009319790296515813   -0.0003656397387873787
-0.0004526987399999287   -0.01   -0.00033336861386921665
-0.00023779057494475816   -0.009346036578524617   -0.0003157964270019617
0.00015284544024217974   -0.009305141844730695   -0.00032457337732228885
-0.0004526987399999287   -0.01   -0.00033336861386921665
8.658744736078145e-05   -0.009319790296515813   -0.0003656397387873787
-0.00023779057494475816   -0.009346036578524617   -0.0003157964270019617
-0.0004526987399999287   -0.01   -0.00033336861386921665
-0.0005943720969586066   -0.01   -0.00032430347997838594
-0.0006312127902451232   -0.01   -0.0003609023579890211
-0.00023779057494475816   -0.009346036578524617   -0.0003157964270019617
-0.0004526987399999287   -0.01   -0.00033336861386921665
-0.0006312127902451232   -0.01   -0.0003609023579890211
8.658744736078145e-05   -0.009319790296515813   -0.0003656397387873787
-0.00023779057494475816   -0.009346036578524617   -0.0003157964270019617
-0.0005943720969586066   -0.01   -0.00032430347997838594
0.00015284544024217974   -0.009305141844730695   -0.00032457337732228885
-0.00020964418745859147   -0.009345050361271964   -0.00029175292655486077
-0.0005943720969586066   -0.01   -0.00032430347997838594
-0.0004526987399999287   -0.01   -0.00033336861386921665
0.00015284544024217974   -0.009305141844730695   -0.00032457337732228885
-0.00038887155533314557   -0.01   -0.0002821027615971064
-0.00020964418745859147   -0.009345050361271964   -0.00029175292655486077
0.00020474973691737242   -0.009302368033531584   -0.0002857639258176443
-0.00038887155533314557   -0.01   -0.0002821027615971064
0.00015284544024217974   -0.009305141844730695   -0.00032457337732228885
-0.00020964418745859147   -0.009345050361271964   -0.00029175292655486077
-0.00038887155533314557   -0.01   -0.0002821027615971064
-0.0005569787059891659   -0.01   -0.00028728340221162175
-0.0005943720969586066   -0.01   -0.00032430347997838594
-0.00020964418745859147   -0.009345050361271964   -0.00029175292655486077
-0.00038887155533314557   -0.01   -0.0002821027615971064
-0.0005943720969586066   -0.01   -0.00032430347997838594
0.00015284544024217974   -0.009305141844730695   -0.00032457337732228885
-0.00020964418745859147   -0.009345050361271964   -0.00029175292655486077
-0.0005569787059891659   -0.01   -0.00028728340221162175
0.00020474973691737242   -0.009302368033531584   -0.0002857639258176443
-0.00018903082862847242   -0.009351093224922058   -0.00026971670431025316
-0.0005569787059891659   -0.01   -0.00028728340221162175
-0.00038887155533314557   -0.01   -0.0002821027615971064
0.00020474973691737242   -0.009302368033531584   -0.0002857639258176443
-0.00031014917746906013   -0.01   -0.00022884951194585812
-0.00018903082862847242   -0.009351093224922058   -0.00026971670431025316
0.00025944361029661835   -0.009305664969045162   -0.0002500179480796837
-0.00031014917746906013   -0.01   -0.00022884951194585812
0.00020474973691737242   -0.009302368033531584   -0.0002857639258176443
-0.00018903082862847242   -0.009351093224922058   -0.00026971670431025316
-0.00031014917746906013   -0.01   -0.00022884951194585812
-0.0005208993696719409   -0.01   -0.00025078523548696625
-0.0005569787059891659   -0.01   -0.00028728340221162175
-0.00018903082862847242   -0.009351093224922058   -0.00026971670431025316
-0.00031014917746906013   -0.01   -0.00022884951194585812
-0.0005569787059891659   -0.01   -0.00028728340221162175
0.00020474973691737242   -0.009302368033531584   -0.0002857639258176443
-0.0012282272965983003   -0.009806657188465788   -0.00026384360096595245
-0.0007751788961179232   -0.009859315507468918   -0.00022640380932131246
-0.0010367494855009578   -0.009852038692300126   -0.00029027245365387564
-0.001177930186231415   -0.009797161471020601   -0.0002934971497817852
-0.0007751788961179232   -0.009859315507468918   -0.00022640380932131246
-0.0008042601157529259   -0.009895474915529334   -0.00026051584992298074
-0.0010367494855009578   -0.009852038692300126   -0.00029027245365387564
-0.0007868007997980589   -0.009883926347188892   -0.00027380188468352913
-0.001177930186231415   -0.009797161471020601   -0.0002934971497817852
-0.001013965106557488   -0.009843682368789838   -0.00030031179618407195
-0.0007868007997980589   -0.009883926347188892   -0.00027380188468352913
-0.0010367494855009578   -0.009852038692300126   -0.00029027245365387564
-0.001177930186231415   -0.009797161471020601   -0.0002934971497817852
-0.0007868007997980589   -0.009883926347188892   -0.00027380188468352913
-0.000729001554404139   -0.009844392785719273   -0.00025764595600534973
-0.0007751788961179232   -0.009859315507468918   -0.00022640380932131246
-0.001177930186231415   -0.009797161471020601   -0.0002934971497817852
-0.0007868007997980589   -0.009883926347188892   -0.00027380188468352913
-0.0007751788961179232   -0.009859315507468918   -0.00022640380932131246
-0.0010367494855009578   -0.009852038692300126   -0.00029027245365387564
-0.001177930186231415   -0.009797161471020601   -0.0002934971497817852
-0.000729001554404139   -0.009844392785719273   -0.00025764595600534973
-0.001013965106557488   -0.009843682368789838   -0.00030031179618407195
-0.001134607794370048   -0.009798887062407583   -0.0003231081090127641
-0.000729001554404139   -0.009844392785719273   -0.00025764595600534973
-0.0007868007997980589   -0.009883926347188892   -0.00027380188468352913
-0.001013965106557488   -0.009843682368789838   -0.00030031179618407195
-0.0007661306630083922   -0.009880485873950412   -0.00028619123035516825
-0.001134607794370048   -0.009798887062407583   -0.0003231081090127641
-0.0009884287013734183   -0.009844907702133896   -0.00031046700611545675
-0.0007661306630083922   -0.009880485873950412   -0.00028619123035516825
-0.001013965106557488   -0.009843682368789838   -0.00030031179618407195
-0.001134607794370048   -0.009798887062407583   -0.0003231081090127641
-0.0007661306630083922   -0.009880485873950412   -0.00028619123035516825
-0.0006906324653099925   -0.009840731889687168   -0.0002877827406512523
-0.000729001554404139   -0.009844392785719273   -0.00025764595600534973
-0.001134607794370048   -0.009798887062407583   -0.0003231081090127641
-0.0007661306630083922   -0.009880485873950412   -0.00028619123035516825
-0.000729001554404139   -0.009844392785719273   -0.00025764595600534973
-0.001013965106557488   -0.009843682368789838   -0.00030031179618407195
-0.001134607794370048   -0.009798887062407583   -0.0003231081090127641
-0.0006906324653099925   -0.009840731889687168   -0.0002877827406512523
-0.0009884287013734183   -0.009844907702133896   -0.00031046700611545675
-0.001082985074865119   -0.009812565753406251   -0.0003533341186835874
-0.0006906324653099925   -0.009840731889687168   -0.0002877827406512523
-0.0007661306630083922   -0.009880485873950412   -0.00028619123035516825
-0.0009884287013734183   -0.009844907702133896   -0.00031046700611545675
-0.0007485376497811482   -0.009885240605540148   -0.0002976329925588649
-0.001082985074865119   -0.009812565753406251   -0.0003533341186835874
-0.0009648721950448495   -0.00985579720205481   -0.0003207786915662847
-0.0007485376497811482   -0.009885240605540148   -0.0002976329925588649
-0.0009884287013734183   -0.009844907702133896   -0.00031046700611545675
-0.001082985074865119   -0.009812565753406251   -0.0003533341186835874
-0.0007485376497811482   -0.009885240605540148   -0.0002976329925588649
-0.0006467880292461965   -0.009846622392049814   -0.00031670886188643333
-0.0006906324653099925   -0.009840731889687168   -0.0002877827406512523
-0.001082985074865119   -0.009812565753406251   -0.0003533341186835874
-0.0007485376497811482   -0.009885240605540148   -0.0002976329925588649
-0.0006906324653099925   -0.009840731889687168   -0.0002877827406512523
-0.0009884287013734183   -0.009844907702133896   -0.00031046700611545675
-0.0010367494855009578   -0.009852038692300126   -0.00029027245365387564
-0.0008042601157529259   -0.009895474915529334   -0.00026051584992298074
-0.0008933343287804925   -0.009894624006560883   -0.00031342385736265923
-0.001013965106557488   -0.009843682368789838   -0.00030031179618407195
-0.0008042601157529259   -0.009895474915529334   -0.00026051584992298074
-0.0008510737997001331   -0.00991646930160163   -0.00028758501069492816
-0.0008933343287804925   -0.009894624006560883   -0.00031342385736265923
-0.000835743207177892   -0.00990609874850125   -0.0002877404145059989
-0.001013965106557488   -0.009843682368789838   -0.00030031179618407195
-0.0008695877610633223   -0.009885892969262346   -0.0003072453448505251
-0.000835743207177892   -0.00990609874850125   -0.0002877404145059989
-0.0008933343287804925   -0.009894624006560883   -0.00031342385736265923
-0.001013965106557488   -0.009843682368789838   -0.00030031179618407195
-0.000835743207177892   -0.00990609874850125   -0.0002877404145059989
-0.0007868007997980589   -0.009883926347188892   -0.00027380188468352913
-0.0008042601157529259   -0.009895474915529334   -0.00026051584992298074
-0.001013965106557488   -0.009843682368789838   -0.00030031179618407195
-0.000835743207177892   -0.00990609874850125   -0.0002877404145059989
-0.0008042601157529259   -0.009895474915529334   -0.00026051584992298074
-0.0008933343287804925   -0.009894624006560883   -0.00031342385736265923
-0.001013965106557488   -0.009843682368789838   -0.00030031179618407195
-0.0007868007997980589   -0.009883926347188892   -0.00027380188468352913
-0.0008695877610633223   -0.009885892969262346   -0.0003072453448505251
-0.0009884287013734183   -0.009844907702133896   -0.00031046700611545675
-0.0007868007997980589   -0.009883926347188892   -0.00027380188468352913
-0.000835743207177892   -0.00990609874850125   -0.0002877404145059989
-0.0008695877610633223   -0.009885892969262346   -0.0003072453448505251
-0.0008187293742732847   -0.009903062010241988   -0.00028673506496085824
-0.0009884287013734183   -0.009844907702133896   -0.00031046700611545675
-0.0008464924177640446   -0.009886341189447366   -0.00030101062987565786
-0.0008187293742732847   -0.009903062010241988   -0.00028673506496085824
-0.0008695877610633223   -0.009885892969262346   -0.0003072453448505251
-0.0009884287013734183   -0.009844907702133896   -0.00031046700611545675
-0.0008187293742732847   -0.009903062010241988   -0.00028673506496085824
-0.0007661306630083922   -0.009880485873950412   -0.00028619123035516825
-0.0007868007997980589   -0.009883926347188892   -0.00027380188468352913
-0.0009884287013734183   -0.009844907702133896   -0.00031046700611545675
-0.0008187293742732847   -0.009903062010241988   -0.00028673506496085824
-0.0007868007997980589   -0.009883926347188892   -0.00027380188468352913
-0.0008695877610633223   -0.009885892969262346   -0.0003072453448505251
-0.0009884287013734183   -0.009844907702133896   -0.00031046700611545675
-0.0007661306630083922   -0.009880485873950412   -0.00028619123035516825
-0.0008464924177640446   -0.009886341189447366   -0.00030101062987565786
-0.0009648721950448495   -0.00985579720205481   -0.0003207786915662847
-0.0007661306630083922   -0.009880485873950412   -0.00028619123035516825
-0.0008187293742732847   -0.009903062010241988   -0.00028673506496085824
-0.0008464924177640446   -0.009886341189447366   -0.00030101062987565786
-0.0008014893148036394   -0.009907093889881998   -0.00028481576989020877
-0.0009648721950448495   -0.00985579720205481   -0.0003207786915662847
-0.0008225202210025353   -0.009895814594937966   -0.0002950726238692412
-0.0008014893148036394   -0.009907093889881998   -0.00028481576989020877
-0.0008464924177640446   -0.009886341189447366   -0.00030101062987565786
-0.0009648721950448495   -0.00985579720205481   -0.0003207786915662847
-0.0008014893148036394   -0.009907093889881998   -0.00028481576989020877
-0.0007485376497811482   -0.009885240605540148   -0.0002976329925588649
-0.0007661306630083922   -0.009880485873950412   -0.00028619123035516825
-0.0009648721950448495   -0.00985579720205481   -0.0003207786915662847
-0.0008014893148036394   -0.009907093889881998   -0.00028481576989020877
-0.0007661306630083922   -0.009880485873950412   -0.00028619123035516825
-0.0008464924177640446   -0.009886341189447366   -0.00030101062987565786
-0.0008933343287804925   -0.009894624006560883   -0.00031342385736265923
-0.0008510737997001331   -0.00991646930160163   -0.00028758501069492816
-0.0007612321487878374   -0.009942878619153571   -0.00033934432734632517
-0.0008695877610633223   -0.009885892969262346   -0.0003072453448505251
-0.0008510737997001331   -0.00991646930160163   -0.00028758501069492816
-0.000902230378618714   -0.00992319232427672   -0.00031444605688716855
-0.0007612321487878374   -0.009942878619153571   -0.00033934432734632517
-0.0008863417765479713   -0.009913131010524876   -0.0003019569875051211
-0.0008695877610633223   -0.009885892969262346   -0.0003072453448505251
-0.0007323115899964918   -0.00993497523617799   -0.0003161016522735447
-0.0008863417765479713   -0.009913131010524876   -0.0003019569875051211
-0.0007612321487878374   -0.009942878619153571   -0.00033934432734632517
-0.0008695877610633223   -0.009885892969262346   -0.0003072453448505251
-0.0008863417765479713   -0.009913131010524876   -0.0003019569875051211
-0.000835743207177892   -0.00990609874850125   -0.0002877404145059989
-0.0008510737997001331   -0.00991646930160163   -0.00028758501069492816
-0.0008695877610633223   -0.009885892969262346   -0.0003072453448505251
-0.0008863417765479713   -0.009913131010524876   -0.0003019569875051211
-0.0008510737997001331   -0.00991646930160163   -0.00028758501069492816
-0.0007612321487878374   -0.009942878619153571   -0.00033934432734632517
-0.0008695877610633223   -0.009885892969262346   -0.0003072453448505251
-0.000835743207177892   -0.00990609874850125   -0.0002877404145059989
-0.0007323115899964918   -0.00993497523617799   -0.0003161016522735447
-0.0008464924177640446   -0.009886341189447366   -0.00030101062987565786
-0.000835743207177892   -0.00990609874850125   -0.0002877404145059989
-0.0008863417765479713   -0.009913131010524876   -0.0003019569875051211
-0.0007323115899964918   -0.00993497523617799   -0.0003161016522735447
-0.0008674302281869008   -0.009910505448787152   -0.0002880493096716129
-0.0008464924177640446   -0.009886341189447366   -0.00030101062987565786
-0.0007053021313478395   -0.009934904890565942   -0.000292810811883911
-0.0008674302281869008   -0.009910505448787152   -0.0002880493096716129
-0.0007323115899964918   -0.00993497523617799   -0.0003161016522735447
-0.0008464924177640446   -0.009886341189447366   -0.00030101062987565786
-0.0008674302281869008   -0.009910505448787152   -0.0002880493096716129
-0.0008187293742732847   -0.009903062010241988   -0.00028673506496085824
-0.000835743207177892   -0.00990609874850125   -0.0002877404145059989
-0.0008464924177640446   -0.009886341189447366   -0.00030101062987565786
-0.0008674302281869008   -0.009910505448787152   -0.0002880493096716129
-0.000835743207177892   -0.00990609874850125   -0.0002877404145059989
-0.0007323115899964918   -0.00993497523617799   -0.0003161016522735447
-0.0008464924177640446   -0.009886341189447366   -0.00030101062987565786
-0.0008187293742732847   -0.009903062010241988   -0.00028673506496085824
-0.0007053021313478395   -0.009934904890565942   -0.000292810811883911
-0.0008225202210025353   -0.009895814594937966   -0.0002950726238692412
-0.0008187293742732847   -0.009903062010241988   -0.00028673506496085824
-0.0008674302281869008   -0.009910505448787152   -0.0002880493096716129
-0.0007053021313478395   -0.009934904890565942   -0.000292810811883911
-0.0008480722893262654   -0.009914321193829383   -0.0002733238360450767
-0.0008225202210025353   -0.009895814594937966   -0.0002950726238692412
-0.0006765776410234195   -0.009942336946444657   -0.000269683252910118
-0.0008480722893262654   -0.009914321193829383   -0.0002733238360450767
-0.0007053021313478395   -0.009934904890565942   -0.000292810811883911
-0.0008225202210025353   -0.009895814594937966   -0.0002950726238692412
-0.0008480722893262654   -0.009914321193829383   -0.0002733238360450767
-0.0008014893148036394   -0.009907093889881998   -0.00028481576989020877
-0.0008187293742732847   -0.009903062010241988   -0.00028673506496085824
-0.0008225202210025353   -0.009895814594937966   -0.0002950726238692412
-0.0008480722893262654   -0.009914321193829383   -0.0002733238360450767
-0.0008187293742732847   -0.009903062010241988   -0.00028673506496085824
-0.0007053021313478395   -0.009934904890565942   -0.000292810811883911
-0.0007612321487878374   -0.009942878619153571   -0.00033934432734632517
-0.000902230378618714   -0.00992319232427672   -0.00031444605688716855
-0.0006312127902451232   -0.01   -0.0003609023579890211
-0.0007323115899964918   -0.00993497523617799   -0.0003161016522735447
-0.000902230378618714   -0.00992319232427672   -0.00031444605688716855
-0.0009769556587001813   -0.009909947056141009   -0.00034053865428399437
-0.0006312127902451232   -0.01   -0.0003609023579890211
-0.0009562693632497533   -0.009900130027678046   -0.0003158793134529932
-0.0007323115899964918   -0.00993497523617799   -0.0003161016522735447
-0.0005943720969586066   -0.01   -0.00032430347997838594
-0.0009562693632497533   -0.009900130027678046   -0.0003158793134529932
-0.0006312127902451232   -0.01   -0.0003609023579890211
-0.0007323115899964918   -0.00993497523617799   -0.0003161016522735447
-0.0009562693632497533   -0.009900130027678046   -0.0003158793134529932
-0.0008863417765479713   -0.009913131010524876   -0.0003019569875051211
-0.000902230378618714   -0.00992319232427672   -0.00031444605688716855
-0.0007323115899964918   -0.00993497523617799   -0.0003161016522735447
-0.0009562693632497533   -0.009900130027678046   -0.0003158793134529932
-0.000902230378618714   -0.00992319232427672   -0.00031444605688716855
-0.0006312127902451232   -0.01   -0.0003609023579890211
-0.0007323115899964918   -0.00993497523617799   -0.0003161016522735447
-0.0008863417765479713   -0.009913131010524876   -0.0003019569875051211
-0.0005943720969586066   -0.01   -0.00032430347997838594
-0.0007053021313478395   -0.009934904890565942   -0.000292810811883911
-0.0008863417765479713   -0.009913131010524876   -0.0003019569875051211
-0.0009562693632497533   -0.009900130027678046   -0.0003158793134529932
-0.0005943720969586066   -0.01   -0.00032430347997838594
-0.0009286239162509123   -0.009898333997730843   -0.00028958655567668494
-0.0007053021313478395   -0.009934904890565942   -0.000292810811883911
-0.0005569787059891659   -0.01   -0.00028728340221162175
-0.0009286239162509123   -0.009898333997730843   -0.00028958655567668494
-0.0005943720969586066   -0.01   -0.00032430347997838594
-0.0007053021313478395   -0.009934904890565942   -0.000292810811883911
-0.0009286239162509123   -0.009898333997730843   -0.00028958655567668494
-0.0008674302281869008   -0.009910505448787152   -0.0002880493096716129
-0.0008863417765479713   -0.009913131010524876   -0.0003019569875051211
-0.0007053021313478395   -0.009934904890565942   -0.000292810811883911
-0.0009286239162509123   -0.009898333997730843   -0.00028958655567668494
-0.0008863417765479713   -0.009913131010524876   -0.0003019569875051211
-0.0005943720969586066   -0.01   -0.00032430347997838594
-0.0007053021313478395   -0.009934904890565942   -0.000292810811883911
-0.0008674302281869008   -0.009910505448787152   -0.0002880493096716129
-0.0005569787059891659   -0.01   -0.00028728340221162175
-0.0006765776410234195   -0.009942336946444657   -0.000269683252910118
-0.0008674302281869008   -0.009910505448787152   -0.0002880493096716129
-0.0009286239162509123   -0.009898333997730843   -0.00028958655567668494
-0.0005569787059891659   -0.01   -0.00028728340221162175
-0.000903161040334709   -0.009903138210168817   -0.00026239786013576035
-0.0006765776410234195   -0.009942336946444657   -0.000269683252910118
-0.0005208993696719409   -0.01   -0.00025078523548696625
-0.000903161040334709   -0.009903138210168817   -0.00026239786013576035
-0.0005569787059891659   -0.01   -0.00028728340221162175
-0.0006765776410234195   -0.009942336946444657   -0.000269683252910118
-0.000903161040334709   -0.009903138210168817   -0.00026239786013576035
-0.0008480722893262654   -0.009914321193829383   -0.0002733238360450767
-0.0008674302281869008   -0.009910505448787152   -0.0002880493096716129
-0.0006765776410234195   -0.009942336946444657   -0.000269683252910118
-0.000903161040334709   -0.009903138210168817   -0.00026239786013576035
-0.0008674302281869008   -0.009910505448787152   -0.0002880493096716129
-0.0005569787059891659   -0.01   -0.00028728340221162175
-0.0006312127902451232   -0.01   -0.0003609023579890211
-0.0009769556587001813   -0.009909947056141009   -0.00034053865428399437
-0.0005327729907871726   -0.01   -0.0003869993402913062
-0.0005943720969586066   -0.01   -0.00032430347997838594
-0.0009769556587001813   -0.009909947056141009   -0.00034053865428399437
-0.001129990350669164   -0.009862155095487121   -0.0003692970057356607
-0.0005327729907871726   -0.01   -0.0003869993402913062
-0.0010712622316145354   -0.009853334822317898   -0.0003289166181579861
-0.0005943720969586066   -0.01   -0.00032430347997838594
-0.0004526987399999287   -0.01   -0.00033336861386921665
-0.0010712622316145354   -0.009853334822317898   -0.0003289166181579861
-0.0005327729907871726   -0.01   -0.0003869993402913062
-0.0005943720969586066   -0.01   -0.00032430347997838594
-0.0010712622316145354   -0.009853334822317898   -0.0003289166181579861
-0.0009562693632497533   -0.009900130027678046   -0.0003158793134529932
-0.0009769556587001813   -0.009909947056141009   -0.00034053865428399437
-0.0005943720969586066   -0.01   -0.00032430347997838594
-0.0010712622316145354   -0.009853334822317898   -0.0003289166181579861
-0.0009769556587001813   -0.009909947056141009   -0.00034053865428399437
-0.0005327729907871726   -0.01   -0.0003869993402913062
-0.0005943720969586066   -0.01   -0.00032430347997838594
-0.0009562693632497533   -0.009900130027678046   -0.0003158793134529932
-0.0004526987399999287   -0.01   -0.00033336861386921665
-0.0005569787059891659   -0.01   -0.00028728340221162175
-0.0009562693632497533   -0.009900130027678046   -0.0003158793134529932
-0.0010712622316145354   -0.009853334822317898   -0.0003289166181579861
-0.0004526987399999287   -0.01   -0.00033336861386921665
-0.0010180710230061972   -0.00985249068392166   -0.00028616597280453415
-0.0005569787059891659   -0.01   -0.00028728340221162175
-0.00038887155533314557   -0.01   -0.0002821027615971064
-0.0010180710230061972   -0.00985249068392166   -0.00028616597280453415
-0.0004526987399999287   -0.01   -0.00033336861386921665
-0.0005569787059891659   -0.01   -0.00028728340221162175
-0.0010180710230061972   -0.00985249068392166   -0.00028616597280453415
-0.0009286239162509123   -0.009898333997730843   -0.00028958655567668494
-0.0009562693632497533   -0.009900130027678046   -0.0003158793134529932
-0.0005569787059891659   -0.01   -0.00028728340221162175
-0.0010180710230061972   -0.00985249068392166   -0.00028616597280453415
-0.0009562693632497533   -0.009900130027678046   -0.0003158793134529932
-0.0004526987399999287   -0.01   -0.00033336861386921665
-0.0005569787059891659   -0.01   -0.00028728340221162175
-0.0009286239162509123   -0.009898333997730843   -0.00028958655567668494
-0.00038887155533314557   -0.01   -0.0002821027615971064
-0.0005208993696719409   -0.01   -0.00025078523548696625
-0.0009286239162509123   -0.009898333997730843   -0.00028958655567668494
-0.0010180710230061972   -0.00985249068392166   -0.00028616597280453415
-0.00038887155533314557   -0.01   -0.0002821027615971064
-0.0009507535263747445   -0.009863918176697555   -0.00024175685844097104
-0.0005208993696719409   -0.01   -0.00025078523548696625
-0.00031014917746906013   -0.01   -0.00022884951194585812
-0.0009507535263747445   -0.009863918176697555   -0.00024175685844097104
-0.00038887155533314557   -0.01   -0.0002821027615971064
-0.0005208993696719409   -0.01   -0.00025078523548696625
-0.0009507535263747445   -0.009863918176697555   -0.00024175685844097104
-0.000903161040334709   -0.009903138210168817   -0.00026239786013576035
-0.0009286239162509123   -0.009898333997730843   -0.00028958655567668494
-0.0005208993696719409   -0.01   -0.00025078523548696625
-0.0009507535263747445   -0.009863918176697555   -0.00024175685844097104
-0.0009286239162509123   -0.009898333997730843   -0.00028958655567668494
-0.00038887155533314557   -0.01   -0.0002821027615971064
-0.0007751788961179232   -0.009859315507468918   -0.00022640380932131246
-0.00036805449351603325   -0.009529384528249675   -0.00019410556154816292
-0.0008042601157529259   -0.009895474915529334   -0.00026051584992298074
-0.000729001554404139   -0.009844392785719273   -0.00025764595600534973
-0.00036805449351603325   -0.009529384528249675   -0.00019410556154816292
-0.0006001559535652626   -0.009557632606315052   -0.0002305930003431794
-0.0008042601157529259   -0.009895474915529334   -0.00026051584992298074
-0.0005875783646539191   -0.009543593165919668   -0.00024266498022246547
-0.000729001554404139   -0.009844392785719273   -0.00025764595600534973
-0.0007868007997980589   -0.009883926347188892   -0.00027380188468352913
-0.0005875783646539191   -0.009543593165919668   -0.00024266498022246547
-0.0008042601157529259   -0.009895474915529334   -0.00026051584992298074
-0.000729001554404139   -0.009844392785719273   -0.00025764595600534973
-0.0005875783646539191   -0.009543593165919668   -0.00024266498022246547
-0.0003303719350545116   -0.009511838616276152   -0.0002217288078220782
-0.00036805449351603325   -0.009529384528249675   -0.00019410556154816292
-0.000729001554404139   -0.009844392785719273   -0.00025764595600534973
-0.0005875783646539191   -0.009543593165919668   -0.00024266498022246547
-0.00036805449351603325   -0.009529384528249675   -0.00019410556154816292
-0.0008042601157529259   -0.009895474915529334   -0.00026051584992298074
-0.000729001554404139   -0.009844392785719273   -0.00025764595600534973
-0.0003303719350545116   -0.009511838616276152   -0.0002217288078220782
-0.0007868007997980589   -0.009883926347188892   -0.00027380188468352913
-0.0006906324653099925   -0.009840731889687168   -0.0002877827406512523
-0.0003303719350545116   -0.009511838616276152   -0.0002217288078220782
-0.0005875783646539191   -0.009543593165919668   -0.00024266498022246547
-0.0007868007997980589   -0.009883926347188892   -0.00027380188468352913
-0.0005731887820909391   -0.009536663275413183   -0.00025377233075464463
-0.0006906324653099925   -0.009840731889687168   -0.0002877827406512523
-0.0007661306630083922   -0.009880485873950412   -0.00028619123035516825
-0.0005731887820909391   -0.009536663275413183   -0.00025377233075464463
-0.0007868007997980589   -0.009883926347188892   -0.00027380188468352913
-0.0006906324653099925   -0.009840731889687168   -0.0002877827406512523
-0.0005731887820909391   -0.009536663275413183   -0.00025377233075464463
-0.0003006974641466703   -0.009504450465422094   -0.00024792965569680233
-0.0003303719350545116   -0.009511838616276152   -0.0002217288078220782
-0.0006906324653099925   -0.009840731889687168   -0.0002877827406512523
-0.0005731887820909391   -0.009536663275413183   -0.00025377233075464463
-0.0003303719350545116   -0.009511838616276152   -0.0002217288078220782
-0.0007868007997980589   -0.009883926347188892   -0.00027380188468352913
-0.0006906324653099925   -0.009840731889687168   -0.0002877827406512523
-0.0003006974641466703   -0.009504450465422094   -0.00024792965569680233
-0.0007661306630083922   -0.009880485873950412   -0.00028619123035516825
-0.0006467880292461965   -0.009846622392049814   -0.00031670886188643333
-0.0003006974641466703   -0.009504450465422094   -0.00024792965569680233
-0.0005731887820909391   -0.009536663275413183   -0.00025377233075464463
-0.0007661306630083922   -0.009880485873950412   -0.00028619123035516825
-0.0005622234141985771   -0.009536638576697119   -0.0002639536584977271
-0.0006467880292461965   -0.009846622392049814   -0.00031670886188643333
-0.0007485376497811482   -0.009885240605540148   -0.0002976329925588649
-0.0005622234141985771   -0.009536638576697119   -0.0002639536584977271
-0.0007661306630083922   -0.009880485873950412   -0.00028619123035516825
-0.0006467880292461965   -0.009846622392049814   -0.00031670886188643333
-0.0005622234141985771   -0.009536638576697119   -0.0002639536584977271
-0.00026776858831872174   -0.009504909188752644   -0.00027265785910161454
-0.0003006974641466703   -0.009504450465422094   -0.00024792965569680233
-0.0006467880292461965   -0.009846622392049814   -0.00031670886188643333
-0.0005622234141985771   -0.009536638576697119   -0.0002639536584977271
-0.0003006974641466703   -0.009504450465422094   -0.00024792965569680233
-0.0007661306630083922   -0.009880485873950412   -0.00028619123035516825
-0.0008042601157529259   -0.009895474915529334   -0.00026051584992298074
-0.0006001559535652626   -0.009557632606315052   -0.0002305930003431794
-0.0008510737997001331   -0.00991646930160163   -0.00028758501069492816
-0.0007868007997980589   -0.009883926347188892   -0.00027380188468352913
-0.0006001559535652626   -0.009557632606315052   -0.0002305930003431794
-0.0008330600673441265   -0.009567259103208272   -0.00025998474558981737
-0.0008510737997001331   -0.00991646930160163   -0.00028758501069492816
-0.0008226301279783464   -0.009555042620487376   -0.0002604429558620473
-0.0007868007997980589   -0.009883926347188892   -0.00027380188468352913
-0.000835743207177892   -0.00990609874850125   -0.0002877404145059989
-0.0008226301279783464   -0.009555042620487376   -0.0002604429558620473
-0.0008510737997001331   -0.00991646930160163   -0.00028758501069492816
-0.0007868007997980589   -0.009883926347188892   -0.00027380188468352913
-0.0008226301279783464   -0.009555042620487376   -0.0002604429558620473
-0.0005875783646539191   -0.009543593165919668   -0.00024266498022246547
-0.0006001559535652626   -0.009557632606315052   -0.0002305930003431794
-0.0007868007997980589   -0.009883926347188892   -0.00027380188468352913
-0.0008226301279783464   -0.009555042620487376   -0.0002604429558620473
-0.0006001559535652626   -0.009557632606315052   -0.0002305930003431794
-0.0008510737997001331   -0.00991646930160163   -0.00028758501069492816
-0.0007868007997980589   -0.009883926347188892   -0.00027380188468352913
-0.0005875783646539191   -0.009543593165919668   -0.00024266498022246547
-0.000835743207177892   -0.00990609874850125   -0.0002877404145059989
-0.0007661306630083922   -0.009880485873950412   -0.00028619123035516825
-0.0005875783646539191   -0.009543593165919668   -0.00024266498022246547
-0.0008226301279783464   -0.009555042620487376   -0.0002604429558620473
-0.000835743207177892   -0.00990609874850125   -0.0002877404145059989
-0.0008118170279530367   -0.009549223731099179   -0.00026000443653167836
-0.0007661306630083922   -0.009880485873950412   -0.00028619123035516825
-0.0008187293742732847   -0.009903062010241988   -0.00028673506496085824
-0.0008118170279530367   -0.009549223731099179   -0.00026000443653167836
-0.000835743207177892   -0.00990609874850125   -0.0002877404145059989
-0.0007661306630083922   -0.009880485873950412   -0.00028619123035516825
-0.0008118170279530367   -0.009549223731099179   -0.00026000443653167836
-0.0005731887820909391   -0.009536663275413183   -0.00025377233075464463
-0.0005875783646539191   -0.009543593165919668   -0.00024266498022246547
-0.0007661306630083922   -0.009880485873950412   -0.00028619123035516825
-0.0008118170279530367   -0.009549223731099179   -0.00026000443653167836
-0.0005875783646539191   -0.009543593165919668   -0.00024266498022246547
-0.000835743207177892   -0.00990609874850125   -0.0002877404145059989
-0.0007661306630083922   -0.009880485873950412   -0.00028619123035516825
-0.0005731887820909391   -0.009536663275413183   -0.00025377233075464463
-0.0008187293742732847   -0.009903062010241988   -0.00028673506496085824
-0.0007485376497811482   -0.009885240605540148   -0.0002976329925588649
-0.0005731887820909391   -0.009536663275413183   -0.00025377233075464463
-0.0008118170279530367   -0.009549223731099179   -0.00026000443653167836
-0.0008187293742732847   -0.009903062010241988   -0.00028673506496085824
-0.0008014205785383937   -0.009549552073244767   -0.00025867620066464376
-0.0007485376497811482   -0.009885240605540148   -0.0002976329925588649
-0.0008014893148036394   -0.009907093889881998   -0.00028481576989020877
-0.0008014205785383937   -0.009549552073244767   -0.00025867620066464376
-0.0008187293742732847   -0.009903062010241988   -0.00028673506496085824
-0.0007485376497811482   -0.009885240605540148   -0.0002976329925588649
-0.0008014205785383937   -0.009549552073244767   -0.00025867620066464376
-0.0005622234141985771   -0.009536638576697119   -0.0002639536584977271
-0.0005731887820909391   -0.009536663275413183   -0.00025377233075464463
-0.0007485376497811482   -0.009885240605540148   -0.0002976329925588649
-0.0008014205785383937   -0.009549552073244767   -0.00025867620066464376
-0.0005731887820909391   -0.009536663275413183   -0.00025377233075464463
-0.0008187293742732847   -0.009903062010241988   -0.00028673506496085824
-0.0008510737997001331   -0.00991646930160163   -0.00028758501069492816
-0.0008330600673441265   -0.009567259103208272   -0.00025998474558981737
-0.000902230378618714   -0.00992319232427672   -0.00031444605688716855
-0.000835743207177892   -0.00990609874850125   -0.0002877404145059989
-0.0008330600673441265   -0.009567259103208272   -0.00025998474558981737
-0.0010649186484347477   -0.009557964285113905   -0.0002875852931399452
-0.000902230378618714   -0.00992319232427672   -0.00031444605688716855
-0.0010545725800658009   -0.009547031792469494   -0.0002768736066715083
-0.000835743207177892   -0.00990609874850125   -0.0002877404145059989
-0.0008863417765479713   -0.009913131010524876   -0.0003019569875051211
-0.0010545725800658009   -0.009547031792469494   -0.0002768736066715083
-0.000902230378618714   -0.00992319232427672   -0.00031444605688716855
-0.000835743207177892   -0.00990609874850125   -0.0002877404145059989
-0.0010545725800658009   -0.009547031792469494   -0.0002768736066715083
-0.0008226301279783464   -0.009555042620487376   -0.0002604429558620473
-0.0008330600673441265   -0.009567259103208272   -0.00025998474558981737
-0.000835743207177892   -0.00990609874850125   -0.0002877404145059989
-0.0010545725800658009   -0.009547031792469494   -0.0002768736066715083
-0.0008330600673441265   -0.009567259103208272   -0.00025998474558981737
-0.000902230378618714   -0.00992319232427672   -0.00031444605688716855
-0.000835743207177892   -0.00990609874850125   -0.0002877404145059989
-0.0008226301279783464   -0.009555042620487376   -0.0002604429558620473
-0.0008863417765479713   -0.009913131010524876   -0.0003019569875051211
-0.0008187293742732847   -0.009903062010241988   -0.00028673506496085824
-0.0008226301279783464   -0.009555042620487376   -0.0002604429558620473
-0.0010545725800658009   -0.009547031792469494   -0.0002768736066715083
-0.0008863417765479713   -0.009913131010524876   -0.0003019569875051211
-0.0010429671379239358   -0.009542407244167514   -0.00026528546435781346
-0.0008187293742732847   -0.009903062010241988   -0.00028673506496085824
-0.0008674302281869008   -0.009910505448787152   -0.0002880493096716129
-0.0010429671379239358   -0.009542407244167514   -0.00026528546435781346
-0.0008863417765479713   -0.009913131010524876   -0.0003019569875051211
-0.0008187293742732847   -0.009903062010241988   -0.00028673506496085824
-0.0010429671379239358   -0.009542407244167514   -0.00026528546435781346
-0.0008118170279530367   -0.009549223731099179   -0.00026000443653167836
-0.0008226301279783464   -0.009555042620487376   -0.0002604429558620473
-0.0008187293742732847   -0.009903062010241988   -0.00028673506496085824
-0.0010429671379239358   -0.009542407244167514   -0.00026528546435781346
-0.0008226301279783464   -0.009555042620487376   -0.0002604429558620473
-0.0008863417765479713   -0.009913131010524876   -0.0003019569875051211
-0.0008187293742732847   -0.009903062010241988   -0.00028673506496085824
-0.0008118170279530367   -0.009549223731099179   -0.00026000443653167836
-0.0008674302281869008   -0.009910505448787152   -0.0002880493096716129
-0.0008014893148036394   -0.009907093889881998   -0.00028481576989020877
-0.0008118170279530367   -0.009549223731099179   -0.00026000443653167836
-0.0010429671379239358   -0.009542407244167514   -0.00026528546435781346
-0.0008674302281869008   -0.009910505448787152   -0.0002880493096716129
-0.0010313901712314438   -0.009543568231195702   -0.00025271535799462335
-0.0008014893148036394   -0.009907093889881998   -0.00028481576989020877
-0.0008480722893262654   -0.009914321193829383   -0.0002733238360450767
-0.0010313901712314438   -0.009543568231195702   -0.00025271535799462335
-0.0008674302281869008   -0.009910505448787152   -0.0002880493096716129
-0.0008014893148036394   -0.009907093889881998   -0.00028481576989020877
-0.0010313901712314438   -0.009543568231195702   -0.00025271535799462335
-0.0008014205785383937   -0.009549552073244767   -0.00025867620066464376
-0.0008118170279530367   -0.009549223731099179   -0.00026000443653167836
-0.0008014893148036394   -0.009907093889881998   -0.00028481576989020877
-0.0010313901712314438   -0.009543568231195702   -0.00025271535799462335
-0.0008118170279530367   -0.009549223731099179   -0.00026000443653167836
-0.0008674302281869008   -0.009910505448787152   -0.0002880493096716129
-0.000902230378618714   -0.00992319232427672   -0.00031444605688716855
-0.0010649186484347477   -0.009557964285113905   -0.0002875852931399452
-0.0009769556587001813   -0.009909947056141009   -0.00034053865428399437
-0.0008863417765479713   -0.009913131010524876   -0.0003019569875051211
-0.0010649186484347477   -0.009557964285113905   -0.0002875852931399452
-0.001318109118159683   -0.00952864918809082   -0.0003132365111027581
-0.0009769556587001813   -0.009909947056141009   -0.00034053865428399437
-0.0013052305860995136   -0.009518942033782606   -0.0002915221594218773
-0.0008863417765479713   -0.009913131010524876   -0.0003019569875051211
-0.0009562693632497533   -0.009900130027678046   -0.0003158793134529932
-0.0013052305860995136   -0.009518942033782606   -0.0002915221594218773
-0.0009769556587001813   -0.009909947056141009   -0.00034053865428399437
-0.0008863417765479713   -0.009913131010524876   -0.0003019569875051211
-0.0013052305860995136   -0.009518942033782606   -0.0002915221594218773
-0.0010545725800658009   -0.009547031792469494   -0.0002768736066715083
-0.0010649186484347477   -0.009557964285113905   -0.0002875852931399452
-0.0008863417765479713   -0.009913131010524876   -0.0003019569875051211
-0.0013052305860995136   -0.009518942033782606   -0.0002915221594218773
-0.0010649186484347477   -0.009557964285113905   -0.0002875852931399452
-0.0009769556587001813   -0.009909947056141009   -0.00034053865428399437
-0.0008863417765479713   -0.009913131010524876   -0.0003019569875051211
-0.0010545725800658009   -0.009547031792469494   -0.0002768736066715083
-0.0009562693632497533   -0.009900130027678046   -0.0003158793134529932
-0.0008674302281869008   -0.009910505448787152   -0.0002880493096716129
-0.0010545725800658009   -0.009547031792469494   -0.0002768736066715083
-0.0013052305860995136   -0.009518942033782606   -0.0002915221594218773
-0.0009562693632497533   -0.009900130027678046   -0.0003158793134529932
-0.001287244423677636   -0.009515507601346613   -0.00026901720552939144
-0.0008674302281869008   -0.009910505448787152   -0.0002880493096716129
-0.0009286239162509123   -0.009898333997730843   -0.00028958655567668494
-0.001287244423677636   -0.009515507601346613   -0.00026901720552939144
-0.0009562693632497533   -0.009900130027678046   -0.0003158793134529932
-0.0008674302281869008   -0.009910505448787152   -0.0002880493096716129
-0.001287244423677636   -0.009515507601346613   -0.00026901720552939144
-0.0010429671379239358   -0.009542407244167514   -0.00026528546435781346
-0.0010545725800658009   -0.009547031792469494   -0.0002768736066715083
-0.0008674302281869008   -0.009910505448787152   -0.0002880493096716129
-0.001287244423677636   -0.009515507601346613   -0.00026901720552939144
-0.0010545725800658009   -0.009547031792469494   -0.0002768736066715083
-0.0009562693632497533   -0.009900130027678046   -0.0003158793134529932
-0.0008674302281869008   -0.009910505448787152   -0.0002880493096716129
-0.0010429671379239358   -0.009542407244167514   -0.00026528546435781346
-0.0009286239162509123   -0.009898333997730843   -0.00028958655567668494
-0.0008480722893262654   -0.009914321193829383   -0.0002733238360450767
-0.0010429671379239358   -0.009542407244167514   -0.00026528546435781346
-0.001287244423677636   -0.009515507601346613   -0.00026901720552939144
-0.0009286239162509123   -0.009898333997730843   -0.00028958655567668494
-0.0012718997332806276   -0.009518333353344628   -0.0002451515196232904
-0.0008480722893262654   -0.009914321193829383   -0.0002733238360450767
-0.000903161040334709   -0.009903138210168817   -0.00026239786013576035
-0.0012718997332806276   -0.009518333353344628   -0.0002451515196232904
-0.0009286239162509123   -0.009898333997730843   -0.00028958655567668494
-0.0008480722893262654   -0.009914321193829383   -0.0002733238360450767
-0.0012718997332806276   -0.009518333353344628   -0.0002451515196232904
-0.0010313901712314438   -0.009543568231195702   -0.00025271535799462335
-0.0010429671379239358   -0.009542407244167514   -0.00026528546435781346
-0.0008480722893262654   -0.009914321193829383   -0.0002733238360450767
-0.0012718997332806276   -0.009518333353344628   -0.0002451515196232904
-0.0010429671379239358   -0.009542407244167514   -0.00026528546435781346
-0.0009286239162509123   -0.009898333997730843   -0.00028958655567668494
-0.0009769556587001813   -0.009909947056141009   -0.00034053865428399437
-0.001318109118159683   -0.00952864918809082   -0.0003132365111027581
-0.001129990350669164   -0.009862155095487121   -0.0003692970057356607
-0.0009562693632497533   -0.009900130027678046   -0.0003158793134529932
-0.001318109118159683   -0.00952864918809082   -0.0003132365111027581
-0.001643837303829829   -0.009480970678365968   -0.0003387658398301717
-0.001129990350669164   -0.009862155095487121   -0.0003692970057356607
-0.0015992771020674253   -0.009470061561203983   -0.00030438554595245437
-0.0009562693632497533   -0.009900130027678046   -0.0003158793134529932
-0.0010712622316145354   -0.009853334822317898   -0.0003289166181579861
-0.0015992771020674253   -0.009470061561203983   -0.00030438554595245437
-0.001129990350669164   -0.009862155095487121   -0.0003692970057356607
-0.0009562693632497533   -0.009900130027678046   -0.0003158793134529932
-0.0015992771020674253   -0.009470061561203983   -0.00030438554595245437
-0.0013052305860995136   -0.009518942033782606   -0.0002915221594218773
-0.001318109118159683   -0.00952864918809082   -0.0003132365111027581
-0.0009562693632497533   -0.009900130027678046   -0.0003158793134529932
-0.0015992771020674253   -0.009470061561203983   -0.00030438554595245437
-0.001318109118159683   -0.00952864918809082   -0.0003132365111027581
-0.001129990350669164   -0.009862155095487121   -0.0003692970057356607
-0.0009562693632497533   -0.009900130027678046   -0.0003158793134529932
-0.0013052305860995136   -0.009518942033782606   -0.0002915221594218773
-0.0010712622316145354   -0.009853334822317898   -0.0003289166181579861
-0.0009286239162509123   -0.009898333997730843   -0.00028958655567668494
-0.0013052305860995136   -0.009518942033782606   -0.0002915221594218773
-0.0015992771020674253   -0.009470061561203983   -0.00030438554595245437
-0.0010712622316145354   -0.009853334822317898   -0.0003289166181579861
-0.0015599688883389264   -0.009466884970756552   -0.00026829972760800515
-0.0009286239162509123   -0.009898333997730843   -0.00028958655567668494
-0.0010180710230061972   -0.00985249068392166   -0.00028616597280453415
-0.0015599688883389264   -0.009466884970756552   -0.00026829972760800515
-0.0010712622316145354   -0.009853334822317898   -0.0003289166181579861
-0.0009286239162509123   -0.009898333997730843   -0.00028958655567668494
-0.0015599688883389264   -0.009466884970756552   -0.00026829972760800515
-0.001287244423677636   -0.009515507601346613   -0.00026901720552939144
-0.0013052305860995136   -0.009518942033782606   -0.0002915221594218773
-0.0009286239162509123   -0.009898333997730843   -0.00028958655567668494
-0.0015599688883389264   -0.009466884970756552   -0.00026829972760800515
-0.0013052305860995136   -0.009518942033782606   -0.0002915221594218773
-0.0010712622316145354   -0.009853334822317898   -0.0003289166181579861
-0.0009286239162509123   -0.009898333997730843   -0.00028958655567668494
-0.001287244423677636   -0.009515507601346613   -0.00026901720552939144
-0.0010180710230061972   -0.00985249068392166   -0.00028616597280453415
-0.000903161040334709   -0.009903138210168817   -0.00026239786013576035
-0.001287244423677636   -0.009515507601346613   -0.00026901720552939144
-0.0015599688883389264   -0.009466884970756552   -0.00026829972760800515
-0.0010180710230061972   -0.00985249068392166   -0.00028616597280453415
-0.0015091048483474932   -0.009473285832316408   -0.00023082631194354652
-0.000903161040334709   -0.009903138210168817   -0.00026239786013576035
-0.0009507535263747445   -0.009863918176697555   -0.00024175685844097104
-0.0015091048483474932   -0.009473285832316408   -0.00023082631194354652
-0.0010180710230061972   -0.00985249068392166   -0.00028616597280453415
-0.000903161040334709   -0.009903138210168817   -0.00026239786013576035
-0.0015091048483474932   -0.009473285832316408   -0.00023082631194354652
-0.0012718997332806276   -0.009518333353344628   -0.0002451515196232904
-0.001287244423677636   -0.009515507601346613   -0.00026901720552939144
-0.000903161040334709   -0.009903138210168817   -0.00026239786013576035
-0.0015091048483474932   -0.009473285832316408   -0.00023082631194354652
-0.001287244423677636   -0.009515507601346613   -0.00026901720552939144
-0.0010180710230061972   -0.00985249068392166   -0.00028616597280453415
-0.00036805449351603325   -0.009529384528249675   -0.00019410556154816292
-2.8358707207154138e-05   -0.008888232168605242   -0.0001592609949363472
-0.0006001559535652626   -0.009557632606315052   -0.0002305930003431794
-0.0003303719350545116   -0.009511838616276152   -0.0002217288078220782
-2.8358707207154138e-05   -0.008888232168605242   -0.0001592609949363472
-0.00043344375288642924   -0.008909699624150695   -0.00019531508515565046
-0.0006001559535652626   -0.009557632606315052   -0.0002305930003431794
-0.0004265168900236754   -0.008894932671267876   -0.00020516863459776996
-0.0003303719350545116   -0.009511838616276152   -0.0002217288078220782
-0.0005875783646539191   -0.009543593165919668   -0.00024266498022246547
-0.0004265168900236754   -0.008894932671267876   -0.00020516863459776996
-0.0006001559535652626   -0.009557632606315052   -0.0002305930003431794
-0.0003303719350545116   -0.009511838616276152   -0.0002217288078220782
-0.0004265168900236754   -0.008894932671267876   -0.00020516863459776996
-9.98255368367144e-07   -0.008870259393834993   -0.00018194081722882005
-2.8358707207154138e-05   -0.008888232168605242   -0.0001592609949363472
-0.0003303719350545116   -0.009511838616276152   -0.0002217288078220782
-0.0004265168900236754   -0.008894932671267876   -0.00020516863459776996
-2.8358707207154138e-05   -0.008888232168605242   -0.0001592609949363472
-0.0006001559535652626   -0.009557632606315052   -0.0002305930003431794
-0.0003303719350545116   -0.009511838616276152   -0.0002217288078220782
-9.98255368367144e-07   -0.008870259393834993   -0.00018194081722882005
-0.0005875783646539191   -0.009543593165919668   -0.00024266498022246547
-0.0003006974641466703   -0.009504450465422094   -0.00024792965569680233
-9.98255368367144e-07   -0.008870259393834993   -0.00018194081722882005
-0.0004265168900236754   -0.008894932671267876   -0.00020516863459776996
-0.0005875783646539191   -0.009543593165919668   -0.00024266498022246547
-0.0004184490225813443   -0.008886135211671722   -0.00021400456207641488
-0.0003006974641466703   -0.009504450465422094   -0.00024792965569680233
-0.0005731887820909391   -0.009536663275413183   -0.00025377233075464463
-0.0004184490225813443   -0.008886135211671722   -0.00021400456207641488
-0.0005875783646539191   -0.009543593165919668   -0.00024266498022246547
-0.0003006974641466703   -0.009504450465422094   -0.00024792965569680233
-0.0004184490225813443   -0.008886135211671722   -0.00021400456207641488
1.9240136686603292e-05   -0.008860860720653611   -0.00020319530943183544
-9.98255368367144e-07   -0.008870259393834993   -0.00018194081722882005
-0.0003006974641466703   -0.009504450465422094   -0.00024792965569680233
-0.0004184490225813443   -0.008886135211671722   -0.00021400456207641488
-9.98255368367144e-07   -0.008870259393834993   -0.00018194081722882005
-0.0005875783646539191   -0.009543593165919668   -0.00024266498022246547
-0.0003006974641466703   -0.009504450465422094   -0.00024792965569680233
1.9240136686603292e-05   -0.008860860720653611   -0.00020319530943183544
-0.0005731887820909391   -0.009536663275413183   -0.00025377233075464463
-0.00026776858831872174   -0.009504909188752644   -0.00027265785910161454
1.9240136686603292e-05   -0.008860860720653611   -0.00020319530943183544
-0.0004184490225813443   -0.008886135211671722   -0.00021400456207641488
-0.0005731887820909391   -0.009536663275413183   -0.00025377233075464463
-0.0004136037369749203   -0.00888301735211031   -0.0002219245775898662
-0.00026776858831872174   -0.009504909188752644   -0.00027265785910161454
-0.0005622234141985771   -0.009536638576697119   -0.0002639536584977271
-0.0004136037369749203   -0.00888301735211031   -0.0002219245775898662
-0.0005731887820909391   -0.009536663275413183   -0.00025377233075464463
-0.00026776858831872174   -0.009504909188752644   -0.00027265785910161454
-0.0004136037369749203   -0.00888301735211031   -0.0002219245775898662
4.139787473758234e-05   -0.008857718055868949   -0.0002230256120636519
1.9240136686603292e-05   -0.008860860720653611   -0.00020319530943183544
-0.00026776858831872174   -0.009504909188752644   -0.00027265785910161454
-0.0004136037369749203   -0.00888301735211031   -0.0002219245775898662
1.9240136686603292e-05   -0.008860860720653611   -0.00020319530943183544
-0.0005731887820909391   -0.009536663275413183   -0.00025377233075464463
-0.0006001559535652626   -0.009557632606315052   -0.0002305930003431794
-0.00043344375288642924   -0.008909699624150695   -0.00019531508515565046
-0.0008330600673441265   -0.009567259103208272   -0.00025998474558981737
-0.0005875783646539191   -0.009543593165919668   -0.00024266498022246547
-0.00043344375288642924   -0.008909699624150695   -0.00019531508515565046
-0.0008287921438668957   -0.008913891833975765   -0.00022448673923566238
-0.0008330600673441265   -0.009567259103208272   -0.00025998474558981737
-0.0008238318256095001   -0.00890134332663799   -0.00022458835134176182
-0.0005875783646539191   -0.009543593165919668   -0.00024266498022246547
-0.0008226301279783464   -0.009555042620487376   -0.0002604429558620473
-0.0008238318256095001   -0.00890134332663799   -0.00022458835134176182
-0.0008330600673441265   -0.009567259103208272   -0.00025998474558981737
-0.0005875783646539191   -0.009543593165919668   -0.00024266498022246547
-0.0008238318256095001   -0.00890134332663799   -0.00022458835134176182
-0.0004265168900236754   -0.008894932671267876   -0.00020516863459776996
-0.00043344375288642924   -0.008909699624150695   -0.00019531508515565046
-0.0005875783646539191   -0.009543593165919668   -0.00024266498022246547
-0.0008238318256095001   -0.00890134332663799   -0.00022458835134176182
-0.00043344375288642924   -0.008909699624150695   -0.00019531508515565046
-0.0008330600673441265   -0.009567259103208272   -0.00025998474558981737
-0.0005875783646539191   -0.009543593165919668   -0.00024266498022246547
-0.0004265168900236754   -0.008894932671267876   -0.00020516863459776996
-0.0008226301279783464   -0.009555042620487376   -0.0002604429558620473
-0.0005731887820909391   -0.009536663275413183   -0.00025377233075464463
-0.0004265168900236754   -0.008894932671267876   -0.00020516863459776996
-0.0008238318256095001   -0.00890134332663799   -0.00022458835134176182
-0.0008226301279783464   -0.009555042620487376   -0.0002604429558620473
-0.0008187073900358945   -0.00889412467677378   -0.00022370760304426992
-0.0005731887820909391   -0.009536663275413183   -0.00025377233075464463
-0.0008118170279530367   -0.009549223731099179   -0.00026000443653167836
-0.0008187073900358945   -0.00889412467677378   -0.00022370760304426992
-0.0008226301279783464   -0.009555042620487376   -0.0002604429558620473
-0.0005731887820909391   -0.009536663275413183   -0.00025377233075464463
-0.0008187073900358945   -0.00889412467677378   -0.00022370760304426992
-0.0004184490225813443   -0.008886135211671722   -0.00021400456207641488
-0.0004265168900236754   -0.008894932671267876   -0.00020516863459776996
-0.0005731887820909391   -0.009536663275413183   -0.00025377233075464463
-0.0008187073900358945   -0.00889412467677378   -0.00022370760304426992
-0.0004265168900236754   -0.008894932671267876   -0.00020516863459776996
-0.0008226301279783464   -0.009555042620487376   -0.0002604429558620473
-0.0005731887820909391   -0.009536663275413183   -0.00025377233075464463
-0.0004184490225813443   -0.008886135211671722   -0.00021400456207641488
-0.0008118170279530367   -0.009549223731099179   -0.00026000443653167836
-0.0005622234141985771   -0.009536638576697119   -0.0002639536584977271
-0.0004184490225813443   -0.008886135211671722   -0.00021400456207641488
-0.0008187073900358945   -0.00889412467677378   -0.00022370760304426992
-0.0008118170279530367   -0.009549223731099179   -0.00026000443653167836
-0.000814234509203692   -0.008892169094470213   -0.00022192137539608084
-0.0005622234141985771   -0.009536638576697119   -0.0002639536584977271
-0.0008014205785383937   -0.009549552073244767   -0.00025867620066464376
-0.000814234509203692   -0.008892169094470213   -0.00022192137539608084
-0.0008118170279530367   -0.009549223731099179   -0.00026000443653167836
-0.0005622234141985771   -0.009536638576697119   -0.0002639536584977271
-0.000814234509203692   -0.008892169094470213   -0.00022192137539608084
-0.0004136037369749203   -0.00888301735211031   -0.0002219245775898662
-0.0004184490225813443   -0.008886135211671722   -0.00021400456207641488
-0.0005622234141985771   -0.009536638576697119   -0.0002639536584977271
-0.000814234509203692   -0.008892169094470213   -0.00022192137539608084
-0.0004184490225813443   -0.008886135211671722   -0.00021400456207641488
-0.0008118170279530367   -0.009549223731099179   -0.00026000443653167836
-0.0008330600673441265   -0.009567259103208272   -0.00025998474558981737
-0.0008287921438668957   -0.008913891833975765   -0.00022448673923566238
-0.0010649186484347477   -0.009557964285113905   -0.0002875852931399452
-0.0008226301279783464   -0.009555042620487376   -0.0002604429558620473
-0.0008287921438668957   -0.008913891833975765   -0.00022448673923566238
-0.0012186629490859616   -0.008900957203399128   -0.0002507648613014273
-0.0010649186484347477   -0.009557964285113905   -0.0002875852931399452
-0.0012140582251590664   -0.008890174918598453   -0.00024134029437634523
-0.0008226301279783464   -0.009555042620487376   -0.0002604429558620473
-0.0010545725800658009   -0.009547031792469494   -0.0002768736066715083
-0.0012140582251590664   -0.008890174918598453   -0.00024134029437634523
-0.0010649186484347477   -0.009557964285113905   -0.0002875852931399452
-0.0008226301279783464   -0.009555042620487376   -0.0002604429558620473
-0.0012140582251590664   -0.008890174918598453   -0.00024134029437634523
-0.0008238318256095001   -0.00890134332663799   -0.00022458835134176182
-0.0008287921438668957   -0.008913891833975765   -0.00022448673923566238
-0.0008226301279783464   -0.009555042620487376   -0.0002604429558620473
-0.0012140582251590664   -0.008890174918598453   -0.00024134029437634523
-0.0008287921438668957   -0.008913891833975765   -0.00022448673923566238
-0.0010649186484347477   -0.009557964285113905   -0.0002875852931399452
-0.0008226301279783464   -0.009555042620487376   -0.0002604429558620473
-0.0008238318256095001   -0.00890134332663799   -0.00022458835134176182
-0.0010545725800658009   -0.009547031792469494   -0.0002768736066715083
-0.0008118170279530367   -0.009549223731099179   -0.00026000443653167836
-0.0008238318256095001   -0.00890134332663799   -0.00022458835134176182
-0.0012140582251590664   -0.008890174918598453   -0.00024134029437634523
-0.0010545725800658009   -0.009547031792469494   -0.0002768736066715083
-0.0012084802468671173   -0.00888466765979139   -0.00023096105744857448
-0.0008118170279530367   -0.009549223731099179   -0.00026000443653167836
-0.0010429671379239358   -0.009542407244167514   -0.00026528546435781346
-0.0012084802468671173   -0.00888466765979139   -0.00023096105744857448
-0.0010545725800658009   -0.009547031792469494   -0.0002768736066715083
-0.0008118170279530367   -0.009549223731099179   -0.00026000443653167836
-0.0012084802468671173   -0.00888466765979139   -0.00023096105744857448
-0.0008187073900358945   -0.00889412467677378   -0.00022370760304426992
-0.0008238318256095001   -0.00890134332663799   -0.00022458835134176182
-0.0008118170279530367   -0.009549223731099179   -0.00026000443653167836
-0.0012084802468671173   -0.00888466765979139   -0.00023096105744857448
-0.0008238318256095001   -0.00890134332663799   -0.00022458835134176182
-0.0010545725800658009   -0.009547031792469494   -0.0002768736066715083
-0.0008118170279530367   -0.009549223731099179   -0.00026000443653167836
-0.0008187073900358945   -0.00889412467677378   -0.00022370760304426992
-0.0010429671379239358   -0.009542407244167514   -0.00026528546435781346
-0.0008014205785383937   -0.009549552073244767   -0.00025867620066464376
-0.0008187073900358945   -0.00889412467677378   -0.00022370760304426992
-0.0012084802468671173   -0.00888466765979139   -0.00023096105744857448
-0.0010429671379239358   -0.009542407244167514   -0.00026528546435781346
-0.0012031030208034573   -0.008884230403596271   -0.00021965499512157104
-0.0008014205785383937   -0.009549552073244767   -0.00025867620066464376
-0.0010313901712314438   -0.009543568231195702   -0.00025271535799462335
-0.0012031030208034573   -0.008884230403596271   -0.00021965499512157104
-0.0010429671379239358   -0.009542407244167514   -0.00026528546435781346
-0.0008014205785383937   -0.009549552073244767   -0.00025867620066464376
-0.0012031030208034573   -0.008884230403596271   -0.00021965499512157104
-0.000814234509203692   -0.008892169094470213   -0.00022192137539608084
-0.0008187073900358945   -0.00889412467677378   -0.00022370760304426992
-0.0008014205785383937   -0.009549552073244767   -0.00025867620066464376
-0.0012031030208034573   -0.008884230403596271   -0.00021965499512157104
-0.0008187073900358945   -0.00889412467677378   -0.00022370760304426992
-0.0010429671379239358   -0.009542407244167514   -0.00026528546435781346
-0.0010649186484347477   -0.009557964285113905   -0.0002875852931399452
-0.0012186629490859616   -0.008900957203399128   -0.0002507648613014273
-0.001318109118159683   -0.00952864918809082   -0.0003132365111027581
-0.0010545725800658009   -0.009547031792469494   -0.0002768736066715083
-0.0012186629490859616   -0.008900957203399128   -0.0002507648613014273
-0.0016262472350133071   -0.008871251992625636   -0.00027418143513796935
-0.001318109118159683   -0.00952864918809082   -0.0003132365111027581
-0.0016200166686660886   -0.008862085234951175   -0.0002551838500499814
-0.0010545725800658009   -0.009547031792469494   -0.0002768736066715083
-0.0013052305860995136   -0.009518942033782606   -0.0002915221594218773
-0.0016200166686660886   -0.008862085234951175   -0.0002551838500499814
-0.001318109118159683   -0.00952864918809082   -0.0003132365111027581
-0.0010545725800658009   -0.009547031792469494   -0.0002768736066715083
-0.0016200166686660886   -0.008862085234951175   -0.0002551838500499814
-0.0012140582251590664   -0.008890174918598453   -0.00024134029437634523
-0.0012186629490859616   -0.008900957203399128   -0.0002507648613014273
-0.0010545725800658009   -0.009547031792469494   -0.0002768736066715083
-0.0016200166686660886   -0.008862085234951175   -0.0002551838500499814
-0.0012186629490859616   -0.008900957203399128   -0.0002507648613014273
-0.001318109118159683   -0.00952864918809082   -0.0003132365111027581
-0.0010545725800658009   -0.009547031792469494   -0.0002768736066715083
-0.0012140582251590664   -0.008890174918598453   -0.00024134029437634523
-0.0013052305860995136   -0.009518942033782606   -0.0002915221594218773
-0.0010429671379239358   -0.009542407244167514   -0.00026528546435781346
-0.0012140582251590664   -0.008890174918598453   -0.00024134029437634523
-0.0016200166686660886   -0.008862085234951175   -0.0002551838500499814
-0.0013052305860995136   -0.009518942033782606   -0.0002915221594218773
-0.001609332896700051   -0.008858128456268667   -0.00023538845054664156
-0.0010429671379239358   -0.009542407244167514   -0.00026528546435781346
-0.001287244423677636   -0.009515507601346613   -0.00026901720552939144
-0.001609332896700051   -0.008858128456268667   -0.00023538845054664156
-0.0013052305860995136   -0.009518942033782606   -0.0002915221594218773
-0.0010429671379239358   -0.009542407244167514   -0.00026528546435781346
-0.001609332896700051   -0.008858128456268667   -0.00023538845054664156
-0.0012084802468671173   -0.00888466765979139   -0.00023096105744857448
-0.0012140582251590664   -0.008890174918598453   -0.00024134029437634523
-0.0010429671379239358   -0.009542407244167514   -0.00026528546435781346
-0.001609332896700051   -0.008858128456268667   -0.00023538845054664156
-0.0012140582251590664   -0.008890174918598453   -0.00024134029437634523
-0.0013052305860995136   -0.009518942033782606   -0.0002915221594218773
-0.0010429671379239358   -0.009542407244167514   -0.00026528546435781346
-0.0012084802468671173   -0.00888466765979139   -0.00023096105744857448
-0.001287244423677636   -0.009515507601346613   -0.00026901720552939144
-0.0010313901712314438   -0.009543568231195702   -0.00025271535799462335
-0.0012084802468671173   -0.00888466765979139   -0.00023096105744857448
-0.001609332896700051   -0.008858128456268667   -0.00023538845054664156
-0.001287244423677636   -0.009515507601346613   -0.00026901720552939144
-0.0016009084756334084   -0.008859640184618385   -0.00021452514846559585
-0.0010313901712314438   -0.009543568231195702   -0.00025271535799462335
-0.0012718997332806276   -0.009518333353344628   -0.0002451515196232904
-0.0016009084756334084   -0.008859640184618385   -0.00021452514846559585
-0.001287244423677636   -0.009515507601346613   -0.00026901720552939144
-0.0010313901712314438   -0.009543568231195702   -0.00025271535799462335
-0.0016009084756334084   -0.008859640184618385   -0.00021452514846559585
-0.0012031030208034573   -0.008884230403596271   -0.00021965499512157104
-0.0012084802468671173   -0.00888466765979139   -0.00023096105744857448
-0.0010313901712314438   -0.009543568231195702   -0.00025271535799462335
-0.0016009084756334084   -0.008859640184618385   -0.00021452514846559585
-0.0012084802468671173   -0.00888466765979139   -0.00023096105744857448
-0.001287244423677636   -0.009515507601346613   -0.00026901720552939144
-0.001318109118159683   -0.00952864918809082   -0.0003132365111027581
-0.0016262472350133071   -0.008871251992625636   -0.00027418143513796935
-0.001643837303829829   -0.009480970678365968   -0.0003387658398301717
-0.0013052305860995136   -0.009518942033782606   -0.0002915221594218773
-0.0016262472350133071   -0.008871251992625636   -0.00027418143513796935
-0.002101082897701732   -0.008827786470581724   -0.0002966511360955361
-0.001643837303829829   -0.009480970678365968   -0.0003387658398301717
-0.0020670201010458086   -0.00881793421508805   -0.0002667666797130789
-0.0013052305860995136   -0.009518942033782606   -0.0002915221594218773
-0.0015992771020674253   -0.009470061561203983   -0.00030438554595245437
-0.0020670201010458086   -0.00881793421508805   -0.0002667666797130789
-0.001643837303829829   -0.009480970678365968   -0.0003387658398301717
-0.0013052305860995136   -0.009518942033782606   -0.0002915221594218773
-0.0020670201010458086   -0.00881793421508805   -0.0002667666797130789
-0.0016200166686660886   -0.008862085234951175   -0.0002551838500499814
-0.0016262472350133071   -0.008871251992625636   -0.00027418143513796935
-0.0013052305860995136   -0.009518942033782606   -0.0002915221594218773
-0.0020670201010458086   -0.00881793421508805   -0.0002667666797130789
-0.0016262472350133071   -0.008871251992625636   -0.00027418143513796935
-0.001643837303829829   -0.009480970678365968   -0.0003387658398301717
-0.0013052305860995136   -0.009518942033782606   -0.0002915221594218773
-0.0016200166686660886   -0.008862085234951175   -0.0002551838500499814
-0.0015992771020674253   -0.009470061561203983   -0.00030438554595245437
-0.001287244423677636   -0.009515507601346613   -0.00026901720552939144
-0.0016200166686660886   -0.008862085234951175   -0.0002551838500499814
-0.0020670201010458086   -0.00881793421508805   -0.0002667666797130789
-0.0015992771020674253   -0.009470061561203983   -0.00030438554595245437
-0.002037864344939883   -0.00881440043974442   -0.0002355368835981889
-0.001287244423677636   -0.009515507601346613   -0.00026901720552939144
-0.0015599688883389264   -0.009466884970756552   -0.00026829972760800515
-0.002037864344939883   -0.00881440043974442   -0.0002355368835981889
-0.0015992771020674253   -0.009470061561203983   -0.00030438554595245437
-0.001287244423677636   -0.009515507601346613   -0.00026901720552939144
-0.002037864344939883   -0.00881440043974442   -0.0002355368835981889
-0.001609332896700051   -0.008858128456268667   -0.00023538845054664156
-0.0016200166686660886   -0.008862085234951175   -0.0002551838500499814
-0.001287244423677636   -0.009515507601346613   -0.00026901720552939144
-0.002037864344939883   -0.00881440043974442   -0.0002355368835981889
-0.0016200166686660886   -0.008862085234951175   -0.0002551838500499814
-0.0015992771020674253   -0.009470061561203983   -0.00030438554595245437
-0.001287244423677636   -0.009515507601346613   -0.00026901720552939144
-0.001609332896700051   -0.008858128456268667   -0.00023538845054664156
-0.0015599688883389264   -0.009466884970756552   -0.00026829972760800515
-0.0012718997332806276   -0.009518333353344628   -0.0002451515196232904
-0.001609332896700051   -0.008858128456268667   -0.00023538845054664156
-0.002037864344939883   -0.00881440043974442   -0.0002355368835981889
-0.0015599688883389264   -0.009466884970756552   -0.00026829972760800515
-0.001998758813741322   -0.0088191240223788   -0.0002031550800140962
-0.0012718997332806276   -0.009518333353344628   -0.0002451515196232904
-0.0015091048483474932   -0.009473285832316408   -0.00023082631194354652
-0.001998758813741322   -0.0088191240223788   -0.0002031550800140962
-0.0015599688883389264   -0.009466884970756552   -0.00026829972760800515
-0.0012718997332806276   -0.009518333353344628   -0.0002451515196232904
-0.001998758813741322   -0.0088191240223788   -0.0002031550800140962
-0.0016009084756334084   -0.008859640184618385   -0.00021452514846559585
-0.001609332896700051   -0.008858128456268667   -0.00023538845054664156
-0.0012718997332806276   -0.009518333353344628   -0.0002451515196232904
-0.001998758813741322   -0.0088191240223788   -0.0002031550800140962
-0.001609332896700051   -0.008858128456268667   -0.00023538845054664156
-0.0015599688883389264   -0.009466884970756552   -0.00026829972760800515
-2.8358707207154138e-05   -0.008888232168605242   -0.0001592609949363472
0.00023855441596782597   -0.007994263916538012   -0.00012090492890292823
-0.00043344375288642924   -0.008909699624150695   -0.00019531508515565046
-9.98255368367144e-07   -0.008870259393834993   -0.00018194081722882005
0.00023855441596782597   -0.007994263916538012   -0.00012090492890292823
-0.00030859721881512425   -0.008009119949031144   -0.00015542555507457894
-0.00043344375288642924   -0.008909699624150695   -0.00019531508515565046
-0.00030679372209206147   -0.007994420883638963   -0.00016255559222873544
-9.98255368367144e-07   -0.008870259393834993   -0.00018194081722882005
-0.0004265168900236754   -0.008894932671267876   -0.00020516863459776996
-0.00030679372209206147   -0.007994420883638963   -0.00016255559222873544
-0.00043344375288642924   -0.008909699624150695   -0.00019531508515565046
-9.98255368367144e-07   -0.008870259393834993   -0.00018194081722882005
-0.00030679372209206147   -0.007994420883638963   -0.00016255559222873544
0.0002559395357285153   -0.007976634283544263   -0.00013833546811097051
0.00023855441596782597   -0.007994263916538012   -0.00012090492890292823
-9.98255368367144e-07   -0.008870259393834993   -0.00018194081722882005
-0.00030679372209206147   -0.007994420883638963   -0.00016255559222873544
0.00023855441596782597   -0.007994263916538012   -0.00012090492890292823
-0.00043344375288642924   -0.008909699624150695   -0.00019531508515565046
-9.98255368367144e-07   -0.008870259393834993   -0.00018194081722882005
0.0002559395357285153   -0.007976634283544263   -0.00013833546811097051
-0.0004265168900236754   -0.008894932671267876   -0.00020516863459776996
1.9240136686603292e-05   -0.008860860720653611   -0.00020319530943183544
0.0002559395357285153   -0.007976634283544263   -0.00013833546811097051
-0.00030679372209206147   -0.007994420883638963   -0.00016255559222873544
-0.0004265168900236754   -0.008894932671267876   -0.00020516863459776996
-0.0003044417399755799   -0.007984578271231578   -0.00016872363801087418
1.9240136686603292e-05   -0.008860860720653611   -0.00020319530943183544
-0.0004184490225813443   -0.008886135211671722   -0.00021400456207641488
-0.0003044417399755799   -0.007984578271231578   -0.00016872363801087418
-0.0004265168900236754   -0.008894932671267876   -0.00020516863459776996
1.9240136686603292e-05   -0.008860860720653611   -0.00020319530943183544
-0.0003044417399755799   -0.007984578271231578   -0.00016872363801087418
0.0002673582431485735   -0.007966045229461819   -0.00015439914793072775
0.0002559395357285153   -0.007976634283544263   -0.00013833546811097051
1.9240136686603292e-05   -0.008860860720653611   -0.00020319530943183544
-0.0003044417399755799   -0.007984578271231578   -0.00016872363801087418
0.0002559395357285153   -0.007976634283544263   -0.00013833546811097051
-0.0004265168900236754   -0.008894932671267876   -0.00020516863459776996
1.9240136686603292e-05   -0.008860860720653611   -0.00020319530943183544
0.0002673582431485735   -0.007966045229461819   -0.00015439914793072775
-0.0004184490225813443   -0.008886135211671722   -0.00021400456207641488
4.139787473758234e-05   -0.008857718055868949   -0.0002230256120636519
0.0002673582431485735   -0.007966045229461819   -0.00015439914793072775
-0.0003044417399755799   -0.007984578271231578   -0.00016872363801087418
-0.0004184490225813443   -0.008886135211671722   -0.00021400456207641488
-0.0003049086707134619   -0.007979231573340465   -0.00017399862205018455
4.139787473758234e-05   -0.008857718055868949   -0.0002230256120636519
-0.0004136037369749203   -0.00888301735211031   -0.0002219245775898662
-0.0003049086707134619   -0.007979231573340465   -0.00017399862205018455
-0.0004184490225813443   -0.008886135211671722   -0.00021400456207641488
4.139787473758234e-05   -0.008857718055868949   -0.0002230256120636519
-0.0003049086707134619   -0.007979231573340465   -0.00017399862205018455
0.0002795487365462022   -0.00796017006698673   -0.00016913147561246596
0.0002673582431485735   -0.007966045229461819   -0.00015439914793072775
4.139787473758234e-05   -0.008857718055868949   -0.0002230256120636519
-0.0003049086707134619   -0.007979231573340465   -0.00017399862205018455
0.0002673582431485735   -0.007966045229461819   -0.00015439914793072775
-0.0004184490225813443   -0.008886135211671722   -0.00021400456207641488
-0.00043344375288642924   -0.008909699624150695   -0.00019531508515565046
-0.00030859721881512425   -0.008009119949031144   -0.00015542555507457894
-0.0008287921438668957   -0.008913891833975765   -0.00022448673923566238
-0.0004265168900236754   -0.008894932671267876   -0.00020516863459776996
-0.00030859721881512425   -0.008009119949031144   -0.00015542555507457894
-0.0008379546404488877   -0.008009547969330951   -0.00018321516499285496
-0.0008287921438668957   -0.008913891833975765   -0.00022448673923566238
-0.000837845078421812   -0.007997334047447461   -0.00018252309276961418
-0.0004265168900236754   -0.008894932671267876   -0.00020516863459776996
-0.0008238318256095001   -0.00890134332663799   -0.00022458835134176182
-0.000837845078421812   -0.007997334047447461   -0.00018252309276961418
-0.0008287921438668957   -0.008913891833975765   -0.00022448673923566238
-0.0004265168900236754   -0.008894932671267876   -0.00020516863459776996
-0.000837845078421812   -0.007997334047447461   -0.00018252309276961418
-0.00030679372209206147   -0.007994420883638963   -0.00016255559222873544
-0.00030859721881512425   -0.008009119949031144   -0.00015542555507457894
-0.0004265168900236754   -0.008894932671267876   -0.00020516863459776996
-0.000837845078421812   -0.007997334047447461   -0.00018252309276961418
-0.00030859721881512425   -0.008009119949031144   -0.00015542555507457894
-0.0008287921438668957   -0.008913891833975765   -0.00022448673923566238
-0.0004265168900236754   -0.008894932671267876   -0.00020516863459776996
-0.00030679372209206147   -0.007994420883638963   -0.00016255559222873544
-0.0008238318256095001   -0.00890134332663799   -0.00022458835134176182
-0.0004184490225813443   -0.008886135211671722   -0.00021400456207641488
-0.00030679372209206147   -0.007994420883638963   -0.00016255559222873544
-0.000837845078421812   -0.007997334047447461   -0.00018252309276961418
-0.0008238318256095001   -0.00890134332663799   -0.00022458835134176182
-0.0008376885392585285   -0.007989389221124117   -0.0001808646891107557
-0.0004184490225813443   -0.008886135211671722   -0.00021400456207641488
-0.0008187073900358945   -0.00889412467677378   -0.00022370760304426992
-0.0008376885392585285   -0.007989389221124117   -0.0001808646891107557
-0.0008238318256095001   -0.00890134332663799   -0.00022458835134176182
-0.0004184490225813443   -0.008886135211671722   -0.00021400456207641488
-0.0008376885392585285   -0.007989389221124117   -0.0001808646891107557
-0.0003044417399755799   -0.007984578271231578   -0.00016872363801087418
-0.00030679372209206147   -0.007994420883638963   -0.00016255559222873544
-0.0004184490225813443   -0.008886135211671722   -0.00021400456207641488
-0.0008376885392585285   -0.007989389221124117   -0.0001808646891107557
-0.00030679372209206147   -0.007994420883638963   -0.00016255559222873544
-0.0008238318256095001   -0.00890134332663799   -0.00022458835134176182
-0.0004184490225813443   -0.008886135211671722   -0.00021400456207641488
-0.0003044417399755799   -0.007984578271231578   -0.00016872363801087418
-0.0008187073900358945   -0.00889412467677378   -0.00022370760304426992
-0.0004136037369749203   -0.00888301735211031   -0.0002219245775898662
-0.0003044417399755799   -0.007984578271231578   -0.00016872363801087418
-0.0008376885392585285   -0.007989389221124117   -0.0001808646891107557
-0.0008187073900358945   -0.00889412467677378   -0.00022370760304426992
-0.000838219038784983   -0.007985724440614725   -0.000178300635815028
-0.0004136037369749203   -0.00888301735211031   -0.0002219245775898662
-0.000814234509203692   -0.008892169094470213   -0.00022192137539608084
-0.000838219038784983   -0.007985724440614725   -0.000178300635815028
-0.0008187073900358945   -0.00889412467677378   -0.00022370760304426992
-0.0004136037369749203   -0.00888301735211031   -0.0002219245775898662
-0.000838219038784983   -0.007985724440614725   -0.000178300635815028
-0.0003049086707134619   -0.007979231573340465   -0.00017399862205018455
-0.0003044417399755799   -0.007984578271231578   -0.00016872363801087418
-0.0004136037369749203   -0.00888301735211031   -0.0002219245775898662
-0.000838219038784983   -0.007985724440614725   -0.000178300635815028
-0.0003044417399755799   -0.007984578271231578   -0.00016872363801087418
-0.0008187073900358945   -0.00889412467677378   -0.00022370760304426992
-0.0008287921438668957   -0.008913891833975765   -0.00022448673923566238
-0.0008379546404488877   -0.008009547969330951   -0.00018321516499285496
-0.0012186629490859616   -0.008900957203399128   -0.0002507648613014273
-0.0008238318256095001   -0.00890134332663799   -0.00022458835134176182
-0.0008379546404488877   -0.008009547969330951   -0.00018321516499285496
-0.0013590091120035527   -0.007996097365889134   -0.00020734412228993383
-0.0012186629490859616   -0.008900957203399128   -0.0002507648613014273
-0.0013593155901740442   -0.0079859986483758   -0.00019893336473690733
-0.0008238318256095001   -0.00890134332663799   -0.00022458835134176182
-0.0012140582251590664   -0.008890174918598453   -0.00024134029437634523
-0.0013593155901740442   -0.0079859986483758   -0.00019893336473690733
-0.0012186629490859616   -0.008900957203399128   -0.0002507648613014273
-0.0008238318256095001   -0.00890134332663799   -0.00022458835134176182
-0.0013593155901740442   -0.0079859986483758   -0.00019893336473690733
-0.000837845078421812   -0.007997334047447461   -0.00018252309276961418
-0.0008379546404488877   -0.008009547969330951   -0.00018321516499285496
-0.0008238318256095001   -0.00890134332663799   -0.00022458835134176182
-0.0013593155901740442   -0.0079859986483758   -0.00019893336473690733
-0.0008379546404488877   -0.008009547969330951   -0.00018321516499285496
-0.0012186629490859616   -0.008900957203399128   -0.0002507648613014273
-0.0008238318256095001   -0.00890134332663799   -0.00022458835134176182
-0.000837845078421812   -0.007997334047447461   -0.00018252309276961418
-0.0012140582251590664   -0.008890174918598453   -0.00024134029437634523
-0.0008187073900358945   -0.00889412467677378   -0.00022370760304426992
-0.000837845078421812   -0.007997334047447461   -0.00018252309276961418
-0.0013593155901740442   -0.0079859986483758   -0.00019893336473690733
-0.0012140582251590664   -0.008890174918598453   -0.00024134029437634523
-0.0013587527847899875   -0.007980132258546135   -0.0001895805997214424
-0.0008187073900358945   -0.00889412467677378   -0.00022370760304426992
-0.0012084802468671173   -0.00888466765979139   -0.00023096105744857448
-0.0013587527847899875   -0.007980132258546135   -0.0001895805997214424
-0.0012140582251590664   -0.008890174918598453   -0.00024134029437634523
-0.0008187073900358945   -0.00889412467677378   -0.00022370760304426992
-0.0013587527847899875   -0.007980132258546135   -0.0001895805997214424
-0.0008376885392585285   -0.007989389221124117   -0.0001808646891107557
-0.000837845078421812   -0.007997334047447461   -0.00018252309276961418
-0.0008187073900358945   -0.00889412467677378   -0.00022370760304426992
-0.0013587527847899875   -0.007980132258546135   -0.0001895805997214424
-0.000837845078421812   -0.007997334047447461   -0.00018252309276961418
-0.0012140582251590664   -0.008890174918598453   -0.00024134029437634523
-0.0008187073900358945   -0.00889412467677378   -0.00022370760304426992
-0.0008376885392585285   -0.007989389221124117   -0.0001808646891107557
-0.0012084802468671173   -0.00888466765979139   -0.00023096105744857448
-0.000814234509203692   -0.008892169094470213   -0.00022192137539608084
-0.0008376885392585285   -0.007989389221124117   -0.0001808646891107557
-0.0013587527847899875   -0.007980132258546135   -0.0001895805997214424
-0.0012084802468671173   -0.00888466765979139   -0.00023096105744857448
-0.0013583716653049205   -0.007978434453869828   -0.0001793105713783444
-0.000814234509203692   -0.008892169094470213   -0.00022192137539608084
-0.0012031030208034573   -0.008884230403596271   -0.00021965499512157104
-0.0013583716653049205   -0.007978434453869828   -0.0001793105713783444
-0.0012084802468671173   -0.00888466765979139   -0.00023096105744857448
-0.000814234509203692   -0.008892169094470213   -0.00022192137539608084
-0.0013583716653049205   -0.007978434453869828   -0.0001793105713783444
-0.000838219038784983   -0.007985724440614725   -0.000178300635815028
-0.0008376885392585285   -0.007989389221124117   -0.0001808646891107557
-0.000814234509203692   -0.008892169094470213   -0.00022192137539608084
-0.0013583716653049205   -0.007978434453869828   -0.0001793105713783444
-0.0008376885392585285   -0.007989389221124117   -0.0001808646891107557
-0.0012084802468671173   -0.00888466765979139   -0.00023096105744857448
-0.0012186629490859616   -0.008900957203399128   -0.0002507648613014273
-0.0013590091120035527   -0.007996097365889134   -0.00020734412228993383
-0.0016262472350133071   -0.008871251992625636   -0.00027418143513796935
-0.0012140582251590664   -0.008890174918598453   -0.00024134029437634523
-0.0013590091120035527   -0.007996097365889134   -0.00020734412228993383
-0.0018958518027408363   -0.007969193531678673   -0.00022795892781522098
-0.0016262472350133071   -0.008871251992625636   -0.00027418143513796935
-0.0018949348699766435   -0.007961061289864263   -0.00021172220319918807
-0.0012140582251590664   -0.008890174918598453   -0.00024134029437634523
-0.0016200166686660886   -0.008862085234951175   -0.0002551838500499814
-0.0018949348699766435   -0.007961061289864263   -0.00021172220319918807
-0.0016262472350133071   -0.008871251992625636   -0.00027418143513796935
-0.0012140582251590664   -0.008890174918598453   -0.00024134029437634523
-0.0018949348699766435   -0.007961061289864263   -0.00021172220319918807
-0.0013593155901740442   -0.0079859986483758   -0.00019893336473690733
-0.0013590091120035527   -0.007996097365889134   -0.00020734412228993383
-0.0012140582251590664   -0.008890174918598453   -0.00024134029437634523
-0.0018949348699766435   -0.007961061289864263   -0.00021172220319918807
-0.0013590091120035527   -0.007996097365889134   -0.00020734412228993383
-0.0016262472350133071   -0.008871251992625636   -0.00027418143513796935
-0.0012140582251590664   -0.008890174918598453   -0.00024134029437634523
-0.0013593155901740442   -0.0079859986483758   -0.00019893336473690733
-0.0016200166686660886   -0.008862085234951175   -0.0002551838500499814
-0.0012084802468671173   -0.00888466765979139   -0.00023096105744857448
-0.0013593155901740442   -0.0079859986483758   -0.00019893336473690733
-0.0018949348699766435   -0.007961061289864263   -0.00021172220319918807
-0.0016200166686660886   -0.008862085234951175   -0.0002551838500499814
-0.001890053949940099   -0.00795708254823352   -0.00019468917625626772
-0.0012084802468671173   -0.00888466765979139   -0.00023096105744857448
-0.001609332896700051   -0.008858128456268667   -0.00023538845054664156
-0.001890053949940099   -0.00795708254823352   -0.00019468917625626772
-0.0016200166686660886   -0.008862085234951175   -0.0002551838500499814
-0.0012084802468671173   -0.00888466765979139   -0.00023096105744857448
-0.001890053949940099   -0.00795708254823352   -0.00019468917625626772
-0.0013587527847899875   -0.007980132258546135   -0.0001895805997214424
-0.0013593155901740442   -0.0079859986483758   -0.00019893336473690733
-0.0012084802468671173   -0.00888466765979139   -0.00023096105744857448
-0.001890053949940099   -0.00795708254823352   -0.00019468917625626772
-0.0013593155901740442   -0.0079859986483758   -0.00019893336473690733
-0.0016200166686660886   -0.008862085234951175   -0.0002551838500499814
-0.0012084802468671173   -0.00888466765979139   -0.00023096105744857448
-0.0013587527847899875   -0.007980132258546135   -0.0001895805997214424
-0.001609332896700051   -0.008858128456268667   -0.00023538845054664156
-0.0012031030208034573   -0.008884230403596271   -0.00021965499512157104
-0.0013587527847899875   -0.007980132258546135   -0.0001895805997214424
-0.001890053949940099   -0.00795708254823352   -0.00019468917625626772
-0.001609332896700051   -0.008858128456268667   -0.00023538845054664156
-0.0018868801548434543   -0.00795763381049728   -0.00017665922194042995
-0.0012031030208034573   -0.008884230403596271   -0.00021965499512157104
-0.0016009084756334084   -0.008859640184618385   -0.00021452514846559585
-0.0018868801548434543   -0.00795763381049728   -0.00017665922194042995
-0.001609332896700051   -0.008858128456268667   -0.00023538845054664156
-0.0012031030208034573   -0.008884230403596271   -0.00021965499512157104
-0.0018868801548434543   -0.00795763381049728   -0.00017665922194042995
-0.0013583716653049205   -0.007978434453869828   -0.0001793105713783444
-0.0013587527847899875   -0.007980132258546135   -0.0001895805997214424
-0.0012031030208034573   -0.008884230403596271   -0.00021965499512157104
-0.0018868801548434543   -0.00795763381049728   -0.00017665922194042995
-0.0013587527847899875   -0.007980132258546135   -0.0001895805997214424
-0.001609332896700051   -0.008858128456268667   -0.00023538845054664156
-0.0016262472350133071   -0.008871251992625636   -0.00027418143513796935
-0.0018958518027408363   -0.007969193531678673   -0.00022795892781522098
-0.002101082897701732   -0.008827786470581724   -0.0002966511360955361
-0.0016200166686660886   -0.008862085234951175   -0.0002551838500499814
-0.0018958518027408363   -0.007969193531678673   -0.00022795892781522098
-0.0024956686305941016   -0.007931388780718463   -0.0002469039550248688
-0.002101082897701732   -0.008827786470581724   -0.0002966511360955361
-0.0024712655713409947   -0.007923231762327418   -0.00022185217278387453
-0.0016200166686660886   -0.008862085234951175   -0.0002551838500499814
-0.0020670201010458086   -0.00881793421508805   -0.0002667666797130789
-0.0024712655713409947   -0.007923231762327418   -0.00022185217278387453
-0.002101082897701732   -0.008827786470581724   -0.0002966511360955361
-0.0016200166686660886   -0.008862085234951175   -0.0002551838500499814
-0.0024712655713409947   -0.007923231762327418   -0.00022185217278387453
-0.0018949348699766435   -0.007961061289864263   -0.00021172220319918807
-0.0018958518027408363   -0.007969193531678673   -0.00022795892781522098
-0.0016200166686660886   -0.008862085234951175   -0.0002551838500499814
-0.0024712655713409947   -0.007923231762327418   -0.00022185217278387453
-0.0018958518027408363   -0.007969193531678673   -0.00022795892781522098
-0.002101082897701732   -0.008827786470581724   -0.0002966511360955361
-0.0016200166686660886   -0.008862085234951175   -0.0002551838500499814
-0.0018949348699766435   -0.007961061289864263   -0.00021172220319918807
-0.0020670201010458086   -0.00881793421508805   -0.0002667666797130789
-0.001609332896700051   -0.008858128456268667   -0.00023538845054664156
-0.0018949348699766435   -0.007961061289864263   -0.00021172220319918807
-0.0024712655713409947   -0.007923231762327418   -0.00022185217278387453
-0.0020670201010458086   -0.00881793421508805   -0.0002667666797130789
-0.002450656211871154   -0.007919952828980148   -0.00019543754198774103
-0.001609332896700051   -0.008858128456268667   -0.00023538845054664156
-0.002037864344939883   -0.00881440043974442   -0.0002355368835981889
-0.002450656211871154   -0.007919952828980148   -0.00019543754198774103
-0.0020670201010458086   -0.00881793421508805   -0.0002667666797130789
-0.001609332896700051   -0.008858128456268667   -0.00023538845054664156
-0.002450656211871154   -0.007919952828980148   -0.00019543754198774103
-0.001890053949940099   -0.00795708254823352   -0.00019468917625626772
-0.0018949348699766435   -0.007961061289864263   -0.00021172220319918807
-0.001609332896700051   -0.008858128456268667   -0.00023538845054664156
-0.002450656211871154   -0.007919952828980148   -0.00019543754198774103
-0.0018949348699766435   -0.007961061289864263   -0.00021172220319918807
-0.0020670201010458086   -0.00881793421508805   -0.0002667666797130789
-0.001609332896700051   -0.008858128456268667   -0.00023538845054664156
-0.001890053949940099   -0.00795708254823352   -0.00019468917625626772
-0.002037864344939883   -0.00881440043974442   -0.0002355368835981889
-0.0016009084756334084   -0.008859640184618385   -0.00021452514846559585
-0.001890053949940099   -0.00795708254823352   -0.00019468917625626772
-0.002450656211871154   -0.007919952828980148   -0.00019543754198774103
-0.002037864344939883   -0.00881440043974442   -0.0002355368835981889
-0.0024212727316109454   -0.007923761831568133   -0.00016785840491875053
-0.0016009084756334084   -0.008859640184618385   -0.00021452514846559585
-0.001998758813741322   -0.0088191240223788   -0.0002031550800140962
-0.0024212727316109454   -0.007923761831568133   -0.00016785840491875053
-0.002037864344939883   -0.00881440043974442   -0.0002355368835981889
-0.0016009084756334084   -0.008859640184618385   -0.00021452514846559585
-0.0024212727316109454   -0.007923761831568133   -0.00016785840491875053
-0.0018868801548434543   -0.00795763381049728   -0.00017665922194042995
-0.001890053949940099   -0.00795708254823352   -0.00019468917625626772
-0.0016009084756334084   -0.008859640184618385   -0.00021452514846559585
-0.0024212727316109454   -0.007923761831568133   -0.00016785840491875053
-0.001890053949940099   -0.00795708254823352   -0.00019468917625626772
-0.002037864344939883   -0.00881440043974442   -0.0002355368835981889
0.00023855441596782597   -0.007994263916538012   -0.00012090492890292823
0.00043102373913628006   -0.006898348626629699   -8.09562142172805e-05
-0.00030859721881512425   -0.008009119949031144   -0.00015542555507457894
0.0002559395357285153   -0.007976634283544263   -0.00013833546811097051
0.00043102373913628006   -0.006898348626629699   -8.09562142172805e-05
-0.00022819597110828953   -0.006906389457142358   -0.00011336937750103983
-0.00030859721881512425   -0.008009119949031144   -0.00015542555507457894
-0.00023062199962179555   -0.006892097186127088   -0.00011754819002889435
0.0002559395357285153   -0.007976634283544263   -0.00013833546811097051
-0.00030679372209206147   -0.007994420883638963   -0.00016255559222873544
-0.00023062199962179555   -0.006892097186127088   -0.00011754819002889435
-0.00030859721881512425   -0.008009119949031144   -0.00015542555507457894
0.0002559395357285153   -0.007976634283544263   -0.00013833546811097051
-0.00023062199962179555   -0.006892097186127088   -0.00011754819002889435
0.000439265638065484   -0.0068813538311252994   -9.302545837157752e-05
0.00043102373913628006   -0.006898348626629699   -8.09562142172805e-05
0.0002559395357285153   -0.007976634283544263   -0.00013833546811097051
-0.00023062199962179555   -0.006892097186127088   -0.00011754819002889435
0.00043102373913628006   -0.006898348626629699   -8.09562142172805e-05
-0.00030859721881512425   -0.008009119949031144   -0.00015542555507457894
0.0002559395357285153   -0.007976634283544263   -0.00013833546811097051
0.000439265638065484   -0.0068813538311252994   -9.302545837157752e-05
-0.00030679372209206147   -0.007994420883638963   -0.00016255559222873544
0.0002673582431485735   -0.007966045229461819   -0.00015439914793072775
0.000439265638065484   -0.0068813538311252994   -9.302545837157752e-05
-0.00023062199962179555   -0.006892097186127088   -0.00011754819002889435
-0.00030679372209206147   -0.007994420883638963   -0.00016255559222873544
-0.00023308961348617396   -0.006881535994917392   -0.00012083494706616548
0.0002673582431485735   -0.007966045229461819   -0.00015439914793072775
-0.0003044417399755799   -0.007984578271231578   -0.00016872363801087418
-0.00023308961348617396   -0.006881535994917392   -0.00012083494706616548
-0.00030679372209206147   -0.007994420883638963   -0.00016255559222873544
0.0002673582431485735   -0.007966045229461819   -0.00015439914793072775
-0.00023308961348617396   -0.006881535994917392   -0.00012083494706616548
0.00044276451622487383   -0.006869905847747497   -0.00010377049255298427
0.000439265638065484   -0.0068813538311252994   -9.302545837157752e-05
0.0002673582431485735   -0.007966045229461819   -0.00015439914793072775
-0.00023308961348617396   -0.006881535994917392   -0.00012083494706616548
0.000439265638065484   -0.0068813538311252994   -9.302545837157752e-05
-0.00030679372209206147   -0.007994420883638963   -0.00016255559222873544
0.0002673582431485735   -0.007966045229461819   -0.00015439914793072775
0.00044276451622487383   -0.006869905847747497   -0.00010377049255298427
-0.0003044417399755799   -0.007984578271231578   -0.00016872363801087418
0.0002795487365462022   -0.00796017006698673   -0.00016913147561246596
0.00044276451622487383   -0.006869905847747497   -0.00010377049255298427
-0.00023308961348617396   -0.006881535994917392   -0.00012083494706616548
-0.0003044417399755799   -0.007984578271231578   -0.00016872363801087418
-0.00023790609027694724   -0.006874319168542679   -0.00012325795862949514
0.0002795487365462022   -0.00796017006698673   -0.00016913147561246596
-0.0003049086707134619   -0.007979231573340465   -0.00017399862205018455
-0.00023790609027694724   -0.006874319168542679   -0.00012325795862949514
-0.0003044417399755799   -0.007984578271231578   -0.00016872363801087418
0.0002795487365462022   -0.00796017006698673   -0.00016913147561246596
-0.00023790609027694724   -0.006874319168542679   -0.00012325795862949514
0.0004458515619832691   -0.006861656698892454   -0.00011325816571628571
0.00044276451622487383   -0.006869905847747497   -0.00010377049255298427
0.0002795487365462022   -0.00796017006698673   -0.00016913147561246596
-0.00023790609027694724   -0.006874319168542679   -0.00012325795862949514
0.00044276451622487383   -0.006869905847747497   -0.00010377049255298427
-0.0003044417399755799   -0.007984578271231578   -0.00016872363801087418
-0.00030859721881512425   -0.008009119949031144   -0.00015542555507457894
-0.00022819597110828953   -0.006906389457142358   -0.00011336937750103983
-0.0008379546404488877   -0.008009547969330951   -0.00018321516499285496
-0.00030679372209206147   -0.007994420883638963   -0.00016255559222873544
-0.00022819597110828953   -0.006906389457142358   -0.00011336937750103983
-0.0008620743252943078   -0.006903237908836555   -0.0001392490096600582
-0.0008379546404488877   -0.008009547969330951   -0.00018321516499285496
-0.0008658813507844048   -0.006891604446466823   -0.00013756761233235104
-0.00030679372209206147   -0.007994420883638963   -0.00016255559222873544
-0.000837845078421812   -0.007997334047447461   -0.00018252309276961418
-0.0008658813507844048   -0.006891604446466823   -0.00013756761233235104
-0.0008379546404488877   -0.008009547969330951   -0.00018321516499285496
-0.00030679372209206147   -0.007994420883638963   -0.00016255559222873544
-0.0008658813507844048   -0.006891604446466823   -0.00013756761233235104
-0.00023062199962179555   -0.006892097186127088   -0.00011754819002889435
-0.00022819597110828953   -0.006906389457142358   -0.00011336937750103983
-0.00030679372209206147   -0.007994420883638963   -0.00016255559222873544
-0.0008658813507844048   -0.006891604446466823   -0.00013756761233235104
-0.00022819597110828953   -0.006906389457142358   -0.00011336937750103983
-0.0008379546404488877   -0.008009547969330951   -0.00018321516499285496
-0.00030679372209206147   -0.007994420883638963   -0.00016255559222873544
-0.00023062199962179555   -0.006892097186127088   -0.00011754819002889435
-0.000837845078421812   -0.007997334047447461   -0.00018252309276961418
-0.0003044417399755799   -0.007984578271231578   -0.00016872363801087418
-0.00023062199962179555   -0.006892097186127088   -0.00011754819002889435
-0.0008658813507844048   -0.006891604446466823   -0.00013756761233235104
-0.000837845078421812   -0.007997334047447461   -0.00018252309276961418
-0.0008697448107331614   -0.006883161041597832   -0.00013496008456508453
-0.0003044417399755799   -0.007984578271231578   -0.00016872363801087418
-0.0008376885392585285   -0.007989389221124117   -0.0001808646891107557
-0.0008697448107331614   -0.006883161041597832   -0.00013496008456508453
-0.000837845078421812   -0.007997334047447461   -0.00018252309276961418
-0.0003044417399755799   -0.007984578271231578   -0.00016872363801087418
-0.0008697448107331614   -0.006883161041597832   -0.00013496008456508453
-0.00023308961348617396   -0.006881535994917392   -0.00012083494706616548
-0.00023062199962179555   -0.006892097186127088   -0.00011754819002889435
-0.0003044417399755799   -0.007984578271231578   -0.00016872363801087418
-0.0008697448107331614   -0.006883161041597832   -0.00013496008456508453
-0.00023062199962179555   -0.006892097186127088   -0.00011754819002889435
-0.000837845078421812   -0.007997334047447461   -0.00018252309276961418
-0.0003044417399755799   -0.007984578271231578   -0.00016872363801087418
-0.00023308961348617396   -0.006881535994917392   -0.00012083494706616548
-0.0008376885392585285   -0.007989389221124117   -0.0001808646891107557
-0.0003049086707134619   -0.007979231573340465   -0.00017399862205018455
-0.00023308961348617396   -0.006881535994917392   -0.00012083494706616548
-0.0008697448107331614   -0.006883161041597832   -0.00013496008456508453
-0.0008376885392585285   -0.007989389221124117   -0.0001808646891107557
-0.0008742733779468319   -0.006877957828213603   -0.00013148090753636936
-0.0003049086707134619   -0.007979231573340465   -0.00017399862205018455
-0.000838219038784983   -0.007985724440614725   -0.000178300635815028
-0.0008742733779468319   -0.006877957828213603   -0.00013148090753636936
-0.0008376885392585285   -0.007989389221124117   -0.0001808646891107557
-0.0003049086707134619   -0.007979231573340465   -0.00017399862205018455
-0.0008742733779468319   -0.006877957828213603   -0.00013148090753636936
-0.00023790609027694724   -0.006874319168542679   -0.00012325795862949514
-0.00023308961348617396   -0.006881535994917392   -0.00012083494706616548
-0.0003049086707134619   -0.007979231573340465   -0.00017399862205018455
-0.0008742733779468319   -0.006877957828213603   -0.00013148090753636936
-0.00023308961348617396   -0.006881535994917392   -0.00012083494706616548
-0.0008376885392585285   -0.007989389221124117   -0.0001808646891107557
-0.0008379546404488877   -0.008009547969330951   -0.00018321516499285496
-0.0008620743252943078   -0.006903237908836555   -0.0001392490096600582
-0.0013590091120035527   -0.007996097365889134   -0.00020734412228993383
-0.000837845078421812   -0.007997334047447461   -0.00018252309276961418
-0.0008620743252943078   -0.006903237908836555   -0.0001392490096600582
-0.0014856851075705473   -0.00688980428264504   -0.000161017691845419
-0.0013590091120035527   -0.007996097365889134   -0.00020734412228993383
-0.0014898895855702285   -0.006880522440902887   -0.00015352411115183032
-0.000837845078421812   -0.007997334047447461   -0.00018252309276961418
-0.0013593155901740442   -0.0079859986483758   -0.00019893336473690733
-0.0014898895855702285   -0.006880522440902887   -0.00015352411115183032
-0.0013590091120035527   -0.007996097365889134   -0.00020734412228993383
-0.000837845078421812   -0.007997334047447461   -0.00018252309276961418
-0.0014898895855702285   -0.006880522440902887   -0.00015352411115183032
-0.0008658813507844048   -0.006891604446466823   -0.00013756761233235104
-0.0008620743252943078   -0.006903237908836555   -0.0001392490096600582
-0.000837845078421812   -0.007997334047447461   -0.00018252309276961418
-0.0014898895855702285   -0.006880522440902887   -0.00015352411115183032
-0.0008620743252943078   -0.006903237908836555   -0.0001392490096600582
-0.0013590091120035527   -0.007996097365889134   -0.00020734412228993383
-0.000837845078421812   -0.007997334047447461   -0.00018252309276961418
-0.0008658813507844048   -0.006891604446466823   -0.00013756761233235104
-0.0013593155901740442   -0.0079859986483758   -0.00019893336473690733
-0.0008376885392585285   -0.007989389221124117   -0.0001808646891107557
-0.0008658813507844048   -0.006891604446466823   -0.00013756761233235104
-0.0014898895855702285   -0.006880522440902887   -0.00015352411115183032
-0.0013593155901740442   -0.0079859986483758   -0.00019893336473690733
-0.001493304783736395   -0.006874401643644711   -0.0001451254698499157
-0.0008376885392585285   -0.007989389221124117   -0.0001808646891107557
-0.0013587527847899875   -0.007980132258546135   -0.0001895805997214424
-0.001493304783736395   -0.006874401643644711   -0.0001451254698499157
-0.0013593155901740442   -0.0079859986483758   -0.00019893336473690733
-0.0008376885392585285   -0.007989389221124117   -0.0001808646891107557
-0.001493304783736395   -0.006874401643644711   -0.0001451254698499157
-0.0008697448107331614   -0.006883161041597832   -0.00013496008456508453
-0.0008658813507844048   -0.006891604446466823   -0.00013756761233235104
-0.0008376885392585285   -0.007989389221124117   -0.0001808646891107557
-0.001493304783736395   -0.006874401643644711   -0.0001451254698499157
-0.0008658813507844048   -0.006891604446466823   -0.00013756761233235104
-0.0013593155901740442   -0.0079859986483758   -0.00019893336473690733
-0.0008376885392585285   -0.007989389221124117   -0.0001808646891107557
-0.0008697448107331614   -0.006883161041597832   -0.00013496008456508453
-0.0013587527847899875   -0.007980132258546135   -0.0001895805997214424
-0.000838219038784983   -0.007985724440614725   -0.000178300635815028
-0.0008697448107331614   -0.006883161041597832   -0.00013496008456508453
-0.001493304783736395   -0.006874401643644711   -0.0001451254698499157
-0.0013587527847899875   -0.007980132258546135   -0.0001895805997214424
-0.0014968416356181946   -0.006871425193610077   -0.00013584529272855022
-0.000838219038784983   -0.007985724440614725   -0.000178300635815028
-0.0013583716653049205   -0.007978434453869828   -0.0001793105713783444
-0.0014968416356181946   -0.006871425193610077   -0.00013584529272855022
-0.0013587527847899875   -0.007980132258546135   -0.0001895805997214424
-0.000838219038784983   -0.007985724440614725   -0.000178300635815028
-0.0014968416356181946   -0.006871425193610077   -0.00013584529272855022
-0.0008742733779468319   -0.006877957828213603   -0.00013148090753636936
-0.0008697448107331614   -0.006883161041597832   -0.00013496008456508453
-0.000838219038784983   -0.007985724440614725   -0.000178300635815028
-0.0014968416356181946   -0.006871425193610077   -0.00013584529272855022
-0.0008697448107331614   -0.006883161041597832   -0.00013496008456508453
-0.0013587527847899875   -0.007980132258546135   -0.0001895805997214424
-0.0013590091120035527   -0.007996097365889134   -0.00020734412228993383
-0.0014856851075705473   -0.00688980428264504   -0.000161017691845419
-0.0018958518027408363   -0.007969193531678673   -0.00022795892781522098
-0.0013593155901740442   -0.0079859986483758   -0.00019893336473690733
-0.0014856851075705473   -0.00688980428264504   -0.000161017691845419
-0.002124074717372916   -0.006866318360733031   -0.0001788413409536763
-0.0018958518027408363   -0.007969193531678673   -0.00022795892781522098
-0.0021273794731089283   -0.006859288736677248   -0.00016544699831115298
-0.0013593155901740442   -0.0079859986483758   -0.00019893336473690733
-0.0018949348699766435   -0.007961061289864263   -0.00021172220319918807
-0.0021273794731089283   -0.006859288736677248   -0.00016544699831115298
-0.0018958518027408363   -0.007969193531678673   -0.00022795892781522098
-0.0013593155901740442   -0.0079859986483758   -0.00019893336473690733
-0.0021273794731089283   -0.006859288736677248   -0.00016544699831115298
-0.0014898895855702285   -0.006880522440902887   -0.00015352411115183032
-0.0014856851075705473   -0.00688980428264504   -0.000161017691845419
-0.0013593155901740442   -0.0079859986483758   -0.00019893336473690733
-0.0021273794731089283   -0.006859288736677248   -0.00016544699831115298
-0.0014856851075705473   -0.00688980428264504   -0.000161017691845419
-0.0018958518027408363   -0.007969193531678673   -0.00022795892781522098
-0.0013593155901740442   -0.0079859986483758   -0.00019893336473690733
-0.0014898895855702285   -0.006880522440902887   -0.00015352411115183032
-0.0018949348699766435   -0.007961061289864263   -0.00021172220319918807
-0.0013587527847899875   -0.007980132258546135   -0.0001895805997214424
-0.0014898895855702285   -0.006880522440902887   -0.00015352411115183032
-0.0021273794731089283   -0.006859288736677248   -0.00016544699831115298
-0.0018949348699766435   -0.007961061289864263   -0.00021172220319918807
-0.00212721251443353   -0.0068552997819699086   -0.00015127122338616086
-0.0013587527847899875   -0.007980132258546135   -0.0001895805997214424
-0.001890053949940099   -0.00795708254823352   -0.00019468917625626772
-0.00212721251443353   -0.0068552997819699086   -0.00015127122338616086
-0.0018949348699766435   -0.007961061289864263   -0.00021172220319918807
-0.0013587527847899875   -0.007980132258546135   -0.0001895805997214424
-0.00212721251443353   -0.0068552997819699086   -0.00015127122338616086
-0.001493304783736395   -0.006874401643644711   -0.0001451254698499157
-0.0014898895855702285   -0.006880522440902887   -0.00015352411115183032
-0.0013587527847899875   -0.007980132258546135   -0.0001895805997214424
-0.00212721251443353   -0.0068552997819699086   -0.00015127122338616086
-0.0014898895855702285   -0.006880522440902887   -0.00015352411115183032
-0.0018949348699766435   -0.007961061289864263   -0.00021172220319918807
-0.0013587527847899875   -0.007980132258546135   -0.0001895805997214424
-0.001493304783736395   -0.006874401643644711   -0.0001451254698499157
-0.001890053949940099   -0.00795708254823352   -0.00019468917625626772
-0.0013583716653049205   -0.007978434453869828   -0.0001793105713783444
-0.001493304783736395   -0.006874401643644711   -0.0001451254698499157
-0.00212721251443353   -0.0068552997819699086   -0.00015127122338616086
-0.001890053949940099   -0.00795708254823352   -0.00019468917625626772
-0.0021281704386497866   -0.0068547536714200445   -0.00013614348662200701
-0.0013583716653049205   -0.007978434453869828   -0.0001793105713783444
-0.0018868801548434543   -0.00795763381049728   -0.00017665922194042995
-0.0021281704386497866   -0.0068547536714200445   -0.00013614348662200701
-0.001890053949940099   -0.00795708254823352   -0.00019468917625626772
-0.0013583716653049205   -0.007978434453869828   -0.0001793105713783444
-0.0021281704386497866   -0.0068547536714200445   -0.00013614348662200701
-0.0014968416356181946   -0.006871425193610077   -0.00013584529272855022
-0.001493304783736395   -0.006874401643644711   -0.0001451254698499157
-0.0013583716653049205   -0.007978434453869828   -0.0001793105713783444
-0.0021281704386497866   -0.0068547536714200445   -0.00013614348662200701
-0.001493304783736395   -0.006874401643644711   -0.0001451254698499157
-0.001890053949940099   -0.00795708254823352   -0.00019468917625626772
-0.0018958518027408363   -0.007969193531678673   -0.00022795892781522098
-0.002124074717372916   -0.006866318360733031   -0.0001788413409536763
-0.0024956686305941016   -0.007931388780718463   -0.0002469039550248688
-0.0018949348699766435   -0.007961061289864263   -0.00021172220319918807
-0.002124074717372916   -0.006866318360733031   -0.0001788413409536763
-0.002821229091367646   -0.006834812137017984   -0.00019410571828424358
-0.0024956686305941016   -0.007931388780718463   -0.0002469039550248688
-0.0028058064155678515   -0.00682838278610229   -0.00017425355962300202
-0.0018949348699766435   -0.007961061289864263   -0.00021172220319918807
-0.0024712655713409947   -0.007923231762327418   -0.00022185217278387453
-0.0028058064155678515   -0.00682838278610229   -0.00017425355962300202
-0.0024956686305941016   -0.007931388780718463   -0.0002469039550248688
-0.0018949348699766435   -0.007961061289864263   -0.00021172220319918807
-0.0028058064155678515   -0.00682838278610229   -0.00017425355962300202
-0.0021273794731089283   -0.006859288736677248   -0.00016544699831115298
-0.002124074717372916   -0.006866318360733031   -0.0001788413409536763
-0.0018949348699766435   -0.007961061289864263   -0.00021172220319918807
-0.0028058064155678515   -0.00682838278610229   -0.00017425355962300202
-0.002124074717372916   -0.006866318360733031   -0.0001788413409536763
-0.0024956686305941016   -0.007931388780718463   -0.0002469039550248688
-0.0018949348699766435   -0.007961061289864263   -0.00021172220319918807
-0.0021273794731089283   -0.006859288736677248   -0.00016544699831115298
-0.0024712655713409947   -0.007923231762327418   -0.00022185217278387453
-0.001890053949940099   -0.00795708254823352   -0.00019468917625626772
-0.0021273794731089283   -0.006859288736677248   -0.00016544699831115298
-0.0028058064155678515   -0.00682838278610229   -0.00017425355962300202
-0.0024712655713409947   -0.007923231762327418   -0.00022185217278387453
-0.002792930170195061   -0.006825308255833164   -0.00015302265490326034
-0.001890053949940099   -0.00795708254823352   -0.00019468917625626772
-0.002450656211871154   -0.007919952828980148   -0.00019543754198774103
-0.002792930170195061   -0.006825308255833164   -0.00015302265490326034
-0.0024712655713409947   -0.007923231762327418   -0.00022185217278387453
-0.001890053949940099   -0.00795708254823352   -0.00019468917625626772
-0.002792930170195061   -0.006825308255833164   -0.00015302265490326034
-0.00212721251443353   -0.0068552997819699086   -0.00015127122338616086
-0.0021273794731089283   -0.006859288736677248   -0.00016544699831115298
-0.001890053949940099   -0.00795708254823352   -0.00019468917625626772
-0.002792930170195061   -0.006825308255833164   -0.00015302265490326034
-0.0021273794731089283   -0.006859288736677248   -0.00016544699831115298
-0.0024712655713409947   -0.007923231762327418   -0.00022185217278387453
-0.001890053949940099   -0.00795708254823352   -0.00019468917625626772
-0.00212721251443353   -0.0068552997819699086   -0.00015127122338616086
-0.002450656211871154   -0.007919952828980148   -0.00019543754198774103
-0.0018868801548434543   -0.00795763381049728   -0.00017665922194042995
-0.00212721251443353   -0.0068552997819699086   -0.00015127122338616086
-0.002792930170195061   -0.006825308255833164   -0.00015302265490326034
-0.002450656211871154   -0.007919952828980148   -0.00019543754198774103
-0.0027724280155349106   -0.006827971596549569   -0.0001305892681581794
-0.0018868801548434543   -0.00795763381049728   -0.00017665922194042995
-0.0024212727316109454   -0.007923761831568133   -0.00016785840491875053
-0.0027724280155349106   -0.006827971596549569   -0.0001305892681581794
-0.002450656211871154   -0.007919952828980148   -0.00019543754198774103
-0.0018868801548434543   -0.00795763381049728   -0.00017665922194042995
-0.0027724280155349106   -0.006827971596549569   -0.0001305892681581794
-0.0021281704386497866   -0.0068547536714200445   -0.00013614348662200701
-0.00212721251443353   -0.0068552997819699086   -0.00015127122338616086
-0.0018868801548434543   -0.00795763381049728   -0.00017665922194042995
-0.0027724280155349106   -0.006827971596549569   -0.0001305892681581794
-0.00212721251443353   -0.0068552997819699086   -0.00015127122338616086
-0.002450656211871154   -0.007919952828980148   -0.00019543754198774103
0.00043102373913628006   -0.006898348626629699   -8.09562142172805e-05
0.0005471244695432553   -0.005649650102280426   -4.2488594070576915e-05
-0.00022819597110828953   -0.006906389457142358   -0.00011336937750103983
0.000439265638065484   -0.0068813538311252994   -9.302545837157752e-05
0.0005471244695432553   -0.005649650102280426   -4.2488594070576915e-05
-0.0001942598713752276   -0.005650701990045142   -7.227439346418962e-05
-0.00022819597110828953   -0.006906389457142358   -0.00011336937750103983
-0.00019999709186495018   -0.005636994034356185   -7.334631582683881e-05
0.000439265638065484   -0.0068813538311252994   -9.302545837157752e-05
-0.00023062199962179555   -0.006892097186127088   -0.00011754819002889435
-0.00019999709186495018   -0.005636994034356185   -7.334631582683881e-05
-0.00022819597110828953   -0.006906389457142358   -0.00011336937750103983
0.000439265638065484   -0.0068813538311252994   -9.302545837157752e-05
-0.00019999709186495018   -0.005636994034356185   -7.334631582683881e-05
0.0005470760566210783   -0.005633467129034535   -4.904904935946411e-05
0.0005471244695432553   -0.005649650102280426   -4.2488594070576915e-05
0.000439265638065484   -0.0068813538311252994   -9.302545837157752e-05
-0.00019999709186495018   -0.005636994034356185   -7.334631582683881e-05
0.0005471244695432553   -0.005649650102280426   -4.2488594070576915e-05
-0.00022819597110828953   -0.006906389457142358   -0.00011336937750103983
0.000439265638065484   -0.0068813538311252994   -9.302545837157752e-05
0.0005470760566210783   -0.005633467129034535   -4.904904935946411e-05
-0.00023062199962179555   -0.006892097186127088   -0.00011754819002889435
0.00044276451622487383   -0.006869905847747497   -0.00010377049255298427
0.0005470760566210783   -0.005633467129034535   -4.904904935946411e-05
-0.00019999709186495018   -0.005636994034356185   -7.334631582683881e-05
-0.00023062199962179555   -0.006892097186127088   -0.00011754819002889435
-0.00020638881647647172   -0.005625828236125617   -7.359430943016288e-05
0.00044276451622487383   -0.006869905847747497   -0.00010377049255298427
-0.00023308961348617396   -0.006881535994917392   -0.00012083494706616548
-0.00020638881647647172   -0.005625828236125617   -7.359430943016288e-05
-0.00023062199962179555   -0.006892097186127088   -0.00011754819002889435
0.00044276451622487383   -0.006869905847747497   -0.00010377049255298427
-0.00020638881647647172   -0.005625828236125617   -7.359430943016288e-05
0.0005434805188569868   -0.005621296065097355   -5.4288655883720564e-05
0.0005470760566210783   -0.005633467129034535   -4.904904935946411e-05
0.00044276451622487383   -0.006869905847747497   -0.00010377049255298427
-0.00020638881647647172   -0.005625828236125617   -7.359430943016288e-05
0.0005470760566210783   -0.005633467129034535   -4.904904935946411e-05
-0.00023062199962179555   -0.006892097186127088   -0.00011754819002889435
0.00044276451622487383   -0.006869905847747497   -0.00010377049255298427
0.0005434805188569868   -0.005621296065097355   -5.4288655883720564e-05
-0.00023308961348617396   -0.006881535994917392   -0.00012083494706616548
0.0004458515619832691   -0.006861656698892454   -0.00011325816571628571
0.0005434805188569868   -0.005621296065097355   -5.4288655883720564e-05
-0.00020638881647647172   -0.005625828236125617   -7.359430943016288e-05
-0.00023308961348617396   -0.006881535994917392   -0.00012083494706616548
-0.0002146391652957806   -0.005616864060931433   -7.298588774228998e-05
0.0004458515619832691   -0.006861656698892454   -0.00011325816571628571
-0.00023790609027694724   -0.006874319168542679   -0.00012325795862949514
-0.0002146391652957806   -0.005616864060931433   -7.298588774228998e-05
-0.00023308961348617396   -0.006881535994917392   -0.00012083494706616548
0.0004458515619832691   -0.006861656698892454   -0.00011325816571628571
-0.0002146391652957806   -0.005616864060931433   -7.298588774228998e-05
0.0005381522457349917   -0.005610774427714668   -5.829998984537591e-05
0.0005434805188569868   -0.005621296065097355   -5.4288655883720564e-05
0.0004458515619832691   -0.006861656698892454   -0.00011325816571628571
-0.0002146391652957806   -0.005616864060931433   -7.298588774228998e-05
0.0005434805188569868   -0.005621296065097355   -5.4288655883720564e-05
-0.00023308961348617396   -0.006881535994917392   -0.00012083494706616548
-0.00022819597110828953   -0.006906389457142358   -0.00011336937750103983
-0.0001942598713752276   -0.005650701990045142   -7.227439346418962e-05
-0.0008620743252943078   -0.006903237908836555   -0.0001392490096600582
-0.00023062199962179555   -0.006892097186127088   -0.00011754819002889435
-0.0001942598713752276   -0.005650701990045142   -7.227439346418962e-05
-0.0009023908677520861   -0.005644259118632347   -9.59333873938678e-05
-0.0008620743252943078   -0.006903237908836555   -0.0001392490096600582
-0.0009091423396934709   -0.005633265614748809   -9.313433087023203e-05
-0.00023062199962179555   -0.006892097186127088   -0.00011754819002889435
-0.0008658813507844048   -0.006891604446466823   -0.00013756761233235104
-0.0009091423396934709   -0.005633265614748809   -9.313433087023203e-05
-0.0008620743252943078   -0.006903237908836555   -0.0001392490096600582
-0.00023062199962179555   -0.006892097186127088   -0.00011754819002889435
-0.0009091423396934709   -0.005633265614748809   -9.313433087023203e-05
-0.00019999709186495018   -0.005636994034356185   -7.334631582683881e-05
-0.0001942598713752276   -0.005650701990045142   -7.227439346418962e-05
-0.00023062199962179555   -0.006892097186127088   -0.00011754819002889435
-0.0009091423396934709   -0.005633265614748809   -9.313433087023203e-05
-0.0001942598713752276   -0.005650701990045142   -7.227439346418962e-05
-0.0008620743252943078   -0.006903237908836555   -0.0001392490096600582
-0.00023062199962179555   -0.006892097186127088   -0.00011754819002889435
-0.00019999709186495018   -0.005636994034356185   -7.334631582683881e-05
-0.0008658813507844048   -0.006891604446466823   -0.00013756761233235104
-0.00023308961348617396   -0.006881535994917392   -0.00012083494706616548
-0.00019999709186495018   -0.005636994034356185   -7.334631582683881e-05
-0.0009091423396934709   -0.005633265614748809   -9.313433087023203e-05
-0.0008658813507844048   -0.006891604446466823   -0.00013756761233235104
-0.0009160511971170694   -0.005624339311524096   -8.946868341976183e-05
-0.00023308961348617396   -0.006881535994917392   -0.00012083494706616548
-0.0008697448107331614   -0.006883161041597832   -0.00013496008456508453
-0.0009160511971170694   -0.005624339311524096   -8.946868341976183e-05
-0.0008658813507844048   -0.006891604446466823   -0.00013756761233235104
-0.00023308961348617396   -0.006881535994917392   -0.00012083494706616548
-0.0009160511971170694   -0.005624339311524096   -8.946868341976183e-05
-0.00020638881647647172   -0.005625828236125617   -7.359430943016288e-05
-0.00019999709186495018   -0.005636994034356185   -7.334631582683881e-05
-0.00023308961348617396   -0.006881535994917392   -0.00012083494706616548
-0.0009160511971170694   -0.005624339311524096   -8.946868341976183e-05
-0.00019999709186495018   -0.005636994034356185   -7.334631582683881e-05
-0.0008658813507844048   -0.006891604446466823   -0.00013756761233235104
-0.00023308961348617396   -0.006881535994917392   -0.00012083494706616548
-0.00020638881647647172   -0.005625828236125617   -7.359430943016288e-05
-0.0008697448107331614   -0.006883161041597832   -0.00013496008456508453
-0.00023790609027694724   -0.006874319168542679   -0.00012325795862949514
-0.00020638881647647172   -0.005625828236125617   -7.359430943016288e-05
-0.0009160511971170694   -0.005624339311524096   -8.946868341976183e-05
-0.0008697448107331614   -0.006883161041597832   -0.00013496008456508453
-0.0009235968240236259   -0.005617589095309017   -8.498663376165792e-05
-0.00023790609027694724   -0.006874319168542679   -0.00012325795862949514
-0.0008742733779468319   -0.006877957828213603   -0.00013148090753636936
-0.0009235968240236259   -0.005617589095309017   -8.498663376165792e-05
-0.0008697448107331614   -0.006883161041597832   -0.00013496008456508453
-0.00023790609027694724   -0.006874319168542679   -0.00012325795862949514
-0.0009235968240236259   -0.005617589095309017   -8.498663376165792e-05
-0.0002146391652957806   -0.005616864060931433   -7.298588774228998e-05
-0.00020638881647647172   -0.005625828236125617   -7.359430943016288e-05
-0.00023790609027694724   -0.006874319168542679   -0.00012325795862949514
-0.0009235968240236259   -0.005617589095309017   -8.498663376165792e-05
-0.00020638881647647172   -0.005625828236125617   -7.359430943016288e-05
-0.0008697448107331614   -0.006883161041597832   -0.00013496008456508453
-0.0008620743252943078   -0.006903237908836555   -0.0001392490096600582
-0.0009023908677520861   -0.005644259118632347   -9.59333873938678e-05
-0.0014856851075705473   -0.00688980428264504   -0.000161017691845419
-0.0008658813507844048   -0.006891604446466823   -0.00013756761233235104
-0.0009023908677520861   -0.005644259118632347   -9.59333873938678e-05
-0.0015985975933655691   -0.005631401447624741   -0.0001153777398524901
-0.0014856851075705473   -0.00688980428264504   -0.000161017691845419
-0.0016056590553676646   -0.005622848172382581   -0.00010874324530404318
-0.0008658813507844048   -0.006891604446466823   -0.00013756761233235104
-0.0014898895855702285   -0.006880522440902887   -0.00015352411115183032
-0.0016056590553676646   -0.005622848172382581   -0.00010874324530404318
-0.0014856851075705473   -0.00688980428264504   -0.000161017691845419
-0.0008658813507844048   -0.006891604446466823   -0.00013756761233235104
-0.0016056590553676646   -0.005622848172382581   -0.00010874324530404318
-0.0009091423396934709   -0.005633265614748809   -9.313433087023203e-05
-0.0009023908677520861   -0.005644259118632347   -9.59333873938678e-05
-0.0008658813507844048   -0.006891604446466823   -0.00013756761233235104
-0.0016056590553676646   -0.005622848172382581   -0.00010874324530404318
-0.0009023908677520861   -0.005644259118632347   -9.59333873938678e-05
-0.0014856851075705473   -0.00688980428264504   -0.000161017691845419
-0.0008658813507844048   -0.006891604446466823   -0.00013756761233235104
-0.0009091423396934709   -0.005633265614748809   -9.313433087023203e-05
-0.0014898895855702285   -0.006880522440902887   -0.00015352411115183032
-0.0008697448107331614   -0.006883161041597832   -0.00013496008456508453
-0.0009091423396934709   -0.005633265614748809   -9.313433087023203e-05
-0.0016056590553676646   -0.005622848172382581   -0.00010874324530404318
-0.0014898895855702285   -0.006880522440902887   -0.00015352411115183032
-0.001612012611733474   -0.005616347767122221   -0.00010126541298998549
-0.0008697448107331614   -0.006883161041597832   -0.00013496008456508453
-0.001493304783736395   -0.006874401643644711   -0.0001451254698499157
-0.001612012611733474   -0.005616347767122221   -0.00010126541298998549
-0.0014898895855702285   -0.006880522440902887   -0.00015352411115183032
-0.0008697448107331614   -0.006883161041597832   -0.00013496008456508453
-0.001612012611733474   -0.005616347767122221   -0.00010126541298998549
-0.0009160511971170694   -0.005624339311524096   -8.946868341976183e-05
-0.0009091423396934709   -0.005633265614748809   -9.313433087023203e-05
-0.0008697448107331614   -0.006883161041597832   -0.00013496008456508453
-0.001612012611733474   -0.005616347767122221   -0.00010126541298998549
-0.0009091423396934709   -0.005633265614748809   -9.313433087023203e-05
-0.0014898895855702285   -0.006880522440902887   -0.00015352411115183032
-0.0008697448107331614   -0.006883161041597832   -0.00013496008456508453
-0.0009160511971170694   -0.005624339311524096   -8.946868341976183e-05
-0.001493304783736395   -0.006874401643644711   -0.0001451254698499157
-0.0008742733779468319   -0.006877957828213603   -0.00013148090753636936
-0.0009160511971170694   -0.005624339311524096   -8.946868341976183e-05
-0.001612012611733474   -0.005616347767122221   -0.00010126541298998549
-0.001493304783736395   -0.006874401643644711   -0.0001451254698499157
-0.0016184335467448773   -0.005611904143480095   -9.297275717309415e-05
-0.0008742733779468319   -0.006877957828213603   -0.00013148090753636936
-0.0014968416356181946   -0.006871425193610077   -0.00013584529272855022
-0.0016184335467448773   -0.005611904143480095   -9.297275717309415e-05
-0.001493304783736395   -0.006874401643644711   -0.0001451254698499157
-0.0008742733779468319   -0.006877957828213603   -0.00013148090753636936
-0.0016184335467448773   -0.005611904143480095   -9.297275717309415e-05
-0.0009235968240236259   -0.005617589095309017   -8.498663376165792e-05
-0.0009160511971170694   -0.005624339311524096   -8.946868341976183e-05
-0.0008742733779468319   -0.006877957828213603   -0.00013148090753636936
-0.0016184335467448773   -0.005611904143480095   -9.297275717309415e-05
-0.0009160511971170694   -0.005624339311524096   -8.946868341976183e-05
-0.001493304783736395   -0.006874401643644711   -0.0001451254698499157
-0.0014856851075705473   -0.00688980428264504   -0.000161017691845419
-0.0015985975933655691   -0.005631401447624741   -0.0001153777398524901
-0.002124074717372916   -0.006866318360733031   -0.0001788413409536763
-0.0014898895855702285   -0.006880522440902887   -0.00015352411115183032
-0.0015985975933655691   -0.005631401447624741   -0.0001153777398524901
-0.002308824798508217   -0.005611872456568188   -0.00013071144231363026
-0.002124074717372916   -0.006866318360733031   -0.0001788413409536763
-0.002315278712352418   -0.005605751586233213   -0.00012020701457131504
-0.0014898895855702285   -0.006880522440902887   -0.00015352411115183032
-0.0021273794731089283   -0.006859288736677248   -0.00016544699831115298
-0.002315278712352418   -0.005605751586233213   -0.00012020701457131504
-0.002124074717372916   -0.006866318360733031   -0.0001788413409536763
-0.0014898895855702285   -0.006880522440902887   -0.00015352411115183032
-0.002315278712352418   -0.005605751586233213   -0.00012020701457131504
-0.0016056590553676646   -0.005622848172382581   -0.00010874324530404318
-0.0015985975933655691   -0.005631401447624741   -0.0001153777398524901
-0.0014898895855702285   -0.006880522440902887   -0.00015352411115183032
-0.002315278712352418   -0.005605751586233213   -0.00012020701457131504
-0.0015985975933655691   -0.005631401447624741   -0.0001153777398524901
-0.002124074717372916   -0.006866318360733031   -0.0001788413409536763
-0.0014898895855702285   -0.006880522440902887   -0.00015352411115183032
-0.0016056590553676646   -0.005622848172382581   -0.00010874324530404318
-0.0021273794731089283   -0.006859288736677248   -0.00016544699831115298
-0.001493304783736395   -0.006874401643644711   -0.0001451254698499157
-0.0016056590553676646   -0.005622848172382581   -0.00010874324530404318
-0.002315278712352418   -0.005605751586233213   -0.00012020701457131504
-0.0021273794731089283   -0.006859288736677248   -0.00016544699831115298
-0.0023187991627806755   -0.005601503332420175   -0.00010896490322128435
-0.001493304783736395   -0.006874401643644711   -0.0001451254698499157
-0.00212721251443353   -0.0068552997819699086   -0.00015127122338616086
-0.0023187991627806755   -0.005601503332420175   -0.00010896490322128435
-0.0021273794731089283   -0.006859288736677248   -0.00016544699831115298
-0.001493304783736395   -0.006874401643644711   -0.0001451254698499157
-0.0023187991627806755   -0.005601503332420175   -0.00010896490322128435
-0.001612012611733474   -0.005616347767122221   -0.00010126541298998549
-0.0016056590553676646   -0.005622848172382581   -0.00010874324530404318
-0.001493304783736395   -0.006874401643644711   -0.0001451254698499157
-0.0023187991627806755   -0.005601503332420175   -0.00010896490322128435
-0.0016056590553676646   -0.005622848172382581   -0.00010874324530404318
-0.0021273794731089283   -0.006859288736677248   -0.00016544699831115298
-0.001493304783736395   -0.006874401643644711   -0.0001451254698499157
-0.001612012611733474   -0.005616347767122221   -0.00010126541298998549
-0.00212721251443353   -0.0068552997819699086   -0.00015127122338616086
-0.0014968416356181946   -0.006871425193610077   -0.00013584529272855022
-0.001612012611733474   -0.005616347767122221   -0.00010126541298998549
-0.0023187991627806755   -0.005601503332420175   -0.00010896490322128435
-0.00212721251443353   -0.0068552997819699086   -0.00015127122338616086
-0.002322868243268295   -0.005599509504141779   -9.683649650518407e-05
-0.0014968416356181946   -0.006871425193610077   -0.00013584529272855022
-0.0021281704386497866   -0.0068547536714200445   -0.00013614348662200701
-0.002322868243268295   -0.005599509504141779   -9.683649650518407e-05
-0.00212721251443353   -0.0068552997819699086   -0.00015127122338616086
-0.0014968416356181946   -0.006871425193610077   -0.00013584529272855022
-0.002322868243268295   -0.005599509504141779   -9.683649650518407e-05
-0.0016184335467448773   -0.005611904143480095   -9.297275717309415e-05
-0.001612012611733474   -0.005616347767122221   -0.00010126541298998549
-0.0014968416356181946   -0.006871425193610077   -0.00013584529272855022
-0.002322868243268295   -0.005599509504141779   -9.683649650518407e-05
-0.001612012611733474   -0.005616347767122221   -0.00010126541298998549
-0.00212721251443353   -0.0068552997819699086   -0.00015127122338616086
-0.002124074717372916   -0.006866318360733031   -0.0001788413409536763
-0.002308824798508217   -0.005611872456568188   -0.00013071144231363026
-0.002821229091367646   -0.006834812137017984   -0.00019410571828424358
-0.0021273794731089283   -0.006859288736677248   -0.00016544699831115298
-0.002308824798508217   -0.005611872456568188   -0.00013071144231363026
-0.0030729351147175477   -0.005587177921373121   -0.00014255075089432051
-0.002821229091367646   -0.006834812137017984   -0.00019410571828424358
-0.0030656797587127415   -0.005582236682452833   -0.00012814619596382288
-0.0021273794731089283   -0.006859288736677248   -0.00016544699831115298
-0.0028058064155678515   -0.00682838278610229   -0.00017425355962300202
-0.0030656797587127415   -0.005582236682452833   -0.00012814619596382288
-0.002821229091367646   -0.006834812137017984   -0.00019410571828424358
-0.0021273794731089283   -0.006859288736677248   -0.00016544699831115298
-0.0030656797587127415   -0.005582236682452833   -0.00012814619596382288
-0.002315278712352418   -0.005605751586233213   -0.00012020701457131504
-0.002308824798508217   -0.005611872456568188   -0.00013071144231363026
-0.0021273794731089283   -0.006859288736677248   -0.00016544699831115298
-0.0030656797587127415   -0.005582236682452833   -0.00012814619596382288
-0.002308824798508217   -0.005611872456568188   -0.00013071144231363026
-0.002821229091367646   -0.006834812137017984   -0.00019410571828424358
-0.0021273794731089283   -0.006859288736677248   -0.00016544699831115298
-0.002315278712352418   -0.005605751586233213   -0.00012020701457131504
-0.0028058064155678515   -0.00682838278610229   -0.00017425355962300202
-0.00212721251443353   -0.0068552997819699086   -0.00015127122338616086
-0.002315278712352418   -0.005605751586233213   -0.00012020701457131504
-0.0030656797587127415   -0.005582236682452833   -0.00012814619596382288
-0.0028058064155678515   -0.00682838278610229   -0.00017425355962300202
-0.0030597393640432948   -0.0055790572696693035   -0.00011238662671639862
-0.00212721251443353   -0.0068552997819699086   -0.00015127122338616086
-0.002792930170195061   -0.006825308255833164   -0.00015302265490326034
-0.0030597393640432948   -0.0055790572696693035   -0.00011238662671639862
-0.0028058064155678515   -0.00682838278610229   -0.00017425355962300202
-0.00212721251443353   -0.0068552997819699086   -0.00015127122338616086
-0.0030597393640432948   -0.0055790572696693035   -0.00011238662671639862
-0.0023187991627806755   -0.005601503332420175   -0.00010896490322128435
-0.002315278712352418   -0.005605751586233213   -0.00012020701457131504
-0.00212721251443353   -0.0068552997819699086   -0.00015127122338616086
-0.0030597393640432948   -0.0055790572696693035   -0.00011238662671639862
-0.002315278712352418   -0.005605751586233213   -0.00012020701457131504
-0.0028058064155678515   -0.00682838278610229   -0.00017425355962300202
-0.00212721251443353   -0.0068552997819699086   -0.00015127122338616086
-0.0023187991627806755   -0.005601503332420175   -0.00010896490322128435
-0.002792930170195061   -0.006825308255833164   -0.00015302265490326034
-0.0021281704386497866   -0.0068547536714200445   -0.00013614348662200701
-0.0023187991627806755   -0.005601503332420175   -0.00010896490322128435
-0.0030597393640432948   -0.0055790572696693035   -0.00011238662671639862
-0.002792930170195061   -0.006825308255833164   -0.00015302265490326034
-0.003047431596506592   -0.005580106094655277   -9.542404512084257e-05
-0.0021281704386497866   -0.0068547536714200445   -0.00013614348662200701
-0.0027724280155349106   -0.006827971596549569   -0.0001305892681581794
-0.003047431596506592   -0.005580106094655277   -9.542404512084257e-05
-0.002792930170195061   -0.006825308255833164   -0.00015302265490326034
-0.0021281704386497866   -0.0068547536714200445   -0.00013614348662200701
-0.003047431596506592   -0.005580106094655277   -9.542404512084257e-05
-0.002322868243268295   -0.005599509504141779   -9.683649650518407e-05
-0.0023187991627806755   -0.005601503332420175   -0.00010896490322128435
-0.0021281704386497866   -0.0068547536714200445   -0.00013614348662200701
-0.003047431596506592   -0.005580106094655277   -9.542404512084257e-05
-0.0023187991627806755   -0.005601503332420175   -0.00010896490322128435
-0.002792930170195061   -0.006825308255833164   -0.00015302265490326034
0.0005471244695432553   -0.005649650102280426   -4.2488594070576915e-05
0.0005840666846790352   -0.004297230410235846   -9.05408211746915e-06
-0.0001942598713752276   -0.005650701990045142   -7.227439346418962e-05
0.0005470760566210783   -0.005633467129034535   -4.904904935946411e-05
0.0005840666846790352   -0.004297230410235846   -9.05408211746915e-06
-0.0002084283478210828   -0.004291367369402483   -3.5285158649880646e-05
-0.0001942598713752276   -0.005650701990045142   -7.227439346418962e-05
-0.00021671983611629524   -0.004278435173322662   -3.312616885597697e-05
0.0005470760566210783   -0.005633467129034535   -4.904904935946411e-05
-0.00019999709186495018   -0.005636994034356185   -7.334631582683881e-05
-0.00021671983611629524   -0.004278435173322662   -3.312616885597697e-05
-0.0001942598713752276   -0.005650701990045142   -7.227439346418962e-05
0.0005470760566210783   -0.005633467129034535   -4.904904935946411e-05
-0.00021671983611629524   -0.004278435173322662   -3.312616885597697e-05
0.0005764162705475636   -0.004281980770157179   -9.825517831659578e-06
0.0005840666846790352   -0.004297230410235846   -9.05408211746915e-06
0.0005470760566210783   -0.005633467129034535   -4.904904935946411e-05
-0.00021671983611629524   -0.004278435173322662   -3.312616885597697e-05
0.0005840666846790352   -0.004297230410235846   -9.05408211746915e-06
-0.0001942598713752276   -0.005650701990045142   -7.227439346418962e-05
0.0005470760566210783   -0.005633467129034535   -4.904904935946411e-05
0.0005764162705475636   -0.004281980770157179   -9.825517831659578e-06
-0.00019999709186495018   -0.005636994034356185   -7.334631582683881e-05
0.0005434805188569868   -0.005621296065097355   -5.4288655883720564e-05
0.0005764162705475636   -0.004281980770157179   -9.825517831659578e-06
-0.00021671983611629524   -0.004278435173322662   -3.312616885597697e-05
-0.00019999709186495018   -0.005636994034356185   -7.334631582683881e-05
-0.00022630199151005666   -0.004266683990113916   -3.0190905243728384e-05
0.0005434805188569868   -0.005621296065097355   -5.4288655883720564e-05
-0.00020638881647647172   -0.005625828236125617   -7.359430943016288e-05
-0.00022630199151005666   -0.004266683990113916   -3.0190905243728384e-05
-0.00019999709186495018   -0.005636994034356185   -7.334631582683881e-05
0.0005434805188569868   -0.005621296065097355   -5.4288655883720564e-05
-0.00022630199151005666   -0.004266683990113916   -3.0190905243728384e-05
0.0005661324047523186   -0.004269041737291025   -9.030596750688666e-06
0.0005764162705475636   -0.004281980770157179   -9.825517831659578e-06
0.0005434805188569868   -0.005621296065097355   -5.4288655883720564e-05
-0.00022630199151005666   -0.004266683990113916   -3.0190905243728384e-05
0.0005764162705475636   -0.004281980770157179   -9.825517831659578e-06
-0.00019999709186495018   -0.005636994034356185   -7.334631582683881e-05
0.0005434805188569868   -0.005621296065097355   -5.4288655883720564e-05
0.0005661324047523186   -0.004269041737291025   -9.030596750688666e-06
-0.00020638881647647172   -0.005625828236125617   -7.359430943016288e-05
0.0005381522457349917   -0.005610774427714668   -5.829998984537591e-05
0.0005661324047523186   -0.004269041737291025   -9.030596750688666e-06
-0.00022630199151005666   -0.004266683990113916   -3.0190905243728384e-05
-0.00020638881647647172   -0.005625828236125617   -7.359430943016288e-05
-0.0002372781441190204   -0.004255929698557694   -2.6288645214471288e-05
0.0005381522457349917   -0.005610774427714668   -5.829998984537591e-05
-0.0002146391652957806   -0.005616864060931433   -7.298588774228998e-05
-0.0002372781441190204   -0.004255929698557694   -2.6288645214471288e-05
-0.00020638881647647172   -0.005625828236125617   -7.359430943016288e-05
0.0005381522457349917   -0.005610774427714668   -5.829998984537591e-05
-0.0002372781441190204   -0.004255929698557694   -2.6288645214471288e-05
0.0005523408351679452   -0.004255853087098962   -6.734063043215914e-06
0.0005661324047523186   -0.004269041737291025   -9.030596750688666e-06
0.0005381522457349917   -0.005610774427714668   -5.829998984537591e-05
-0.0002372781441190204   -0.004255929698557694   -2.6288645214471288e-05
0.0005661324047523186   -0.004269041737291025   -9.030596750688666e-06
-0.00020638881647647172   -0.005625828236125617   -7.359430943016288e-05
-0.0001942598713752276   -0.005650701990045142   -7.227439346418962e-05
-0.0002084283478210828   -0.004291367369402483   -3.5285158649880646e-05
-0.0009023908677520861   -0.005644259118632347   -9.59333873938678e-05
-0.00019999709186495018   -0.005636994034356185   -7.334631582683881e-05
-0.0002084283478210828   -0.004291367369402483   -3.5285158649880646e-05
-0.0009590499686248108   -0.004283392746606079   -5.6528731105867834e-05
-0.0009023908677520861   -0.005644259118632347   -9.59333873938678e-05
-0.0009678014260403791   -0.004273001153775397   -5.2481280584325394e-05
-0.00019999709186495018   -0.005636994034356185   -7.334631582683881e-05
-0.0009091423396934709   -0.005633265614748809   -9.313433087023203e-05
-0.0009678014260403791   -0.004273001153775397   -5.2481280584325394e-05
-0.0009023908677520861   -0.005644259118632347   -9.59333873938678e-05
-0.00019999709186495018   -0.005636994034356185   -7.334631582683881e-05
-0.0009678014260403791   -0.004273001153775397   -5.2481280584325394e-05
-0.00021671983611629524   -0.004278435173322662   -3.312616885597697e-05
-0.0002084283478210828   -0.004291367369402483   -3.5285158649880646e-05
-0.00019999709186495018   -0.005636994034356185   -7.334631582683881e-05
-0.0009678014260403791   -0.004273001153775397   -5.2481280584325394e-05
-0.0002084283478210828   -0.004291367369402483   -3.5285158649880646e-05
-0.0009023908677520861   -0.005644259118632347   -9.59333873938678e-05
-0.00019999709186495018   -0.005636994034356185   -7.334631582683881e-05
-0.00021671983611629524   -0.004278435173322662   -3.312616885597697e-05
-0.0009091423396934709   -0.005633265614748809   -9.313433087023203e-05
-0.00020638881647647172   -0.005625828236125617   -7.359430943016288e-05
-0.00021671983611629524   -0.004278435173322662   -3.312616885597697e-05
-0.0009678014260403791   -0.004273001153775397   -5.2481280584325394e-05
-0.0009091423396934709   -0.005633265614748809   -9.313433087023203e-05
-0.000976783721576171   -0.004263516145114666   -4.767829078588072e-05
-0.00020638881647647172   -0.005625828236125617   -7.359430943016288e-05
-0.0009160511971170694   -0.005624339311524096   -8.946868341976183e-05
-0.000976783721576171   -0.004263516145114666   -4.767829078588072e-05
-0.0009091423396934709   -0.005633265614748809   -9.313433087023203e-05
-0.00020638881647647172   -0.005625828236125617   -7.359430943016288e-05
-0.000976783721576171   -0.004263516145114666   -4.767829078588072e-05
-0.00022630199151005666   -0.004266683990113916   -3.0190905243728384e-05
-0.00021671983611629524   -0.004278435173322662   -3.312616885597697e-05
-0.00020638881647647172   -0.005625828236125617   -7.359430943016288e-05
-0.000976783721576171   -0.004263516145114666   -4.767829078588072e-05
-0.00021671983611629524   -0.004278435173322662   -3.312616885597697e-05
-0.0009091423396934709   -0.005633265614748809   -9.313433087023203e-05
-0.00020638881647647172   -0.005625828236125617   -7.359430943016288e-05
-0.00022630199151005666   -0.004266683990113916   -3.0190905243728384e-05
-0.0009160511971170694   -0.005624339311524096   -8.946868341976183e-05
-0.0002146391652957806   -0.005616864060931433   -7.298588774228998e-05
-0.00022630199151005666   -0.004266683990113916   -3.0190905243728384e-05
-0.000976783721576171   -0.004263516145114666   -4.767829078588072e-05
-0.0009160511971170694   -0.005624339311524096   -8.946868341976183e-05
-0.0009863911555660276   -0.004255133050179786   -4.212381501094107e-05
-0.0002146391652957806   -0.005616864060931433   -7.298588774228998e-05
-0.0009235968240236259   -0.005617589095309017   -8.498663376165792e-05
-0.0009863911555660276   -0.004255133050179786   -4.212381501094107e-05
-0.0009160511971170694   -0.005624339311524096   -8.946868341976183e-05
-0.0002146391652957806   -0.005616864060931433   -7.298588774228998e-05
-0.0009863911555660276   -0.004255133050179786   -4.212381501094107e-05
-0.0002372781441190204   -0.004255929698557694   -2.6288645214471288e-05
-0.00022630199151005666   -0.004266683990113916   -3.0190905243728384e-05
-0.0002146391652957806   -0.005616864060931433   -7.298588774228998e-05
-0.0009863911555660276   -0.004255133050179786   -4.212381501094107e-05
-0.00022630199151005666   -0.004266683990113916   -3.0190905243728384e-05
-0.0009160511971170694   -0.005624339311524096   -8.946868341976183e-05
-0.0009023908677520861   -0.005644259118632347   -9.59333873938678e-05
-0.0009590499686248108   -0.004283392746606079   -5.6528731105867834e-05
-0.0015985975933655691   -0.005631401447624741   -0.0001153777398524901
-0.0009091423396934709   -0.005633265614748809   -9.313433087023203e-05
-0.0009590499686248108   -0.004283392746606079   -5.6528731105867834e-05
-0.0016968658419768698   -0.004273307129662302   -7.400180266054817e-05
-0.0015985975933655691   -0.005631401447624741   -0.0001153777398524901
-0.0017056686276525955   -0.004265207259273   -6.81123795491917e-05
-0.0009091423396934709   -0.005633265614748809   -9.313433087023203e-05
-0.0016056590553676646   -0.005622848172382581   -0.00010874324530404318
-0.0017056686276525955   -0.004265207259273   -6.81123795491917e-05
-0.0015985975933655691   -0.005631401447624741   -0.0001153777398524901
-0.0009091423396934709   -0.005633265614748809   -9.313433087023203e-05
-0.0017056686276525955   -0.004265207259273   -6.81123795491917e-05
-0.0009678014260403791   -0.004273001153775397   -5.2481280584325394e-05
-0.0009590499686248108   -0.004283392746606079   -5.6528731105867834e-05
-0.0009091423396934709   -0.005633265614748809   -9.313433087023203e-05
-0.0017056686276525955   -0.004265207259273   -6.81123795491917e-05
-0.0009590499686248108   -0.004283392746606079   -5.6528731105867834e-05
-0.0015985975933655691   -0.005631401447624741   -0.0001153777398524901
-0.0009091423396934709   -0.005633265614748809   -9.313433087023203e-05
-0.0009678014260403791   -0.004273001153775397   -5.2481280584325394e-05
-0.0016056590553676646   -0.005622848172382581   -0.00010874324530404318
-0.0009160511971170694   -0.005624339311524096   -8.946868341976183e-05
-0.0009678014260403791   -0.004273001153775397   -5.2481280584325394e-05
-0.0017056686276525955   -0.004265207259273   -6.81123795491917e-05
-0.0016056590553676646   -0.005622848172382581   -0.00010874324530404318
-0.0017138692787119385   -0.0042580449008867115   -6.149250413926461e-05
-0.0009160511971170694   -0.005624339311524096   -8.946868341976183e-05
-0.001612012611733474   -0.005616347767122221   -0.00010126541298998549
-0.0017138692787119385   -0.0042580449008867115   -6.149250413926461e-05
-0.0016056590553676646   -0.005622848172382581   -0.00010874324530404318
-0.0009160511971170694   -0.005624339311524096   -8.946868341976183e-05
-0.0017138692787119385   -0.0042580449008867115   -6.149250413926461e-05
-0.000976783721576171   -0.004263516145114666   -4.767829078588072e-05
-0.0009678014260403791   -0.004273001153775397   -5.2481280584325394e-05
-0.0009160511971170694   -0.005624339311524096   -8.946868341976183e-05
-0.0017138692787119385   -0.0042580449008867115   -6.149250413926461e-05
-0.0009678014260403791   -0.004273001153775397   -5.2481280584325394e-05
-0.0016056590553676646   -0.005622848172382581   -0.00010874324530404318
-0.0009160511971170694   -0.005624339311524096   -8.946868341976183e-05
-0.000976783721576171   -0.004263516145114666   -4.767829078588072e-05
-0.001612012611733474   -0.005616347767122221   -0.00010126541298998549
-0.0009235968240236259   -0.005617589095309017   -8.498663376165792e-05
-0.000976783721576171   -0.004263516145114666   -4.767829078588072e-05
-0.0017138692787119385   -0.0042580449008867115   -6.149250413926461e-05
-0.001612012611733474   -0.005616347767122221   -0.00010126541298998549
-0.0017221003370077627   -0.00425183242593539   -5.417471789291219e-05
-0.0009235968240236259   -0.005617589095309017   -8.498663376165792e-05
-0.0016184335467448773   -0.005611904143480095   -9.297275717309415e-05
-0.0017221003370077627   -0.00425183242593539   -5.417471789291219e-05
-0.001612012611733474   -0.005616347767122221   -0.00010126541298998549
-0.0009235968240236259   -0.005617589095309017   -8.498663376165792e-05
-0.0017221003370077627   -0.00425183242593539   -5.417471789291219e-05
-0.0009863911555660276   -0.004255133050179786   -4.212381501094107e-05
-0.000976783721576171   -0.004263516145114666   -4.767829078588072e-05
-0.0009235968240236259   -0.005617589095309017   -8.498663376165792e-05
-0.0017221003370077627   -0.00425183242593539   -5.417471789291219e-05
-0.000976783721576171   -0.004263516145114666   -4.767829078588072e-05
-0.001612012611733474   -0.005616347767122221   -0.00010126541298998549
-0.0015985975933655691   -0.005631401447624741   -0.0001153777398524901
-0.0016968658419768698   -0.004273307129662302   -7.400180266054817e-05
-0.002308824798508217   -0.005611872456568188   -0.00013071144231363026
-0.0016056590553676646   -0.005622848172382581   -0.00010874324530404318
-0.0016968658419768698   -0.004273307129662302   -7.400180266054817e-05
-0.0024483650673593404   -0.0042593335795900605   -8.754626666500656e-05
-0.002308824798508217   -0.005611872456568188   -0.00013071144231363026
-0.002456748924681636   -0.004253637170824031   -7.983924461838847e-05
-0.0016056590553676646   -0.005622848172382581   -0.00010874324530404318
-0.002315278712352418   -0.005605751586233213   -0.00012020701457131504
-0.002456748924681636   -0.004253637170824031   -7.983924461838847e-05
-0.002308824798508217   -0.005611872456568188   -0.00013071144231363026
-0.0016056590553676646   -0.005622848172382581   -0.00010874324530404318
-0.002456748924681636   -0.004253637170824031   -7.983924461838847e-05
-0.0017056686276525955   -0.004265207259273   -6.81123795491917e-05
-0.0016968658419768698   -0.004273307129662302   -7.400180266054817e-05
-0.0016056590553676646   -0.005622848172382581   -0.00010874324530404318
-0.002456748924681636   -0.004253637170824031   -7.983924461838847e-05
-0.0016968658419768698   -0.004273307129662302   -7.400180266054817e-05
-0.002308824798508217   -0.005611872456568188   -0.00013071144231363026
-0.0016056590553676646   -0.005622848172382581   -0.00010874324530404318
-0.0017056686276525955   -0.004265207259273   -6.81123795491917e-05
-0.002315278712352418   -0.005605751586233213   -0.00012020701457131504
-0.001612012611733474   -0.005616347767122221   -0.00010126541298998549
-0.0017056686276525955   -0.004265207259273   -6.81123795491917e-05
-0.002456748924681636   -0.004253637170824031   -7.983924461838847e-05
-0.002315278712352418   -0.005605751586233213   -0.00012020701457131504
-0.002462836728867027   -0.004248644491462432   -7.150519539029121e-05
-0.001612012611733474   -0.005616347767122221   -0.00010126541298998549
-0.0023187991627806755   -0.005601503332420175   -0.00010896490322128435
-0.002462836728867027   -0.004248644491462432   -7.150519539029121e-05
-0.002315278712352418   -0.005605751586233213   -0.00012020701457131504
-0.001612012611733474   -0.005616347767122221   -0.00010126541298998549
-0.002462836728867027   -0.004248644491462432   -7.150519539029121e-05
-0.0017138692787119385   -0.0042580449008867115   -6.149250413926461e-05
-0.0017056686276525955   -0.004265207259273   -6.81123795491917e-05
-0.001612012611733474   -0.005616347767122221   -0.00010126541298998549
-0.002462836728867027   -0.004248644491462432   -7.150519539029121e-05
-0.0017056686276525955   -0.004265207259273   -6.81123795491917e-05
-0.002315278712352418   -0.005605751586233213   -0.00012020701457131504
-0.001612012611733474   -0.005616347767122221   -0.00010126541298998549
-0.0017138692787119385   -0.0042580449008867115   -6.149250413926461e-05
-0.0023187991627806755   -0.005601503332420175   -0.00010896490322128435
-0.0016184335467448773   -0.005611904143480095   -9.297275717309415e-05
-0.0017138692787119385   -0.0042580449008867115   -6.149250413926461e-05
-0.002462836728867027   -0.004248644491462432   -7.150519539029121e-05
-0.0023187991627806755   -0.005601503332420175   -0.00010896490322128435
-0.002468940789758267   -0.004244675911890844   -6.239555290381945e-05
-0.0016184335467448773   -0.005611904143480095   -9.297275717309415e-05
-0.002322868243268295   -0.005599509504141779   -9.683649650518407e-05
-0.002468940789758267   -0.004244675911890844   -6.239555290381945e-05
-0.0023187991627806755   -0.005601503332420175   -0.00010896490322128435
-0.0016184335467448773   -0.005611904143480095   -9.297275717309415e-05
-0.002468940789758267   -0.004244675911890844   -6.239555290381945e-05
-0.0017221003370077627   -0.00425183242593539   -5.417471789291219e-05
-0.0017138692787119385   -0.0042580449008867115   -6.149250413926461e-05
-0.0016184335467448773   -0.005611904143480095   -9.297275717309415e-05
-0.002468940789758267   -0.004244675911890844   -6.239555290381945e-05
-0.0017138692787119385   -0.0042580449008867115   -6.149250413926461e-05
-0.0023187991627806755   -0.005601503332420175   -0.00010896490322128435
-0.002308824798508217   -0.005611872456568188   -0.00013071144231363026
-0.0024483650673593404   -0.0042593335795900605   -8.754626666500656e-05
-0.0030729351147175477   -0.005587177921373121   -0.00014255075089432051
-0.002315278712352418   -0.005605751586233213   -0.00012020701457131504
-0.0024483650673593404   -0.0042593335795900605   -8.754626666500656e-05
-0.003247467822910621   -0.004242236235349667   -9.68132301776273e-05
-0.0030729351147175477   -0.005587177921373121   -0.00014255075089432051
-0.003247202891818004   -0.004238130299440741   -8.780889984842319e-05
-0.002315278712352418   -0.005605751586233213   -0.00012020701457131504
-0.0030656797587127415   -0.005582236682452833   -0.00012814619596382288
-0.003247202891818004   -0.004238130299440741   -8.780889984842319e-05
-0.0030729351147175477   -0.005587177921373121   -0.00014255075089432051
-0.002315278712352418   -0.005605751586233213   -0.00012020701457131504
-0.003247202891818004   -0.004238130299440741   -8.780889984842319e-05
-0.002456748924681636   -0.004253637170824031   -7.983924461838847e-05
-0.0024483650673593404   -0.0042593335795900605   -8.754626666500656e-05
-0.002315278712352418   -0.005605751586233213   -0.00012020701457131504
-0.003247202891818004   -0.004238130299440741   -8.780889984842319e-05
-0.0024483650673593404   -0.0042593335795900605   -8.754626666500656e-05
-0.0030729351147175477   -0.005587177921373121   -0.00014255075089432051
-0.002315278712352418   -0.005605751586233213   -0.00012020701457131504
-0.002456748924681636   -0.004253637170824031   -7.983924461838847e-05
-0.0030656797587127415   -0.005582236682452833   -0.00012814619596382288
-0.0023187991627806755   -0.005601503332420175   -0.00010896490322128435
-0.002456748924681636   -0.004253637170824031   -7.983924461838847e-05
-0.003247202891818004   -0.004238130299440741   -8.780889984842319e-05
-0.0030656797587127415   -0.005582236682452833   -0.00012814619596382288
-0.003247188711945173   -0.004234258823916593   -7.756142424044318e-05
-0.0023187991627806755   -0.005601503332420175   -0.00010896490322128435
-0.0030597393640432948   -0.0055790572696693035   -0.00011238662671639862
-0.003247188711945173   -0.004234258823916593   -7.756142424044318e-05
-0.0030656797587127415   -0.005582236682452833   -0.00012814619596382288
-0.0023187991627806755   -0.005601503332420175   -0.00010896490322128435
-0.003247188711945173   -0.004234258823916593   -7.756142424044318e-05
-0.002462836728867027   -0.004248644491462432   -7.150519539029121e-05
-0.002456748924681636   -0.004253637170824031   -7.983924461838847e-05
-0.0023187991627806755   -0.005601503332420175   -0.00010896490322128435
-0.003247188711945173   -0.004234258823916593   -7.756142424044318e-05
-0.002456748924681636   -0.004253637170824031   -7.983924461838847e-05
-0.0030656797587127415   -0.005582236682452833   -0.00012814619596382288
-0.0023187991627806755   -0.005601503332420175   -0.00010896490322128435
-0.002462836728867027   -0.004248644491462432   -7.150519539029121e-05
-0.0030597393640432948   -0.0055790572696693035   -0.00011238662671639862
-0.002322868243268295   -0.005599509504141779   -9.683649650518407e-05
-0.002462836728867027   -0.004248644491462432   -7.150519539029121e-05
-0.003247188711945173   -0.004234258823916593   -7.756142424044318e-05
-0.0030597393640432948   -0.0055790572696693035   -0.00011238662671639862
-0.0032422605006310035   -0.004233007382434921   -6.620725211111097e-05
-0.002322868243268295   -0.005599509504141779   -9.683649650518407e-05
-0.003047431596506592   -0.005580106094655277   -9.542404512084257e-05
-0.0032422605006310035   -0.004233007382434921   -6.620725211111097e-05
-0.0030597393640432948   -0.0055790572696693035   -0.00011238662671639862
-0.002322868243268295   -0.005599509504141779   -9.683649650518407e-05
-0.0032422605006310035   -0.004233007382434921   -6.620725211111097e-05
-0.002468940789758267   -0.004244675911890844   -6.239555290381945e-05
-0.002462836728867027   -0.004248644491462432   -7.150519539029121e-05
-0.002322868243268295   -0.005599509504141779   -9.683649650518407e-05
-0.0032422605006310035   -0.004233007382434921   -6.620725211111097e-05
-0.002462836728867027   -0.004248644491462432   -7.150519539029121e-05
-0.0030597393640432948   -0.0055790572696693035   -0.00011238662671639862
0.0005840666846790352   -0.004297230410235846   -9.05408211746915e-06
0.0005359866156232327   -0.0028884839105695723   1.4192914481539358e-05
-0.0002084283478210828   -0.004291367369402483   -3.5285158649880646e-05
0.0005764162705475636   -0.004281980770157179   -9.825517831659578e-06
0.0005359866156232327   -0.0028884839105695723   1.4192914481539358e-05
-0.0002712082369339276   -0.002876295913438577   -5.494284550192655e-06
-0.0002084283478210828   -0.004291367369402483   -3.5285158649880646e-05
-0.00028162725480829144   -0.00286488733670754   -2.1560358864164203e-07
0.0005764162705475636   -0.004281980770157179   -9.825517831659578e-06
-0.00021671983611629524   -0.004278435173322662   -3.312616885597697e-05
-0.00028162725480829144   -0.00286488733670754   -2.1560358864164203e-07
-0.0002084283478210828   -0.004291367369402483   -3.5285158649880646e-05
0.0005764162705475636   -0.004281980770157179   -9.825517831659578e-06
-0.00028162725480829144   -0.00286488733670754   -2.1560358864164203e-07
0.000520391855414306   -0.0028741872870075335   2.0066612341925603e-05
0.0005359866156232327   -0.0028884839105695723   1.4192914481539358e-05
0.0005764162705475636   -0.004281980770157179   -9.825517831659578e-06
-0.00028162725480829144   -0.00286488733670754   -2.1560358864164203e-07
0.0005359866156232327   -0.0028884839105695723   1.4192914481539358e-05
-0.0002084283478210828   -0.004291367369402483   -3.5285158649880646e-05
0.0005764162705475636   -0.004281980770157179   -9.825517831659578e-06
0.000520391855414306   -0.0028741872870075335   2.0066612341925603e-05
-0.00021671983611629524   -0.004278435173322662   -3.312616885597697e-05
0.0005661324047523186   -0.004269041737291025   -9.030596750688666e-06
0.000520391855414306   -0.0028741872870075335   2.0066612341925603e-05
-0.00028162725480829144   -0.00286488733670754   -2.1560358864164203e-07
-0.00021671983611629524   -0.004278435173322662   -3.312616885597697e-05
-0.00029395101985290483   -0.0028530228426346714   6.109622282484615e-06
0.0005661324047523186   -0.004269041737291025   -9.030596750688666e-06
-0.00022630199151005666   -0.004266683990113916   -3.0190905243728384e-05
-0.00029395101985290483   -0.0028530228426346714   6.109622282484615e-06
-0.00021671983611629524   -0.004278435173322662   -3.312616885597697e-05
0.0005661324047523186   -0.004269041737291025   -9.030596750688666e-06
-0.00029395101985290483   -0.0028530228426346714   6.109622282484615e-06
0.0005022629266020769   -0.0028604140071822656   2.9133862229564087e-05
0.000520391855414306   -0.0028741872870075335   2.0066612341925603e-05
0.0005661324047523186   -0.004269041737291025   -9.030596750688666e-06
-0.00029395101985290483   -0.0028530228426346714   6.109622282484615e-06
0.000520391855414306   -0.0028741872870075335   2.0066612341925603e-05
-0.00021671983611629524   -0.004278435173322662   -3.312616885597697e-05
0.0005661324047523186   -0.004269041737291025   -9.030596750688666e-06
0.0005022629266020769   -0.0028604140071822656   2.9133862229564087e-05
-0.00022630199151005666   -0.004266683990113916   -3.0190905243728384e-05
0.0005523408351679452   -0.004255853087098962   -6.734063043215914e-06
0.0005022629266020769   -0.0028604140071822656   2.9133862229564087e-05
-0.00029395101985290483   -0.0028530228426346714   6.109622282484615e-06
-0.00022630199151005666   -0.004266683990113916   -3.0190905243728384e-05
-0.00030685820848743247   -0.002840584563164058   1.3489044384442428e-05
0.0005523408351679452   -0.004255853087098962   -6.734063043215914e-06
-0.0002372781441190204   -0.004255929698557694   -2.6288645214471288e-05
-0.00030685820848743247   -0.002840584563164058   1.3489044384442428e-05
-0.00022630199151005666   -0.004266683990113916   -3.0190905243728384e-05
0.0005523408351679452   -0.004255853087098962   -6.734063043215914e-06
-0.00030685820848743247   -0.002840584563164058   1.3489044384442428e-05
0.00048004364650107315   -0.002843329419276644   3.9220734256101904e-05
0.0005022629266020769   -0.0028604140071822656   2.9133862229564087e-05
0.0005523408351679452   -0.004255853087098962   -6.734063043215914e-06
-0.00030685820848743247   -0.002840584563164058   1.3489044384442428e-05
0.0005022629266020769   -0.0028604140071822656   2.9133862229564087e-05
-0.00022630199151005666   -0.004266683990113916   -3.0190905243728384e-05
-0.0002084283478210828   -0.004291367369402483   -3.5285158649880646e-05
-0.0002712082369339276   -0.002876295913438577   -5.494284550192655e-06
-0.0009590499686248108   -0.004283392746606079   -5.6528731105867834e-05
-0.00021671983611629524   -0.004278435173322662   -3.312616885597697e-05
-0.0002712082369339276   -0.002876295913438577   -5.494284550192655e-06
-0.0010289265033299967   -0.0028730844573453345   -2.3959988672746074e-05
-0.0009590499686248108   -0.004283392746606079   -5.6528731105867834e-05
-0.0010386112479599924   -0.002863517002116292   -1.8710086576971838e-05
-0.00021671983611629524   -0.004278435173322662   -3.312616885597697e-05
-0.0009678014260403791   -0.004273001153775397   -5.2481280584325394e-05
-0.0010386112479599924   -0.002863517002116292   -1.8710086576971838e-05
-0.0009590499686248108   -0.004283392746606079   -5.6528731105867834e-05
-0.00021671983611629524   -0.004278435173322662   -3.312616885597697e-05
-0.0010386112479599924   -0.002863517002116292   -1.8710086576971838e-05
-0.00028162725480829144   -0.00286488733670754   -2.1560358864164203e-07
-0.0002712082369339276   -0.002876295913438577   -5.494284550192655e-06
-0.00021671983611629524   -0.004278435173322662   -3.312616885597697e-05
-0.0010386112479599924   -0.002863517002116292   -1.8710086576971838e-05
-0.0002712082369339276   -0.002876295913438577   -5.494284550192655e-06
-0.0009590499686248108   -0.004283392746606079   -5.6528731105867834e-05
-0.00021671983611629524   -0.004278435173322662   -3.312616885597697e-05
-0.00028162725480829144   -0.00286488733670754   -2.1560358864164203e-07
-0.0009678014260403791   -0.004273001153775397   -5.2481280584325394e-05
-0.00022630199151005666   -0.004266683990113916   -3.0190905243728384e-05
-0.00028162725480829144   -0.00286488733670754   -2.1560358864164203e-07
-0.0010386112479599924   -0.002863517002116292   -1.8710086576971838e-05
-0.0009678014260403791   -0.004273001153775397   -5.2481280584325394e-05
-0.001048696185625432   -0.00285363360126847   -1.2874632057848311e-05
-0.00022630199151005666   -0.004266683990113916   -3.0190905243728384e-05
-0.000976783721576171   -0.004263516145114666   -4.767829078588072e-05
-0.001048696185625432   -0.00285363360126847   -1.2874632057848311e-05
-0.0009678014260403791   -0.004273001153775397   -5.2481280584325394e-05
-0.00022630199151005666   -0.004266683990113916   -3.0190905243728384e-05
-0.001048696185625432   -0.00285363360126847   -1.2874632057848311e-05
-0.00029395101985290483   -0.0028530228426346714   6.109622282484615e-06
-0.00028162725480829144   -0.00286488733670754   -2.1560358864164203e-07
-0.00022630199151005666   -0.004266683990113916   -3.0190905243728384e-05
-0.001048696185625432   -0.00285363360126847   -1.2874632057848311e-05
-0.00028162725480829144   -0.00286488733670754   -2.1560358864164203e-07
-0.0009678014260403791   -0.004273001153775397   -5.2481280584325394e-05
-0.00022630199151005666   -0.004266683990113916   -3.0190905243728384e-05
-0.00029395101985290483   -0.0028530228426346714   6.109622282484615e-06
-0.000976783721576171   -0.004263516145114666   -4.767829078588072e-05
-0.0002372781441190204   -0.004255929698557694   -2.6288645214471288e-05
-0.00029395101985290483   -0.0028530228426346714   6.109622282484615e-06
-0.001048696185625432   -0.00285363360126847   -1.2874632057848311e-05
-0.000976783721576171   -0.004263516145114666   -4.767829078588072e-05
-0.0010592622171455587   -0.0028437040038213467   -6.351420901724549e-06
-0.0002372781441190204   -0.004255929698557694   -2.6288645214471288e-05
-0.0009863911555660276   -0.004255133050179786   -4.212381501094107e-05
-0.0010592622171455587   -0.0028437040038213467   -6.351420901724549e-06
-0.000976783721576171   -0.004263516145114666   -4.767829078588072e-05
-0.0002372781441190204   -0.004255929698557694   -2.6288645214471288e-05
-0.0010592622171455587   -0.0028437040038213467   -6.351420901724549e-06
-0.00030685820848743247   -0.002840584563164058   1.3489044384442428e-05
-0.00029395101985290483   -0.0028530228426346714   6.109622282484615e-06
-0.0002372781441190204   -0.004255929698557694   -2.6288645214471288e-05
-0.0010592622171455587   -0.0028437040038213467   -6.351420901724549e-06
-0.00029395101985290483   -0.0028530228426346714   6.109622282484615e-06
-0.000976783721576171   -0.004263516145114666   -4.767829078588072e-05
-0.0009590499686248108   -0.004283392746606079   -5.6528731105867834e-05
-0.0010289265033299967   -0.0028730844573453345   -2.3959988672746074e-05
-0.0016968658419768698   -0.004273307129662302   -7.400180266054817e-05
-0.0009678014260403791   -0.004273001153775397   -5.2481280584325394e-05
-0.0010289265033299967   -0.0028730844573453345   -2.3959988672746074e-05
-0.0017771519938923315   -0.002872110137699483   -4.033275904094304e-05
-0.0016968658419768698   -0.004273307129662302   -7.400180266054817e-05
-0.001786541495297696   -0.0028640026497426946   -3.5034887686070914e-05
-0.0009678014260403791   -0.004273001153775397   -5.2481280584325394e-05
-0.0017056686276525955   -0.004265207259273   -6.81123795491917e-05
-0.001786541495297696   -0.0028640026497426946   -3.5034887686070914e-05
-0.0016968658419768698   -0.004273307129662302   -7.400180266054817e-05
-0.0009678014260403791   -0.004273001153775397   -5.2481280584325394e-05
-0.001786541495297696   -0.0028640026497426946   -3.5034887686070914e-05
-0.0010386112479599924   -0.002863517002116292   -1.8710086576971838e-05
-0.0010289265033299967   -0.0028730844573453345   -2.3959988672746074e-05
-0.0009678014260403791   -0.004273001153775397   -5.2481280584325394e-05
-0.001786541495297696   -0.0028640026497426946   -3.5034887686070914e-05
-0.0010289265033299967   -0.0028730844573453345   -2.3959988672746074e-05
-0.0016968658419768698   -0.004273307129662302   -7.400180266054817e-05
-0.0009678014260403791   -0.004273001153775397   -5.2481280584325394e-05
-0.0010386112479599924   -0.002863517002116292   -1.8710086576971838e-05
-0.0017056686276525955   -0.004265207259273   -6.81123795491917e-05
-0.000976783721576171   -0.004263516145114666   -4.767829078588072e-05
-0.0010386112479599924   -0.002863517002116292   -1.8710086576971838e-05
-0.001786541495297696   -0.0028640026497426946   -3.5034887686070914e-05
-0.0017056686276525955   -0.004265207259273   -6.81123795491917e-05
-0.0017954936982467382   -0.0028558603209107155   -2.921408606655767e-05
-0.000976783721576171   -0.004263516145114666   -4.767829078588072e-05
-0.0017138692787119385   -0.0042580449008867115   -6.149250413926461e-05
-0.0017954936982467382   -0.0028558603209107155   -2.921408606655767e-05
-0.0017056686276525955   -0.004265207259273   -6.81123795491917e-05
-0.000976783721576171   -0.004263516145114666   -4.767829078588072e-05
-0.0017954936982467382   -0.0028558603209107155   -2.921408606655767e-05
-0.001048696185625432   -0.00285363360126847   -1.2874632057848311e-05
-0.0010386112479599924   -0.002863517002116292   -1.8710086576971838e-05
-0.000976783721576171   -0.004263516145114666   -4.767829078588072e-05
-0.0017954936982467382   -0.0028558603209107155   -2.921408606655767e-05
-0.0010386112479599924   -0.002863517002116292   -1.8710086576971838e-05
-0.0017056686276525955   -0.004265207259273   -6.81123795491917e-05
-0.000976783721576171   -0.004263516145114666   -4.767829078588072e-05
-0.001048696185625432   -0.00285363360126847   -1.2874632057848311e-05
-0.0017138692787119385   -0.0042580449008867115   -6.149250413926461e-05
-0.0009863911555660276   -0.004255133050179786   -4.212381501094107e-05
-0.001048696185625432   -0.00285363360126847   -1.2874632057848311e-05
-0.0017954936982467382   -0.0028558603209107155   -2.921408606655767e-05
-0.0017138692787119385   -0.0042580449008867115   -6.149250413926461e-05
-0.0018043631114706446   -0.0028476192886722537   -2.2889792627860743e-05
-0.0009863911555660276   -0.004255133050179786   -4.212381501094107e-05
-0.0017221003370077627   -0.00425183242593539   -5.417471789291219e-05
-0.0018043631114706446   -0.0028476192886722537   -2.2889792627860743e-05
-0.0017138692787119385   -0.0042580449008867115   -6.149250413926461e-05
-0.0009863911555660276   -0.004255133050179786   -4.212381501094107e-05
-0.0018043631114706446   -0.0028476192886722537   -2.2889792627860743e-05
-0.0010592622171455587   -0.0028437040038213467   -6.351420901724549e-06
-0.001048696185625432   -0.00285363360126847   -1.2874632057848311e-05
-0.0009863911555660276   -0.004255133050179786   -4.212381501094107e-05
-0.0018043631114706446   -0.0028476192886722537   -2.2889792627860743e-05
-0.001048696185625432   -0.00285363360126847   -1.2874632057848311e-05
-0.0017138692787119385   -0.0042580449008867115   -6.149250413926461e-05
-0.0016968658419768698   -0.004273307129662302   -7.400180266054817e-05
-0.0017771519938923315   -0.002872110137699483   -4.033275904094304e-05
-0.0024483650673593404   -0.0042593335795900605   -8.754626666500656e-05
-0.0017056686276525955   -0.004265207259273   -6.81123795491917e-05
-0.0017771519938923315   -0.002872110137699483   -4.033275904094304e-05
-0.0025414838031483796   -0.0028673581635807856   -5.345198466078925e-05
-0.0024483650673593404   -0.0042593335795900605   -8.754626666500656e-05
-0.00255043031977231   -0.0028612066685182423   -4.8169559374556934e-05
-0.0017056686276525955   -0.004265207259273   -6.81123795491917e-05
-0.002456748924681636   -0.004253637170824031   -7.983924461838847e-05
-0.00255043031977231   -0.0028612066685182423   -4.8169559374556934e-05
-0.0024483650673593404   -0.0042593335795900605   -8.754626666500656e-05
-0.0017056686276525955   -0.004265207259273   -6.81123795491917e-05
-0.00255043031977231   -0.0028612066685182423   -4.8169559374556934e-05
-0.001786541495297696   -0.0028640026497426946   -3.5034887686070914e-05
-0.0017771519938923315   -0.002872110137699483   -4.033275904094304e-05
-0.0017056686276525955   -0.004265207259273   -6.81123795491917e-05
-0.00255043031977231   -0.0028612066685182423   -4.8169559374556934e-05
-0.0017771519938923315   -0.002872110137699483   -4.033275904094304e-05
-0.0024483650673593404   -0.0042593335795900605   -8.754626666500656e-05
-0.0017056686276525955   -0.004265207259273   -6.81123795491917e-05
-0.001786541495297696   -0.0028640026497426946   -3.5034887686070914e-05
-0.002456748924681636   -0.004253637170824031   -7.983924461838847e-05
-0.0017138692787119385   -0.0042580449008867115   -6.149250413926461e-05
-0.001786541495297696   -0.0028640026497426946   -3.5034887686070914e-05
-0.00255043031977231   -0.0028612066685182423   -4.8169559374556934e-05
-0.002456748924681636   -0.004253637170824031   -7.983924461838847e-05
-0.0025578663414042337   -0.00285475742712198   -4.248391775585927e-05
-0.0017138692787119385   -0.0042580449008867115   -6.149250413926461e-05
-0.002462836728867027   -0.004248644491462432   -7.150519539029121e-05
-0.0025578663414042337   -0.00285475742712198   -4.248391775585927e-05
-0.002456748924681636   -0.004253637170824031   -7.983924461838847e-05
-0.0017138692787119385   -0.0042580449008867115   -6.149250413926461e-05
-0.0025578663414042337   -0.00285475742712198   -4.248391775585927e-05
-0.0017954936982467382   -0.0028558603209107155   -2.921408606655767e-05
-0.001786541495297696   -0.0028640026497426946   -3.5034887686070914e-05
-0.0017138692787119385   -0.0042580449008867115   -6.149250413926461e-05
-0.0025578663414042337   -0.00285475742712198   -4.248391775585927e-05
-0.001786541495297696   -0.0028640026497426946   -3.5034887686070914e-05
-0.002456748924681636   -0.004253637170824031   -7.983924461838847e-05
-0.0017138692787119385   -0.0042580449008867115   -6.149250413926461e-05
-0.0017954936982467382   -0.0028558603209107155   -2.921408606655767e-05
-0.002462836728867027   -0.004248644491462432   -7.150519539029121e-05
-0.0017221003370077627   -0.00425183242593539   -5.417471789291219e-05
-0.0017954936982467382   -0.0028558603209107155   -2.921408606655767e-05
-0.0025578663414042337   -0.00285475742712198   -4.248391775585927e-05
-0.002462836728867027   -0.004248644491462432   -7.150519539029121e-05
-0.0025648862088103307   -0.002848235066707306   -3.624980403684121e-05
-0.0017221003370077627   -0.00425183242593539   -5.417471789291219e-05
-0.002468940789758267   -0.004244675911890844   -6.239555290381945e-05
-0.0025648862088103307   -0.002848235066707306   -3.624980403684121e-05
-0.002462836728867027   -0.004248644491462432   -7.150519539029121e-05
-0.0017221003370077627   -0.00425183242593539   -5.417471789291219e-05
-0.0025648862088103307   -0.002848235066707306   -3.624980403684121e-05
-0.0018043631114706446   -0.0028476192886722537   -2.2889792627860743e-05
-0.0017954936982467382   -0.0028558603209107155   -2.921408606655767e-05
-0.0017221003370077627   -0.00425183242593539   -5.417471789291219e-05
-0.0025648862088103307   -0.002848235066707306   -3.624980403684121e-05
-0.0017954936982467382   -0.0028558603209107155   -2.921408606655767e-05
-0.002462836728867027   -0.004248644491462432   -7.150519539029121e-05
-0.0024483650673593404   -0.0042593335795900605   -8.754626666500656e-05
-0.0025414838031483796   -0.0028673581635807856   -5.345198466078925e-05
-0.003247467822910621   -0.004242236235349667   -9.68132301776273e-05
-0.002456748924681636   -0.004253637170824031   -7.983924461838847e-05
-0.0025414838031483796   -0.0028673581635807856   -5.345198466078925e-05
-0.0033452238768001104   -0.0028591143660458927   -6.213256102487667e-05
-0.003247467822910621   -0.004242236235349667   -9.68132301776273e-05
-0.003350014414419272   -0.002854399257576665   -5.77081829260875e-05
-0.002456748924681636   -0.004253637170824031   -7.983924461838847e-05
-0.003247202891818004   -0.004238130299440741   -8.780889984842319e-05
-0.003350014414419272   -0.002854399257576665   -5.77081829260875e-05
-0.003247467822910621   -0.004242236235349667   -9.68132301776273e-05
-0.002456748924681636   -0.004253637170824031   -7.983924461838847e-05
-0.003350014414419272   -0.002854399257576665   -5.77081829260875e-05
-0.00255043031977231   -0.0028612066685182423   -4.8169559374556934e-05
-0.0025414838031483796   -0.0028673581635807856   -5.345198466078925e-05
-0.002456748924681636   -0.004253637170824031   -7.983924461838847e-05
-0.003350014414419272   -0.002854399257576665   -5.77081829260875e-05
-0.0025414838031483796   -0.0028673581635807856   -5.345198466078925e-05
-0.003247467822910621   -0.004242236235349667   -9.68132301776273e-05
-0.002456748924681636   -0.004253637170824031   -7.983924461838847e-05
-0.00255043031977231   -0.0028612066685182423   -4.8169559374556934e-05
-0.003247202891818004   -0.004238130299440741   -8.780889984842319e-05
-0.002462836728867027   -0.004248644491462432   -7.150519539029121e-05
-0.00255043031977231   -0.0028612066685182423   -4.8169559374556934e-05
-0.003350014414419272   -0.002854399257576665   -5.77081829260875e-05
-0.003247202891818004   -0.004238130299440741   -8.780889984842319e-05
-0.0033543953231116694   -0.002848876114381437   -5.235963841575125e-05
-0.002462836728867027   -0.004248644491462432   -7.150519539029121e-05
-0.003247188711945173   -0.004234258823916593   -7.756142424044318e-05
-0.0033543953231116694   -0.002848876114381437   -5.235963841575125e-05
-0.003247202891818004   -0.004238130299440741   -8.780889984842319e-05
-0.002462836728867027   -0.004248644491462432   -7.150519539029121e-05
-0.0033543953231116694   -0.002848876114381437   -5.235963841575125e-05
-0.0025578663414042337   -0.00285475742712198   -4.248391775585927e-05
-0.00255043031977231   -0.0028612066685182423   -4.8169559374556934e-05
-0.002462836728867027   -0.004248644491462432   -7.150519539029121e-05
-0.0033543953231116694   -0.002848876114381437   -5.235963841575125e-05
-0.00255043031977231   -0.0028612066685182423   -4.8169559374556934e-05
-0.003247202891818004   -0.004238130299440741   -8.780889984842319e-05
-0.002462836728867027   -0.004248644491462432   -7.150519539029121e-05
-0.0025578663414042337   -0.00285475742712198   -4.248391775585927e-05
-0.003247188711945173   -0.004234258823916593   -7.756142424044318e-05
-0.002468940789758267   -0.004244675911890844   -6.239555290381945e-05
-0.0025578663414042337   -0.00285475742712198   -4.248391775585927e-05
-0.0033543953231116694   -0.002848876114381437   -5.235963841575125e-05
-0.003247188711945173   -0.004234258823916593   -7.756142424044318e-05
-0.0033556546906875354   -0.002844368500491101   -4.628171746521296e-05
-0.002468940789758267   -0.004244675911890844   -6.239555290381945e-05
-0.0032422605006310035   -0.004233007382434921   -6.620725211111097e-05
-0.0033556546906875354   -0.002844368500491101   -4.628171746521296e-05
-0.003247188711945173   -0.004234258823916593   -7.756142424044318e-05
-0.002468940789758267   -0.004244675911890844   -6.239555290381945e-05
-0.0033556546906875354   -0.002844368500491101   -4.628171746521296e-05
-0.0025648862088103307   -0.002848235066707306   -3.624980403684121e-05
-0.0025578663414042337   -0.00285475742712198   -4.248391775585927e-05
-0.002468940789758267   -0.004244675911890844   -6.239555290381945e-05
-0.0033556546906875354   -0.002844368500491101   -4.628171746521296e-05
-0.0025578663414042337   -0.00285475742712198   -4.248391775585927e-05
-0.003247188711945173   -0.004234258823916593   -7.756142424044318e-05
0.0005359866156232327   -0.0028884839105695723   1.4192914481539358e-05
0.0003835131561158575   -0.0014658857349447835   1.6188459979985397e-05
-0.0002712082369339276   -0.002876295913438577   -5.494284550192655e-06
0.000520391855414306   -0.0028741872870075335   2.0066612341925603e-05
0.0003835131561158575   -0.0014658857349447835   1.6188459979985397e-05
-0.0003788733435002736   -0.0014493573616674094   1.2308322887449835e-05
-0.0002712082369339276   -0.002876295913438577   -5.494284550192655e-06
-0.00038956953776909774   -0.0014448428046116568   2.0152527131091147e-05
0.000520391855414306   -0.0028741872870075335   2.0066612341925603e-05
-0.00028162725480829144   -0.00286488733670754   -2.1560358864164203e-07
-0.00038956953776909774   -0.0014448428046116568   2.0152527131091147e-05
-0.0002712082369339276   -0.002876295913438577   -5.494284550192655e-06
0.000520391855414306   -0.0028741872870075335   2.0066612341925603e-05
-0.00038956953776909774   -0.0014448428046116568   2.0152527131091147e-05
0.0003498000397916305   -0.0014501288043786466   3.5113328944769577e-05
0.0003835131561158575   -0.0014658857349447835   1.6188459979985397e-05
0.000520391855414306   -0.0028741872870075335   2.0066612341925603e-05
-0.00038956953776909774   -0.0014448428046116568   2.0152527131091147e-05
0.0003835131561158575   -0.0014658857349447835   1.6188459979985397e-05
-0.0002712082369339276   -0.002876295913438577   -5.494284550192655e-06
0.000520391855414306   -0.0028741872870075335   2.0066612341925603e-05
0.0003498000397916305   -0.0014501288043786466   3.5113328944769577e-05
-0.00028162725480829144   -0.00286488733670754   -2.1560358864164203e-07
0.0005022629266020769   -0.0028604140071822656   2.9133862229564087e-05
0.0003498000397916305   -0.0014501288043786466   3.5113328944769577e-05
-0.00038956953776909774   -0.0014448428046116568   2.0152527131091147e-05
-0.00028162725480829144   -0.00286488733670754   -2.1560358864164203e-07
-0.0004041999495378779   -0.0014348638533771497   2.9842623721314773e-05
0.0005022629266020769   -0.0028604140071822656   2.9133862229564087e-05
-0.00029395101985290483   -0.0028530228426346714   6.109622282484615e-06
-0.0004041999495378779   -0.0014348638533771497   2.9842623721314773e-05
-0.00028162725480829144   -0.00286488733670754   -2.1560358864164203e-07
0.0005022629266020769   -0.0028604140071822656   2.9133862229564087e-05
-0.0004041999495378779   -0.0014348638533771497   2.9842623721314773e-05
0.0003303143260002722   -0.001438156534297259   4.891715115700649e-05
0.0003498000397916305   -0.0014501288043786466   3.5113328944769577e-05
0.0005022629266020769   -0.0028604140071822656   2.9133862229564087e-05
-0.0004041999495378779   -0.0014348638533771497   2.9842623721314773e-05
0.0003498000397916305   -0.0014501288043786466   3.5113328944769577e-05
-0.00028162725480829144   -0.00286488733670754   -2.1560358864164203e-07
0.0005022629266020769   -0.0028604140071822656   2.9133862229564087e-05
0.0003303143260002722   -0.001438156534297259   4.891715115700649e-05
-0.00029395101985290483   -0.0028530228426346714   6.109622282484615e-06
0.00048004364650107315   -0.002843329419276644   3.9220734256101904e-05
0.0003303143260002722   -0.001438156534297259   4.891715115700649e-05
-0.0004041999495378779   -0.0014348638533771497   2.9842623721314773e-05
-0.00029395101985290483   -0.0028530228426346714   6.109622282484615e-06
-0.00041675209279549324   -0.0014244826353518687   3.8338089031704e-05
0.00048004364650107315   -0.002843329419276644   3.9220734256101904e-05
-0.00030685820848743247   -0.002840584563164058   1.3489044384442428e-05
-0.00041675209279549324   -0.0014244826353518687   3.8338089031704e-05
-0.00029395101985290483   -0.0028530228426346714   6.109622282484615e-06
0.00048004364650107315   -0.002843329419276644   3.9220734256101904e-05
-0.00041675209279549324   -0.0014244826353518687   3.8338089031704e-05
0.00030492944983315337   -0.0014190027412668102   6.48728389173105e-05
0.0003303143260002722   -0.001438156534297259   4.891715115700649e-05
0.00048004364650107315   -0.002843329419276644   3.9220734256101904e-05
-0.00041675209279549324   -0.0014244826353518687   3.8338089031704e-05
0.0003303143260002722   -0.001438156534297259   4.891715115700649e-05
-0.00029395101985290483   -0.0028530228426346714   6.109622282484615e-06
-0.0002712082369339276   -0.002876295913438577   -5.494284550192655e-06
-0.0003788733435002736   -0.0014493573616674094   1.2308322887449835e-05
-0.0010289265033299967   -0.0028730844573453345   -2.3959988672746074e-05
-0.00028162725480829144   -0.00286488733670754   -2.1560358864164203e-07
-0.0003788733435002736   -0.0014493573616674094   1.2308322887449835e-05
-0.0010972612092017618   -0.0014725551090912087   -1.0787422647443632e-06
-0.0010289265033299967   -0.0028730844573453345   -2.3959988672746074e-05
-0.001107618274991833   -0.0014642862208010786   4.6848043860602275e-06
-0.00028162725480829144   -0.00286488733670754   -2.1560358864164203e-07
-0.0010386112479599924   -0.002863517002116292   -1.8710086576971838e-05
-0.001107618274991833   -0.0014642862208010786   4.6848043860602275e-06
-0.0010289265033299967   -0.0028730844573453345   -2.3959988672746074e-05
-0.00028162725480829144   -0.00286488733670754   -2.1560358864164203e-07
-0.001107618274991833   -0.0014642862208010786   4.6848043860602275e-06
-0.00038956953776909774   -0.0014448428046116568   2.0152527131091147e-05
-0.0003788733435002736   -0.0014493573616674094   1.2308322887449835e-05
-0.00028162725480829144   -0.00286488733670754   -2.1560358864164203e-07
-0.001107618274991833   -0.0014642862208010786   4.6848043860602275e-06
-0.0003788733435002736   -0.0014493573616674094   1.2308322887449835e-05
-0.0010289265033299967   -0.0028730844573453345   -2.3959988672746074e-05
-0.00028162725480829144   -0.00286488733670754   -2.1560358864164203e-07
-0.00038956953776909774   -0.0014448428046116568   2.0152527131091147e-05
-0.0010386112479599924   -0.002863517002116292   -1.8710086576971838e-05
-0.00029395101985290483   -0.0028530228426346714   6.109622282484615e-06
-0.00038956953776909774   -0.0014448428046116568   2.0152527131091147e-05
-0.001107618274991833   -0.0014642862208010786   4.6848043860602275e-06
-0.0010386112479599924   -0.002863517002116292   -1.8710086576971838e-05
-0.00111873491692315   -0.0014545977900967868   1.0923079465630296e-05
-0.00029395101985290483   -0.0028530228426346714   6.109622282484615e-06
-0.001048696185625432   -0.00285363360126847   -1.2874632057848311e-05
-0.00111873491692315   -0.0014545977900967868   1.0923079465630296e-05
-0.0010386112479599924   -0.002863517002116292   -1.8710086576971838e-05
-0.00029395101985290483   -0.0028530228426346714   6.109622282484615e-06
-0.00111873491692315   -0.0014545977900967868   1.0923079465630296e-05
-0.0004041999495378779   -0.0014348638533771497   2.9842623721314773e-05
-0.00038956953776909774   -0.0014448428046116568   2.0152527131091147e-05
-0.00029395101985290483   -0.0028530228426346714   6.109622282484615e-06
-0.00111873491692315   -0.0014545977900967868   1.0923079465630296e-05
-0.00038956953776909774   -0.0014448428046116568   2.0152527131091147e-05
-0.0010386112479599924   -0.002863517002116292   -1.8710086576971838e-05
-0.00029395101985290483   -0.0028530228426346714   6.109622282484615e-06
-0.0004041999495378779   -0.0014348638533771497   2.9842623721314773e-05
-0.001048696185625432   -0.00285363360126847   -1.2874632057848311e-05
-0.00030685820848743247   -0.002840584563164058   1.3489044384442428e-05
-0.0004041999495378779   -0.0014348638533771497   2.9842623721314773e-05
-0.00111873491692315   -0.0014545977900967868   1.0923079465630296e-05
-0.001048696185625432   -0.00285363360126847   -1.2874632057848311e-05
-0.001129529830208624   -0.0014439751139942551   1.788538562042535e-05
-0.00030685820848743247   -0.002840584563164058   1.3489044384442428e-05
-0.0010592622171455587   -0.0028437040038213467   -6.351420901724549e-06
-0.001129529830208624   -0.0014439751139942551   1.788538562042535e-05
-0.001048696185625432   -0.00285363360126847   -1.2874632057848311e-05
-0.00030685820848743247   -0.002840584563164058   1.3489044384442428e-05
-0.001129529830208624   -0.0014439751139942551   1.788538562042535e-05
-0.00041675209279549324   -0.0014244826353518687   3.8338089031704e-05
-0.0004041999495378779   -0.0014348638533771497   2.9842623721314773e-05
-0.00030685820848743247   -0.002840584563164058   1.3489044384442428e-05
-0.001129529830208624   -0.0014439751139942551   1.788538562042535e-05
-0.0004041999495378779   -0.0014348638533771497   2.9842623721314773e-05
-0.001048696185625432   -0.00285363360126847   -1.2874632057848311e-05
-0.0010289265033299967   -0.0028730844573453345   -2.3959988672746074e-05
-0.0010972612092017618   -0.0014725551090912087   -1.0787422647443632e-06
-0.0017771519938923315   -0.002872110137699483   -4.033275904094304e-05
-0.0010386112479599924   -0.002863517002116292   -1.8710086576971838e-05
-0.0010972612092017618   -0.0014725551090912087   -1.0787422647443632e-06
-0.0018301361211160033   -0.0014907263360538973   -1.680049109618506e-05
-0.0017771519938923315   -0.002872110137699483   -4.033275904094304e-05
-0.0018396613125036105   -0.0014821345675991812   -1.2163210241816446e-05
-0.0010386112479599924   -0.002863517002116292   -1.8710086576971838e-05
-0.001786541495297696   -0.0028640026497426946   -3.5034887686070914e-05
-0.0018396613125036105   -0.0014821345675991812   -1.2163210241816446e-05
-0.0017771519938923315   -0.002872110137699483   -4.033275904094304e-05
-0.0010386112479599924   -0.002863517002116292   -1.8710086576971838e-05
-0.0018396613125036105   -0.0014821345675991812   -1.2163210241816446e-05
-0.001107618274991833   -0.0014642862208010786   4.6848043860602275e-06
-0.0010972612092017618   -0.0014725551090912087   -1.0787422647443632e-06
-0.0010386112479599924   -0.002863517002116292   -1.8710086576971838e-05
-0.0018396613125036105   -0.0014821345675991812   -1.2163210241816446e-05
-0.0010972612092017618   -0.0014725551090912087   -1.0787422647443632e-06
-0.0017771519938923315   -0.002872110137699483   -4.033275904094304e-05
-0.0010386112479599924   -0.002863517002116292   -1.8710086576971838e-05
-0.001107618274991833   -0.0014642862208010786   4.6848043860602275e-06
-0.001786541495297696   -0.0028640026497426946   -3.5034887686070914e-05
-0.001048696185625432   -0.00285363360126847   -1.2874632057848311e-05
-0.001107618274991833   -0.0014642862208010786   4.6848043860602275e-06
-0.0018396613125036105   -0.0014821345675991812   -1.2163210241816446e-05
-0.001786541495297696   -0.0028640026497426946   -3.5034887686070914e-05
-0.0018489351746826942   -0.0014729042864570817   -7.441673988257395e-06
-0.001048696185625432   -0.00285363360126847   -1.2874632057848311e-05
-0.0017954936982467382   -0.0028558603209107155   -2.921408606655767e-05
-0.0018489351746826942   -0.0014729042864570817   -7.441673988257395e-06
-0.001786541495297696   -0.0028640026497426946   -3.5034887686070914e-05
-0.001048696185625432   -0.00285363360126847   -1.2874632057848311e-05
-0.0018489351746826942   -0.0014729042864570817   -7.441673988257395e-06
-0.00111873491692315   -0.0014545977900967868   1.0923079465630296e-05
-0.001107618274991833   -0.0014642862208010786   4.6848043860602275e-06
-0.001048696185625432   -0.00285363360126847   -1.2874632057848311e-05
-0.0018489351746826942   -0.0014729042864570817   -7.441673988257395e-06
-0.001107618274991833   -0.0014642862208010786   4.6848043860602275e-06
-0.001786541495297696   -0.0028640026497426946   -3.5034887686070914e-05
-0.001048696185625432   -0.00285363360126847   -1.2874632057848311e-05
-0.00111873491692315   -0.0014545977900967868   1.0923079465630296e-05
-0.0017954936982467382   -0.0028558603209107155   -2.921408606655767e-05
-0.0010592622171455587   -0.0028437040038213467   -6.351420901724549e-06
-0.00111873491692315   -0.0014545977900967868   1.0923079465630296e-05
-0.0018489351746826942   -0.0014729042864570817   -7.441673988257395e-06
-0.0017954936982467382   -0.0028558603209107155   -2.921408606655767e-05
-0.001857611851443283   -0.001462788688554982   -2.196088007879495e-06
-0.0010592622171455587   -0.0028437040038213467   -6.351420901724549e-06
-0.0018043631114706446   -0.0028476192886722537   -2.2889792627860743e-05
-0.001857611851443283   -0.001462788688554982   -2.196088007879495e-06
-0.0017954936982467382   -0.0028558603209107155   -2.921408606655767e-05
-0.0010592622171455587   -0.0028437040038213467   -6.351420901724549e-06
-0.001857611851443283   -0.001462788688554982   -2.196088007879495e-06
-0.001129529830208624   -0.0014439751139942551   1.788538562042535e-05
-0.00111873491692315   -0.0014545977900967868   1.0923079465630296e-05
-0.0010592622171455587   -0.0028437040038213467   -6.351420901724549e-06
-0.001857611851443283   -0.001462788688554982   -2.196088007879495e-06
-0.00111873491692315   -0.0014545977900967868   1.0923079465630296e-05
-0.0017954936982467382   -0.0028558603209107155   -2.921408606655767e-05
-0.0017771519938923315   -0.002872110137699483   -4.033275904094304e-05
-0.0018301361211160033   -0.0014907263360538973   -1.680049109618506e-05
-0.0025414838031483796   -0.0028673581635807856   -5.345198466078925e-05
-0.001786541495297696   -0.0028640026497426946   -3.5034887686070914e-05
-0.0018301361211160033   -0.0014907263360538973   -1.680049109618506e-05
-0.002588846599363902   -0.0014983467215396516   -3.110530777185145e-05
-0.0025414838031483796   -0.0028673581635807856   -5.345198466078925e-05
-0.002597476982903057   -0.001490901333477951   -2.7582910108462803e-05
-0.001786541495297696   -0.0028640026497426946   -3.5034887686070914e-05
-0.00255043031977231   -0.0028612066685182423   -4.8169559374556934e-05
-0.002597476982903057   -0.001490901333477951   -2.7582910108462803e-05
-0.0025414838031483796   -0.0028673581635807856   -5.345198466078925e-05
-0.001786541495297696   -0.0028640026497426946   -3.5034887686070914e-05
-0.002597476982903057   -0.001490901333477951   -2.7582910108462803e-05
-0.0018396613125036105   -0.0014821345675991812   -1.2163210241816446e-05
-0.0018301361211160033   -0.0014907263360538973   -1.680049109618506e-05
-0.001786541495297696   -0.0028640026497426946   -3.5034887686070914e-05
-0.002597476982903057   -0.001490901333477951   -2.7582910108462803e-05
-0.0018301361211160033   -0.0014907263360538973   -1.680049109618506e-05
-0.0025414838031483796   -0.0028673581635807856   -5.345198466078925e-05
-0.001786541495297696   -0.0028640026497426946   -3.5034887686070914e-05
-0.0018396613125036105   -0.0014821345675991812   -1.2163210241816446e-05
-0.00255043031977231   -0.0028612066685182423   -4.8169559374556934e-05
-0.0017954936982467382   -0.0028558603209107155   -2.921408606655767e-05
-0.0018396613125036105   -0.0014821345675991812   -1.2163210241816446e-05
-0.002597476982903057   -0.001490901333477951   -2.7582910108462803e-05
-0.00255043031977231   -0.0028612066685182423   -4.8169559374556934e-05
-0.002605177458623616   -0.0014825797694157363   -2.4069582711177917e-05
-0.0017954936982467382   -0.0028558603209107155   -2.921408606655767e-05
-0.0025578663414042337   -0.00285475742712198   -4.248391775585927e-05
-0.002605177458623616   -0.0014825797694157363   -2.4069582711177917e-05
-0.00255043031977231   -0.0028612066685182423   -4.8169559374556934e-05
-0.0017954936982467382   -0.0028558603209107155   -2.921408606655767e-05
-0.002605177458623616   -0.0014825797694157363   -2.4069582711177917e-05
-0.0018489351746826942   -0.0014729042864570817   -7.441673988257395e-06
-0.0018396613125036105   -0.0014821345675991812   -1.2163210241816446e-05
-0.0017954936982467382   -0.0028558603209107155   -2.921408606655767e-05
-0.002605177458623616   -0.0014825797694157363   -2.4069582711177917e-05
-0.0018396613125036105   -0.0014821345675991812   -1.2163210241816446e-05
-0.00255043031977231   -0.0028612066685182423   -4.8169559374556934e-05
-0.0017954936982467382   -0.0028558603209107155   -2.921408606655767e-05
-0.0018489351746826942   -0.0014729042864570817   -7.441673988257395e-06
-0.0025578663414042337   -0.00285475742712198   -4.248391775585927e-05
-0.0018043631114706446   -0.0028476192886722537   -2.2889792627860743e-05
-0.0018489351746826942   -0.0014729042864570817   -7.441673988257395e-06
-0.002605177458623616   -0.0014825797694157363   -2.4069582711177917e-05
-0.0025578663414042337   -0.00285475742712198   -4.248391775585927e-05
-0.00261218908160644   -0.001473617418896238   -2.0345178916536442e-05
-0.0018043631114706446   -0.0028476192886722537   -2.2889792627860743e-05
-0.0025648862088103307   -0.002848235066707306   -3.624980403684121e-05
-0.00261218908160644   -0.001473617418896238   -2.0345178916536442e-05
-0.0025578663414042337   -0.00285475742712198   -4.248391775585927e-05
-0.0018043631114706446   -0.0028476192886722537   -2.2889792627860743e-05
-0.00261218908160644   -0.001473617418896238   -2.0345178916536442e-05
-0.001857611851443283   -0.001462788688554982   -2.196088007879495e-06
-0.0018489351746826942   -0.0014729042864570817   -7.441673988257395e-06
-0.0018043631114706446   -0.0028476192886722537   -2.2889792627860743e-05
-0.00261218908160644   -0.001473617418896238   -2.0345178916536442e-05
-0.0018489351746826942   -0.0014729042864570817   -7.441673988257395e-06
-0.0025578663414042337   -0.00285475742712198   -4.248391775585927e-05
-0.0025414838031483796   -0.0028673581635807856   -5.345198466078925e-05
-0.002588846599363902   -0.0014983467215396516   -3.110530777185145e-05
-0.0033452238768001104   -0.0028591143660458927   -6.213256102487667e-05
-0.00255043031977231   -0.0028612066685182423   -4.8169559374556934e-05
-0.002588846599363902   -0.0014983467215396516   -3.110530777185145e-05
-0.003377548734079627   -0.0014989335174866373   -4.227455073666052e-05
-0.0033452238768001104   -0.0028591143660458927   -6.213256102487667e-05
-0.003384725822660004   -0.0014918308210957391   -4.0487999417657553e-05
-0.00255043031977231   -0.0028612066685182423   -4.8169559374556934e-05
-0.003350014414419272   -0.002854399257576665   -5.77081829260875e-05
-0.003384725822660004   -0.0014918308210957391   -4.0487999417657553e-05
-0.0033452238768001104   -0.0028591143660458927   -6.213256102487667e-05
-0.00255043031977231   -0.0028612066685182423   -4.8169559374556934e-05
-0.003384725822660004   -0.0014918308210957391   -4.0487999417657553e-05
-0.002597476982903057   -0.001490901333477951   -2.7582910108462803e-05
-0.002588846599363902   -0.0014983467215396516   -3.110530777185145e-05
-0.00255043031977231   -0.0028612066685182423   -4.8169559374556934e-05
-0.003384725822660004   -0.0014918308210957391   -4.0487999417657553e-05
-0.002588846599363902   -0.0014983467215396516   -3.110530777185145e-05
-0.0033452238768001104   -0.0028591143660458927   -6.213256102487667e-05
-0.00255043031977231   -0.0028612066685182423   -4.8169559374556934e-05
-0.002597476982903057   -0.001490901333477951   -2.7582910108462803e-05
-0.003350014414419272   -0.002854399257576665   -5.77081829260875e-05
-0.0025578663414042337   -0.00285475742712198   -4.248391775585927e-05
-0.002597476982903057   -0.001490901333477951   -2.7582910108462803e-05
-0.003384725822660004   -0.0014918308210957391   -4.0487999417657553e-05
-0.003350014414419272   -0.002854399257576665   -5.77081829260875e-05
-0.0033911561644492925   -0.0014839361843308062   -3.834767813457659e-05
-0.0025578663414042337   -0.00285475742712198   -4.248391775585927e-05
-0.0033543953231116694   -0.002848876114381437   -5.235963841575125e-05
-0.0033911561644492925   -0.0014839361843308062   -3.834767813457659e-05
-0.003350014414419272   -0.002854399257576665   -5.77081829260875e-05
-0.0025578663414042337   -0.00285475742712198   -4.248391775585927e-05
-0.0033911561644492925   -0.0014839361843308062   -3.834767813457659e-05
-0.002605177458623616   -0.0014825797694157363   -2.4069582711177917e-05
-0.002597476982903057   -0.001490901333477951   -2.7582910108462803e-05
-0.0025578663414042337   -0.00285475742712198   -4.248391775585927e-05
-0.0033911561644492925   -0.0014839361843308062   -3.834767813457659e-05
-0.002597476982903057   -0.001490901333477951   -2.7582910108462803e-05
-0.003350014414419272   -0.002854399257576665   -5.77081829260875e-05
-0.0025578663414042337   -0.00285475742712198   -4.248391775585927e-05
-0.002605177458623616   -0.0014825797694157363   -2.4069582711177917e-05
-0.0033543953231116694   -0.002848876114381437   -5.235963841575125e-05
-0.0025648862088103307   -0.002848235066707306   -3.624980403684121e-05
-0.002605177458623616   -0.0014825797694157363   -2.4069582711177917e-05
-0.0033911561644492925   -0.0014839361843308062   -3.834767813457659e-05
-0.0033543953231116694   -0.002848876114381437   -5.235963841575125e-05
-0.003396256778671137   -0.0014756173905827498   -3.618247472482856e-05
-0.0025648862088103307   -0.002848235066707306   -3.624980403684121e-05
-0.0033556546906875354   -0.002844368500491101   -4.628171746521296e-05
-0.003396256778671137   -0.0014756173905827498   -3.618247472482856e-05
-0.0033543953231116694   -0.002848876114381437   -5.235963841575125e-05
-0.0025648862088103307   -0.002848235066707306   -3.624980403684121e-05
-0.003396256778671137   -0.0014756173905827498   -3.618247472482856e-05
-0.00261218908160644   -0.001473617418896238   -2.0345178916536442e-05
-0.002605177458623616   -0.0014825797694157363   -2.4069582711177917e-05
-0.0025648862088103307   -0.002848235066707306   -3.624980403684121e-05
-0.003396256778671137   -0.0014756173905827498   -3.618247472482856e-05
-0.002605177458623616   -0.0014825797694157363   -2.4069582711177917e-05
-0.0033543953231116694   -0.002848876114381437   -5.235963841575125e-05
0.0003835131561158575   -0.0014658857349447835   1.6188459979985397e-05
0.0   0.0   0.0
-0.0003788733435002736   -0.0014493573616674094   1.2308322887449835e-05
0.0003498000397916305   -0.0014501288043786466   3.5113328944769577e-05
0.0   0.0   0.0
-0.00046547421693993185   -0.0001351691263726251   1.389587561930356e-07
-0.0003788733435002736   -0.0014493573616674094   1.2308322887449835e-05
-0.0004936517583107316   -0.00010849269604170175   1.7916901948985144e-05
0.0003498000397916305   -0.0014501288043786466   3.5113328944769577e-05
-0.00038956953776909774   -0.0014448428046116568   2.0152527131091147e-05
-0.0004936517583107316   -0.00010849269604170175   1.7916901948985144e-05
-0.0003788733435002736   -0.0014493573616674094   1.2308322887449835e-05
0.0003498000397916305   -0.0014501288043786466   3.5113328944769577e-05
-0.0004936517583107316   -0.00010849269604170175   1.7916901948985144e-05
0.0   0.0   0.0
0.0   0.0   0.0
0.0003498000397916305   -0.0014501288043786466   3.5113328944769577e-05
-0.0004936517583107316   -0.00010849269604170175   1.7916901948985144e-05
0.0   0.0   0.0
-0.0003788733435002736   -0.0014493573616674094   1.2308322887449835e-05
0.0003498000397916305   -0.0014501288043786466   3.5113328944769577e-05
0.0   0.0   0.0
-0.00038956953776909774   -0.0014448428046116568   2.0152527131091147e-05
0.0003303143260002722   -0.001438156534297259   4.891715115700649e-05
0.0   0.0   0.0
-0.0004936517583107316   -0.00010849269604170175   1.7916901948985144e-05
-0.00038956953776909774   -0.0014448428046116568   2.0152527131091147e-05
-0.0005118527584940199   -9.609641358549515e-05   2.8753324761139893e-05
0.0003303143260002722   -0.001438156534297259   4.891715115700649e-05
-0.0004041999495378779   -0.0014348638533771497   2.9842623721314773e-05
-0.0005118527584940199   -9.609641358549515e-05   2.8753324761139893e-05
-0.00038956953776909774   -0.0014448428046116568   2.0152527131091147e-05
0.0003303143260002722   -0.001438156534297259   4.891715115700649e-05
-0.0005118527584940199   -9.609641358549515e-05   2.8753324761139893e-05
0.0   0.0   0.0
0.0   0.0   0.0
0.0003303143260002722   -0.001438156534297259   4.891715115700649e-05
-0.0005118527584940199   -9.609641358549515e-05   2.8753324761139893e-05
0.0   0.0   0.0
-0.00038956953776909774   -0.0014448428046116568   2.0152527131091147e-05
0.0003303143260002722   -0.001438156534297259   4.891715115700649e-05
0.0   0.0   0.0
-0.0004041999495378779   -0.0014348638533771497   2.9842623721314773e-05
0.00030492944983315337   -0.0014190027412668102   6.48728389173105e-05
0.0   0.0   0.0
-0.0005118527584940199   -9.609641358549515e-05   2.8753324761139893e-05
-0.0004041999495378779   -0.0014348638533771497   2.9842623721314773e-05
-0.0005371573524487541   -7.934057155075995e-05   4.1301748029893354e-05
0.00030492944983315337   -0.0014190027412668102   6.48728389173105e-05
-0.00041675209279549324   -0.0014244826353518687   3.8338089031704e-05
-0.0005371573524487541   -7.934057155075995e-05   4.1301748029893354e-05
-0.0004041999495378779   -0.0014348638533771497   2.9842623721314773e-05
0.00030492944983315337   -0.0014190027412668102   6.48728389173105e-05
-0.0005371573524487541   -7.934057155075995e-05   4.1301748029893354e-05
0.0   0.0   0.0
0.0   0.0   0.0
0.00030492944983315337   -0.0014190027412668102   6.48728389173105e-05
-0.0005371573524487541   -7.934057155075995e-05   4.1301748029893354e-05
0.0   0.0   0.0
-0.0004041999495378779   -0.0014348638533771497   2.9842623721314773e-05
-0.0003788733435002736   -0.0014493573616674094   1.2308322887449835e-05
-0.00046547421693993185   -0.0001351691263726251   1.389587561930356e-07
-0.0010972612092017618   -0.0014725551090912087   -1.0787422647443632e-06
-0.00038956953776909774   -0.0014448428046116568   2.0152527131091147e-05
-0.00046547421693993185   -0.0001351691263726251   1.389587561930356e-07
-0.0011263867268196512   -0.00018334922979664113   6.050101709309508e-06
-0.0010972612092017618   -0.0014725551090912087   -1.0787422647443632e-06
-0.0011415859621079106   -0.00016974770477821638   1.1392886968625534e-05
-0.00038956953776909774   -0.0014448428046116568   2.0152527131091147e-05
-0.001107618274991833   -0.0014642862208010786   4.6848043860602275e-06
-0.0011415859621079106   -0.00016974770477821638   1.1392886968625534e-05
-0.0010972612092017618   -0.0014725551090912087   -1.0787422647443632e-06
-0.00038956953776909774   -0.0014448428046116568   2.0152527131091147e-05
-0.0011415859621079106   -0.00016974770477821638   1.1392886968625534e-05
-0.0004936517583107316   -0.00010849269604170175   1.7916901948985144e-05
-0.00046547421693993185   -0.0001351691263726251   1.389587561930356e-07
-0.00038956953776909774   -0.0014448428046116568   2.0152527131091147e-05
-0.0011415859621079106   -0.00016974770477821638   1.1392886968625534e-05
-0.00046547421693993185   -0.0001351691263726251   1.389587561930356e-07
-0.0010972612092017618   -0.0014725551090912087   -1.0787422647443632e-06
-0.00038956953776909774   -0.0014448428046116568   2.0152527131091147e-05
-0.0004936517583107316   -0.00010849269604170175   1.7916901948985144e-05
-0.001107618274991833   -0.0014642862208010786   4.6848043860602275e-06
-0.0004041999495378779   -0.0014348638533771497   2.9842623721314773e-05
-0.0004936517583107316   -0.00010849269604170175   1.7916901948985144e-05
-0.0011415859621079106   -0.00016974770477821638   1.1392886968625534e-05
-0.001107618274991833   -0.0014642862208010786   4.6848043860602275e-06
-0.0011569610628718676   -0.0001535729042568139   2.036743928171881e-05
-0.0004041999495378779   -0.0014348638533771497   2.9842623721314773e-05
-0.00111873491692315   -0.0014545977900967868   1.0923079465630296e-05
-0.0011569610628718676   -0.0001535729042568139   2.036743928171881e-05
-0.001107618274991833   -0.0014642862208010786   4.6848043860602275e-06
-0.0004041999495378779   -0.0014348638533771497   2.9842623721314773e-05
-0.0011569610628718676   -0.0001535729042568139   2.036743928171881e-05
-0.0005118527584940199   -9.609641358549515e-05   2.8753324761139893e-05
-0.0004936517583107316   -0.00010849269604170175   1.7916901948985144e-05
-0.0004041999495378779   -0.0014348638533771497   2.9842623721314773e-05
-0.0011569610628718676   -0.0001535729042568139   2.036743928171881e-05
-0.0004936517583107316   -0.00010849269604170175   1.7916901948985144e-05
-0.001107618274991833   -0.0014642862208010786   4.6848043860602275e-06
-0.0004041999495378779   -0.0014348638533771497   2.9842623721314773e-05
-0.0005118527584940199   -9.609641358549515e-05   2.8753324761139893e-05
-0.00111873491692315   -0.0014545977900967868   1.0923079465630296e-05
-0.00041675209279549324   -0.0014244826353518687   3.8338089031704e-05
-0.0005118527584940199   -9.609641358549515e-05   2.8753324761139893e-05
-0.0011569610628718676   -0.0001535729042568139   2.036743928171881e-05
-0.00111873491692315   -0.0014545977900967868   1.0923079465630296e-05
-0.0011749225532959597   -0.0001342794724416546   2.9332599580602747e-05
-0.00041675209279549324   -0.0014244826353518687   3.8338089031704e-05
-0.001129529830208624   -0.0014439751139942551   1.788538562042535e-05
-0.0011749225532959597   -0.0001342794724416546   2.9332599580602747e-05
-0.00111873491692315   -0.0014545977900967868   1.0923079465630296e-05
-0.00041675209279549324   -0.0014244826353518687   3.8338089031704e-05
-0.0011749225532959597   -0.0001342794724416546   2.9332599580602747e-05
-0.0005371573524487541   -7.934057155075995e-05   4.1301748029893354e-05
-0.0005118527584940199   -9.609641358549515e-05   2.8753324761139893e-05
-0.00041675209279549324   -0.0014244826353518687   3.8338089031704e-05
-0.0011749225532959597   -0.0001342794724416546   2.9332599580602747e-05
-0.0005118527584940199   -9.609641358549515e-05   2.8753324761139893e-05
-0.00111873491692315   -0.0014545977900967868   1.0923079465630296e-05
-0.0010972612092017618   -0.0014725551090912087   -1.0787422647443632e-06
-0.0011263867268196512   -0.00018334922979664113   6.050101709309508e-06
-0.0018301361211160033   -0.0014907263360538973   -1.680049109618506e-05
-0.001107618274991833   -0.0014642862208010786   4.6848043860602275e-06
-0.0011263867268196512   -0.00018334922979664113   6.050101709309508e-06
-0.0018470301338353373   -0.00020036006553214626   -1.711310025463525e-06
-0.0018301361211160033   -0.0014907263360538973   -1.680049109618506e-05
-0.001856643307965205   -0.0001908482721404499   1.295177905033063e-07
-0.001107618274991833   -0.0014642862208010786   4.6848043860602275e-06
-0.0018396613125036105   -0.0014821345675991812   -1.2163210241816446e-05
-0.001856643307965205   -0.0001908482721404499   1.295177905033063e-07
-0.0018301361211160033   -0.0014907263360538973   -1.680049109618506e-05
-0.001107618274991833   -0.0014642862208010786   4.6848043860602275e-06
-0.001856643307965205   -0.0001908482721404499   1.295177905033063e-07
-0.0011415859621079106   -0.00016974770477821638   1.1392886968625534e-05
-0.0011263867268196512   -0.00018334922979664113   6.050101709309508e-06
-0.001107618274991833   -0.0014642862208010786   4.6848043860602275e-06
-0.001856643307965205   -0.0001908482721404499   1.295177905033063e-07
-0.0011263867268196512   -0.00018334922979664113   6.050101709309508e-06
-0.0018301361211160033   -0.0014907263360538973   -1.680049109618506e-05
-0.001107618274991833   -0.0014642862208010786   4.6848043860602275e-06
-0.0011415859621079106   -0.00016974770477821638   1.1392886968625534e-05
-0.0018396613125036105   -0.0014821345675991812   -1.2163210241816446e-05
-0.00111873491692315   -0.0014545977900967868   1.0923079465630296e-05
-0.0011415859621079106   -0.00016974770477821638   1.1392886968625534e-05
-0.001856643307965205   -0.0001908482721404499   1.295177905033063e-07
-0.0018396613125036105   -0.0014821345675991812   -1.2163210241816446e-05
-0.001866709349308937   -0.00017926340357942932   3.15313634925657e-06
-0.00111873491692315   -0.0014545977900967868   1.0923079465630296e-05
-0.0018489351746826942   -0.0014729042864570817   -7.441673988257395e-06
-0.001866709349308937   -0.00017926340357942932   3.15313634925657e-06
-0.0018396613125036105   -0.0014821345675991812   -1.2163210241816446e-05
-0.00111873491692315   -0.0014545977900967868   1.0923079465630296e-05
-0.001866709349308937   -0.00017926340357942932   3.15313634925657e-06
-0.0011569610628718676   -0.0001535729042568139   2.036743928171881e-05
-0.0011415859621079106   -0.00016974770477821638   1.1392886968625534e-05
-0.00111873491692315   -0.0014545977900967868   1.0923079465630296e-05
-0.001866709349308937   -0.00017926340357942932   3.15313634925657e-06
-0.0011415859621079106   -0.00016974770477821638   1.1392886968625534e-05
-0.0018396613125036105   -0.0014821345675991812   -1.2163210241816446e-05
-0.00111873491692315   -0.0014545977900967868   1.0923079465630296e-05
-0.0011569610628718676   -0.0001535729042568139   2.036743928171881e-05
-0.0018489351746826942   -0.0014729042864570817   -7.441673988257395e-06
-0.001129529830208624   -0.0014439751139942551   1.788538562042535e-05
-0.0011569610628718676   -0.0001535729042568139   2.036743928171881e-05
-0.001866709349308937   -0.00017926340357942932   3.15313634925657e-06
-0.0018489351746826942   -0.0014729042864570817   -7.441673988257395e-06
-0.001877034685180697   -0.00016426303461295147   7.1562908728096495e-06
-0.001129529830208624   -0.0014439751139942551   1.788538562042535e-05
-0.001857611851443283   -0.001462788688554982   -2.196088007879495e-06
-0.001877034685180697   -0.00016426303461295147   7.1562908728096495e-06
-0.0018489351746826942   -0.0014729042864570817   -7.441673988257395e-06
-0.001129529830208624   -0.0014439751139942551   1.788538562042535e-05
-0.001877034685180697   -0.00016426303461295147   7.1562908728096495e-06
-0.0011749225532959597   -0.0001342794724416546   2.9332599580602747e-05
-0.0011569610628718676   -0.0001535729042568139   2.036743928171881e-05
-0.001129529830208624   -0.0014439751139942551   1.788538562042535e-05
-0.001877034685180697   -0.00016426303461295147   7.1562908728096495e-06
-0.0011569610628718676   -0.0001535729042568139   2.036743928171881e-05
-0.0018489351746826942   -0.0014729042864570817   -7.441673988257395e-06
-0.0018301361211160033   -0.0014907263360538973   -1.680049109618506e-05
-0.0018470301338353373   -0.00020036006553214626   -1.711310025463525e-06
-0.002588846599363902   -0.0014983467215396516   -3.110530777185145e-05
-0.0018396613125036105   -0.0014821345675991812   -1.2163210241816446e-05
-0.0018470301338353373   -0.00020036006553214626   -1.711310025463525e-06
-0.0026028431758493053   -0.0002014867285079922   -1.5685582604131696e-05
-0.002588846599363902   -0.0014983467215396516   -3.110530777185145e-05
-0.0026094375453066107   -0.00019375664277830674   -1.4842944333549511e-05
-0.0018396613125036105   -0.0014821345675991812   -1.2163210241816446e-05
-0.002597476982903057   -0.001490901333477951   -2.7582910108462803e-05
-0.0026094375453066107   -0.00019375664277830674   -1.4842944333549511e-05
-0.002588846599363902   -0.0014983467215396516   -3.110530777185145e-05
-0.0018396613125036105   -0.0014821345675991812   -1.2163210241816446e-05
-0.0026094375453066107   -0.00019375664277830674   -1.4842944333549511e-05
-0.001856643307965205   -0.0001908482721404499   1.295177905033063e-07
-0.0018470301338353373   -0.00020036006553214626   -1.711310025463525e-06
-0.0018396613125036105   -0.0014821345675991812   -1.2163210241816446e-05
-0.0026094375453066107   -0.00019375664277830674   -1.4842944333549511e-05
-0.0018470301338353373   -0.00020036006553214626   -1.711310025463525e-06
-0.002588846599363902   -0.0014983467215396516   -3.110530777185145e-05
-0.0018396613125036105   -0.0014821345675991812   -1.2163210241816446e-05
-0.001856643307965205   -0.0001908482721404499   1.295177905033063e-07
-0.002597476982903057   -0.001490901333477951   -2.7582910108462803e-05
-0.0018489351746826942   -0.0014729042864570817   -7.441673988257395e-06
-0.001856643307965205   -0.0001908482721404499   1.295177905033063e-07
-0.0026094375453066107   -0.00019375664277830674   -1.4842944333549511e-05
-0.002597476982903057   -0.001490901333477951   -2.7582910108462803e-05
-0.0026162935293077916   -0.00018462734867378007   -1.3952236533569323e-05
-0.0018489351746826942   -0.0014729042864570817   -7.441673988257395e-06
-0.002605177458623616   -0.0014825797694157363   -2.4069582711177917e-05
-0.0026162935293077916   -0.00018462734867378007   -1.3952236533569323e-05
-0.002597476982903057   -0.001490901333477951   -2.7582910108462803e-05
-0.0018489351746826942   -0.0014729042864570817   -7.441673988257395e-06
-0.0026162935293077916   -0.00018462734867378007   -1.3952236533569323e-05
-0.001866709349308937   -0.00017926340357942932   3.15313634925657e-06
-0.001856643307965205   -0.0001908482721404499   1.295177905033063e-07
-0.0018489351746826942   -0.0014729042864570817   -7.441673988257395e-06
-0.0026162935293077916   -0.00018462734867378007   -1.3952236533569323e-05
-0.001856643307965205   -0.0001908482721404499   1.295177905033063e-07
-0.002597476982903057   -0.001490901333477951   -2.7582910108462803e-05
-0.0018489351746826942   -0.0014729042864570817   -7.441673988257395e-06
-0.001866709349308937   -0.00017926340357942932   3.15313634925657e-06
-0.002605177458623616   -0.0014825797694157363   -2.4069582711177917e-05
-0.001857611851443283   -0.001462788688554982   -2.196088007879495e-06
-0.001866709349308937   -0.00017926340357942932   3.15313634925657e-06
-0.0026162935293077916   -0.00018462734867378007   -1.3952236533569323e-05
-0.002605177458623616   -0.0014825797694157363   -2.4069582711177917e-05
-0.0026220491454020485   -0.00017420852740251757   -1.301383760157753e-05
-0.001857611851443283   -0.001462788688554982   -2.196088007879495e-06
-0.00261218908160644   -0.001473617418896238   -2.0345178916536442e-05
-0.0026220491454020485   -0.00017420852740251757   -1.301383760157753e-05
-0.002605177458623616   -0.0014825797694157363   -2.4069582711177917e-05
-0.001857611851443283   -0.001462788688554982   -2.196088007879495e-06
-0.0026220491454020485   -0.00017420852740251757   -1.301383760157753e-05
-0.001877034685180697   -0.00016426303461295147   7.1562908728096495e-06
-0.001866709349308937   -0.00017926340357942932   3.15313634925657e-06
-0.001857611851443283   -0.001462788688554982   -2.196088007879495e-06
-0.0026220491454020485   -0.00017420852740251757   -1.301383760157753e-05
-0.001866709349308937   -0.00017926340357942932   3.15313634925657e-06
-0.002605177458623616   -0.0014825797694157363   -2.4069582711177917e-05
-0.002588846599363902   -0.0014983467215396516   -3.110530777185145e-05
-0.0026028431758493053   -0.0002014867285079922   -1.5685582604131696e-05
-0.003377548734079627   -0.0014989335174866373   -4.227455073666052e-05
-0.002597476982903057   -0.001490901333477951   -2.7582910108462803e-05
-0.0026028431758493053   -0.0002014867285079922   -1.5685582604131696e-05
-0.0033816860686453213   -0.0002006543180236208   -2.9703859642720052e-05
-0.003377548734079627   -0.0014989335174866373   -4.227455073666052e-05
-0.0033869203338877645   -0.00019246277822245215   -2.9521113665689146e-05
-0.002597476982903057   -0.001490901333477951   -2.7582910108462803e-05
-0.003384725822660004   -0.0014918308210957391   -4.0487999417657553e-05
-0.0033869203338877645   -0.00019246277822245215   -2.9521113665689146e-05
-0.003377548734079627   -0.0014989335174866373   -4.227455073666052e-05
-0.002597476982903057   -0.001490901333477951   -2.7582910108462803e-05
-0.0033869203338877645   -0.00019246277822245215   -2.9521113665689146e-05
-0.0026094375453066107   -0.00019375664277830674   -1.4842944333549511e-05
-0.0026028431758493053   -0.0002014867285079922   -1.5685582604131696e-05
-0.002597476982903057   -0.001490901333477951   -2.7582910108462803e-05
-0.0033869203338877645   -0.00019246277822245215   -2.9521113665689146e-05
-0.0026028431758493053   -0.0002014867285079922   -1.5685582604131696e-05
-0.003377548734079627   -0.0014989335174866373   -4.227455073666052e-05
-0.002597476982903057   -0.001490901333477951   -2.7582910108462803e-05
-0.0026094375453066107   -0.00019375664277830674   -1.4842944333549511e-05
-0.003384725822660004   -0.0014918308210957391   -4.0487999417657553e-05
-0.002605177458623616   -0.0014825797694157363   -2.4069582711177917e-05
-0.0026094375453066107   -0.00019375664277830674   -1.4842944333549511e-05
-0.0033869203338877645   -0.00019246277822245215   -2.9521113665689146e-05
-0.003384725822660004   -0.0014918308210957391   -4.0487999417657553e-05
-0.0033926185372261746   -0.0001839238013534222   -2.9996326087509566e-05
-0.002605177458623616   -0.0014825797694157363   -2.4069582711177917e-05
-0.0033911561644492925   -0.0014839361843308062   -3.834767813457659e-05
-0.0033926185372261746   -0.0001839238013534222   -2.9996326087509566e-05
-0.003384725822660004   -0.0014918308210957391   -4.0487999417657553e-05
-0.002605177458623616   -0.0014825797694157363   -2.4069582711177917e-05
-0.0033926185372261746   -0.0001839238013534222   -2.9996326087509566e-05
-0.0026162935293077916   -0.00018462734867378007   -1.3952236533569323e-05
-0.0026094375453066107   -0.00019375664277830674   -1.4842944333549511e-05
-0.002605177458623616   -0.0014825797694157363   -2.4069582711177917e-05
-0.0033926185372261746   -0.0001839238013534222   -2.9996326087509566e-05
-0.0026094375453066107   -0.00019375664277830674   -1.4842944333549511e-05
-0.003384725822660004   -0.0014918308210957391   -4.0487999417657553e-05
-0.002605177458623616   -0.0014825797694157363   -2.4069582711177917e-05
-0.0026162935293077916   -0.00018462734867378007   -1.3952236533569323e-05
-0.0033911561644492925   -0.0014839361843308062   -3.834767813457659e-05
-0.00261218908160644   -0.001473617418896238   -2.0345178916536442e-05
-0.0026162935293077916   -0.00018462734867378007   -1.3952236533569323e-05
-0.0033926185372261746   -0.0001839238013534222   -2.9996326087509566e-05
-0.0033911561644492925   -0.0014839361843308062   -3.834767813457659e-05
-0.0033969963485465486   -0.0001743786418291316   -3.0417887520419228e-05
-0.00261218908160644   -0.001473617418896238   -2.0345178916536442e-05
-0.003396256778671137   -0.0014756173905827498   -3.618247472482856e-05
-0.0033969963485465486   -0.0001743786418291316   -3.0417887520419228e-05
-0.0033911561644492925   -0.0014839361843308062   -3.834767813457659e-05
-0.00261218908160644   -0.001473617418896238   -2.0345178916536442e-05
-0.0033969963485465486   -0.0001743786418291316   -3.0417887520419228e-05
-0.0026220491454020485   -0.00017420852740251757   -1.301383760157753e-05
-0.0026162935293077916   -0.00018462734867378007   -1.3952236533569323e-05
-0.00261218908160644   -0.001473617418896238   -2.0345178916536442e-05
-0.0033969963485465486   -0.0001743786418291316   -3.0417887520419228e-05
-0.0026162935293077916   -0.00018462734867378007   -1.3952236533569323e-05
-0.0033911561644492925   -0.0014839361843308062   -3.834767813457659e-05
              </DataArray>   
          </PointData>  
       </Piece>  
   </UnstructuredGrid> 
</VTKFile> 
